LAMMPS (29 Sep 2021 - Update 1)
# Test LAMMPS input file for single DeFDe

# Initialize simulation

clear

units real
atom_style full
boundary p p p
dielectric 1
special_bonds dreiding

bond_style harmonic
angle_style harmonic
dihedral_style harmonic
improper_style umbrella
pair_style hybrid/overlay hbond/dreiding/lj 4 9.0 11.0 90 lj/cut 8.50000

# Read data file
read_data frag5.dat
Reading data file ...
  triclinic box = (0.0000000 0.0000000 0.0000000) to (15.000000 15.000000 15.000000) with tilt (0.0000000 0.0000000 0.0000000)
  2 by 4 by 4 MPI processor grid
  reading atoms ...
  1512 atoms
  scanning bonds ...
  3 = max bonds/atom
  scanning angles ...
  3 = max angles/atom
  scanning dihedrals ...
  8 = max dihedrals/atom
  scanning impropers ...
  2 = max impropers/atom
  reading bonds ...
  1012 bonds
  reading angles ...
  518 angles
  reading dihedrals ...
  24 dihedrals
  reading impropers ...
  6 impropers
Finding 1-2 1-3 1-4 neighbors ...
  special bond factors lj:    0        0        1       
  special bond factors coul:  0        0        1       
     3 = max # of 1-2 neighbors
     4 = max # of 1-3 neighbors
     7 = max # of special neighbors
  special bonds CPU = 0.002 seconds
  read_data CPU = 0.017 seconds

# Dreiding potential information

bond_coeff 1 525 1.39
bond_coeff 2 350 1.02
bond_coeff 3 350 0.98

angle_coeff 1 50 120
angle_coeff 2 50 104.51

dihedral_coeff 1 3.125 -1 2

improper_coeff 1 40 0

pair_coeff 1 1 lj/cut 0.0951 3.8983
pair_coeff 1 2 lj/cut 0.0380199947396104 3.52917391183829
pair_coeff 1 3 lj/cut 0.00308382878902186 3.52806914614779
pair_coeff 1 4 lj/cut 0.0953995283007206 3.64309650983885
pair_coeff 2 2 lj/cut 0.0152 3.195
pair_coeff 2 3 lj/cut 0.0012328828005938 3.19399984345648
pair_coeff 2 4 lj/cut 0.0381397430510485 3.29813538230316
pair_coeff 3 3 lj/cut 1e-04 3.193
pair_coeff 3 4 lj/cut 0.0030935416596516 3.29710294046152
pair_coeff 4 4 lj/cut 0.0957 3.4046
pair_coeff 4 4 hbond/dreiding/lj 3 j 9.50 2.75 4 9.0 11.0 90

neighbor 2 bin
neigh_modify every 2 one 10000

# Gemoetric relaxation
fix 1 all box/relax iso 1.0 vmax 0.001
minimize 1.0e-4 1.0e-6 10000 10000
WARNING: Using 'neigh_modify every 1 delay 0 check yes' setting during minimization (../min.cpp:188)
Neighbor list info ...
  update every 1 steps, delay 0 steps, check yes
  max neighbors/atom: 10000, page size: 100000
  master list distance cutoff = 13
  ghost atom cutoff = 13
  binsize = 6.5, bins = 3 3 3
  3 neighbor lists, perpetual/occasional/extra = 3 0 0
  (1) pair hbond/dreiding/lj, perpetual, skip from (3)
      attributes: full, newton on
      pair build: skip
      stencil: none
      bin: none
  (2) pair lj/cut, perpetual, half/full from (3)
      attributes: half, newton on
      pair build: halffull/newton
      stencil: none
      bin: none
  (3) neighbor class addition, perpetual
      attributes: full, newton on
      pair build: full/bin
      stencil: full/bin/3d
      bin: standard
Per MPI rank memory allocation (min/avg/max) = 13.40 | 13.75 | 14.19 Mbytes
Step Temp E_pair E_mol TotEng Press Volume 
       0            0 3.3234919e+19    299.66033 3.3234919e+19 2.7008779e+21         3375 
    5440            0   -1006.2432    27.650966   -978.59222    109.60092    37986.909 
Loop time of 5.1616 on 32 procs for 5440 steps with 1512 atoms

100.0% CPU use with 32 MPI tasks x no OpenMP threads

Minimization stats:
  Stopping criterion = energy tolerance
  Energy initial, next-to-last, final = 
    3.32349189416571e+19  -978.009202331868  -978.087436610547
  Force two-norm initial, final = 7.5986948e+21 107.43665
  Force max component initial, final = 5.0436136e+21 80.539921
  Final line search alpha, max atom move = 1.6474139e-05 0.0013268259
  Iterations, force evaluations = 5440 5445

MPI task timing breakdown:
Section |  min time  |  avg time  |  max time  |%varavg| %total
---------------------------------------------------------------
Pair    | 1.5022     | 2.6129     | 4.4095     |  41.7 | 50.62
Bond    | 0.0076437  | 0.01147    | 0.017157   |   2.2 |  0.22
Neigh   | 0.097677   | 0.097924   | 0.098157   |   0.0 |  1.90
Comm    | 0.26706    | 2.0661     | 3.1751     |  46.9 | 40.03
Output  | 0          | 0          | 0          |   0.0 |  0.00
Modify  | 0          | 0          | 0          |   0.0 |  0.00
Other   |            | 0.3732     |            |       |  7.23

Nlocal:        47.2500 ave          69 max          33 min
Histogram: 5 4 2 5 5 4 4 1 1 1
Nghost:        1920.38 ave        1986 max        1847 min
Histogram: 2 3 4 7 0 1 1 6 3 5
Neighs:        4886.66 ave        8333 max        2799 min
Histogram: 4 4 4 9 1 3 4 2 0 1

Total # of neighbors = 156373
Ave neighs/atom = 103.42130
Ave special neighs/atom = 2.0238095
Neighbor list builds = 95
Dangerous builds = 0

# MD simulation
velocity all create 300.0 12345 rot yes dist gaussian
timestep 1.0
fix 2 all nvt temp 300.0 300.0 1

# Compute interaction energy
group WAT molecule <> 2 501
1500 atoms in group WAT
group MOL molecule 1
12 atoms in group MOL

compute w WAT group/group MOL pair yes
fix 3 all ave/time 10 5 100 c_w file outa

# Outputs
thermo 100 # Output thermodynamic data every nth step
#dump mf1 all xyz 10000 mol_*.xyz

# Run
run 1000000
Neighbor list info ...
  update every 2 steps, delay 10 steps, check yes
  max neighbors/atom: 10000, page size: 100000
  master list distance cutoff = 13
  ghost atom cutoff = 13
  binsize = 6.5, bins = 6 6 6
  4 neighbor lists, perpetual/occasional/extra = 3 1 0
  (1) pair hbond/dreiding/lj, perpetual, skip from (4)
      attributes: full, newton on
      pair build: skip
      stencil: none
      bin: none
  (2) pair lj/cut, perpetual, half/full from (4)
      attributes: half, newton on
      pair build: halffull/newton
      stencil: none
      bin: none
  (3) compute group/group, occasional, copy from (2)
      attributes: half, newton on
      pair build: copy
      stencil: none
      bin: none
  (4) neighbor class addition, perpetual
      attributes: full, newton on
      pair build: full/bin
      stencil: full/bin/3d
      bin: standard
Per MPI rank memory allocation (min/avg/max) = 12.24 | 12.33 | 12.66 Mbytes
Step Temp E_pair E_mol TotEng Press Volume 
    5440          300   -1006.2432    27.650966    372.60898    1735.5948    37986.909 
    5500    310.09355   -1003.6266    189.84802    582.88402    32.492957    37986.909 
    5600    297.21164   -1033.5888    199.32517    504.37884    -89.86747    37986.909 
    5700    300.06728   -1035.5135    190.89146    506.88216    785.60054    37986.909 
    5800    300.11493   -1045.8646    181.21372    487.06798    859.83486    37986.909 
    5900    293.48584    -1042.107    184.27444    464.02881    1137.5147    37986.909 
    6000    304.92668   -1092.4653    183.67414    464.59983    761.43685    37986.909 
    6100    295.77999    -1047.154    203.75704    488.79732    1124.0227    37986.909 
    6200    296.44532   -1046.1645    185.62225    474.64865    615.76927    37986.909 
    6300    315.12484   -1002.3752    203.09523    620.04355    1070.2266    37986.909 
    6400    289.90453   -991.68615    200.06516    514.11017    776.78961    37986.909 
    6500    293.98782   -1010.5173    194.54084    508.14583    400.43592    37986.909 
    6600    308.12391   -1010.8572    207.63971    584.57382    779.06348    37986.909 
    6700    300.24789   -997.91828     191.2382    545.63761   -8.2996697    37986.909 
    6800    292.88368    -1004.573    202.66534    517.24165    63.170272    37986.909 
    6900    300.27948   -1012.1009    211.66335    552.02239    247.30306    37986.909 
    7000    303.22197   -1024.0312    205.87824    547.55999    335.13782    37986.909 
    7100    309.11173   -1022.6091    206.95794    576.58933    391.31528    37986.909 
    7200    307.59937   -1070.5011    198.68996    513.61769    640.92665    37986.909 
    7300     285.9155   -1048.7655    219.38019    458.37927    422.13611    37986.909 
    7400    306.56651    -1025.528    215.45777    570.70659    19.173314    37986.909 
    7500    294.63694   -1005.6138    209.47058    530.90277    369.23983    37986.909 
    7600    301.68959    -977.8271    203.91567     584.8997    459.98102    37986.909 
    7700    297.50262   -1007.3489    225.57389    558.17801    575.62092    37986.909 
    7800    298.22332   -1006.1001    220.84683    557.94571    319.33682    37986.909 
    7900    296.53987   -1007.6933    221.56064    549.48416    12.381953    37986.909 
    8000    299.92122   -1057.1381    218.61658    512.32488    510.88444    37986.909 
    8100     303.4674   -1012.5892    233.48513    587.71427    624.17174    37986.909 
    8200    303.26343   -1050.6074    223.07945    538.37171    715.70268    37986.909 
    8300    298.19349   -1044.8551    219.29995    517.50952   -47.710964    37986.909 
    8400    298.41055   -1069.0798    216.83962    491.80213    311.27123    37986.909 
    8500    292.08822   -1085.2409    230.83858    461.16415    241.55286    37986.909 
    8600    295.43243   -1074.2416    227.58959     483.9768    625.15117    37986.909 
    8700    294.16489   -1060.2077    219.36993     484.0821    624.11712    37986.909 
    8800    303.56239   -1103.0889    242.62985    506.78722    83.857969    37986.909 
    8900     294.4073   -1063.7771    221.58092    483.81553    253.58725    37986.909 
    9000    288.83574   -1103.8957    235.30218    432.32382    33.123954    37986.909 
    9100     301.3794   -1090.4165    228.23791    495.23542    157.92052    37986.909 
    9200    304.64207   -1092.4928    225.28923    504.90551    52.224294    37986.909 
    9300    309.77721   -1099.0478    230.26748    526.45746    202.80197    37986.909 
    9400    298.73365   -1080.9848    242.86014    507.37287    103.97878    37986.909 
    9500    301.09039   -1117.3392    238.80457    477.57766   -164.85861    37986.909 
    9600    296.55265   -1088.1019    256.47133    504.04377    639.14715    37986.909 
    9700    299.20427   -1030.1664    238.89586    556.34667    302.68109    37986.909 
    9800    291.81315   -1072.0295     248.0492    490.34727    197.38539    37986.909 
    9900    288.56728   -1030.9253    253.59404    522.37695    672.97412    37986.909 
   10000    299.53789   -1042.5442     254.6903    561.26589     571.5566    37986.909 
   10100    296.18991   -1056.9879    234.11611    511.16878   -62.662608    37986.909 
   10200    306.69619   -1052.7808     256.1112    584.69129    528.94135    37986.909 
   10300    299.38067   -1086.1778    248.24699    510.48091    322.06912    37986.909 
   10400    298.54512   -1085.8015    227.83032    486.67723    995.87908    37986.909 
   10500    303.10262   -1103.4087    266.25124    528.01796    577.46227    37986.909 
   10600    302.89301   -1076.5827    232.11516    519.76379    691.64678    37986.909 
   10700    297.51468   -1090.8616    243.32025     492.4659    377.81102    37986.909 
   10800    300.71705   -1068.9739    261.85907    547.31595     384.7288    37986.909 
   10900    302.21583   -1078.3246     255.2919    538.14862     275.5267    37986.909 
   11000    287.50743   -1107.1601    256.19515    443.96968   -494.53424    37986.909 
   11100    298.13959   -1103.0893    244.99618    484.72883   -192.47959    37986.909 
   11200    295.76213   -1113.5886    261.14968    479.67483   -242.69681    37986.909 
   11300    294.96666    -1133.834    258.69556    453.39261   -474.07455    37986.909 
   11400    305.47404   -1128.5406    255.64067    502.95631   -267.46974    37986.909 
   11500    293.78555    -1131.197    246.26468    438.27894   -111.10424    37986.909 
   11600    301.21643   -1107.9465    254.53795    503.27145    11.467394    37986.909 
   11700     288.7758   -1118.9125    242.16454    423.89938   -118.01536    37986.909 
   11800    305.22236   -1093.7049     260.1518    541.16962    463.37187    37986.909 
   11900    289.44432   -1147.7562    248.86862    404.77081    23.548242    37986.909 
   12000    306.28055   -1190.5863    245.80925    434.71173   -185.06932    37986.909 
   12100    296.50205   -1131.2266     258.4542    462.67402    693.02167    37986.909 
   12200    299.10716   -1193.3436    247.15456     400.9908    214.74875    37986.909 
   12300    295.41393   -1113.3734    252.15223    469.32434    397.20457    37986.909 
   12400    297.57623   -1150.9994    248.10276    437.38786    478.95829    37986.909 
   12500    294.74296   -1114.0722    258.18789     471.6391     690.6002    37986.909 
   12600    296.06904   -1083.6309    261.47432    511.33958    461.24081    37986.909 
   12700     299.6439   -1084.6369    268.66687    533.62732    501.05684    37986.909 
   12800    305.38906   -1110.5544    254.73132    519.65049    662.31596    37986.909 
   12900    297.12196   -1143.2291    269.80923    464.81861    57.039145    37986.909 
   13000    290.55008   -1128.8922    258.96658    438.71316    210.83486    37986.909 
   13100    293.22969   -1112.6445    280.54134    488.60459     33.10761    37986.909 
   13200    298.72837   -1142.1576    275.59093    478.90705    405.40128    37986.909 
   13300    302.81951    -1169.712    260.01741    454.20576    529.14399    37986.909 
   13400    293.48999   -1162.6451     270.4861    429.72107    374.03249    37986.909 
   13500    297.45533      -1180.5    257.74997    416.98993    478.47245    37986.909 
   13600     296.8597   -1225.5314    269.35061    380.87652    673.02986    37986.909 
   13700    294.32392   -1215.4043    282.55073    392.78252    212.09171    37986.909 
   13800    310.80836   -1187.6831    265.32714    477.52612    368.79148    37986.909 
   13900    293.79671   -1162.6224     269.7622    430.40135    27.841333    37986.909 
   14000    291.13984   -1158.0656    264.49965    417.72902   -82.939455    37986.909 
   14100     294.1802   -1115.6183    274.54103    483.91158   -14.438236    37986.909 
   14200    290.85123   -1147.3258    283.37506    446.04442   -117.57102    37986.909 
   14300    308.44578   -1145.9627    278.18892    521.46719    674.19218    37986.909 
   14400    304.71046   -1164.3222    282.86832     490.9633    169.02904    37986.909 
   14500    293.09796   -1124.6327    273.30845     468.7901    53.586475    37986.909 
   14600      296.282   -1099.4953    292.47983    527.43982    7.9890472    37986.909 
   14700     303.9129    -1138.656    264.51138    494.68026      -165.92    37986.909 
   14800    310.89663   -1136.1001    275.15592    539.33549   -65.950172    37986.909 
   14900    312.64863   -1156.6293    299.02242    550.56384   -115.07985    37986.909 
   15000    308.01832   -1128.6501    281.03504    539.70067    175.61636    37986.909 
   15100    302.18418   -1146.0672    297.00577    511.97732   -81.950404    37986.909 
   15200    296.06002    -1153.267    282.59132    462.77983   -247.80512    37986.909 
   15300    309.61823   -1150.8682    289.64017    533.29375    421.38219    37986.909 
   15400    290.88818    -1173.665    286.59025    423.08677   -97.926387    37986.909 
   15500    309.07913   -1143.0138    286.09677    535.17666    370.69827    37986.909 
   15600    306.04977   -1165.4505    285.19677    498.19571     36.98062    37986.909 
   15700    309.18759   -1162.5416    281.62068    511.66124    180.65131    37986.909 
   15800    306.18119   -1146.2248    284.11972    516.93625     481.1648    37986.909 
   15900     301.5018   -1136.2561    292.53057    514.23978    490.90841    37986.909 
   16000    308.03583   -1154.8384    285.29258     517.8488    260.07539    37986.909 
   16100    292.92332   -1138.6133    283.87842    464.59291     366.8683    37986.909 
   16200    307.05492   -1161.2892    289.62026    511.30767    471.61497    37986.909 
   16300    288.02867   -1181.8692    288.98588    404.39898     217.4155    37986.909 
   16400    291.38918   -1151.7872    294.73927    455.37008    451.14538    37986.909 
   16500    304.83498   -1166.8193    285.48622    491.64493     313.4959    37986.909 
   16600     314.3818   -1142.7778    283.06521    556.26425    296.06546    37986.909 
   16700    295.82133   -1152.7281    280.68738    460.33974    138.75557    37986.909 
   16800    297.42938   -1151.7675    285.59779    473.45334    196.27033    37986.909 
   16900    298.18882   -1144.1073    296.42541    495.36171    94.654877    37986.909 
   17000     291.7283   -1137.2382    292.94969    469.65696   -142.88622    37986.909 
   17100    293.40655    -1196.876    307.10847    431.73675      287.133    37986.909 
   17200    300.61698   -1176.0012    281.31601    459.29487   -96.983249    37986.909 
   17300    300.55041   -1162.6479    322.59739    513.62978    323.03279    37986.909 
   17400    296.32388   -1173.8086     278.5037      439.339    346.10932    37986.909 
   17500    306.39114   -1189.8444    284.23058    474.37308    275.71807    37986.909 
   17600    309.76133   -1174.3639    326.97156    547.77394    549.95123    37986.909 
   17700    296.92601   -1138.4843    306.38146    505.25305    312.24512    37986.909 
   17800     301.9805   -1209.8329    288.96921    439.25767   -123.17014    37986.909 
   17900    304.75051   -1180.5441    290.21677    482.27022    391.80188    37986.909 
   18000     310.8127   -1216.2122    300.93811    484.62755    295.20973    37986.909 
   18100    308.84617   -1227.4049    300.44568    464.08519    400.34412    37986.909 
   18200    298.02115   -1176.1389    306.71265    472.86214    198.29783    37986.909 
   18300    287.85963   -1127.6783    300.85788    469.70054   -303.89528    37986.909 
   18400    304.63353   -1141.5144    311.62692    542.18317    22.959233    37986.909 
   18500    295.24219   -1234.5945     303.2376    398.41513   -438.24185    37986.909 
   18600    287.49642   -1167.3507    305.15211    432.68647   -311.69887    37986.909 
   18700    297.51186    -1141.567    314.02992    512.45748   -195.51649    37986.909 
   18800    292.89889   -1167.5649    313.59553    465.24835   -473.05099    37986.909 
   18900    297.36981    -1181.088    299.44631    457.71308    355.75978    37986.909 
   19000    297.78184    -1149.337    313.17353     505.0471    249.24875    37986.909 
   19100    296.26203   -1221.4102    310.02835    422.98355    559.36741    37986.909 
   19200    308.49434   -1203.6301    301.26745    487.09704    562.05518    37986.909 
   19300    308.00079   -1156.4556     319.2519    550.03307    822.87264    37986.909 
   19400    307.88662   -1177.5309    302.62742    511.81908    954.62852    37986.909 
   19500    302.25044   -1186.3574    292.81693    467.79675    809.88336    37986.909 
   19600    302.66562   -1175.9613    325.26095    512.50684    616.37746    37986.909 
   19700    293.74538   -1183.2691    309.03664    448.79793    652.45434    37986.909 
   19800    296.99695    -1146.599    322.20496    513.28139    530.88463    37986.909 
   19900    309.50817   -1162.1584    307.29282    539.16044    676.46192    37986.909 
   20000    314.42317   -1124.6403     304.9423    596.46517      192.971    37986.909 
   20100    308.63135   -1162.7888    305.27572    532.56378    323.65015    37986.909 
   20200    303.93127   -1200.9256    301.34142    469.32344    104.86861    37986.909 
   20300    298.34183   -1207.1288     314.0499    450.65386    397.50449    37986.909 
   20400    305.05694   -1176.2251     320.4584      518.211    542.90787    37986.909 
   20500     307.8182   -1188.2534    315.16111    513.32207     568.3233    37986.909 
   20600    299.06513   -1218.1972    300.46795     429.2613    11.931764    37986.909 
   20700    298.17061   -1180.9332    323.68167    485.71007     124.8975    37986.909 
   20800    291.68426   -1185.6223    309.30699    437.43176    466.61122    37986.909 
   20900    305.55775   -1177.7427     309.3087    507.79935    61.015712    37986.909 
   21000    305.51079   -1209.8631    312.02541    478.18413   -156.98832    37986.909 
   21100    309.43672   -1205.5833    299.26536    487.38634   -131.16506    37986.909 
   21200    316.03281   -1214.1064    330.95668    540.26326    144.35152    37986.909 
   21300    293.17389   -1156.4038     309.3577    473.41031    211.83285    37986.909 
   21400    295.51058   -1181.5777    320.30334    469.70652    52.912943    37986.909 
   21500    292.20681   -1180.0585    341.28233    477.32449    351.38807    37986.909 
   21600    292.42222   -1185.8866    311.46179    442.64603     276.0456    37986.909 
   21700    307.21331    -1185.152    329.70584    528.24381    640.39571    37986.909 
   21800    295.85502    -1121.817     323.2948    534.00994     599.1322    37986.909 
   21900    309.63021   -1191.3948    314.62757    517.80844    608.78594    37986.909 
   22000    308.39566   -1171.8798    329.52229    546.65775    478.08238    37986.909 
   22100     295.9919   -1147.3821    332.75996    518.52655    239.68458    37986.909 
   22200    290.25422   -1201.7199    328.37688    433.96316   -261.47174    37986.909 
   22300    291.01468   -1194.0907    337.75541    454.39593    -163.4572    37986.909 
   22400    294.72153   -1214.7352    339.36689     452.0586    91.839344    37986.909 
   22500    292.33151   -1187.5953    322.61154     451.6785    46.289313    37986.909 
   22600    305.42721     -1199.66    335.02348    511.00885     36.48257    37986.909 
   22700    290.76212   -1128.3159    348.76414      530.042    125.62264    37986.909 
   22800    302.76516    -1147.162    331.62861    548.12214   -138.14628    37986.909 
   22900     300.4259   -1183.0896    336.95783    506.98766    121.72673    37986.909 
   23000    304.12976   -1126.5093    336.74363    580.03601    568.87582    37986.909 
   23100    298.78098   -1149.7371    327.13758    523.11123    277.03519    37986.909 
   23200    304.39922   -1220.1662    333.05145     483.9006    70.949428    37986.909 
   23300    302.30865   -1219.3731     329.7723    471.99859    621.52132    37986.909 
   23400    297.59766    -1236.848    341.91557    445.44864    17.414202    37986.909 
   23500    302.77765   -1239.9699    333.41704    457.15887    524.61965    37986.909 
   23600    314.35619   -1181.6771    317.18377    551.36823    519.72658    37986.909 
   23700     294.0061   -1183.5573    348.05089     488.6982   -158.57702    37986.909 
   23800    311.84374   -1207.0756    319.03844     516.5083    40.207458    37986.909 
   23900    303.43047   -1209.6759    333.05168    490.02782    269.68101    37986.909 
   24000    297.03508    -1215.043    343.44359    466.24771    921.97111    37986.909 
   24100    304.29724   -1186.0887    313.15286    497.62015    622.27982    37986.909 
   24200    306.55295   -1197.7399    338.47459    521.45041    1109.6378    37986.909 
   24300    308.45904    -1187.289    313.14118    515.15292    1152.4803    37986.909 
   24400    296.18121   -1225.1636    335.57613    444.41391    505.96505    37986.909 
   24500    306.94685   -1199.9894     354.3644    536.86484    599.86921    37986.909 
   24600    308.12682   -1208.0117    330.09905    509.89182    495.19315    37986.909 
   24700    299.22166   -1189.7747    351.00655    508.92741     232.7039    37986.909 
   24800    302.14572    -1221.821    314.89847    453.94297     196.6338    37986.909 
   24900    296.73116   -1186.5648    351.42129    501.33478    450.66973    37986.909 
   25000    291.70584   -1281.9769    309.64471    341.51208    59.448013    37986.909 
   25100    298.40155   -1202.9455    317.54642    458.60272    364.57246    37986.909 
   25200    300.31585     -1250.78    338.34683    440.19065    103.95753    37986.909 
   25300    291.66094   -1254.6159    324.38086    383.40699    330.30749    37986.909 
   25400     303.6732   -1261.3057    335.50061    441.94016    260.22044    37986.909 
   25500    299.21327   -1225.9986     329.3022    450.96137    397.34263    37986.909 
   25600    300.61023   -1203.6035    328.27583    478.62195    506.78749    37986.909 
   25700    294.33448   -1216.3751    367.66829    476.97684   -69.923618    37986.909 
   25800    297.52658   -1235.7461    327.31198    431.62684    400.51512    37986.909 
   25900    301.78709   -1221.9267     331.8221    469.14566    -334.0232    37986.909 
   26000    298.40647   -1221.0685    343.89471     466.8501    296.62751    37986.909 
   26100    292.93061   -1264.7863    340.09286    394.66721   -45.415876    37986.909 
   26200     303.9446   -1205.8681    334.30709    497.40673    261.03307    37986.909 
   26300     302.9801   -1226.2721    330.81158    469.16311   -212.23775    37986.909 
   26400    300.32832   -1239.7165    349.81242    462.77589   -150.53851    37986.909 
   26500    308.84207   -1169.4575    340.06901    561.63741   -127.36625    37986.909 
   26600    292.22671   -1202.3766    358.13225    471.94589    309.02849    37986.909 
   26700    310.48417   -1203.5954    349.96312    544.78963    574.29984    37986.909 
   26800    294.12131   -1200.0585    341.20608    465.87112    509.09681    37986.909 
   26900    292.03333   -1188.8842    368.67285    495.10794   -244.11709    37986.909 
   27000    291.25762   -1228.0128    332.67209    416.48478    279.30391    37986.909 
   27100    291.36696   -1200.6042    350.57335    462.28707    47.753035    37986.909 
   27200    300.24715   -1230.8278    333.39453    454.88104    220.20692    37986.909 
   27300    302.79115   -1210.3715    345.60715    499.00825    597.28598    37986.909 
   27400    296.99133   -1197.8586    352.16195     491.9535    237.74893    37986.909 
   27500    302.41065   -1189.8485    351.39909    523.60932    149.79831    37986.909 
   27600    301.02966   -1203.6699     336.8803    489.04922   -73.957603    37986.909 
   27700     301.8574   -1217.8461    346.73513    488.45599    240.63612    37986.909 
   27800    301.18832   -1255.5211    381.45803    482.49036    150.18664    37986.909 
   27900     305.9079    -1235.643    350.27911    492.44649    145.65288    37986.909 
   28000    298.29759   -1211.7861    349.28303    481.03052    266.34769    37986.909 
   28100    292.55809   -1223.2383    344.00514    438.44967    227.63163    37986.909 
   28200    306.39579   -1173.8825    339.03571    545.16104    717.94594    37986.909 
   28300    298.69362   -1186.0161    333.48459    492.78576    33.341037    37986.909 
   28400    304.43418   -1206.2424    350.45319    515.38358     324.7165    37986.909 
   28500    297.60767   -1222.2454    359.16087    477.34159    814.39537    37986.909 
   28600    301.22504   -1227.3557    361.68149    491.04456    817.33468    37986.909 
   28700    302.21908    -1224.418    352.46361    489.24158    593.39781    37986.909 
   28800    295.41881   -1219.3123    361.16495    472.42013     409.8509    37986.909 
   28900    311.87043   -1190.6136    365.65983    579.71185    321.83438    37986.909 
   29000    308.10588   -1228.4867    347.91824     507.1416    410.77903    37986.909 
   29100    284.95528   -1235.9584    364.06545    411.54681     174.2996    37986.909 
   29200    296.63367   -1173.0317    352.74494    515.75246    365.32232    37986.909 
   29300    298.44885   -1235.8091    352.37252    460.77819    263.74184    37986.909 
   29400    296.14331    -1243.472    349.76104    440.11972   -2.3323528    37986.909 
   29500    301.56488   -1199.7229    352.47197    510.99848    202.68995    37986.909 
   29600    307.70645   -1214.7999    365.03898    536.15018   -148.08209    37986.909 
   29700    298.05983   -1189.8136    366.47067     519.1198   -69.407852    37986.909 
   29800    301.95608   -1185.2758    369.62251    544.35808   -189.05954    37986.909 
   29900    294.92906   -1222.6781    347.90885     453.5924   -242.51103    37986.909 
   30000    301.19583   -1203.4549    367.41737    520.54966    443.29854    37986.909 
   30100    307.64277   -1207.8667    353.04347    530.80105    96.650518    37986.909 
   30200    298.10753   -1224.3109    362.19424    480.56082    391.97822    37986.909 
   30300    303.22359   -1208.8887    370.03162    526.86321    12.796827    37986.909 
   30400    305.70267   -1184.3761    374.34603    566.85598     467.0536    37986.909 
   30500    304.45077   -1197.5327    367.76184    541.47657    340.94365    37986.909 
   30600    314.66547   -1234.4322     368.7992    551.62154    -405.8566    37986.909 
   30700    303.80239   -1236.7775    346.91735    478.46706    333.91885    37986.909 
   30800    305.82011   -1231.9322    349.83288    495.31569   -265.49818    37986.909 
   30900    292.58216   -1223.8099    348.79061     442.7719    327.98526    37986.909 
   31000    293.46445   -1267.5605    357.24773    411.45231    135.69997    37986.909 
   31100    307.34017   -1256.2323    387.72385    515.75295    237.22811    37986.909 
   31200    311.38381   -1257.1214    363.89244    509.24498    607.34282    37986.909 
   31300    297.00232   -1241.8608    350.66114    446.49995   -11.297311    37986.909 
   31400     292.0856   -1256.9574    348.07904     406.6764    71.055507    37986.909 
   31500    301.90772   -1266.2709    367.06814    460.59087    493.89983    37986.909 
   31600    312.33942   -1262.9315    360.06204    503.90852     534.8673    37986.909 
   31700    310.14184    -1224.192    342.15253    514.84064    416.79236    37986.909 
   31800    295.32549   -1190.0055    368.62994    508.77165   -44.058115    37986.909 
   31900    294.17267   -1203.0913    388.01587    509.87941    -69.23131    37986.909 
   32000    294.82507   -1212.9475    389.32063    504.26646    288.18454    37986.909 
   32100     321.0143   -1195.4065    360.64151    611.08468    436.28712    37986.909 
   32200    301.70469   -1197.4702     360.8229    522.23184    31.609816    37986.909 
   32300    288.48268   -1188.7041    378.88967    489.51276   -55.683891    37986.909 
   32400    299.40177   -1167.7852    361.07459    541.79619    103.39998    37986.909 
   32500    303.27803   -1229.8431    378.60054    514.72293   -354.25458    37986.909 
   32600    303.58662   -1176.3971    372.41509    563.37329    517.91308    37986.909 
   32700    304.62281    -1198.075    374.72256    548.66994    44.354519    37986.909 
   32800     310.1078   -1206.2831    363.53726    553.98096   -197.51662    37986.909 
   32900    301.51082   -1157.9061    361.01449    561.11436    386.89467    37986.909 
   33000    307.54405   -1233.9964    372.99075      524.174    208.78551    37986.909 
   33100    304.15145   -1236.8239    355.86447    488.93987    309.09555    37986.909 
   33200    297.75089   -1244.2696    353.91173    450.71339    822.14701    37986.909 
   33300    300.53648   -1227.0567    381.88527    508.44609    328.28574    37986.909 
   33400    291.20062    -1207.634     361.9228    465.85753    72.117936    37986.909 
   33500    305.06323   -1243.3401    374.72197    505.38789   -43.522269    37986.909 
   33600    305.21976   -1266.7431    355.04748    463.01541   -261.25037    37986.909 
   33700    300.17146   -1257.1968    363.40723    458.18394    82.582691    37986.909 
   33800    298.00292   -1217.5546    370.58168    495.23341   -566.11981    37986.909 
   33900    296.84199   -1230.0874    370.62547     477.5156   -238.32566    37986.909 
   34000    302.00038   -1234.9102    381.92828    507.22904   -87.866699    37986.909 
   34100    302.55437   -1257.8494    361.32909    466.18577   -236.86502    37986.909 
   34200    308.11537   -1211.6375    393.86659    569.98198    96.401183    37986.909 
   34300    311.56951   -1196.8235    376.44217    582.92901    162.81971    37986.909 
   34400    297.31242    -1235.055    368.95286    472.99417    483.24902    37986.909 
   34500    296.52005   -1245.3161    392.31774    482.52915    396.37095    37986.909 
   34600    291.36649   -1256.5092    341.30741    397.11407    599.24504    37986.909 
   34700    301.20133   -1259.6617    381.99552    478.94583    627.58762    37986.909 
   34800     298.5859   -1213.8756    363.02963     493.9861     315.2412    37986.909 
   34900    295.07491   -1254.4549    361.54677    436.11049    921.16393    37986.909 
   35000    303.85103   -1228.9366    364.70236    504.31201    538.90105    37986.909 
   35100    297.35409   -1254.8815    378.43503    462.83754    735.73997    37986.909 
   35200    306.42841   -1238.5644     361.7366    503.32693    380.98621    37986.909 
   35300    316.95138   -1273.3276    343.94919    498.17185    412.38473    37986.909 
   35400    302.40435    -1248.799    367.29086    480.52225     439.0099    37986.909 
   35500    300.70582   -1213.6447    381.81156    522.54705    24.406541    37986.909 
   35600      299.083   -1240.6148    371.54523    478.00149   -109.21607    37986.909 
   35700    294.34608   -1243.6781    388.72891    470.78668    -738.5209    37986.909 
   35800    297.82281   -1181.8459    378.68079    538.22999   -356.82671    37986.909 
   35900    299.99635    -1216.315     388.7257    523.59542    226.83672    37986.909 
   36000    311.59671   -1250.1185    386.63008    539.94441    533.31453    37986.909 
   36100    304.94461   -1208.0591      383.866    549.27865    1186.1153    37986.909 
   36200    299.88612   -1244.4667    400.79838    507.01994     458.7343    37986.909 
   36300    298.16476   -1237.3107    350.45637      456.081    543.61194    37986.909 
   36400    300.02555   -1226.5638    365.46299    490.21542   -449.30272    37986.909 
   36500    290.71035   -1220.1071    401.09256    490.34599   -484.42945    37986.909 
   36600    312.83914   -1214.7742    362.04567    556.30018    383.74545    37986.909 
   36700    306.19253   -1230.4033    371.12127    519.81038    254.29668    37986.909 
   36800    294.65391   -1229.5036    374.60004     472.2188    270.58418    37986.909 
   36900    298.29099   -1194.0451    384.04096    533.49966    610.25761    37986.909 
   37000    293.88546    -1226.636    390.09786    487.12311   -167.56702    37986.909 
   37100    297.59214   -1235.2763    369.57913    474.65902    62.281515    37986.909 
   37200    308.06225   -1194.1819    408.97753     602.3092   -56.839478    37986.909 
   37300    298.16747    -1188.331    369.14023     523.7567    174.08079    37986.909 
   37400    294.43387   -1219.3012    354.62768    461.45779   -338.56629    37986.909 
   37500    303.83577   -1265.0464    359.64548    463.07659   -381.50689    37986.909 
   37600    300.40133   -1241.0341    371.00248    482.97714   -58.639442    37986.909 
   37700    292.14766   -1236.3977    384.72538    464.16185   -442.22797    37986.909 
   37800    298.31318   -1212.9313    372.01482    502.68723   -165.81611    37986.909 
   37900    307.45273   -1237.6557     364.5461    511.65873   -588.41724    37986.909 
   38000    293.63453   -1229.7996    389.32157    482.05307   -182.39811    37986.909 
   38100    294.93724   -1225.4139    369.97339    472.95796   -154.12122    37986.909 
   38200    301.26649   -1208.3559    399.78849    548.33807   -492.53266    37986.909 
   38300    300.12089   -1195.5312     374.9407    531.15523    -603.0557    37986.909 
   38400    303.30528   -1226.5985    381.08456    520.57421   -881.66817    37986.909 
   38500    303.43952    -1214.497    368.35731    520.55312   -597.44519    37986.909 
   38600    304.10259   -1268.8409    361.80443    462.64282     3.899066    37986.909 
   38700    316.57155   -1242.0495    385.34691    569.13698   -164.24476    37986.909 
   38800    296.73406   -1237.0958    378.66043    478.05601   -157.43753    37986.909 
   38900    298.46251   -1241.4581    388.23196    491.05016    -593.7979    37986.909 
   39000    299.96221   -1228.7566    391.26479    513.53914   -1062.2843    37986.909 
   39100     289.8553   -1238.4531    364.04658    431.10293   -587.47191    37986.909 
   39200    305.92637   -1251.8996     399.5513    525.54527   -857.17372    37986.909 
   39300    303.90855   -1259.2173    372.20428    481.79234    7.7592179    37986.909 
   39400      306.762   -1268.5857    396.74746    509.81897   -499.21636    37986.909 
   39500    305.28666   -1266.4279    361.63032    470.21473   -91.548589    37986.909 
   39600    300.50951   -1315.2461     352.9697    391.21965    124.61104    37986.909 
   39700    311.38925   -1239.5413    380.92251    543.87959    725.91577    37986.909 
   39800    298.91233   -1235.6109    378.43679     489.1282    390.66175    37986.909 
   39900    300.53834   -1282.0026    370.58538    442.20872   -18.464441    37986.909 
   40000    296.93446   -1278.8637     366.7297    425.25997    692.07974    37986.909 
   40100    295.19231   -1265.6175    369.75694    433.68678    648.32247    37986.909 
   40200    296.56381   -1282.2548    371.38349    424.85324    366.14985    37986.909 
   40300    296.50553   -1290.3172    359.88129    405.02615    592.49859    37986.909 
   40400    292.57509   -1291.2213    386.05957    412.59759    32.840346    37986.909 
   40500    302.40108   -1271.1303     381.7155    472.60085    251.86354    37986.909 
   40600    303.92092   -1241.0475    383.79082    511.60431     82.80447    37986.909 
   40700    299.52294   -1229.9103    374.50177    493.64393   -196.36544    37986.909 
   40800     294.1114    -1289.184    388.53778    424.03275    16.616515    37986.909 
   40900    303.01244   -1287.7246    379.12883    456.17344    34.479661    37986.909 
   41000    307.55208   -1269.3817    380.06618    495.90029    372.93606    37986.909 
   41100    297.80952   -1272.9334    376.21042    444.61231    325.86204    37986.909 
   41200    294.84596   -1283.6868    356.36025    400.66087     99.26279    37986.909 
   41300    300.13594   -1279.9333    365.62631    437.50652    120.16049    37986.909 
   41400    284.97924   -1257.3622     389.4562    415.64169   -160.69653    37986.909 
   41500    308.08258   -1276.3319    363.51146    474.78477   -164.81895    37986.909 
   41600    299.68066   -1276.7473    377.92537    450.94097   -378.17573    37986.909 
   41700    298.30792    -1236.823    378.28134    485.03841    312.54051    37986.909 
   41800    305.22154   -1229.1568    379.00434    524.56662     377.9664    37986.909 
   41900    312.22744    -1268.852    412.63974    550.06139     456.6574    37986.909 
   42000    304.41083   -1237.6068    379.62117    513.08199     557.8727    37986.909 
   42100    302.86127   -1239.8759    406.40321    530.61571    604.86258    37986.909 
   42200    307.61976   -1262.4902    383.23831    506.26872   -157.24285    37986.909 
   42300    293.25155   -1270.4977    369.69822     420.0067    5.8819254    37986.909 
   42400    300.47996   -1304.1652    378.72085    427.91855   -472.53128    37986.909 
   42500    295.70594   -1276.1029    401.76001    457.51782   -245.24585    37986.909 
   42600    300.11895   -1272.9099    402.38238    481.20945   -354.37389    37986.909 
   42700    305.17197    -1253.249    372.72804    493.97486    27.426218    37986.909 
   42800    299.22377    -1262.901    392.62055    477.42457   0.26514923    37986.909 
   42900    290.51986   -1239.4806    397.58087    466.60283   -321.45357    37986.909 
   43000    295.15614    -1248.979    386.09096    466.49637    -473.3363    37986.909 
   43100    302.65098   -1267.4099    384.95058     480.6819   -223.65171    37986.909 
   43200    293.15027   -1245.1294     401.1188    476.33935   -129.64192    37986.909 
   43300    301.70121   -1245.1817    389.48115    503.16289    -1070.294    37986.909 
   43400    301.29805   -1210.7806    409.67137     555.9384   -235.18889    37986.909 
   43500    308.72362   -1256.8396    396.66211    530.31496   -138.46952    37986.909 
   43600    293.80932   -1269.9987    394.24914     447.5688   -370.94329    37986.909 
   43700    296.28616   -1199.0404    389.18555     524.6192   -53.135415    37986.909 
   43800    306.26013   -1179.9946    381.35199    580.75422   -242.53396    37986.909 
   43900    301.45452     -1225.61    386.04433     518.1867   -521.67226    37986.909 
   44000    290.71556   -1232.7119    393.14048    469.81265    37.090555    37986.909 
   44100    289.33619   -1245.3955    394.36633    452.14215    88.479647    37986.909 
   44200    297.51939   -1266.3451     385.9826    459.66599    428.13837    37986.909 
   44300      292.824      -1248.3    409.91949    480.49998    391.31042    37986.909 
   44400    296.19048   -1245.5149     392.0868    480.61497    213.64267    37986.909 
   44500    309.98965   -1255.6774     390.7744    531.29161    808.69758    37986.909 
   44600    313.63513   -1255.1818    392.07627    549.50838     619.2011    37986.909 
   44700    301.44978   -1240.4914    418.23954    535.47915     333.4179    37986.909 
   44800    301.91094   -1279.8968    400.83812    480.74943    725.25691    37986.909 
   44900    306.11362   -1289.2658    408.87694    498.34808    844.95993    37986.909 
   45000    296.14167   -1289.7467    396.93277    441.00931    764.97599    37986.909 
   45100    303.00391   -1294.3886    416.85699    487.19917    773.45599    37986.909 
   45200    307.41239   -1255.4593      404.548    533.67533    364.68052    37986.909 
   45300     302.6042   -1218.5472     402.3905    546.77382     205.9901    37986.909 
   45400    301.22169   -1269.0351    409.52398    497.19255    25.643229    37986.909 
   45500    303.79016    -1257.218    392.73037    503.78453   -5.7611341    37986.909 
   45600    310.71542    -1280.436    394.40002    513.42746   -101.39176    37986.909 
   45700    301.65009   -1274.9024    395.97553     479.7063   -148.80784    37986.909 
   45800    306.27704   -1330.1281    375.35485     424.6997   -198.36978    37986.909 
   45900    297.86833   -1306.3955    393.24657    428.45122    96.653707    37986.909 
   46000    297.98899    -1308.506    383.51376    417.15138    -49.41216    37986.909 
   46100    295.58762   -1310.2394    390.34863    411.43709    271.69712    37986.909 
   46200    299.83046   -1284.0288    398.56778    464.97653   -60.473817    37986.909 
   46300    293.81831   -1323.6871    385.92044    385.59219   -387.60461    37986.909 
   46400    305.34905   -1289.9333    408.73378    494.09378    212.91315    37986.909 
   46500    298.73693   -1309.9493    421.27064    456.83364     128.2802    37986.909 
   46600    296.13536   -1272.4974    400.73887    462.03629    75.489111    37986.909 
   46700    288.09255   -1279.4796    396.79564    414.88607   -268.90842    37986.909 
   46800    305.55573   -1276.8905    405.15932    504.49302    366.78446    37986.909 
   46900    300.42915   -1286.5861    404.22935    470.77735    116.19008    37986.909 
   47000    293.55511   -1275.4928    390.91144    437.59205    47.138855    37986.909 
   47100    294.49565   -1263.6176    401.43983    464.23184    243.97889    37986.909 
   47200    296.28842   -1316.6852    410.03782    427.83683    166.39683    37986.909 
   47300    296.09319   -1319.2878    378.14738    392.46446    590.03161    37986.909 
   47400    299.85101   -1279.2228    393.97202    465.27935    49.127732    37986.909 
   47500       298.31   -1207.0682    416.70497    553.22619    255.23102    37986.909 
   47600     287.1536   -1265.8716    361.84349     389.3128    349.43709    37986.909 
   47700    287.77534   -1297.9965    408.89778    407.04255   -182.23832    37986.909 
   47800    310.92081   -1300.2451    405.01746    505.16091    493.69791    37986.909 
   47900    300.36281   -1308.0557    424.79557    469.57511    119.93353    37986.909 
   48000    314.37351   -1287.5418    398.77304    527.17081    729.69499    37986.909 
   48100    305.63786   -1315.2078    411.35891    472.74524    311.06714    37986.909 
   48200    304.16357   -1264.4661    424.45996    529.94776    302.45767    37986.909 
   48300    306.67626   -1300.3094    418.31878     499.2805    398.05298    37986.909 
   48400    302.66661   -1294.7584     425.1937    493.64693    18.158538    37986.909 
   48500    299.08046   -1343.2024    411.43308    415.29027    112.26506    37986.909 
   48600     301.4733   -1267.6683    420.24075    510.40932   -111.83492    37986.909 
   48700    306.95266   -1285.0683    394.82234    492.27009    156.16859    37986.909 
   48800    290.16701   -1280.8557    398.87441    424.93205    542.20594    37986.909 
   48900    301.79335   -1350.2246    424.07945    433.13329     493.8906    37986.909 
   49000     294.8078   -1323.1165    400.93298      405.632    236.29036    37986.909 
   49100    299.78359   -1356.3827    416.12936     409.9731   -79.077659    37986.909 
   49200    303.46089   -1343.1795    406.22383    429.83336   -16.648561    37986.909 
   49300    305.14292   -1340.1618    406.76994    440.97304     323.1081    37986.909 
   49400    306.31246   -1354.8081    431.58828    456.41269    42.205769    37986.909 
   49500    297.92421    -1348.978    403.98559    396.85938   -55.452679    37986.909 
   49600    314.66787   -1321.2195    427.30173    523.34756   -566.29083    37986.909 
   49700    291.77633   -1349.8873    398.39908    362.67356    -477.9882    37986.909 
   49800    300.76654   -1370.2893    404.38465    388.74911    -304.5616    37986.909 
   49900     303.0472   -1324.2272    394.61405    435.31261   -29.670573    37986.909 
   50000    305.25513   -1346.3628    399.67345    428.18099    -193.6045    37986.909 
   50100    292.57225   -1345.5694    395.82175    367.99894    -729.3997    37986.909 
   50200    295.92837   -1328.8995    415.39235    419.35542    128.36442    37986.909 
   50300    296.53033   -1408.5243    402.70638    329.75583    361.41557    37986.909 
   50400    305.18765   -1389.0951    377.48756    362.95884    654.87873    37986.909 
   50500    303.09898   -1383.0282    377.52688     359.6577    406.70588    37986.909 
   50600    290.87151   -1381.7285    412.88151    341.23943    418.41069    37986.909 
   50700     306.0968   -1350.8459    381.25075    409.06606    484.89481    37986.909 
   50800    288.49737    -1370.557    412.36553    341.20185   -352.84629    37986.909 
   50900    305.40174   -1364.3183     400.5488    411.76119    182.14011    37986.909 
   51000    306.80201   -1330.8325    431.46208    482.46705    153.29363    37986.909 
   51100    300.72114   -1331.5894    393.45093    416.31076   -333.62987    37986.909 
   51200    306.16059   -1306.0774    397.72237    470.59349    261.99679    37986.909 
   51300    301.44385   -1347.6765    427.06675    437.09457    311.26475    37986.909 
   51400    307.74861   -1339.8456    420.37211    466.62753    438.08752    37986.909 
   51500     306.0713   -1322.1998    398.64473    454.99131   -187.85582    37986.909 
   51600    302.80965   -1303.3431     412.8035    473.31629   -558.57732    37986.909 
   51700    304.43825   -1320.2228    385.22944    436.19769    159.43841    37986.909 
   51800     298.3852   -1319.4637    397.70116    422.16557    -630.2602    37986.909 
   51900     307.4872   -1307.2484    408.67219    486.34735   -354.58556    37986.909 
   52000    294.22848   -1332.0308     415.7746    408.95001   -226.78581    37986.909 
   52100    298.42929     -1368.33    403.54904    379.34572    256.48299    37986.909 
   52200    302.29511    -1372.237    408.67256    397.97393    732.79737    37986.909 
   52300    298.09054   -1403.5347    406.86301    345.92928    65.934994    37986.909 
   52400    298.39962   -1329.0701    404.05022    418.97317   -19.071507    37986.909 
   52500    297.75626   -1342.4197     394.3758    393.05145    530.33455    37986.909 
   52600    292.73434   -1370.4323    412.55953    360.60385   -26.510543    37986.909 
   52700    303.43829   -1291.7808    417.81866    492.72517    238.93997    37986.909 
   52800    290.66225   -1309.8249    425.68999    425.00899   -55.505392    37986.909 
   52900    309.22301   -1298.2458    422.49124    516.98706    372.66375    37986.909 
   53000      304.797   -1341.9982    411.33179    442.14047    70.952119    37986.909 
   53100    295.37551    -1334.206    404.19089    400.35734   -50.976668    37986.909 
   53200    296.94219   -1333.8885     414.9191    418.45945    39.241003    37986.909 
   53300    293.96535   -1333.5334    420.31597     410.8037   -231.83659    37986.909 
   53400    293.25624   -1358.8889    412.10151    374.03986   -383.92565    37986.909 
   53500     304.2453   -1358.4723    430.99362    442.84339   -758.87049    37986.909 
   53600    296.44247   -1298.4149    420.41526    457.17842   -564.23178    37986.909 
   53700    312.74092   -1316.7752    401.52967    493.34083   -530.83468    37986.909 
   53800    292.43193    -1338.632    410.34372    388.82628   -536.28559    37986.909 
   53900    292.37796   -1379.7577    409.59551    346.70933    26.868397    37986.909 
   54000    295.63234   -1365.8718    403.52964    369.18711    257.05564    37986.909 
   54100     300.0118   -1319.6623    412.60232    444.19435    586.52502    37986.909 
   54200    306.45975   -1300.9752    435.23047    514.55121    260.81931    37986.909 
   54300    304.47736   -1331.7707    401.43447    441.03104    288.28227    37986.909 
   54400    289.96571   -1304.4048    411.43112    413.03305    167.86752    37986.909 
   54500    296.55108   -1273.1991    421.36579    483.83396   -320.20604    37986.909 
   54600    293.03657   -1297.0252    395.56769    418.38039    47.707368    37986.909 
   54700    296.92876   -1310.3933    411.26408     438.2391   -826.27943    37986.909 
   54800    298.32281   -1307.0222    405.62932    442.25428    6.2114605    37986.909 
   54900    300.12459   -1335.2476    409.32422    425.83899   -43.519227    37986.909 
   55000    295.01502   -1288.0327     416.9014     457.6175    -214.0798    37986.909 
   55100    298.65726   -1302.6227    407.71558    450.24637     188.5363    37986.909 
   55200     288.2651    -1311.368     409.3674    396.34652   -93.423122    37986.909 
   55300    302.57781   -1317.3633    418.31058    463.75895     296.5698    37986.909 
   55400    301.21909   -1346.3472    409.95158    420.29634   -396.22507    37986.909 
   55500    305.88386   -1375.0693    411.59235    414.22518   -356.25349    37986.909 
   55600    298.77404   -1349.7218    406.25802    402.21571   -38.408962    37986.909 
   55700    306.79583   -1332.3616    394.83751    444.28556   -405.26023    37986.909 
   55800    295.40568   -1309.6205    410.96411    431.85201   -45.632332    37986.909 
   55900    300.15811   -1365.0035    400.78422    387.69408   -44.814383    37986.909 
   56000    288.46938   -1351.5663    394.95064    342.65162   -567.83267    37986.909 
   56100     297.9809   -1314.7601    393.14144    420.48851    235.89099    37986.909 
   56200    304.21468   -1341.2406    409.66745    438.61092   -58.801462    37986.909 
   56300    306.11298   -1351.2666    385.92482    413.39232    149.11893    37986.909 
   56400    302.99946   -1331.3949      407.907    441.22291    211.02679    37986.909 
   56500    306.58209   -1309.3851    406.41682    477.87872    280.08339    37986.909 
   56600    289.92969   -1273.2363    411.60082    444.20905    311.68069    37986.909 
   56700    296.93912   -1297.8025    405.33826    444.95077   -358.12511    37986.909 
   56800    304.81669   -1291.9117    412.13862    493.12254    424.10964    37986.909 
   56900    301.89543   -1323.9926    415.16678    450.91237   -1.9466377    37986.909 
   57000    306.95803   -1314.3408     430.3828    498.58224    95.568185    37986.909 
   57100    301.75218   -1276.0672    406.34768    489.37344    479.58654    37986.909 
   57200    303.98803   -1328.0855    420.91402    461.99181    28.156763    37986.909 
   57300    296.52121   -1321.8257    417.09833    430.80534    813.61263    37986.909 
   57400    317.76836   -1271.5944    428.24311    587.87872    699.82708    37986.909 
   57500    294.19581   -1272.3941    428.16083    480.82588    194.46567    37986.909 
   57600    309.62005   -1263.6087    424.13179    555.05306    448.79212    37986.909 
   57700    294.14157    -1272.928    438.31094    490.19775    158.50926    37986.909 
   57800    303.32705   -1277.9288    433.43839    521.69589    202.13532    37986.909 
   57900    299.64082   -1321.6908    432.02091    459.91357    232.91664    37986.909 
   58000     299.3845   -1331.0465    418.03938    435.42188    498.32938    37986.909 
   58100    304.05243   -1304.6353    435.35812    500.17616    663.49244    37986.909 
   58200    290.70127    -1333.825    436.33505    411.82973    635.04833    37986.909 
   58300    295.58985   -1316.2651    428.59246    443.66527    752.72687    37986.909 
   58400    298.41001   -1315.2036     431.5266    460.36289    228.38342    37986.909 
   58500    302.24598   -1350.7286    409.61042     420.1989    691.34046    37986.909 
   58600      300.835   -1320.5533    435.07977    469.48849    636.34928    37986.909 
   58700    306.66908    -1370.279    433.66147    444.62119    502.25384    37986.909 
   58800    300.20004   -1319.7634    454.11101     486.4498    811.56191    37986.909 
   58900    292.50665   -1348.3599    431.86969    400.96086    394.59328    37986.909 
   59000    306.10643   -1303.6453    418.67254    493.73176   -165.37165    37986.909 
   59100    294.75993   -1353.3911    434.77758    408.98641   -332.67774    37986.909 
   59200    289.48057   -1305.0297    431.37671    430.16867   -536.03625    37986.909 
   59300     287.0072    -1354.456    432.35767    370.58318    121.02713    37986.909 
   59400    311.46647   -1379.8791     431.6749    454.64207   -202.92554    37986.909 
   59500    308.46079   -1357.7656     415.6047    447.14768    126.71251    37986.909 
   59600    307.96931   -1341.4138    416.32658    462.00782   -75.402083    37986.909 
   59700    316.89763   -1370.0827    429.85025    487.07576   -500.83738    37986.909 
   59800    303.53299   -1342.7279    436.50765    460.89353    926.58066    37986.909 
   59900    305.75322   -1358.4339    428.36484    447.04459    68.306708    37986.909 
   60000     307.1388   -1349.4947    442.52283    476.38253    493.20586    37986.909 
   60100    297.08374   -1361.7462    428.97984        405.3      364.765    37986.909 
   60200    297.78797   -1329.8495    420.13777    431.52644    106.05489    37986.909 
   60300     293.2484   -1325.4545    454.30625     449.6437    436.88244    37986.909 
   60400    304.99723   -1339.4295    452.21054    486.48981    -224.3969    37986.909 
   60500    290.61687   -1332.8242    438.69589    414.81128   -446.22744    37986.909 
   60600    305.95526   -1344.9224    442.69851    475.79977   -598.41124    37986.909 
   60700    303.90158   -1382.0265    448.60452    435.35194   -383.09583    37986.909 
   60800    295.68257   -1338.2884    439.05856     432.5256    3.4003509    37986.909 
   60900    302.60384    -1357.824    442.82048    447.92535   -478.64552    37986.909 
   61000    298.55256   -1329.9883    441.19554    455.88921   -180.08538    37986.909 
   61100    303.90963   -1363.6657    431.56083     436.7053    301.76974    37986.909 
   61200    310.32559   -1372.1623    433.79365    459.33909   -266.09982    37986.909 
   61300    300.44028   -1337.8457    411.57234    426.91089   -124.28056    37986.909 
   61400    298.66725   -1307.8056    427.22452    464.61746   -186.33674    37986.909 
   61500    307.26075   -1302.2829     436.7686    518.38936    486.88224    37986.909 
   61600    305.51305   -1355.1736    441.56277    462.42118   -446.87527    37986.909 
   61700    302.78784   -1346.5233    455.74515    472.97942    -386.3641    37986.909 
   61800    303.71857   -1322.6147    399.57953    444.91447   -34.920786    37986.909 
   61900    310.80483   -1324.6012    449.13161    524.39661   -6.3482006    37986.909 
   62000    290.47551   -1294.9834    430.66645    443.98589    548.20469    37986.909 
   62100    295.52565   -1339.5567    440.81926     432.3113   -458.44482    37986.909 
   62200    306.62874   -1291.8322     476.3195    565.54434    272.13584    37986.909 
   62300      305.845    -1336.045    431.49524    472.97735   -641.45536    37986.909 
   62400    295.74335   -1322.6734    435.80165     445.1575   -570.16821    37986.909 
   62500    299.62121   -1297.2416    406.91461    459.16817   -211.73618    37986.909 
   62600    302.14233   -1350.1263    423.90598    434.62999   -378.46363    37986.909 
   62700    293.92885   -1367.9844    441.77731     397.6496    16.150579    37986.909 
   62800    313.18311   -1298.2272    435.08496    547.43577    627.56966    37986.909 
   62900    295.10257   -1290.6482    427.37923    465.87422    33.019021    37986.909 
   63000    298.99209   -1320.5809     416.9154    442.99604    20.677113    37986.909 
   63100    296.71359   -1311.2611    405.44487    430.58296   -803.17251    37986.909 
   63200      294.553   -1316.9556    424.06785    433.78011   -444.59458    37986.909 
   63300    305.48375   -1324.4658    420.21742    471.65165   -394.59366    37986.909 
   63400    308.50834   -1378.1598    435.19366    446.55662   -827.35605    37986.909 
   63500    294.28598   -1326.3839    432.00402    431.08537   -397.74196    37986.909 
   63600    304.08686   -1322.4285    448.36322    495.54313   -106.55896    37986.909 
   63700    293.43583   -1305.8314    417.40558    433.21039    308.75412    37986.909 
   63800    300.50682   -1333.1514     438.9283    459.26079    483.62139    37986.909 
   63900     289.0175   -1357.3349    442.50986    386.91093   -132.94915    37986.909 
   64000    293.12196   -1335.3289    444.45995    429.35353    588.68111    37986.909 
   64100    290.79968   -1347.0661    478.83109    441.52787    348.82411    37986.909 
   64200    298.70222   -1382.3327    418.73773    381.76104   -90.584955    37986.909 
   64300    302.12317   -1362.8631    415.33286    413.23365    577.60532    37986.909 
   64400     302.6516    -1344.747    424.33333    442.73033    326.23763    37986.909 
   64500    295.33213   -1326.1271    440.36749    444.41752    797.56774    37986.909 
   64600      299.657   -1363.2689     426.3974    412.78479    467.33356    37986.909 
   64700    291.32703   -1304.4635    445.10067    452.77526    666.84777    37986.909 
   64800    309.18005   -1343.3863    447.98561    497.14746    488.61145    37986.909 
   64900    304.57492   -1347.4614    448.98693    473.33215    300.16503    37986.909 
   65000    304.95949   -1376.5557    404.28352    401.26653     617.8411    37986.909 
   65100    293.85042   -1365.8319    428.29664    385.96827    377.35035    37986.909 
   65200    300.78925    -1349.564    424.85536     430.0474     479.8411    37986.909 
   65300    295.45337   -1331.8137    438.24239    437.15179    453.63696    37986.909 
   65400    294.22092   -1334.6487     427.8056    418.32908   -28.403293    37986.909 
   65500    293.55172   -1308.0991    442.73785    456.79686   -230.06111    37986.909 
   65600    296.34668   -1369.8783    434.10056     398.9689   -280.58141    37986.909 
   65700    305.91894   -1328.7958    435.58079    484.64512    130.93498    37986.909 
   65800    301.20605   -1332.9222    449.43325    473.14427    30.882366    37986.909 
   65900     306.0757   -1318.9625    451.14993    510.75366    29.529908    37986.909 
   66000    308.15199   -1333.2241    422.10202    476.79572  -0.75931863    37986.909 
   66100     296.3983   -1368.4467    428.11055    394.64296   -418.02076    37986.909 
   66200    291.83276   -1361.1168    447.58188    400.88103    201.06508    37986.909 
   66300    308.60478   -1384.5425    435.43657    440.85125   -70.736317    37986.909 
   66400    299.34542   -1354.6905    427.59891    421.16133   -455.05423    37986.909 
   66500    301.77414   -1356.0033    421.49879    424.68743    83.381903    37986.909 
   66600    312.66511   -1378.3972    426.78208    456.62978   -409.74227    37986.909 
   66700    298.20547   -1413.4553    443.43284    373.09611   -399.91484    37986.909 
   66800    292.16229   -1386.5427    436.91353    366.27096    43.067901    37986.909 
   66900    289.33854   -1390.9616    461.95504    374.17536   -522.66809    37986.909 
   67000    309.19654   -1372.2547    437.91506    458.28282    80.388358    37986.909 
   67100    306.79998   -1375.8363    423.17656    429.16862   -54.907389    37986.909 
   67200    295.75174   -1352.4926    424.96933    404.54378    643.05016    37986.909 
   67300    296.29184    -1388.744    414.20025    359.95585    196.87317    37986.909 
   67400    314.50661   -1373.2958     435.5286    478.77183    113.94272    37986.909 
   67500     302.9658   -1346.1927    414.38983    432.75636     559.7088    37986.909 
   67600    312.88002   -1409.0956     438.6287    438.74592    242.85289    37986.909 
   67700    298.63849   -1365.5262    447.33481    426.87752     175.5094    37986.909 
   67800    293.41588   -1384.8529    439.37832    376.07173   -185.97528    37986.909 
   67900    304.66986   -1341.2447    436.59856    467.58814   -470.55825    37986.909 
   68000    297.50137    -1343.635    411.10383    407.41625   -318.85446    37986.909 
   68100    300.72628   -1350.3624    439.17612    443.28603   -982.20373    37986.909 
   68200    295.30197   -1396.5399    427.44914    360.95046    268.40555    37986.909 
   68300    296.41128   -1337.8928    429.77378    426.91851    238.22378    37986.909 
   68400    305.64163   -1363.5418    446.55346    459.62282    46.066074    37986.909 
   68500    291.16217   -1340.1892    432.92767    404.13406   -103.31335    37986.909 
   68600    307.95043   -1354.4563     432.4733    465.02694    110.02368    37986.909 
   68700    298.17255   -1336.5894    425.81783    432.19884    648.08284    37986.909 
   68800     297.4567   -1313.6463    446.97208    473.07195    480.91996    37986.909 
   68900    310.35692   -1365.3775    450.60319    483.07448    774.10485    37986.909 
   69000     304.8405   -1287.5397    451.60041    537.06355    686.57415    37986.909 
   69100    298.98324   -1296.7886    452.84839    502.68152    257.31742    37986.909 
   69200    304.23756   -1294.2774     424.9805     500.9903    238.56164    37986.909 
   69300    295.55461   -1335.1633    429.08049    425.09634   -583.91959    37986.909 
   69400    296.92069   -1326.1841     447.5856    458.73342   -33.376787    37986.909 
   69500     292.6935   -1317.4077    424.66112    425.54609   0.66176786    37986.909 
   69600    296.90462    -1366.762    418.66371    389.16127   -573.13311    37986.909 
   69700    307.05425   -1347.7012      422.467    457.73939   -160.20457    37986.909 
   69800     302.6282   -1336.2352    425.06694    451.87035   -161.50694    37986.909 
   69900    294.90887   -1299.4979    450.17504    478.94782   -314.51651    37986.909 
   70000    295.71308   -1323.7908    433.02303    441.12512   -57.358811    37986.909 
   70100    303.70728   -1355.5786    431.00949     443.3297    32.504042    37986.909 
   70200     301.3577    -1332.203    426.58915    451.70247    335.59034    37986.909 
   70300      302.055   -1289.8131    416.72676     487.3706    911.22379    37986.909 
   70400    298.03888   -1360.7929    444.64071    426.21617    174.37495    37986.909 
   70500    305.85649   -1354.7536    419.33161    442.15687    944.02546    37986.909 
   70600    298.44805   -1347.8221    406.37747    402.76659    199.34558    37986.909 
   70700    306.27667   -1381.3269      446.293     444.4374    191.81164    37986.909 
   70800    313.55561   -1370.4989    420.92884    462.68565    506.36988    37986.909 
   70900    289.55495   -1332.0274    438.05182    410.18109   -81.526068    37986.909 
   71000    311.38621   -1339.1055    414.99847     478.3777   -247.61112    37986.909 
   71100    299.85317   -1371.6684    433.54948    412.42092   -513.85572    37986.909 
   71200    302.99519   -1336.2551    425.95168    454.38817    41.791868    37986.909 
   71300    291.33376   -1376.4103    429.34394    365.10208   -249.60723    37986.909 
   71400    300.46783   -1372.6144    423.83691    404.53085    109.57591    37986.909 
   71500    312.65286   -1393.5891    430.89803    445.49865   -5.9650035    37986.909 
   71600    307.77426    -1379.262     453.2623    460.21675   -326.48261    37986.909 
   71700    294.04557   -1353.2937    422.90764    393.99638    93.039662    37986.909 
   71800    296.93914   -1342.9612    411.18901    405.64289    79.591592    37986.909 
   71900    304.24095   -1391.9492    448.39521    426.74842    456.45502    37986.909 
   72000    299.85436   -1309.3026     455.9876    497.23022    629.80344    37986.909 
   72100    302.03344   -1381.3044    421.55431     400.6097    225.35467    37986.909 
   72200    294.03921   -1319.7492    422.04483    426.64938     148.5809    37986.909 
   72300    307.59372   -1332.4431    427.28066    480.24092    57.474124    37986.909 
   72400    303.33355   -1358.0448    436.82273    444.99339   -120.11526    37986.909 
   72500    293.79333   -1342.2384    411.20749    392.21544   -221.08488    37986.909 
   72600    305.14037   -1368.1972    441.26769    447.42395    118.27505    37986.909 
   72700    297.67666   -1307.5181    420.30918    453.52795    162.83562    37986.909 
   72800    305.19928   -1362.8381    443.21062    454.99128   -125.21084    37986.909 
   72900    293.57092   -1419.4223    429.04113    331.86342   -332.11114    37986.909 
   73000    294.10152    -1395.516    424.61416    353.73262    77.994873    37986.909 
   73100      298.735   -1370.2155    454.73357    430.02173    125.74432    37986.909 
   73200    300.30327   -1344.5764    425.49603    433.48675    110.52176    37986.909 
   73300    305.90162   -1363.2761    430.57996    445.08597   -399.84483    37986.909 
   73400    291.57577   -1396.2672     438.7094    355.70065   -728.42609    37986.909 
   73500     305.1616    -1372.251    398.56524    400.76332    268.05608    37986.909 
   73600    288.30139    -1358.613    449.44374    389.34135   -52.275135    37986.909 
   73700    302.66926   -1346.2351     461.9669    478.95539    10.378404    37986.909 
   73800    296.31288   -1401.1466    413.79279     347.2406    231.60565    37986.909 
   73900    303.08248   -1402.4005    409.99147     372.6757   -265.03664    37986.909 
   74000    294.21428   -1350.7579    415.49381    389.87819   -162.32189    37986.909 
   74100    312.37727   -1387.6936    428.50347    447.75829    317.11773    37986.909 
   74200    296.88619   -1364.9503    419.00639    391.23272     375.7044    37986.909 
   74300    310.18457   -1417.8143     413.1554     392.4136   -171.89665    37986.909 
   74400    288.40738   -1366.0978    454.34964    387.23982    369.29066    37986.909 
   74500    302.24391   -1286.2829    454.56022    529.58509    1193.4315    37986.909 
   74600    307.57559   -1337.6358    445.65243    493.33831    824.88888    37986.909 
   74700    295.26442    -1328.386    425.02636    426.51252     1297.481    37986.909 
   74800    295.94031   -1355.7927    427.08541     404.2091    926.67448    37986.909 
   74900    295.07351   -1394.4732    433.05557    367.59459    706.34178    37986.909 
   75000    315.25522   -1342.9666    425.57293    502.51704    631.73234    37986.909 
   75100    300.51968   -1329.5572    458.33768     482.3223    106.30993    37986.909 
   75200    289.53386   -1347.5404    431.25522    387.77649    83.863794    37986.909 
   75300    309.00255   -1324.7529    427.07974    494.07553    72.905625    37986.909 
   75400    291.29364   -1325.2474    444.42371    431.16403   -466.63834    37986.909 
   75500    285.49284    -1273.519     435.8536    448.19545   -70.114333    37986.909 
   75600    302.78544   -1366.4915    432.28268      429.538    2.1082279    37986.909 
   75700    289.81952   -1333.3024    420.75574    392.80161   -239.41951    37986.909 
   75800    302.47547   -1368.6819    451.38345    445.05223    -313.6201    37986.909 
   75900     293.1556   -1339.1063    447.33012    428.59782   -342.97277    37986.909 
   76000    310.94855   -1376.8507    424.14296    447.80579   -106.85639    37986.909 
   76100    294.60066   -1368.0684    426.60908    385.42325    506.37038    37986.909 
   76200     295.6314   -1376.4489    420.25368    375.32984    907.50054    37986.909 
   76300     301.6667   -1388.2665    435.00693    405.44844    891.38685    37986.909 
   76400    302.24241   -1373.9855    444.60597    431.92148     435.5243    37986.909 
   76500    300.66579    -1345.353    424.35049    433.19735    766.80901    37986.909 
   76600    298.72106   -1339.8373     430.2686    435.87215    396.69895    37986.909 
   76700    297.46486   -1334.6934    457.16522    462.25471   -30.668506    37986.909 
   76800    296.17118   -1325.0207    434.58813    443.52355   -382.01011    37986.909 
   76900    292.12084    -1382.195    425.98101    359.49939   -595.78094    37986.909 
   77000    309.28807   -1342.4425    434.69824    485.29038     85.69475    37986.909 
   77100    305.68745   -1379.6422    432.46777    429.64305   -596.62383    37986.909 
   77200    297.07963   -1376.2393    443.89517    405.70368    331.32892    37986.909 
   77300    295.50639   -1397.8616    433.88992    366.99034    133.50473    37986.909 
   77400    312.45743   -1393.9728      433.964    447.30064    185.43195    37986.909 
   77500    305.82937   -1387.6255     416.3153    406.14645    525.53876    37986.909 
   77600    299.39917   -1426.2492    413.46679    335.71258    183.14986    37986.909 
   77700     294.9121   -1394.4868    373.14097    306.93939    292.69054    37986.909 
   77800    303.69499   -1382.6799    420.56779    405.73131   -72.566022    37986.909 
   77900    304.23677   -1375.5668     440.3406    435.05748    201.96862    37986.909 
   78000    306.42117   -1356.2189    417.80503    441.70825    867.26086    37986.909 
   78100     308.1934   -1346.6156    427.73174    469.22042   -35.156755    37986.909 
   78200    297.12813   -1310.7306    394.46615    422.00185     195.0292    37986.909 
   78300    294.35862   -1379.5451    438.68946    384.93677    188.13517    37986.909 
   78400    300.72378   -1344.3947    452.42209    462.48855   -19.809352    37986.909 
   78500    301.12891    -1339.543    425.64041    442.38325    481.28078    37986.909 
   78600    291.61654   -1378.9065    427.95314    362.48865   -387.99026    37986.909 
   78700    297.82618   -1339.3496    435.85822    437.91887    157.56174    37986.909 
   78800     300.8551   -1397.1003    450.89423    408.84648     54.21614    37986.909 
   78900    305.21279   -1374.3047    426.42952    426.80442    280.77785    37986.909 
   79000    295.46274   -1355.9552    429.24852    404.05871    -151.8297    37986.909 
   79100    293.75967   -1338.8437    464.04386    448.29483   -133.29039    37986.909 
   79200    301.06488   -1352.1157    398.64952    402.53124    41.363256    37986.909 
   79300    305.77936   -1378.6156    411.44193    410.05777   -461.87762    37986.909 
   79400    294.91297   -1374.7579    433.15859    386.68988     39.87923    37986.909 
   79500    289.49797   -1374.0291    427.50432    357.37527    518.87427    37986.909 
   79600    294.41639   -1374.0399     447.4629    399.47557   -80.769629    37986.909 
   79700    305.66442   -1363.3487    411.05048     424.4155    29.197165    37986.909 
   79800    307.82233   -1337.8391    423.88993    472.48387   -461.01075    37986.909 
   79900    305.73365   -1339.0663    408.88326    446.84248   -499.52932    37986.909 
   80000    299.76196   -1350.5066    431.21761    430.84012    337.50648    37986.909 
   80100    312.17392   -1340.8183    430.03862    495.25293    255.79734    37986.909 
   80200    302.07875   -1369.3473    435.76567    426.98227    293.58061    37986.909 
   80300    308.48369   -1364.6939    428.26654    452.98435    126.48615    37986.909 
   80400    293.90718   -1357.8889    421.89504    387.76518   -210.56803    37986.909 
   80500    303.04928   -1325.3923    446.33092    485.87378   -486.20536    37986.909 
   80600    296.90361   -1296.4772    434.99631    475.77418   -619.68224    37986.909 
   80700     300.1837   -1301.0253    418.27917    469.28249    449.36774    37986.909 
   80800    300.12889    -1311.989     422.3172    462.10996   -179.87169    37986.909 
   80900    309.75608   -1307.4097    425.58405    513.31694    907.62859    37986.909 
   81000    303.00479   -1340.2999    438.09388    462.52883    61.911337    37986.909 
   81100    308.54813   -1352.6075    451.35764    488.45219    540.68005    37986.909 
   81200    294.70337   -1347.2592    430.78718    410.87316     755.9364    37986.909 
   81300    300.30629   -1337.5595    449.23691    464.25816   -67.212903    37986.909 
   81400    300.53276   -1366.6177     440.4197    427.40278    34.984282    37986.909 
   81500    308.31217   -1379.1635    436.23642    445.71215   -78.059227    37986.909 
   81600     294.4423   -1348.8655    435.77867    413.08242     388.9512    37986.909 
   81700    297.99391   -1343.9885    440.56817    438.74546    284.91422    37986.909 
   81800    295.92984   -1351.8157    478.22943     459.2829   -180.13486    37986.909 
   81900    300.71851   -1355.1021    436.43457    435.76987    566.86361    37986.909 
   82000    316.52561   -1358.8898    450.75346    517.49631    364.67414    37986.909 
   82100     295.9035   -1354.6352    440.77222    418.88758    205.93413    37986.909 
   82200    294.92157    -1374.488    417.70297    371.54285   -375.59442    37986.909 
   82300    307.52405    -1380.861    426.58123    430.80977   -562.85861    37986.909 
   82400    303.95927   -1358.8757    429.56166    439.71969    87.408186    37986.909 
   82500    292.40936   -1398.3365    450.34273    369.01916   -382.81764    37986.909 
   82600     290.1149   -1374.5392     431.3845    363.52397    -54.95439    37986.909 
   82700     297.3003   -1356.9657    436.19685    418.27289    226.24896    37986.909 
   82800    300.49614   -1381.3741    452.06125    424.12297     607.4165    37986.909 
   82900     299.8362   -1353.0331    411.41483    408.84515    833.23932    37986.909 
   83000    290.08192   -1407.5361    440.77476    339.76878   -191.70818    37986.909 
   83100    294.28677   -1383.4472    429.65138    371.67295    147.41214    37986.909 
   83200    301.52063   -1370.5683    415.94551    403.42729      862.014    37986.909 
   83300     309.8091   -1383.7723    443.34838    454.95753    352.41454    37986.909 
   83400    294.77677   -1394.1615    454.48831    388.00256    988.68095    37986.909 
   83500    292.17819   -1433.1053     461.0532    343.91961    382.63915    37986.909 
   83600    296.45684   -1367.5131     435.2523    402.98201    728.53799    37986.909 
   83700    302.25571   -1412.9294    421.26242    369.69396    112.52049    37986.909 
   83800    298.59109   -1383.1684    442.74981    404.43688    371.35625    37986.909 
   83900    308.26201   -1391.3027    398.92752    396.03815    516.86036    37986.909 
   84000     299.6981   -1393.3645    436.74325    393.22021   -495.05196    37986.909 
   84100    302.33198   -1393.2123    416.41977    384.91188    231.76128    37986.909 
   84200    300.75666   -1391.5845    422.00215    385.02685    267.26345    37986.909 
   84300    295.67206   -1352.1268    445.56849    425.14982      323.804    37986.909 
   84400    293.60366    -1415.539    426.23213    333.08517    496.06909    37986.909 
   84500    297.49433   -1411.8856    434.97061     363.0007   -106.26311    37986.909 
   84600    307.22202   -1385.9319    445.54736    443.34465    259.51507    37986.909 
   84700    296.38775   -1434.6708     427.9729    328.23364    92.232086    37986.909 
   84800    296.52599   -1437.1105    414.92816     313.3719     289.8397    37986.909 
   84900    300.12489   -1396.2446    426.51087    382.02995    182.94768    37986.909 
   85000    295.16497   -1409.6799    433.80622    353.55051    105.42068    37986.909 
   85100    305.12351   -1402.2149    421.91532    393.97791    47.015812    37986.909 
   85200    286.26847   -1414.8602    450.13669    324.63081   -196.34681    37986.909 
   85300    291.59368   -1384.4921     436.1029    364.94992    259.78736    37986.909 
   85400    297.89151    -1417.814    433.89338    357.78394   -13.338265    37986.909 
   85500    286.68958   -1415.6143    459.31755    334.95424   -318.21745    37986.909 
   85600    301.32808   -1378.5594    418.56126    397.18477    6.3565315    37986.909 
   85700    294.09518   -1367.7779    445.05054    401.87847   -247.91198    37986.909 
   85800    313.99772   -1367.8833    442.79632    489.15997    350.35226    37986.909 
   85900    294.56633   -1358.3544    433.72796    402.10148     -253.708    37986.909 
   86000    308.61095   -1351.4563    425.96756    464.49617    -264.5823    37986.909 
   86100    310.79099   -1320.7846    430.00485    509.02407    238.04234    37986.909 
   86200    299.08347   -1375.7473    444.02388    415.34974   -532.37214    37986.909 
   86300    304.94878   -1329.9595    457.39944    500.93046    63.306888    37986.909 
   86400    293.51759   -1343.3261    490.00266    468.68099   -425.71244    37986.909 
   86500    299.11803   -1352.8963    462.23828    456.57078   -200.87596    37986.909 
   86600    289.55579    -1384.401    442.25124    362.01066   -85.014804    37986.909 
   86700    294.38501   -1380.8715    456.68087    401.72062    -479.1763    37986.909 
   86800    302.85263   -1367.8584    424.77651    420.96756    193.44305    37986.909 
   86900    299.36555   -1409.0849     444.5044    383.76312   -200.13049    37986.909 
   87000    290.94883   -1426.5701    421.83214    305.69675   -53.923954    37986.909 
   87100    301.12184   -1419.0915    410.46636    347.62881   -338.39972    37986.909 
   87200     285.0627   -1383.9055    437.26778    337.28584   -1116.2303    37986.909 
   87300    283.64546   -1401.4193    434.32976    310.45073   -216.00554    37986.909 
   87400    296.62926   -1402.2515    452.41232    386.18018   -56.175978    37986.909 
   87500    299.92145   -1386.6675    436.54184    400.72179    700.71598    37986.909 
   87600    304.35497   -1409.4814    435.95812     397.2927   -68.617049    37986.909 
   87700    307.02255   -1398.5544    463.90827    448.18467    585.06049    37986.909 
   87800     307.6805   -1410.2239    437.04519    412.61548     1153.738    37986.909 
   87900    306.54481   -1423.0278    474.25698    431.90816    233.89319    37986.909 
   88000    297.54784   -1353.0169    419.35982    406.49953    520.21173    37986.909 
   88100    307.09664   -1363.4544    425.44962    445.15977   -5.7638918    37986.909 
   88200     311.7525   -1405.2658     420.7359    419.60457    250.47261    37986.909 
   88300    290.72509    -1372.194    413.97827    351.21129    -50.78186    37986.909 
   88400    309.95751   -1356.7165    441.73383     481.0672    195.44684    37986.909 
   88500    292.41897   -1364.9795    449.34336    401.42005    309.44254    37986.909 
   88600    298.92591   -1398.4318    448.99484    396.92654   -0.3683546    37986.909 
   88700    312.43994   -1370.9749    428.50079    464.75658    -385.1787    37986.909 
   88800    306.69665   -1350.6151    425.89112    456.63892   -178.32994    37986.909 
   88900    297.91684    -1403.911    447.89732    385.80495   -1.3541579    37986.909 
   89000    290.63906   -1369.0351    437.44765    377.45202   -64.566943    37986.909 
   89100    301.77041   -1361.1941    460.41449    458.39552   -185.53571    37986.909 
   89200    306.71715   -1314.1598    438.15953    505.45498    20.131647    37986.909 
   89300    290.84815   -1368.6361     438.0876    379.43273    -183.4164    37986.909 
   89400    307.91616   -1392.2717     449.9268    444.51075   -631.14954    37986.909 
   89500    307.31703   -1409.2557    421.69627    396.59764   -126.23182    37986.909 
   89600    301.06882   -1359.4248    471.74001    468.33038    -50.74882    37986.909 
   89700    290.86344   -1360.1819     456.6626    406.53084   -387.30625    37986.909 
   89800    308.95443   -1410.5636    424.05314    405.02155     157.1397    37986.909 
   89900     302.3999    -1390.048     459.5056     431.4679   -618.55331    37986.909 
   90000    299.64373   -1359.8544     430.5131    420.25527   -156.86698    37986.909 
   90100    302.89962   -1338.4108    447.09311    472.94339   -617.41434    37986.909 
   90200    311.44304   -1354.1723    436.62539    485.19377   -130.88075    37986.909 
   90300    294.46546   -1358.9159    424.27264    391.63029   -1109.2715    37986.909 
   90400    314.91806   -1340.9371    431.33687      508.792   -691.41541    37986.909 
   90500    300.57295   -1350.0301    435.87741    439.62904    155.62395    37986.909 
   90600     300.7282   -1360.2603    472.62846    466.84916    36.135706    37986.909 
   90700    302.22157   -1364.3631    449.93192    446.77599    469.84493    37986.909 
   90800    302.38672   -1354.1497    446.01838     453.8197    187.63056    37986.909 
   90900    292.04632   -1382.0315    447.58158    380.92784    336.22804    37986.909 
   91000    307.70696   -1343.0392    441.35974    484.23389    142.61689    37986.909 
   91100    298.65949   -1374.4007    453.39397    424.15675   -188.26192    37986.909 
   91200    305.88079   -1350.7997    448.80977    475.69834    445.76427    37986.909 
   91300    294.00741   -1411.9815    453.65587    365.88492    391.82387    37986.909 
   91400    302.93342   -1377.0582    446.23437    433.58953    459.86169    37986.909 
   91500    304.75418   -1366.6933    441.66743     447.5882    823.64009    37986.909 
   91600     299.5595   -1380.4933    476.17398    444.89784    322.84398    37986.909 
   91700    300.92331   -1433.5383    421.18767    343.00913    372.58965    37986.909 
   91800    301.31175   -1449.8536    439.51709    346.77281   -201.80614    37986.909 
   91900     293.3993   -1414.0078      438.108     345.5718    164.67554    37986.909 
   92000    290.34449   -1409.7001    453.07559    351.08819     193.7579    37986.909 
   92100    298.78112   -1467.0436    465.67002    344.33774   -20.761256    37986.909 
   92200    295.29766   -1412.9607    463.51503    380.57614   -80.587314    37986.909 
   92300    305.53998    -1396.503    457.75402    437.40433    -31.83015    37986.909 
   92400    302.85398   -1387.0916    456.78776    433.75167   -217.53133    37986.909 
   92500    307.97087   -1377.5017    470.09417    479.69447      125.296    37986.909 
   92600    285.71371   -1385.7267    447.80956     348.9386   -612.18123    37986.909 
   92700    299.58028   -1388.6296    424.51344    385.19462   -323.40934    37986.909 
   92800    304.79833   -1389.1066    456.90143    440.60769   -512.31922    37986.909 
   92900    297.59731   -1386.9041    448.54625    402.02163    455.83523    37986.909 
   93000    299.70064   -1420.2844    443.31068    372.87915    709.96457    37986.909 
   93100    296.68391   -1430.9503    443.43964    348.75488    70.080871    37986.909 
   93200    301.95191   -1413.6637      444.581    390.90994    161.36067    37986.909 
   93300    304.94367   -1436.1766    482.00856    419.29948   -211.51973    37986.909 
   93400    303.18067    -1383.827    431.94978    413.64975    116.66327    37986.909 
   93500    294.78371   -1390.1499    445.90176    383.45891    109.16368    37986.909 
   93600    306.93379   -1440.6533      451.954    393.73169    -524.8674    37986.909 
   93700     293.1307   -1445.9925    423.79123    298.06061    264.11948    37986.909 
   93800    301.45441   -1433.7949     432.3809    356.33791    178.73504    37986.909 
   93900    298.06789   -1436.4523    429.73602    335.78266    405.86851    37986.909 
   94000    303.39288    -1409.522    456.29082    413.25154   -59.511124    37986.909 
   94100    298.27673   -1405.7018     441.6184    379.35617   -285.80118    37986.909 
   94200    295.23777   -1397.3079    442.44937     374.8936    193.84331    37986.909 
   94300    297.03456   -1413.9458     450.3896    374.28865    173.95491    37986.909 
   94400    303.47806   -1385.1023    442.96537    424.72943     369.6907    37986.909 
   94500    296.36096   -1427.8009    463.53873    370.54883   -432.14073    37986.909 
   94600    293.74861   -1437.3489    438.44937    324.14535    124.20344    37986.909 
   94700    298.31381    -1461.389    415.86869    298.08626    385.38717    37986.909 
   94800     301.4692    -1440.869    451.75156      368.701   -225.76696    37986.909 
   94900    304.20486    -1421.144    443.08413    392.08006   -434.06794    37986.909 
   95000    291.53967   -1449.3944    447.44179    311.14325   -232.39327    37986.909 
   95100    303.32884   -1434.9941    439.88852    371.08869   -353.01163    37986.909 
   95200    296.63151   -1434.7026    452.49723    353.82416    -45.11406    37986.909 
   95300     308.3551   -1446.0183      460.089    402.90328   -432.79877    37986.909 
   95400    293.78851   -1372.6646    456.04436    406.60433   -251.10306    37986.909 
   95500    296.89666   -1451.7897    459.39667    344.83068   -311.10636    37986.909 
   95600    303.04754   -1394.0268    448.31844    419.21897     535.6086    37986.909 
   95700    309.77874   -1421.8493    448.63784    422.03323    375.82813    37986.909 
   95800    297.84941   -1406.1099    472.73366    408.13874   -504.31177    37986.909 
   95900    292.21651   -1353.7306    458.06728    420.48097   -247.78635    37986.909 
   96000    297.12402   -1437.6363    419.27772    319.88915   -383.86893    37986.909 
   96100    297.47826   -1453.8536     445.1685    331.15814     117.0083    37986.909 
   96200    286.72913    -1453.825    468.67429    306.27842   -308.60276    37986.909 
   96300     295.2114    -1456.231    467.94289    341.34521   -98.281449    37986.909 
   96400     308.2376   -1467.3253    437.83816    358.81625    194.81062    37986.909 
   96500    290.30815   -1416.0752    464.55139    356.02529   -580.22513    37986.909 
   96600    293.65948   -1416.8908    441.13457    346.88722   -522.53416    37986.909 
   96700    298.61254   -1417.9849    451.07697    378.04414   -175.62908    37986.909 
   96800    292.92008   -1416.9949    441.78742    344.10571    -397.5287    37986.909 
   96900    300.03061   -1399.9591    466.16097    417.54091   -404.28433    37986.909 
   97000    298.74707   -1416.5587    468.96365    397.96292   -30.712517    37986.909 
   97100    298.86803   -1419.1707     446.5373    373.46936   -579.43594    37986.909 
   97200    294.83027    -1409.369    445.39265     363.9404   -235.14072    37986.909 
   97300    303.40162   -1391.3411    448.86563    424.04662   -550.40135    37986.909 
   97400    305.75369   -1388.0651    466.56309    455.61385    8.9500343    37986.909 
   97500    304.04978   -1380.4725    459.64435    448.61327    72.014502    37986.909 
   97600    305.25538    -1378.028    471.79274    468.63621    157.04266    37986.909 
   97700    288.51226   -1411.2269    482.71649    370.94993   -565.96917    37986.909 
   97800    304.95994   -1371.8903    467.75385    469.40436   -37.670329    37986.909 
   97900     305.0912   -1407.1481    454.20022    421.18412    71.770615    37986.909 
   98000    303.27896   -1389.5509    447.04924    423.46793   -172.93869    37986.909 
   98100    304.75523   -1360.2874    481.90343    494.23486    119.10342    37986.909 
   98200    290.36701   -1386.9107    478.26459    399.16808   -221.85222    37986.909 
   98300    302.96381   -1402.5962    437.09795    399.05193    614.22629    37986.909 
   98400    297.60956   -1455.8977    440.33599    324.87292   -128.52217    37986.909 
   98500    300.04019   -1429.6187     437.4892    359.25277    528.47326    37986.909 
   98600    302.90931     -1423.01    457.86224    399.15704    946.98426    37986.909 
   98700    297.07077   -1421.9367     457.9826    374.05379    852.29972    37986.909 
   98800    298.71597   -1394.2965    461.98998    413.11137    818.88658    37986.909 
   98900    296.36079   -1413.0722    446.44748    368.18542    444.88472    37986.909 
   99000    306.93319   -1413.6743    454.37866    423.13268    874.72779    37986.909 
   99100    294.65357   -1435.1704     449.4551    341.40555    249.91073    37986.909 
   99200    312.40722   -1476.3263    442.36341    373.12045    39.999464    37986.909 
   99300    300.63568   -1476.5015    441.00531    318.56812    338.64752    37986.909 
   99400    299.72945    -1454.913    460.60636      355.676   -206.38023    37986.909 
   99500    307.60533   -1444.0074    435.86774    377.31599    113.85087    37986.909 
   99600    305.28086   -1423.9395    452.53809    403.58482    692.71046    37986.909 
   99700    305.84702   -1393.3679    459.62563    443.79394    741.78099    37986.909 
   99800    293.43162   -1439.6173    422.55477    304.55461    521.88201    37986.909 
   99900    301.13502   -1494.8509    456.46121    317.92361   -278.01334    37986.909 
  100000    294.04879   -1411.1942    425.55813    338.76085     562.7084    37986.909 
  100100    301.57435   -1460.8886    467.88311    365.28658   -305.85354    37986.909 
  100200    297.43087   -1454.3247    481.73418    367.03929    79.367872    37986.909 
  100300    303.08549   -1456.8255    455.33659    363.60933   -30.151859    37986.909 
  100400    300.27152   -1476.4258    449.75373    325.75206   -562.21658    37986.909 
  100500    291.01796   -1450.2634    453.52418    314.00686   -63.610241    37986.909 
  100600    294.67627   -1394.6869    463.30765    395.84379   -571.26867    37986.909 
  100700    304.21776   -1379.0995    470.22836    461.32688    -61.42553    37986.909 
  100800    304.47464   -1376.1736    466.68833     461.8697    154.98639    37986.909 
  100900    287.75242   -1396.5896    441.65954    341.10798   -68.663169    37986.909 
  101000    302.08483   -1436.0692    441.69291    366.21501    715.70914    37986.909 
  101100    296.04859   -1420.5957    464.07709    376.88543   -327.91994    37986.909 
  101200    291.39599   -1409.2405    463.18625    366.39442    537.07097    37986.909 
  101300    303.84332   -1458.8583    428.12412    337.77736    29.147454    37986.909 
  101400    288.66407   -1447.2606    460.85383    313.73735    317.78724    37986.909 
  101500     297.0223   -1463.9661    430.05736    303.88086   -70.134146    37986.909 
  101600    306.84901   -1437.9208    457.73652    401.86489   -586.88919    37986.909 
  101700    305.58947   -1412.2062    473.50074    437.67071    21.826492    37986.909 
  101800    299.28673   -1414.9659    454.85814    387.88089   -160.27553    37986.909 
  101900    296.94383   -1402.1752    444.64265    379.90364    382.97206    37986.909 
  102000     302.5508   -1383.1976    465.19821    444.69061    713.93663    37986.909 
  102100    297.64004   -1450.3288    429.86278    320.10592    283.80608    37986.909 
  102200    297.94107   -1402.3603    472.75717    412.32462    1223.0888    37986.909 
  102300    296.88633   -1409.4667    448.21959    375.93013    228.97469    37986.909 
  102400    304.20331   -1362.5681     428.2432    435.80804     494.2089    37986.909 
  102500    305.47701   -1379.5708    465.60049    461.89939    384.14251    37986.909 
  102600    299.02645   -1376.9133    487.58531    457.48835    239.04125    37986.909 
  102700    306.22017   -1418.4057    447.98919    408.80033   -168.63564    37986.909 
  102800    310.47859   -1424.3383    471.45772    445.51627    71.065174    37986.909 
  102900    312.34815   -1369.0614    432.38643    470.14233   -103.38693    37986.909 
  103000    296.93437   -1400.9785    435.29533    371.71042   -309.79656    37986.909 
  103100    294.34285   -1374.2556    435.58235    387.04816   -292.07516    37986.909 
  103200    302.91221   -1368.4821    449.38884    445.22455    176.83868    37986.909 
  103300    301.99627   -1349.8953    462.96436    473.26145   -699.83789    37986.909 
  103400    306.14278   -1371.5823    448.97362    456.25967   -7.9696003    37986.909 
  103500    302.54283    -1375.824    440.37225     427.2024    -494.1886    37986.909 
  103600    298.12681   -1398.7673    463.02379    407.02084   -800.47044    37986.909 
  103700    309.24419   -1375.5522     450.4734    467.75826   -74.487344    37986.909 
  103800    299.10038   -1391.4855    439.26743    394.93125    187.45486    37986.909 
  103900    302.89565   -1400.5714    471.22459    434.89636     80.74034    37986.909 
  104000     305.0168   -1394.1083    425.74344    405.43199   -568.71416    37986.909 
  104100    300.68321   -1401.3683    446.76996    399.68007   -404.31759    37986.909 
  104200    298.53575   -1369.4805    463.78484     438.9105    291.56571    37986.909 
  104300    298.70033   -1389.6894    488.30664    443.96475   -142.16312    37986.909 
  104400    312.08193   -1357.9294    467.81303    515.50191    110.18454    37986.909 
  104500    298.40616   -1372.3645    460.68549    432.34356   -359.01492    37986.909 
  104600    298.39974   -1313.2452    466.31928    497.06771   -207.12324    37986.909 
  104700    298.84555   -1370.6277    453.93252    429.30635   -113.25463    37986.909 
  104800    296.34956   -1346.9772    465.07634    452.85877    -454.4737    37986.909 
  104900    299.40005   -1351.9886    450.54422    447.05466    5.5739449    37986.909 
  105000    307.11686   -1370.2928    445.99713    458.95987   -402.39677    37986.909 
  105100    295.51608   -1397.7609    454.46387     387.7086   -391.96826    37986.909 
  105200     298.0224    -1382.906    443.95576    403.34385   -604.67257    37986.909 
  105300     296.4129   -1392.9568    432.21358    374.30171   -556.99067    37986.909 
  105400    307.18739   -1383.4139    470.00188    470.16121   -480.91378    37986.909 
  105500    311.20568   -1376.4297    502.54794    527.78983   -321.06101    37986.909 
  105600    312.98222   -1356.3828     469.0633    522.35365    245.12397    37986.909 
  105700    306.77275   -1387.2766    465.87732    460.30645   -740.87953    37986.909 
  105800    295.17083   -1380.7029    447.32547    396.07322   -545.47376    37986.909 
  105900    297.74129   -1408.4047    460.80646    393.42972    44.174913    37986.909 
  106000    302.33825   -1441.6937    461.36584    381.40487    299.39631    37986.909 
  106100    291.19194   -1448.1964    443.31232    306.64554    286.04366    37986.909 
  106200    292.33271   -1470.2753    442.60765    288.99999    124.62942    37986.909 
  106300    301.34501     -1415.58    437.20732    378.88649    346.22969    37986.909 
  106400    298.75013   -1409.5774    463.99997    399.99434    150.90842    37986.909 
  106500    301.96101   -1400.6222    452.98762    412.39905   -146.49342    37986.909 
  106600    310.07673   -1428.8857    456.05007    423.75119   -3.5863023    37986.909 
  106700    309.91105   -1421.5252    477.23246     451.5479   -491.70162    37986.909 
  106800    310.70611    -1435.775    451.95524    415.60186   -884.40791    37986.909 
  106900    293.10847   -1401.1713    454.30971    373.30018   -43.048479    37986.909 
  107000    306.70783   -1393.3917    461.34233    449.36394   -667.58297    37986.909 
  107100    303.98698   -1453.3405    442.23271    358.05077   -139.72253    37986.909 
  107200    300.11367   -1470.6552    466.94635    348.00433   -301.29924    37986.909 
  107300    300.25599   -1420.6616    449.18412    380.87673    149.50427    37986.909 
  107400     302.8336   -1404.8364    468.14195    427.26935   -233.56812    37986.909 
  107500    299.45598   -1407.6232    470.04703     411.1748   -101.65302    37986.909 
  107600    299.57073   -1438.7772    452.08671    362.57726   -165.57572    37986.909 
  107700    319.57006   -1479.2695    448.69355    408.76891   -268.68013    37986.909 
  107800    301.45347   -1426.1222    449.09249    380.71795   -404.11443    37986.909 
  107900    303.93367   -1420.8507    464.45688    412.52462   -439.29519    37986.909 
  108000    305.16137   -1391.5947     460.3701    443.22347   -265.84185    37986.909 
  108100    302.45594   -1393.8406    458.99906     427.4212    71.658136    37986.909 
  108200    303.72764   -1446.3935    448.49141    370.08843   -456.27109    37986.909 
  108300    306.57945   -1369.7302    459.06379    470.16863   -279.91795    37986.909 
  108400     294.9188   -1410.0752    439.62143    357.86165   -404.40259    37986.909 
  108500    306.76279   -1455.7744    435.83918    361.72559    154.08454    37986.909 
  108600    298.68378   -1436.3383    460.29285    369.22751    342.79311    37986.909 
  108700    311.54642   -1422.1163    461.77969    442.86972    479.96118    37986.909 
  108800    304.49477   -1432.3202     439.3944    378.51981    246.94313    37986.909 
  108900    299.07735   -1436.7329    461.82941    372.14208    285.63888    37986.909 
  109000     306.1178   -1417.0037    430.89612    392.64816    657.20561    37986.909 
  109100    300.92804   -1444.3056    437.62201    348.69757    212.95123    37986.909 
  109200    297.31187   -1424.4358    474.94022    389.59829   -2.1458764    37986.909 
  109300    299.07799   -1439.1615    419.91941     327.8064   -373.43313    37986.909 
  109400    304.93757   -1383.6237    483.87836    473.69475   -258.29503    37986.909 
  109500    305.40558   -1417.3428    455.36793    413.57312     24.78003    37986.909 
  109600    295.23703   -1420.9201    441.89073    350.71941    4.7466384    37986.909 
  109700    301.57311   -1382.2504    444.01227    420.04834    711.57779    37986.909 
  109800    311.19255   -1415.0755    460.05089    446.58784    416.24083    37986.909 
  109900    308.47928    -1393.331    467.18406    463.24496   -281.84664    37986.909 
  110000    303.32357   -1387.3987    433.23382    412.00575   -161.22684    37986.909 
  110100    302.83703   -1392.8463    474.25436    445.38724   -102.54269    37986.909 
  110200    307.94723   -1394.9761     463.9406    455.96005    769.14883    37986.909 
  110300     299.9799   -1413.2811    456.12994    393.95953    191.27833    37986.909 
  110400    290.83944   -1357.1531    459.12501     411.9139    487.49489    37986.909 
  110500    303.97304   -1321.1607    457.36524    505.30032    111.73525    37986.909 
  110600    306.81243     -1393.23    462.38178    451.03624   -168.30482    37986.909 
  110700    291.35132   -1390.3171    461.19355    383.12395    248.24626    37986.909 
  110800    294.17669   -1417.8356    476.67621    383.81362   -136.75065    37986.909 
  110900    289.21251   -1383.3906    448.71177    367.93545    132.24679    37986.909 
  111000    303.38942   -1379.3495    428.43129    415.54893    64.303455    37986.909 
  111100    302.56745   -1425.7475    466.96198    403.97944    -419.5809    37986.909 
  111200    303.75784   -1406.3468    460.29255    422.07225   -71.255259    37986.909 
  111300    294.75278   -1419.4435    438.38255    346.50678    68.041901    37986.909 
  111400    305.34292   -1376.0915    460.01152    459.18569   -247.94405    37986.909 
  111500    305.54883   -1378.3187    451.05044    448.92491   -116.04871    37986.909 
  111600    291.06181   -1363.3101    467.00048    414.63397    8.1018696    37986.909 
  111700    295.46387   -1367.4169    452.11422    415.46782    676.56994    37986.909 
  111800    290.69195   -1379.3071    480.00935       409.98    250.38305    37986.909 
  111900    291.64052   -1396.5161    454.79855     371.8325    324.06005    37986.909 
  112000    303.84198   -1390.6769    474.91766    452.74623    110.10078    37986.909 
  112100     306.4011   -1435.9835    458.99311    403.04142    602.40011    37986.909 
  112200     294.7749    -1429.783    448.08055    345.96484    808.20983    37986.909 
  112300    291.86545    -1421.141     461.3561    354.77825   -149.53698    37986.909 
  112400    297.12038   -1414.8223     448.9126     372.3217    268.70378    37986.909 
  112500    305.49732   -1449.8816    472.68049    398.76002   -110.00176    37986.909 
  112600     299.8714   -1378.0483    457.37228    429.94593   -263.28492    37986.909 
  112700    310.45666   -1372.4199     467.4195     493.2976   -239.67398    37986.909 
  112800    306.51391   -1396.1714     482.8561    467.22461   -429.11986    37986.909 
  112900    313.39256   -1412.4104      460.587    459.69792    525.95761    37986.909 
  113000    296.24975   -1413.6574    458.16754    378.82016    395.01635    37986.909 
  113100    298.42254   -1384.9093    457.96801      417.155     870.4061    37986.909 
  113200    298.20415   -1410.6769    478.15495    410.59076    515.17677    37986.909 
  113300    298.34426   -1442.8567    447.38338    348.27038   -189.29838    37986.909 
  113400     304.2604   -1433.5967    464.70757    401.50091    134.93374    37986.909 
  113500    291.88821   -1380.5219    448.56684    382.71057   -575.79772    37986.909 
  113600    290.40823   -1402.4581    464.54073    370.08248   -316.58326    37986.909 
  113700    298.99598   -1428.2298    440.69095    359.14021   -46.088087    37986.909 
  113800    293.31613   -1408.8531    458.90197    371.14592   -196.04018    37986.909 
  113900    295.81108   -1435.9611    476.54645    372.91963   -73.515667    37986.909 
  114000    301.02407   -1471.3626    481.37444    365.82542   -313.64415    37986.909 
  114100    294.33295   -1436.2576    454.34941    343.76857   -69.841164    37986.909 
  114200    291.84499   -1443.0093    468.19105    339.65277   -402.52458    37986.909 
  114300    299.83958   -1458.9468    465.89625     357.4281   -53.995592    37986.909 
  114400    294.68787   -1441.0151    447.10283    333.36308   -195.30124    37986.909 
  114500    305.58719   -1438.0475    471.66307    409.98146   -643.69744    37986.909 
  114600    308.90698   -1427.3464    464.22496    428.19687   -162.13076    37986.909 
  114700    303.79531    -1459.497    473.59669      382.395   -149.15324    37986.909 
  114800    299.59152   -1447.8552    460.06834    361.57452   -163.39282    37986.909 
  114900    294.90802   -1445.5658     455.0326    337.73374   -347.66675    37986.909 
  115000    301.36502   -1444.9277    476.45395    388.87552   -402.43948    37986.909 
  115100    300.33985   -1421.3204    438.71656    370.12802    355.82122    37986.909 
  115200    301.67224   -1445.5703    486.93353    400.09617    415.90079    37986.909 
  115300    300.82907   -1434.6788     479.5906    399.84707      358.591    37986.909 
  115400    285.31618   -1505.7103     487.1676    266.52247   -22.061019    37986.909 
  115500    299.12123   -1473.6976    460.69811    334.24372   -44.722183    37986.909 
  115600      304.351   -1481.7335    451.26425    340.32886    505.24574    37986.909 
  115700    305.90288   -1433.7814    484.30822    428.31465   -305.52706    37986.909 
  115800     306.4572    -1424.518    477.29699    433.06345   -200.08759    37986.909 
  115900    299.34048   -1432.5973    480.38962      396.023   -484.46579    37986.909 
  116000    294.76468   -1418.0397    466.72803    376.30965   -488.33341    37986.909 
  116100    296.82047   -1381.2645    482.42459    438.04066   -550.38019    37986.909 
  116200    307.64005   -1435.9043    497.19697    446.90465   -524.26476    37986.909 
  116300    296.37105   -1398.7884    466.55587    402.62382   -224.42035    37986.909 
  116400    303.29524    -1357.126    512.12303    521.03996   -643.21811    37986.909 
  116500    297.93852   -1424.7407    508.72548    425.90105   -93.021919    37986.909 
  116600    296.68211   -1395.1309    457.28723    398.41371   -106.04058    37986.909 
  116700    295.26254   -1394.2097    473.19963    408.85357    200.70379    37986.909 
  116800    291.76822   -1396.5551    475.07706    392.64716    294.30433    37986.909 
  116900    293.56983   -1434.3786    481.28911    369.15019   -129.39996    37986.909 
  117000    300.97354   -1424.5977    476.55686    407.54516    444.17995    37986.909 
  117100    306.93848     -1434.52    480.60827    428.54036    928.64006    37986.909 
  117200    292.37226    -1453.568    468.82339    332.10122    116.36005    37986.909 
  117300    312.31298   -1441.5489    459.26557    424.37557    407.23696    37986.909 
  117400    304.86741   -1462.4378    468.34734    379.03359   -38.496089    37986.909 
  117500    303.20815   -1448.9861    459.42084    376.08547   -98.509052    37986.909 
  117600    296.88331   -1465.3416    476.63095    348.45301   -634.55896    37986.909 
  117700    307.37737   -1471.8197    455.46994    368.07917   -107.54132    37986.909 
  117800    293.71759   -1457.9542    453.56846    318.51945   -223.43825    37986.909 
  117900    283.28783   -1449.4461    476.95543    303.43881    -232.2299    37986.909 
  118000    292.36899   -1420.1178    465.37078     362.0841    130.24031    37986.909 
  118100    293.68835   -1497.8121    472.31056    297.27195    473.09268    37986.909 
  118200    301.32037   -1511.4875    450.34224    296.00288    249.25032    37986.909 
  118300    304.04171     -1514.73    452.59161    307.26666   -51.660857    37986.909 
  118400    294.98748   -1477.3713    473.47844    324.73193   -171.61563    37986.909 
  118500    296.18677    -1458.989    451.45857    326.49594     397.9156    37986.909 
  118600    302.00332   -1460.0884    444.26297    344.39867    146.51139    37986.909 
  118700    283.73426   -1479.8081    443.91924    242.05141    299.47951    37986.909 
  118800    296.69534   -1430.8856     463.6454    369.07676    135.80559    37986.909 
  118900    289.13464   -1423.6394    451.53476    330.15892    305.41165    37986.909 
  119000    305.22099   -1433.0817    479.22551    420.86034    348.26913    37986.909 
  119100    297.34123   -1447.6002    481.99328    373.61918   -128.48013    37986.909 
  119200    306.02475   -1430.2037    463.40663    411.53965     100.0502    37986.909 
  119300    296.44101   -1460.8589    467.35413    341.66668    563.52865    37986.909 
  119400    296.06244   -1455.5614    441.78347    319.68848    142.66364    37986.909 
  119500    292.43997    -1394.018    459.37494    382.50775    332.86786    37986.909 
  119600    310.47884   -1437.2072    493.03738    454.22816    9.4720901    37986.909 
  119700    300.37955   -1382.7919    474.18201    444.30076    700.14809    37986.909 
  119800    302.10059   -1406.2654    465.25108    419.64795     31.70551    37986.909 
  119900    306.79677   -1403.0131    488.88155    467.68236    515.70353    37986.909 
  120000    303.34827   -1423.4468    446.72211    389.55714    382.63639    37986.909 
  120100    292.50108   -1414.5542    480.86217    383.73396    428.13814    37986.909 
  120200     293.9606   -1390.3255    476.38541     410.0596    711.68281    37986.909 
  120300    298.56138   -1424.2884    487.47942    407.91272   -239.78183    37986.909 
  120400    302.32492   -1383.8184    462.04371     439.8979   -411.55818    37986.909 
  120500    308.62092   -1430.3573    464.88079    424.55332   -622.51905    37986.909 
  120600    308.72365   -1397.8555    463.20867    455.84574   -236.36369    37986.909 
  120700    303.28193   -1397.4378    465.86858    434.41379    133.82643    37986.909 
  120800    300.71198   -1399.6256    490.51664    445.29902   -437.70757    37986.909 
  120900    309.18365   -1375.0655    454.19682    471.69567   -457.18552    37986.909 
  121000    295.85957   -1381.5037    480.58969    431.63863    -504.6546    37986.909 
  121100    297.21109   -1391.4933    460.64851    407.79511    -283.0298    37986.909 
  121200    303.26402   -1438.1404    442.88038    370.64229   -64.337095    37986.909 
  121300    300.53831   -1421.1189    486.53843     419.0453    392.44963    37986.909 
  121400    305.78382   -1418.1554    472.51048    431.60663    780.07996    37986.909 
  121500    312.61255   -1430.4545    451.73325    429.28688    580.23945    37986.909 
  121600    307.72486   -1414.7326    455.10094    426.36237    1123.5324    37986.909 
  121700    296.08329    -1454.009    477.56841    357.11972     770.7487    37986.909 
  121800     289.5864   -1435.7929    471.31479    339.82015   -136.59663    37986.909 
  121900    289.80272   -1371.7605    478.91734    412.42948   -558.15196    37986.909 
  122000    298.75968   -1391.4824    488.02184    442.15422   -510.51708    37986.909 
  122100    297.31354   -1384.1615    455.59972    410.53959   -237.19846    37986.909 
  122200    298.51498   -1369.8118    485.56921    460.27005    -25.84366    37986.909 
  122300    290.05832   -1437.8853    485.88869    354.42723    65.770626    37986.909 
  122400    305.46599    -1417.799    480.41383    438.43482    1071.4186    37986.909 
  122500    294.75082   -1411.4755    480.85685    396.94024   -188.55279    37986.909 
  122600    310.82756   -1414.9497    453.90101    438.91987    243.79892    37986.909 
  122700    299.45414   -1421.0686    459.21297    386.88699    244.78337    37986.909 
  122800    285.94339   -1387.7861    479.18944    379.29351   -154.30305    37986.909 
  122900    301.68531   -1404.9355    462.22576    416.08204   -73.951712    37986.909 
  123000    300.79061   -1415.1281    471.81483    411.44882   -101.10134    37986.909 
  123100    303.60969    -1381.461    475.03603     461.0343    302.60381    37986.909 
  123200    302.94023   -1396.1702     479.4268    447.70063     110.3119    37986.909 
  123300    295.83765   -1429.6023    464.50375    367.35536   -271.78253    37986.909 
  123400     300.4152   -1405.2806    469.32803    417.11869   -140.32745    37986.909 
  123500    303.58136   -1414.3039    478.59822    431.62598    85.638144    37986.909 
  123600     304.3648   -1393.2895    478.61982    456.19059    303.86649    37986.909 
  123700    302.79741   -1378.9164    472.18878    457.07311    393.28164    37986.909 
  123800    307.47345   -1364.0275    492.38638    513.22054    91.605294    37986.909 
  123900    295.45299    -1375.017    480.49586    436.20035    54.413728    37986.909 
  124000    290.55298   -1374.7971    507.25071    441.10537   -99.211715    37986.909 
  124100    309.60712   -1394.4607    454.14588    454.15691    350.47045    37986.909 
  124200    312.41752    -1410.846    464.83188     461.1156   -144.40615    37986.909 
  124300    295.84822   -1426.4475    453.75338    359.80743   -87.633678    37986.909 
  124400    305.56759   -1424.3956    458.39868    410.28069   -68.441997    37986.909 
  124500    287.28562   -1409.7711    488.37299     372.5375   -10.275117    37986.909 
  124600    300.15749   -1387.9657    444.49956    408.44442   -262.60821    37986.909 
  124700    298.39173   -1399.2245    501.09198    445.82506    86.615164    37986.909 
  124800    295.20785   -1385.3114    470.55551    414.86141    410.22178    37986.909 
  124900    294.78287    -1364.162    470.09682    433.63802    320.43491    37986.909 
  125000    302.25753   -1364.7069    487.93969    484.60186    131.29055    37986.909 
  125100    302.37733   -1368.0969    491.68081    485.49262    117.58754    37986.909 
  125200    297.72799   -1381.8624    470.15173    429.25738    528.33499    37986.909 
  125300    292.35394   -1296.1406    496.37891     517.0016    828.89261    37986.909 
  125400      296.623   -1343.4501    491.00793    483.54895    274.30659    37986.909 
  125500    297.95283   -1357.1059    461.02878     445.9036    86.891843    37986.909 
  125600    301.70371   -1354.4202    500.28847    504.74302   -137.79283    37986.909 
  125700    294.82061   -1349.8422    468.57138    446.60242   -477.75993    37986.909 
  125800    303.11996   -1350.3016    484.27476    499.22672    -496.5401    37986.909 
  125900    308.86858   -1320.9453    472.32107     542.5211   -320.43953    37986.909 
  126000    298.81943   -1325.1246    473.41254    494.17184   -68.888535    37986.909 
  126100    295.57467   -1363.2558    497.42946    465.44314    149.42006    37986.909 
  126200    301.12105   -1355.1749    467.63929    468.71484    484.31157    37986.909 
  126300    290.23827   -1381.5522    483.06868    408.75084    10.434172    37986.909 
  126400    291.39359   -1390.2507     495.7919    417.97913   -5.8443479    37986.909 
  126500    305.28933   -1424.5138     443.6665    394.17707    721.39906    37986.909 
  126600    308.68891   -1413.2233    483.01874    460.13153      -124.87    37986.909 
  126700    295.89101   -1377.7558    466.54039     421.4789    58.385024    37986.909 
  126800    298.61666   -1390.6524    472.27116    426.58939     356.1964    37986.909 
  126900    306.83463   -1401.8697    469.61762    449.73231    332.64435    37986.909 
  127000    298.25125   -1370.6732    466.05182    438.70343    55.480823    37986.909 
  127100     316.3191   -1406.4804    486.45431     504.6764    458.02195    37986.909 
  127200    300.84724   -1384.2223    475.13971    445.93458    160.31996    37986.909 
  127300    304.65168   -1458.6557    444.78831    358.28501    176.30858    37986.909 
  127400     305.7396   -1409.6262    456.54109    423.96731   -17.061978    37986.909 
  127500     307.3175   -1393.6703     476.5471    467.03602    40.190494    37986.909 
  127600    297.49269   -1408.1246    487.33083    419.11446   -131.84843    37986.909 
  127700    298.69035   -1413.9401    444.96799    376.33043    556.32257    37986.909 
  127800    296.17284   -1427.8385    445.55217    351.67737   -114.70036    37986.909 
  127900    301.84289   -1382.0724    496.33655     473.7658    32.676973    37986.909 
  128000    300.44908   -1437.0169    466.91083    383.11782    483.99868    37986.909 
  128100    295.00014    -1465.021    493.44413    357.10497    578.77583    37986.909 
  128200    316.83811   -1430.1234     464.7385    461.65518    795.17558    37986.909 
  128300    296.92097   -1413.2677    485.01358    409.07913    536.10301    37986.909 
  128400    304.37598   -1392.8768    473.54701    451.58085    227.94765    37986.909 
  128500    294.34816   -1421.6123    468.63282    372.76574     161.3186    37986.909 
  128600    291.06956   -1416.3842    473.61843    368.21271   -92.882988    37986.909 
  128700    288.42068   -1421.2851    461.31315    339.07594   -12.925127    37986.909 
  128800    300.28223   -1430.4084    481.41197    403.47598    563.83613    37986.909 
  128900    302.57891   -1427.0938    434.52586    370.24867    826.71721    37986.909 
  129000    306.60311   -1444.0645    462.25355    399.13074     420.7841    37986.909 
  129100    300.04847   -1427.1902    460.34035    384.56966    44.011747    37986.909 
  129200    307.26897   -1448.1937    458.83319    394.58016    166.16295    37986.909 
  129300    295.83963   -1435.2877    473.66401    370.83917    -169.9419    37986.909 
  129400    296.56107   -1434.9986    460.79879    361.51246   -84.464403    37986.909 
  129500    311.23537   -1445.2363    465.02005    421.58911    530.98905    37986.909 
  129600    302.00959   -1448.6884    488.53544     400.0994    363.78032    37986.909 
  129700    288.31721   -1444.6738    487.22689    341.13491    299.68615    37986.909 
  129800    299.75005   -1448.5386    459.05254    360.58939    -74.92707    37986.909 
  129900    305.72094   -1416.1993    469.86107    430.63004    350.26474    37986.909 
  130000    293.19009   -1479.0209    488.33508    329.84351   -161.80729    37986.909 
  130100    305.77944   -1445.2056     473.2796     405.3058    184.64092    37986.909 
  130200    306.48146   -1435.3279    467.00505    412.07089   -235.44995    37986.909 
  130300    302.01048    -1410.394    478.83499    428.69743   -336.63057    37986.909 
  130400    306.34759   -1406.7777    438.60159    411.61465   -695.18838    37986.909 
  130500    301.72107   -1416.2829     471.4953    414.16534   -273.46901    37986.909 
  130600    306.71262   -1408.7643    446.17411     418.8447    256.45522    37986.909 
  130700    301.49421   -1429.5952    458.56889    386.90478    567.95325    37986.909 
  130800    306.13376    -1384.443     479.1983    473.58301    136.08249    37986.909 
  130900    295.03861   -1389.3963    455.52149    394.98031   -570.38271    37986.909 
  131000    295.81053    -1395.939    450.98467    387.37747   -465.59374    37986.909 
  131100    311.50221    -1414.674    456.30095    444.63415   -298.90294    37986.909 
  131200    303.69505   -1408.7806    490.25467     449.3178   -559.66391    37986.909 
  131300    304.31194   -1409.2029    450.16861    411.58787   -193.87981    37986.909 
  131400    313.49365   -1439.6382    447.35216     419.6906    75.891723    37986.909 
  131500    309.39892   -1416.8669    481.88351    458.55052    112.18134    37986.909 
  131600    296.53594   -1446.3019    466.59933    355.89653    333.33903    37986.909 
  131700    285.20829   -1440.8822     489.8744    333.57144    286.82239    37986.909 
  131800    305.65703   -1419.6303    464.03645    421.08667   -26.303386    37986.909 
  131900     301.5835    -1445.566    461.66991    374.43723    77.603761    37986.909 
  132000    309.76735   -1451.6584    460.81809    404.35309     322.0623    37986.909 
  132100    307.93631   -1440.5205     442.2645    388.69035    104.38525    37986.909 
  132200    308.12905    -1444.395    466.36891     409.7884    -296.2644    37986.909 
  132300    286.00438   -1430.1552    461.96568    319.97536    16.502029    37986.909 
  132400    307.08969    -1433.188     463.6756    413.62083   -428.71315    37986.909 
  132500    306.62461   -1432.5231    468.60348    417.11887   -80.693424    37986.909 
  132600    291.95481   -1444.0174    455.25367    326.20189    16.749295    37986.909 
  132700    302.83221   -1490.3132    505.42155    379.06581   -216.28498    37986.909 
  132800    299.02851    -1365.168    490.20187    471.85952   -145.50792    37986.909 
  132900    300.75558   -1392.3161     448.1262    410.41437   -294.51386    37986.909 
  133000    293.39444   -1390.9063    485.06419    415.60762    7.0034054    37986.909 
  133100      305.865   -1393.7954    475.91969    459.74145      463.249    37986.909 
  133200     299.5205   -1409.1444    472.39531    412.29246    59.914948    37986.909 
  133300    304.84186   -1408.3665    461.87091    426.51336    1234.1661    37986.909 
  133400    293.58972   -1412.4504    484.36145    394.24031     353.4477    37986.909 
  133500    288.39599   -1428.7146    481.96218    352.18425    410.03833    37986.909 
  133600    301.07856    -1431.635    483.33875    407.76273    556.58341    37986.909 
  133700     285.2487   -1431.8034    463.84004    316.79788    187.73318    37986.909 
  133800    299.80978   -1390.0298    478.19483    438.50941    359.35827    37986.909 
  133900    313.80591   -1414.9481    492.14876    490.58374    77.473031    37986.909 
  134000    300.73535   -1432.9687    462.08786    383.63242    348.11824    37986.909 
  134100     294.8009      -1480.3    470.48601    317.97045   -336.58915    37986.909 
  134200    292.53606   -1420.1006     488.5926     386.0756   -117.00745    37986.909 
  134300    310.47325    -1430.608     489.4223    457.18705    415.90456    37986.909 
  134400    294.95252   -1404.6497     507.6357    431.45339   -714.52441    37986.909 
  134500    300.50501   -1434.5482    479.89197    398.81951   -752.63508    37986.909 
  134600    294.76764   -1443.9452     513.2552    396.94467   -736.32851    37986.909 
  134700    292.71825   -1440.5972    481.31024    359.11717   -330.87538    37986.909 
  134800    300.96905   -1367.7968    491.62192    479.39094    122.64057    37986.909 
  134900    297.96629   -1448.4575    476.86435    370.44822   -71.011228    37986.909 
  135000    305.11681   -1454.6769    464.03287    383.60333    573.57149    37986.909 
  135100    299.76159   -1480.0346     480.3683    350.46111    734.11083    37986.909 
  135200    300.82643   -1430.4018    490.89664    415.41832    237.78939    37986.909 
  135300    293.79131   -1432.7164    451.20882    341.72965    543.74238    37986.909 
  135400    303.98368    -1438.002    490.11134    421.25307    102.20766    37986.909 
  135500    295.07358    -1423.579    500.77486    406.20848    470.15815    37986.909 
  135600    304.52672   -1407.5641    493.25492    457.28035    154.72319    37986.909 
  135700    295.72176   -1410.4721    454.26133    375.72124   -1.2542268    37986.909 
  135800    297.93148   -1466.2955    484.42232    360.01137   -492.92996    37986.909 
  135900     294.5097   -1501.0353    448.69474    274.13227   -616.35856    37986.909 
  136000    307.26171   -1411.8996    478.72608    450.73442    126.26651    37986.909 
  136100     300.4429   -1465.7831    510.66004    398.07299   -367.24634    37986.909 
  136200    300.36304   -1402.1204    491.42991    442.14587   -641.95995    37986.909 
  136300    298.90319   -1433.5282    464.49923    377.23218   -500.05995    37986.909 
  136400    308.74358   -1448.0432    467.74241    410.28154   -237.77946    37986.909 
  136500    300.35624   -1415.7677    463.78984    400.82788    61.007311    37986.909 
  136600    306.64298   -1423.1223    498.07469    456.07356    548.82652    37986.909 
  136700    295.45432    -1424.203    498.36093    404.88539    409.92287    37986.909 
  136800    297.92925   -1418.7023    462.92324    386.09543   -327.02099    37986.909 
  136900     297.2856   -1454.7978    461.53552    345.71329   -411.08894    37986.909 
  137000    302.07837   -1420.4792    474.85935     414.9423      297.164    37986.909 
  137100    301.47218   -1424.2856    475.28863    408.83498    52.256735    37986.909 
  137200    289.39973     -1380.53    481.41344    404.34092    121.17322    37986.909 
  137300    302.48139   -1373.9928    503.69191    492.07647    63.831671    37986.909 
  137400    303.73129   -1359.3847    476.98764    485.60983    104.54866    37986.909 
  137500    309.53107   -1420.6373    488.46435    461.95618   -339.11276    37986.909 
  137600    297.54514   -1431.9574    487.06768    395.25477    -161.4218    37986.909 
  137700    295.60862   -1471.9904     478.2836    337.71556    387.55643    37986.909 
  137800    303.58841   -1454.2007     477.6904    390.85304    778.61307    37986.909 
  137900    298.66044   -1428.7168    460.44993    376.90091    617.43778    37986.909 
  138000    310.79634   -1448.7215    492.24052    443.34702    354.83048    37986.909 
  138100    294.90404   -1443.6145    525.95553    410.59007    1035.6618    37986.909 
  138200    288.37444   -1450.5173    461.85941    310.18178    814.36705    37986.909 
  138300    303.87911   -1473.1785    466.74601    362.24023    173.78171    37986.909 
  138400    296.01184   -1479.0495    445.57356    299.76261    533.08192    37986.909 
  138500    295.00678   -1488.4236    513.21569     353.5038   -110.34567    37986.909 
  138600    297.51713   -1499.6883    452.82434    293.15439   -227.23266    37986.909 
  138700    299.76692   -1443.8812    458.45113    364.72135   -413.86791    37986.909 
  138800    294.44694   -1462.4924    478.68902    342.38687     56.57829    37986.909 
  138900    299.99959   -1428.1001    483.39378    406.49308    521.00382    37986.909 
  139000     305.1662   -1457.1048    480.34007    397.70506    275.96819    37986.909 
  139100    295.85518   -1448.2495    475.85707    360.14052    172.44375    37986.909 
  139200    297.27284   -1448.3976    487.42055    377.94104    882.34108    37986.909 
  139300    294.55701   -1453.9177    485.18863    357.95684    364.06868    37986.909 
  139400     292.0004   -1469.2336    444.60151     290.5389     119.1473    37986.909 
  139500    297.11078   -1415.9762    476.86657    399.07849    -269.6896    37986.909 
  139600    303.14785   -1450.3382    472.55371    387.59463    204.03767    37986.909 
  139700    306.04395   -1460.1297    461.65524    379.94867    580.84034    37986.909 
  139800    290.73051   -1454.1166    477.40033     332.7351    346.03306    37986.909 
  139900     306.3802   -1467.7269    445.38802    357.59881    169.31768    37986.909 
  140000    304.56176   -1463.8302    457.03685    364.95401     275.6988    37986.909 
  140100    295.18423   -1498.4745    479.63218    310.66863   -112.34378    37986.909 
  140200    305.67839   -1449.7019    469.92436     396.9991    26.507276    37986.909 
  140300    300.66458   -1489.5841     461.0386    325.64895    355.66289    37986.909 
  140400    294.87706    -1442.901    508.26761    393.49407    -382.8353    37986.909 
  140500    310.53105   -1386.6618    465.17048    477.14179   -4.8018599    37986.909 
  140600    305.64088   -1430.9013    472.83003    418.53644     71.79587    37986.909 
  140700    300.48903   -1417.5928    491.15875    426.96977    26.724475    37986.909 
  140800    301.56407   -1452.0516    457.32477    363.51898    -20.47849    37986.909 
  140900    303.10209   -1404.1246    476.26315    437.31158    330.66334    37986.909 
  141000    301.00318   -1420.4617    475.47709    410.73496   -314.66258    37986.909 
  141100    297.30194   -1334.6967    460.22417    464.57657   -478.05776    37986.909 
  141200    300.65443    -1376.817    499.10217    476.43388   -4.7814483    37986.909 
  141300    306.87417   -1437.9237    465.68944    409.92821    210.94659    37986.909 
  141400    298.44007   -1420.2278    471.86917    395.81659     409.9627    37986.909 
  141500    297.20939   -1425.8192     482.4995    395.31262   -6.7971903    37986.909 
  141600    293.40111   -1434.5885    465.23461    352.12594    265.30274    37986.909 
  141700    298.77768   -1415.4734     480.5579    410.78031     780.3534    37986.909 
  141800     302.0427   -1368.3707    480.40273    472.43354   -88.472114    37986.909 
  141900    292.37905   -1379.7096    491.48769     428.6545    96.273991    37986.909 
  142000    278.38116   -1473.4618    474.15416    254.52224    119.52105    37986.909 
  142100    311.64222   -1423.3811    504.10303    484.35973    293.17834    37986.909 
  142200    293.25298   -1399.8945     480.3702     401.2883   -10.625827    37986.909 
  142300    306.46021   -1410.4553    458.46597    428.30869   -109.01397    37986.909 
  142400     293.7934   -1387.5589    484.68536    420.37306   -26.993781    37986.909 
  142500    298.11708   -1415.3734    486.00205    413.34919   -145.84295    37986.909 
  142600    295.69507     -1396.41    475.38007    410.78186    477.90306    37986.909 
  142700    291.55356   -1425.4281    468.33153    356.06185    135.07953    37986.909 
  142800    300.97239   -1434.2393    469.99648    391.33805    56.484239    37986.909 
  142900    286.93649   -1393.0569    494.02472    393.33089   -191.65855    37986.909 
  143000    292.08245   -1407.4117    478.67309    386.80197    -170.9525    37986.909 
  143100    293.48954   -1455.3627    477.83767    344.35301   -237.34417    37986.909 
  143200    308.22663   -1424.6321    483.39221    447.01406    40.039034    37986.909 
  143300    298.48966   -1430.6823    478.74891    392.46521   -154.35652    37986.909 
  143400    299.42406   -1424.6022    453.92886     377.9338   -577.72604    37986.909 
  143500    302.49245   -1411.6529    469.21739    419.99163   -175.66271    37986.909 
  143600    290.57933    -1402.499    487.48699    393.75844    -577.5154    37986.909 
  143700    307.97101    -1452.572     474.7183    409.24899   -718.61539    37986.909 
  143800    293.74198   -1441.4844    465.87278    347.40343   -47.460125    37986.909 
  143900    300.17117   -1445.2455      488.225    394.95162   -810.58191    37986.909 
  144000    299.29726   -1474.5885    453.02505    326.47262   -618.93036    37986.909 
  144100    297.55419   -1458.7771    510.73169    392.13983   -26.607866    37986.909 
  144200    305.25676   -1462.2709    481.22981    393.83658   -47.225668    37986.909 
  144300    295.36994   -1409.2581    446.90813    367.99741    303.99274    37986.909 
  144400    300.23568   -1457.0382    457.21398    352.43845   -37.651729    37986.909 
  144500    294.07646   -1452.2909    474.12638    346.35699    175.33182    37986.909 
  144600    315.42546   -1463.3886    455.82236    413.11132    15.604402    37986.909 
  144700    299.52726   -1468.4911    479.69677    360.27764    56.161932    37986.909 
  144800    295.58427    -1478.767    485.41194    337.95769    7.6531542    37986.909 
  144900     289.5857   -1424.5609    479.38037    359.11465   -203.48193    37986.909 
  145000    299.10515   -1418.8564    494.24628    422.56072    159.31271    37986.909 
  145100    302.35639   -1420.0246    484.86524    426.65501    867.13584    37986.909 
  145200    295.45518   -1417.6901    493.61631    406.65752     538.7163    37986.909 
  145300    307.15177   -1420.1214    474.93824    438.22965    723.28748    37986.909 
  145400    298.13953   -1434.6596    479.61793    387.77995    55.662379    37986.909 
  145500    314.87574   -1439.7515    470.81874    449.26882   -37.756031    37986.909 
  145600    301.67213   -1421.8873    458.31486    395.16005   -395.96355    37986.909 
  145700    299.51556   -1400.1774    457.87805    406.71989   -450.85632    37986.909 
  145800    311.97494   -1394.7851    473.67119    484.02245   -921.86707    37986.909 
  145900    291.53655   -1390.6967    478.56974    400.95482   -618.35336    37986.909 
  146000    297.06639   -1417.4167    493.18873    413.76027   -918.19338    37986.909 
  146100    300.24703     -1433.63    490.61448    409.29833   -928.63448    37986.909 
  146200    302.41958   -1418.7327    495.74945    439.11575   -199.62047    37986.909 
  146300     300.2356    -1384.961    481.19856    448.49987   -48.159512    37986.909 
  146400     295.2823   -1393.3793    467.92397    404.49726   -332.65834    37986.909 
  146500    300.80908   -1408.6371    503.33326    449.54142    54.243137    37986.909 
  146600    297.95723   -1423.4135     485.7429    404.32993   -608.69051    37986.909 
  146700    293.73845   -1432.4534    511.17905    401.72478   -365.71933    37986.909 
  146800     308.8638    -1412.543    468.30145     446.8822   -127.48942    37986.909 
  146900    300.31607   -1422.2999    475.76293    406.08779   -620.56847    37986.909 
  147000    293.18353   -1408.3973    477.52222    389.62469   -574.87086    37986.909 
  147100    291.55868   -1376.9574    496.77423    432.99835   -423.88939    37986.909 
  147200    295.37921   -1430.9344    465.60793    365.06265   -381.03418    37986.909 
  147300    309.61762   -1406.2259    470.00904    458.30208   -125.77317    37986.909 
  147400     296.0728   -1410.3272    491.14388    414.32974   -34.250921    37986.909 
  147500    302.58529   -1380.9385    502.96681    484.87367   -83.207727    37986.909 
  147600    310.51448   -1364.6131    483.22723    517.17254   -63.252224    37986.909 
  147700    304.78891   -1390.8428    475.36379    457.29145    355.36821    37986.909 
  147800     308.9538   -1423.2575    477.09978    445.37146    426.26293    37986.909 
  147900    300.16505   -1409.1917    487.00821     429.7611    75.253726    37986.909 
  148000    304.43097   -1404.1248    487.44628    454.47975    682.85487    37986.909 
  148100    299.31186   -1444.1847    510.16565    414.08272   -149.64526    37986.909 
  148200    308.62831   -1420.2099       460.18     430.0332    -88.20968    37986.909 
  148300    301.71836   -1428.1414    475.01742    405.81667     23.45118    37986.909 
  148400    298.29611   -1467.6726     480.3139    356.16821   -92.946754    37986.909 
  148500    298.89097   -1472.1431    485.52093    359.58399    119.57865    37986.909 
  148600    299.17659   -1498.4982    472.30744    321.30185    287.11857    37986.909 
  148700    307.36858   -1456.9249    468.10289    395.56725   -331.85037    37986.909 
  148800    302.32935   -1459.5747    485.27506    387.39299    -183.5758    37986.909 
  148900    294.29579   -1449.3173    478.84373     355.0359   -138.65749    37986.909 
  149000    291.39502   -1456.3609    479.19856    335.28196    14.290155    37986.909 
  149100    299.58768   -1468.9225    502.79522    383.21678   -407.85675    37986.909 
  149200    295.16612   -1469.7709    449.46756    309.12606    138.09149    37986.909 
  149300    312.11222   -1481.8745    469.92276    393.80294   -149.71293    37986.909 
  149400    305.19705   -1457.8756    488.41027     405.1434   -167.16673    37986.909 
  149500    299.72247   -1460.7073    463.92587    353.16974    66.134731    37986.909 
  149600    303.23334    -1466.835    462.01759    360.94679   -336.51895    37986.909 
  149700    295.46961     -1437.76    486.10275    379.13902   -50.526615    37986.909 
  149800    296.58267   -1432.1326    485.01954    388.69649    397.67252    37986.909 
  149900    296.82562    -1455.026    493.30226       375.18    546.07174    37986.909 
  150000    296.76718   -1445.8821    511.46611    402.22459    460.39714    37986.909 
  150100    288.67249   -1435.8634    503.07655    367.39518     191.7435    37986.909 
  150200    295.84065     -1454.35    498.19203    376.30948    703.82997    37986.909 
  150300    301.65461   -1454.0194    496.02668    400.66085    888.58601    37986.909 
  150400    298.93223   -1452.3471    493.42161    387.46651    866.06713    37986.909 
  150500    293.52819   -1439.1893    485.99007    368.85293    135.60921    37986.909 
  150600    300.99835   -1464.3311    481.29029      372.657    198.68481    37986.909 
  150700     293.0775   -1423.1176    465.39776    362.30243   -86.418818    37986.909 
  150800    314.24052    -1465.398     485.6895    435.63205     106.4614    37986.909 
  150900    295.50745   -1461.7872    487.72483    356.90436   -288.46391    37986.909 
  151000    297.08229   -1404.5952    460.03863    393.50322   -392.21186    37986.909 
  151100    290.18855    -1426.969     499.8276    379.86898   -790.18084    37986.909 
  151200    296.22555   -1459.7215    478.95233    353.43187    98.713747    37986.909 
  151300    294.45355   -1439.2152    486.21313    373.21786    109.35449    37986.909 
  151400    300.51934   -1428.6943    479.72604    404.57209   -216.17626    37986.909 
  151500    298.63535   -1443.4518    480.19688    381.79985    245.78671    37986.909 
  151600    298.76261   -1442.5155    473.31075    376.42322   -43.284529    37986.909 
  151700    302.32485   -1418.2979    511.33866     454.7131   -113.79601    37986.909 
  151800    297.26744   -1454.2275    470.45736    355.12355    62.116402    37986.909 
  151900    314.87053   -1461.5251    451.12588    407.77893     485.9078    37986.909 
  152000    292.21489    -1424.704    506.94405    398.37708    673.10421    37986.909 
  152100    293.35422   -1452.6556    486.75708    355.37007    489.41621    37986.909 
  152200    303.57519    -1471.093    486.94633    383.15724     924.3205    37986.909 
  152300    306.48181    -1497.279    465.27769    348.39395   -13.888536    37986.909 
  152400     294.5183   -1502.4797    461.69535    285.72726    579.10622    37986.909 
  152500    306.48918   -1470.6495    489.04182    398.82077    189.27528    37986.909 
  152600    304.39728   -1444.5033    469.12618    395.62947   0.91115393    37986.909 
  152700    289.51213   -1468.7289    474.96467     310.1995    145.09127    37986.909 
  152800    302.11435   -1435.0604    465.77856    391.44245    486.16216    37986.909 
  152900    308.48683   -1408.4553    489.35883    470.32945    564.31966    37986.909 
  153000    290.01144   -1437.4897    502.00295    370.72587    243.28223    37986.909 
  153100    293.66961   -1419.2864    491.50939    394.91205    807.73585    37986.909 
  153200    294.58538   -1447.7901    465.64697    344.67056    276.51854    37986.909 
  153300    292.54433   -1400.9915    498.66261    415.29197   -530.93705    37986.909 
  153400    310.52282   -1326.9917    487.92785    559.53216   -166.69777    37986.909 
  153500    298.07302    -1399.186    497.79318    441.12924   -898.85909    37986.909 
  153600    305.06534   -1410.8652    478.57015    441.72052   -913.91551    37986.909 
  153700    312.08323   -1413.2685    462.54626    454.90185   -473.28804    37986.909 
  153800    306.48346   -1414.2647    497.71194     463.8499   -589.25251    37986.909 
  153900    299.92648   -1434.5705    502.26509    418.56462   -114.11152    37986.909 
  154000    293.78729   -1441.9217    464.12562    345.42303   -112.72107    37986.909 
  154100    308.49841   -1443.7096    470.78269    416.55113   -280.72445    37986.909 
  154200    298.36352   -1450.0872    472.45237    366.19565    37.831205    37986.909 
  154300    301.96667   -1453.8916     460.9702    367.13771   -483.02256    37986.909 
  154400     292.9394   -1443.3138    475.88326    351.96967   -194.95817    37986.909 
  154500    297.08176   -1463.1032    485.66083    360.61504   -700.72155    37986.909 
  154600    304.88996   -1434.1486    493.03305    432.11002   -183.94392    37986.909 
  154700    303.63269   -1476.7407    475.13884    365.96095   -472.33816    37986.909 
  154800    291.15278   -1437.0269     468.7081    343.03444   -443.71868    37986.909 
  154900    302.42818   -1431.0064      497.377    428.50833   -485.94767    37986.909 
  155000    295.41387   -1436.4738    462.77047    356.84191   -11.849587    37986.909 
  155100    291.08459   -1449.1115     469.7556    331.69021    86.426796    37986.909 
  155200    295.44513    -1441.303    464.22926     353.6123   -439.05553    37986.909 
  155300    301.91296   -1441.0581     498.2712    417.03025    23.743004    37986.909 
  155400    295.52066   -1450.6523    489.67004      370.044    289.37959    37986.909 
  155500    299.39128   -1444.3485    472.40963    376.52064    321.46064    37986.909 
  155600    287.93976   -1438.0601    464.37002    323.19168    196.09951    37986.909 
  155700    298.68858   -1439.4788     508.0247    413.84044     112.1495    37986.909 
  155800    291.77171   -1393.9185    476.42911    396.65154    86.886957    37986.909 
  155900    294.76756   -1463.9491    484.25296    347.93817   -161.94209    37986.909 
  156000    300.02633   -1418.0013    490.49229    423.81076   -223.19743    37986.909 
  156100    294.54953   -1473.1366    473.21687    326.73251   -56.353724    37986.909 
  156200    307.55996   -1470.3005    470.56376    385.51452    55.621655    37986.909 
  156300    293.14242   -1442.9104    479.01074    356.41499    292.84947    37986.909 
  156400    303.71143   -1407.2695    472.70212    433.35009    391.46665    37986.909 
  156500    292.60747   -1422.4203     476.2495    371.73448    -152.7864    37986.909 
  156600    307.36758   -1435.5244    486.29695    435.15738    61.710521    37986.909 
  156700    293.23132    -1465.471    445.27874     300.5228    162.92713    37986.909 
  156800    305.39941   -1444.8229    490.36093    421.05822     375.0979    37986.909 
  156900    305.84096   -1446.9388    462.30682    392.87694    145.43551    37986.909 
  157000    300.26692    -1460.753    479.43511    371.08549   -217.73819    37986.909 
  157100    295.32231   -1454.5289    484.15731    359.76126   -213.16212    37986.909 
  157200    301.46481    -1479.526    469.77837    348.05112   -71.635099    37986.909 
  157300    289.28128   -1489.9216    483.11135    296.11383    334.20268    37986.909 
  157400    289.30768   -1463.8912    488.66875    327.82052     237.6779    37986.909 
  157500    302.63478   -1454.0521    474.65511    383.67126    407.56787    37986.909 
  157600    291.45273   -1451.5625    477.65017    338.79196    28.625249    37986.909 
  157700    305.72816    -1475.866    477.29901    378.43389    7.8245651    37986.909 
  157800    302.03791   -1392.1439    495.62274     463.8588    258.10443    37986.909 
  157900    293.22452   -1425.7171    512.24513    407.21246    -165.7211    37986.909 
  158000    304.85109   -1418.9839    461.14968    415.21632   -648.60859    37986.909 
  158100    307.15023   -1436.1861    483.16648    430.38626   -463.25491    37986.909 
  158200    291.18898   -1464.0548    493.71444    341.17593   -73.712853    37986.909 
  158300    302.03083   -1452.5201    477.95433    385.78231   -336.03711    37986.909 
  158400    302.86773   -1448.7376    503.89986    419.27971   -599.28488    37986.909 
  158500    302.35582   -1416.4882    505.71852    451.04211    450.82058    37986.909 
  158600    311.80913   -1467.3566    475.15005    412.18297    232.04606    37986.909 
  158700    300.27641   -1436.2621    471.79685    387.98085    418.62747    37986.909 
  158800    302.31047   -1443.6869    494.02115    411.94181    218.25431    37986.909 
  158900     302.1779   -1437.2726     474.3891    398.12692    275.11322    37986.909 
  159000    306.12176    -1425.382    469.32549    422.71708   -125.74992    37986.909 
  159100    293.92669   -1454.7318    513.37181    382.48703   -150.47658    37986.909 
  159200    299.99448   -1415.8661    483.57047    418.88067   -240.90798    37986.909 
  159300    310.19378   -1394.5834    505.41154    507.94217    64.912729    37986.909 
  159400    303.49115   -1381.1878    483.56727    469.30485    805.71136    37986.909 
  159500    301.29416   -1397.2153    485.63575    445.45054    59.372208    37986.909 
  159600    306.89895   -1446.4685    485.22677    421.03235    75.146493    37986.909 
  159700    297.44803   -1477.5432    470.86096    333.02489    37.439621    37986.909 
  159800    293.62398   -1458.1675    496.20104    360.51713   -90.892238    37986.909 
  159900     296.3516   -1455.3094    471.42882    350.88825    155.11608    37986.909 
  160000    296.17442   -1468.0102     478.5143     344.4749    294.63518    37986.909 
  160100    295.99923   -1419.6809    499.62963     413.1304    780.11251    37986.909 
  160200    307.58536   -1429.1185    476.17652    432.42368    619.67085    37986.909 
  160300    289.68685   -1453.6121    493.72934    344.86794     284.0908    37986.909 
  160400    296.44311   -1466.2596    451.58772    320.50904    214.02552    37986.909 
  160500    309.23611   -1443.3241    472.13247    421.60906    -165.3598    37986.909 
  160600    289.65087   -1427.9542    505.79775    382.43224    244.37124    37986.909 
  160700    302.37659   -1468.8114    491.82453    384.91846    210.04118    37986.909 
  160800    296.04553   -1458.6971    500.61091    375.30406   -387.43955    37986.909 
  160900    298.67931   -1421.3929    488.07516    411.93505   -251.98907    37986.909 
  161000     297.4667   -1446.4751    499.66325    392.97936   -174.23599    37986.909 
  161100    290.75653   -1449.4031    470.36167    330.52715   -89.441304    37986.909 
  161200    294.44742   -1417.5086     496.5458    405.22958   -258.90551    37986.909 
  161300    300.83921   -1447.8645    485.82061    392.93711    143.05803    37986.909 
  161400    303.07018   -1410.7721    461.40379    415.66102   -76.021097    37986.909 
  161500    295.88768   -1427.6715    501.99666    407.00445   -839.27584    37986.909 
  161600    301.68892   -1400.9853    498.86688    456.68969   -460.40035    37986.909 
  161700    289.56804   -1405.4448    497.80731    396.57812   -696.99512    37986.909 
  161800    294.90522   -1444.0966    466.40914    350.56683   -1407.2034    37986.909 
  161900    303.31359   -1463.6449    453.07013    355.55088   -968.42956    37986.909 
  162000    306.70389    -1468.744     485.4619     398.1134   -1179.5894    37986.909 
  162100    295.89399   -1468.0605    462.58223    327.22942   -818.16129    37986.909 
  162200    305.23611   -1448.3924    494.75091     421.1431   -1553.1942    37986.909 
  162300    308.33662    -1463.774    461.54334    386.51869    -905.7854    37986.909 
  162400    299.48559   -1449.1157    456.00898    355.77758   -981.71352    37986.909 
  162500    297.61268   -1466.1316    464.06148    338.37856   -442.96783    37986.909 
  162600    312.78887   -1454.7448    489.69223    443.74978   -268.85854    37986.909 
  162700    295.26093   -1475.0613    484.57363    339.36871   -81.371019    37986.909 
  162800    300.12911   -1454.9467    469.39085    366.22682    -109.3702    37986.909 
  162900    297.71999   -1407.1888    480.31842    414.06167    79.634195    37986.909 
  163000     304.2644    -1409.685    474.89321    435.61625    85.552419    37986.909 
  163100     290.4346   -1398.4596     488.9832     398.6422   -234.08072    37986.909 
  163200    299.00384   -1399.4213    481.51311    428.80626   -121.34757    37986.909 
  163300    293.03751   -1380.3321    491.20139    430.71144    -116.6324    37986.909 
  163400    301.40946   -1414.9205    512.84887    455.47773   -181.19508    37986.909 
  163500    293.24432   -1421.1039    490.18683    389.85649    515.72557    37986.909 
  163600    305.02253   -1451.3119    501.46602    423.97676    470.04165    37986.909 
  163700     296.2815   -1419.2991    493.14865     408.3026   -469.83189    37986.909 
  163800    294.48662   -1484.0716    451.72477    294.02204    -868.4495    37986.909 
  163900    300.37481   -1479.1152     500.5068    374.28096   -556.18281    37986.909 
  164000    304.32832   -1429.3852     483.8622    425.17297   -283.04136    37986.909 
  164100    297.49984   -1456.9657    500.11645    383.09124   -157.28823    37986.909 
  164200    308.31942   -1443.8886     488.2022    432.98549    196.05403    37986.909 
  164300    309.60051   -1443.0252    466.37582    417.79257   -88.691649    37986.909 
  164400    291.73624   -1473.2633    486.42373    327.14161   -337.14406    37986.909 
  164500    288.44363   -1465.5864    486.82173    320.38659   -357.13462    37986.909 
  164600    294.77057   -1463.9935    469.00362    332.65796   -115.03663    37986.909 
  164700    301.30869   -1486.5176     486.6228    357.20078    194.20332    37986.909 
  164800    304.27895   -1484.9911    493.17094    378.65344    -64.89597    37986.909 
  164900     307.3619   -1479.6606    484.10306    388.80173    6.0636754    37986.909 
  165000     292.4456   -1459.7658    461.97778     319.3881   -104.23414    37986.909 
  165100    300.75484   -1472.7768    498.59301    380.41718   -436.63991    37986.909 
  165200    295.15144   -1472.0291    466.37201    323.70617   -160.67555    37986.909 
  165300    308.85663   -1481.4698    494.74072     404.3624     224.1399    37986.909 
  165400    305.77622   -1446.3761    489.82009    420.66135    248.40909    37986.909 
  165500    294.63604   -1441.0409    484.77906    370.78003   -348.94367    37986.909 
  165600    292.66614   -1495.8476    489.37575    311.69758   -92.625993    37986.909 
  165700    313.48702   -1443.9745    480.49983     448.4721   -66.505489    37986.909 
  165800    305.62229   -1475.8358     468.2064    368.89466   -91.151272    37986.909 
  165900    312.81032   -1464.1135    516.51134    461.29678    224.70673    37986.909 
  166000     299.9038   -1431.3415    488.32932    407.75575    618.14911    37986.909 
  166100    305.83532   -1420.8176    460.37172    417.03759    212.15503    37986.909 
  166200    303.73844   -1433.9119    510.57597    444.70317     624.6298    37986.909 
  166300    294.24847     -1449.56    486.94138    362.67769   -30.891904    37986.909 
  166400    297.37864   -1469.5843    476.41334    346.22356    54.048494    37986.909 
  166500    306.81732   -1487.9352       488.15    382.12122    6.0408362    37986.909 
  166600    302.29932   -1497.0845    482.67416    347.14701    11.971647    37986.909 
  166700    304.16008   -1474.8997    478.28086    373.31938   -41.111973    37986.909 
  166800    301.90718   -1511.2371     477.3495    325.90357    -263.5979    37986.909 
  166900     300.9144   -1445.8544    505.24433    414.70959    256.48382    37986.909 
  167000    292.16514   -1429.7596    477.58713     363.7405   -44.270453    37986.909 
  167100    301.92274   -1453.1397    513.43897    420.16047    461.16315    37986.909 
  167200    297.11894   -1472.3903    480.41024     346.2448     46.26393    37986.909 
  167300     301.1999   -1483.3948    484.97064    358.18137    233.57573    37986.909 
  167400    301.72246   -1470.0286    486.02399    374.95452    170.06131    37986.909 
  167500    291.03186   -1448.2884    505.11902    367.63923    -188.2466    37986.909 
  167600    300.12625   -1417.4842    490.96828    425.25388    145.79259    37986.909 
  167700    304.06644   -1440.2488     497.7008    426.96844   -324.25379    37986.909 
  167800    306.16331   -1407.3281     515.7336     487.3663    238.32692    37986.909 
  167900    298.51808   -1446.3035    519.80028    418.02339   -138.81776    37986.909 
  168000    310.17623   -1440.3132    509.13276    465.85448    50.770074    37986.909 
  168100     303.7124    -1446.522    482.41039    403.81025   -196.86342    37986.909 
  168200    309.05665   -1394.8978    506.39547    503.49002    463.57197    37986.909 
  168300    300.40742   -1407.4487    510.10878    455.69632    11.702376    37986.909 
  168400    293.35823   -1439.7561    494.28358    375.81413    16.952493    37986.909 
  168500    303.64492   -1442.8734    508.46764    433.21219    162.59901    37986.909 
  168600    301.28968   -1455.0192    490.50039    392.49116    285.83173    37986.909 
  168700    308.32013   -1409.8056    516.04009    494.90956   -82.886485    37986.909 
  168800    290.37556   -1422.7863    502.80169    387.86811    -413.4983    37986.909 
  168900    302.99567    -1446.564    513.92832      432.058    358.15265    37986.909 
  169000    303.96937   -1439.6436    494.29808    423.73377    374.12476    37986.909 
  169100    314.15091   -1425.5604    515.03359    504.41016    379.84702    37986.909 
  169200    298.13936   -1465.3913    498.56659    375.99616       397.36    37986.909 
  169300    292.93046   -1461.9151    501.76845    359.21335    731.77577    37986.909 
  169400    300.22001   -1422.7192    486.66438    416.13732    307.29174    37986.909 
  169500    304.22879   -1438.6143     523.6724    455.30574   -378.92606    37986.909 
  169600    291.98512   -1459.6321    505.85986    361.32988    -247.4954    37986.909 
  169700    305.12625   -1460.2623     493.4822    407.50974    116.98125    37986.909 
  169800     284.6327   -1433.4406    506.85362    355.39983   -264.15879    37986.909 
  169900    301.81511   -1449.9631    490.70089    400.11422   -678.36908    37986.909 
  170000    301.49768   -1449.9742     500.9007    408.87327   -153.49217    37986.909 
  170100      289.692   -1466.3632    494.14143    332.55217   -41.352497    37986.909 
  170200     304.1624   -1422.4296    510.80879    458.32785   -22.354191    37986.909 
  170300    298.02215   -1415.6726    487.98814    414.60846    94.419863    37986.909 
  170400    297.24572   -1448.3852    513.33476    403.74542   -87.507037    37986.909 
  170500    300.05603   -1433.9505       494.82    412.32305   -268.80406    37986.909 
  170600    303.53863   -1487.9121    477.99136    357.21849    135.09557    37986.909 
  170700    293.92419   -1474.6544    519.59998     368.7813    274.39555    37986.909 
  170800    307.03299   -1461.4391    475.18574    396.62451    566.78588    37986.909 
  170900    309.30079   -1474.1257     516.6998    435.66611   -279.19742    37986.909 
  171000    302.70963   -1446.9191    473.75992    390.24617   -393.62246    37986.909 
  171100    298.07841   -1472.1353     484.2455    354.65655   -1115.0937    37986.909 
  171200     295.9924   -1433.2448    464.67686    364.58298   -924.29247    37986.909 
  171300    301.04045     -1446.14    504.68272    414.43013   -753.98151    37986.909 
  171400    296.03894   -1474.6581    481.20612     339.9086      121.885    37986.909 
  171500    319.46072   -1506.8625     494.1516     426.1414    475.82937    37986.909 
  171600    296.32686   -1512.8639    504.37537    326.16882   -147.32411    37986.909 
  171700     296.2675   -1494.6728    469.71743    309.43457    3.4955561    37986.909 
  171800    294.46234   -1474.3891    476.86242    328.73284    191.70724    37986.909 
  171900    307.87359   -1464.7234    487.22081    409.16127    228.77904    37986.909 
  172000    283.61722   -1428.2739    495.64783    344.78706    650.53813    37986.909 
  172100    300.11934   -1464.4733    472.69669    359.96205      706.646    37986.909 
  172200    305.78053   -1418.1991    486.27353    445.31119      583.932    37986.909 
  172300    290.60605   -1444.6207    510.31403    374.58418   -269.96632    37986.909 
  172400    301.01172   -1452.5637     480.5097    383.70395    20.125757    37986.909 
  172500     300.0001   -1477.8814     471.3329    344.65312    614.25981    37986.909 
  172600     300.5034   -1416.2831    500.38294     437.5683     213.2765    37986.909 
  172700    303.52409   -1428.2919    468.14753    406.92934     420.1865    37986.909 
  172800    293.10034   -1459.1543    496.57333    357.54408    -60.57764    37986.909 
  172900    310.97133   -1499.8573    504.54499    405.30375    450.00463    37986.909 
  173000    307.02988   -1487.7226    471.27842     366.4196    749.69777    37986.909 
  173100    305.55793   -1500.0829    485.60744    361.75868     343.9106    37986.909 
  173200    304.43585    -1439.034     510.7586    442.90491   -322.13598    37986.909 
  173300    290.08127   -1445.5551    475.73898    336.71111   -662.26824    37986.909 
  173400     300.6774   -1389.1301    481.05511    446.17722    -321.5516    37986.909 
  173500    304.77334   -1381.3241    502.74281    494.11907   -424.53998    37986.909 
  173600    296.03161   -1395.1203    467.99636    406.20366   -68.818432    37986.909 
  173700    305.52117   -1395.1727     487.9052    468.80103    548.05678    37986.909 
  173800    301.26558   -1378.0833    498.52745    477.34558   -107.59661    37986.909 
  173900    297.53592   -1392.5036    497.94463    445.54397    541.76673    37986.909 
  174000    295.57248   -1370.2753    486.94422    447.92856    466.20336    37986.909 
  174100    293.66874   -1411.5607    499.12284    410.24727    386.32152    37986.909 
  174200    308.60471   -1432.1031    505.31339    463.16717     892.4445    37986.909 
  174300    295.84862   -1408.5374    508.89655    432.86249    221.19285    37986.909 
  174400     306.2207   -1405.4145    476.76623    450.57095    254.53035    37986.909 
  174500    310.50106   -1401.0719    488.36664    485.79275   -424.58465    37986.909 
  174600     299.5186   -1461.5319    485.13926    372.64039   -482.05073    37986.909 
  174700    299.16759   -1429.7237    462.13205    379.86038   -141.60318    37986.909 
  174800    295.96091   -1404.0214     476.8471    405.83484   -612.64756    37986.909 
  174900    305.11084   -1438.9386    494.75986    430.04174   -814.03029    37986.909 
  175000     312.7704   -1474.7857    462.49073    396.42412   -903.64459    37986.909 
  175100    304.54623   -1475.0542    492.37801     389.0012   -397.60472    37986.909 
  175200    295.17658   -1465.1434     484.8527     349.1858   -405.15726    37986.909 
  175300    316.29952   -1466.1587    481.17083    439.62642   -472.09101    37986.909 
  175400    290.50913   -1494.9011    475.62138    289.17453   -72.037596    37986.909 
  175500    291.27198   -1512.7258    464.87325    264.03757   -300.01238    37986.909 
  175600    300.03139   -1495.8383    493.24285    348.74714    215.71308    37986.909 
  175700    296.12307   -1470.9772    490.78188    353.54413    12.072974    37986.909 
  175800    296.20748    -1476.086    468.16123    326.19485    188.10922    37986.909 
  175900    302.01877   -1428.2097    483.81703    415.90108    624.92056    37986.909 
  176000    304.48296    -1464.268    501.09718    408.22159    659.96674    37986.909 
  176100    300.66385   -1489.5758    473.94026    338.55564    398.14992    37986.909 
  176200    293.59593   -1449.8811    483.03691    355.51309    522.25786    37986.909 
  176300    305.50457   -1430.6186    492.34633    437.72152    468.22863    37986.909 
  176400    288.36419   -1427.0156    474.33717    346.11501   -131.87227    37986.909 
  176500    303.82995   -1447.8934    489.57756    410.13546   -431.12081    37986.909 
  176600    298.24286   -1451.9406    453.46042    344.80682   -457.65538    37986.909 
  176700    292.01636   -1423.7107     499.1816    390.71377   -472.56333    37986.909 
  176800    288.63216    -1463.659    487.41647    323.75784   -439.79096    37986.909 
  176900    297.61806   -1461.7187    480.47277    359.22704    90.944549    37986.909 
  177000    300.45983     -1478.14    501.35325    376.48557   -225.62556    37986.909 
  177100    297.68982   -1467.5975    500.90784     374.1065    95.163515    37986.909 
  177200    299.47374   -1460.7616    483.85159    371.92091    154.78015    37986.909 
  177300    312.48144   -1465.5464    480.28329    422.15458    259.53085    37986.909 
  177400    300.43786   -1457.1458    486.66786    382.69536    220.29743    37986.909 
  177500    292.58637   -1451.4585    478.04889    344.40053    294.79642    37986.909 
  177600    306.68547   -1475.9743    481.15201    386.49027    72.075212    37986.909 
  177700    304.63644   -1422.5001    486.47062    436.05429    218.80571    37986.909 
  177800    291.91821   -1452.8669    483.14942    345.08325   -316.68361    37986.909 
  177900    300.27303   -1459.5686     491.5309    384.39324    246.03202    37986.909 
  178000    294.78249   -1444.9266    476.19712    358.97205    -184.9991    37986.909 
  178100    303.63768    -1450.951    492.47099    409.10532    20.454542    37986.909 
  178200    312.41133   -1439.0244    494.30088    462.37837    -411.0121    37986.909 
  178300    302.71971   -1476.9893    467.20462    353.66608   -812.89359    37986.909 
  178400    297.91552   -1459.0203    490.38648    373.17889   -504.04439    37986.909 
  178500     284.4357   -1443.7968    478.63776    315.94045   -12.869183    37986.909 
  178600    297.21633   -1424.8271    515.95906    429.79549    378.33757    37986.909 
  178700    304.93477   -1425.1555    475.38725    423.65919    214.22681    37986.909 
  178800    304.43889   -1452.8258    483.06794    401.43608   -72.554555    37986.909 
  178900    294.45715   -1436.1859     503.5656    393.61585   -334.24972    37986.909 
  179000     308.7704   -1443.2694    507.26086    454.69462    134.34833    37986.909 
  179100    298.33634   -1435.4312    497.21269    405.48956   -285.04056    37986.909 
  179200    295.74953   -1422.8578    486.14702    395.34631   -148.13502    37986.909 
  179300    301.20961   -1414.0465    498.23105    440.83382    124.21498    37986.909 
  179400     299.0726   -1424.5689    464.90313     387.3584    421.16105    37986.909 
  179500    301.77845   -1433.1274    504.59116    430.67513    345.19455    37986.909 
  179600    291.35466   -1468.4557     464.8194    308.62619    350.63181    37986.909 
  179700    294.95813   -1422.3713    484.35153    390.47278    30.373789    37986.909 
  179800     293.8333   -1433.7228    464.40258    354.10612   -442.66337    37986.909 
  179900    299.81657   -1446.4067    455.35339    359.32173   -426.91801    37986.909 
  180000    295.79073   -1463.2421    464.50051    333.50102   -287.95331    37986.909 
  180100    306.17574   -1382.8387    499.03936    495.21742   -93.202186    37986.909 
  180200    303.49719   -1404.0964    478.22005    441.07615   -466.71263    37986.909 
  180300    305.38995   -1421.1997    501.50974    455.78754    10.926847    37986.909 
  180400    295.66976   -1387.9922     479.8034    423.50898   -6.4100744    37986.909 
  180500    289.62753   -1383.8667    476.36418    396.98103    113.81882    37986.909 
  180600    299.75041   -1353.7904    479.61619    475.90286    74.308851    37986.909 
  180700    303.49796   -1349.4693      467.656    485.14271    316.78215    37986.909 
  180800    307.88104   -1365.3417    493.93756    515.29332    461.64434    37986.909 
  180900    300.04145   -1415.6134     502.3409    438.11541    426.39723    37986.909 
  181000    301.07307   -1413.0035    456.21462    399.24545   -113.54529    37986.909 
  181100    303.61636   -1397.5299     491.4142    461.37359    566.47848    37986.909 
  181200    298.99818    -1417.349    469.89929    399.23928   -1.0085513    37986.909 
  181300     299.4544   -1401.4207    483.67157    430.99463   -542.39034    37986.909 
  181400    289.91598   -1375.7226    468.28721    398.34739   -230.59106    37986.909 
  181500    301.53321   -1436.1197    501.31067    423.29776   -107.08549    37986.909 
  181600    297.95053   -1412.8034    453.62254     382.7895   -235.16465    37986.909 
  181700    303.98007   -1438.4601    494.82416    425.49154   -66.558403    37986.909 
  181800    302.91407   -1455.2897    484.93342    393.96988    -283.1272    37986.909 
  181900    299.64409   -1431.7706    464.08327    381.91087   -337.22714    37986.909 
  182000     294.5651   -1403.4843    481.07373    404.31176   -48.336721    37986.909 
  182100    304.60856   -1405.2497    485.41553    452.12402   -513.83752    37986.909 
  182200     299.1744   -1431.8291    476.28467    391.93825   -135.82222    37986.909 
  182300    295.07245   -1454.3908    479.93196    354.54863    121.73981    37986.909 
  182400    299.04845   -1437.8876    484.81032    393.83807   -17.573454    37986.909 
  182500     297.3299   -1445.9369     460.0294    353.26752   -107.54573    37986.909 
  182600    291.79967   -1443.4682    499.46045    370.25913   -93.574221    37986.909 
  182700      290.507   -1470.6171    466.20727    304.03491    117.35777    37986.909 
  182800     307.0568     -1471.61    488.63534    400.01041     287.0504    37986.909 
  182900    300.57867    -1468.534    468.53594    353.80947    198.34286    37986.909 
  183000    293.38349   -1443.5887    477.93868    355.75033    19.026893    37986.909 
  183100    288.20186   -1443.3269    480.52623    335.26164   -315.99471    37986.909 
  183200    302.31604   -1485.6903      457.619     333.5613   -130.19188    37986.909 
  183300    291.31004   -1438.1549    503.31422    377.22089   -301.74748    37986.909 
  183400    304.45995   -1473.9795    458.87176    356.18111   -389.01231    37986.909 
  183500     297.6303   -1442.2436    481.96866    380.25311   -107.71108    37986.909 
  183600    307.52529   -1435.1405    487.01375    436.96838   -130.22749    37986.909 
  183700    299.31607   -1457.1659    489.94744    380.90228   -1057.9151    37986.909 
  183800    296.25636   -1393.3062    494.24814    435.28176   -642.08137    37986.909 
  183900    302.63956   -1430.7984    488.90044    421.19183   -442.95774    37986.909 
  184000    303.25064    -1454.868    491.74759    402.72172   -407.65378    37986.909 
  184100    291.78606   -1395.6763    454.62869    373.15799   -480.41346    37986.909 
  184200    301.76555   -1421.8937    489.27626    426.53578   -744.88871    37986.909 
  184300    301.87242   -1420.4796    464.51503    403.67006   -768.95397    37986.909 
  184400    297.42882    -1432.706    477.13968    384.05426    -785.8935    37986.909 
  184500    296.57673   -1425.8816    477.99735    387.89855   -804.06729    37986.909 
  184600    295.47804   -1426.5643     485.5684    389.83837    176.37953    37986.909 
  184700    300.43523   -1487.0728    457.34362    323.43233   -475.28212    37986.909 
  184800    282.52765    -1469.374    486.52309    289.65474    221.78197    37986.909 
  184900    297.31096   -1417.5216    480.29915     401.8673   -335.58928    37986.909 
  185000    299.57742    -1460.849    474.19189    362.64073    25.632405    37986.909 
  185100      292.208   -1442.2236    463.14442    337.02677    210.73407    37986.909 
  185200    299.95487   -1490.0379    485.22844    346.18844   -65.124447    37986.909 
  185300    287.46504   -1489.0513    458.08947    263.78189    286.39469    37986.909 
  185400    301.04807   -1480.4886    473.87558    349.30871      352.311    37986.909 
  185500    297.52172   -1466.8362    509.16265    382.36548    64.352877    37986.909 
  185600    305.57773    -1464.814    458.00876    369.51804   -65.028295    37986.909 
  185700    303.45587   -1412.9597     496.4709    450.27764    427.31268    37986.909 
  185800    305.65352   -1473.3291    454.74684    358.08243   -204.99553    37986.909 
  185900    296.52796   -1478.6705    457.64363    314.53624    141.62472    37986.909 
  186000    293.01486   -1483.4151    445.54227    281.86725   -656.17821    37986.909 
  186100    309.60875    -1455.019    480.56889    420.02891   -324.20675    37986.909 
  186200    302.71171   -1468.0577    465.73739    361.09442   -529.64756    37986.909 
  186300    309.74464   -1491.8877    462.27593    365.47932   -620.35561    37986.909 
  186400    299.95388   -1499.6171     475.9271     327.3035   -26.532806    37986.909 
  186500    307.32926   -1480.5666    481.30756    384.95319    302.93398    37986.909 
  186600    297.43864    -1433.857    469.39432    375.20216    238.82072    37986.909 
  186700    299.31369   -1413.5337    470.00522     404.5816    298.54454    37986.909 
  186800    295.85975   -1460.5757    472.28198    344.25982    -56.41091    37986.909 
  186900    287.31201    -1466.025    458.95592     286.9854   -266.01596    37986.909 
  187000     299.1376   -1447.1085    474.63167    374.84009   -217.29539    37986.909 
  187100    303.81406   -1379.7212    508.85065    497.50922    121.37348    37986.909 
  187200    300.00086      -1431.5    497.60043    417.30546    221.20337    37986.909 
  187300     293.3318   -1457.4905    499.92796    363.60502    232.19589    37986.909 
  187400    289.89251   -1428.3537    475.55866    352.88198    12.120693    37986.909 
  187500    301.72299   -1441.4482    478.46102    395.97441   -135.98895    37986.909 
  187600    304.52636   -1465.2859    464.32961    370.63162   -356.75641    37986.909 
  187700    309.97611   -1446.5159    471.40336    421.02113    88.413598    37986.909 
  187800    299.38986   -1440.4372    498.80799    406.82391   -73.399328    37986.909 
  187900    309.32768   -1448.5571    465.38864    410.04459   -310.70547    37986.909 
  188000    293.90586   -1436.4259    488.16272    375.48999   -473.95361    37986.909 
  188100    298.54555   -1438.0333     500.6231    407.24013   -434.73061    37986.909 
  188200    303.16758   -1451.3889    492.09864    406.17775   -589.64463    37986.909 
  188300      306.363   -1513.6273    433.68048    299.91336   -58.482566    37986.909 
  188400    297.24439   -1468.4864    466.46869    336.77226   -115.68884    37986.909 
  188500     302.2517   -1492.1654    514.77653    383.95398   -822.06064    37986.909 
  188600    297.02808   -1490.9292    471.64344    318.52988  -0.20186882    37986.909 
  188700    298.34369   -1484.6152     497.9245    357.05046    461.95888    37986.909 
  188800    301.20272    -1470.529    498.78023    384.86948     587.7748    37986.909 
  188900    306.35222   -1489.2243    449.19312    339.78049    121.25857    37986.909 
  189000     293.9515   -1468.6726    475.83622    331.12238    -494.5729    37986.909 
  189100     306.5877   -1527.4585    478.22034    331.63405    267.03643    37986.909 
  189200    304.19838   -1511.4295    462.32196    321.00325    407.95743    37986.909 
  189300    308.62103   -1484.6398    497.50657    402.89706     70.46141    37986.909 
  189400    299.53342   -1462.6078    471.63389     358.1258    433.94582    37986.909 
  189500     300.6279   -1482.9792    495.06207    366.11216    47.088729    37986.909 
  189600    302.77435   -1461.6416    518.62611    420.68137   -56.346941    37986.909 
  189700    298.82634   -1410.4753    491.10509     426.5448   -336.20584    37986.909 
  189800    298.90122   -1465.3188    480.19399    361.12745   -113.99454    37986.909 
  189900    303.52694   -1445.6392    477.11882     398.5662    -522.7505    37986.909 
  190000    303.40239   -1471.6734    471.37225    366.22442   -774.82414    37986.909 
  190100    299.34651    -1444.178    499.73925     403.8191   -708.76349    37986.909 
  190200    309.95545   -1479.1903    482.37653    399.22678   -835.98509    37986.909 
  190300    297.38643     -1436.71    505.50809    408.22777   -870.42222    37986.909 
  190400    308.08226   -1432.8394    484.22767    438.99195   -763.10541    37986.909 
  190500     301.2864   -1457.6007    496.34337    395.73778    -624.1717    37986.909 
  190600    298.28146   -1425.5885    477.17934    395.05167    -192.5725    37986.909 
  190700    301.17161   -1448.1959    490.61956    398.90176   -449.09714    37986.909 
  190800    303.10929    -1450.029    501.95726    417.13368    124.88969    37986.909 
  190900    302.89944    -1450.668    465.29065    378.88294   -43.422599    37986.909 
  191000    306.56952   -1438.5073    490.89261     433.1756   -105.21119    37986.909 
  191100     307.6794   -1455.2162    485.93681    416.50984     35.32982    37986.909 
  191200    305.23215   -1434.2624    508.47314    448.97758   -207.18516    37986.909 
  191300    289.06429   -1421.3467    498.54754    379.14752   -585.67434    37986.909 
  191400    301.50709   -1457.6232    509.49825    409.86418   -344.99303    37986.909 
  191500    298.10394   -1467.0023    501.86502    377.52409   -285.37136    37986.909 
  191600    295.63068   -1476.6938    501.12176    355.94974    107.32362    37986.909 
  191700    309.18053   -1455.2009    512.35493    449.70432    -375.0234    37986.909 
  191800     305.1938   -1456.5983    488.71754    406.71333   -938.29077    37986.909 
  191900    292.05618   -1442.2616    487.09371    360.25438   -601.01162    37986.909 
  192000    292.97024   -1466.4458    487.37592    340.46923   -825.58359    37986.909 
  192100    310.31858   -1476.1984    465.62665     387.1044   -294.45028    37986.909 
  192200    300.52179     -1534.46    473.77144    292.86274   -223.11267    37986.909 
  192300    294.04588    -1511.908    484.44269    296.91847   -239.76801    37986.909 
  192400    308.55495   -1497.2216    480.49494    373.00606    183.16712    37986.909 
  192500    306.54125   -1468.4055      487.919    400.17654    574.49661    37986.909 
  192600    293.98451   -1452.6828    494.33495    365.75961   -442.51143    37986.909 
  192700    305.12175    -1444.737    489.23027    418.76287   -123.20176    37986.909 
  192800    301.50642   -1459.9012    469.84566    367.93056   -428.55349    37986.909 
  192900    290.22144    -1465.306    484.05947      325.912   -579.15557    37986.909 
  193000     296.7111   -1472.9532    468.35657     331.7913   -24.945926    37986.909 
  193100    299.59892   -1485.9519    476.61051    340.05334    70.959619    37986.909 
  193200     294.2311   -1436.7068    499.53849    388.04975    151.00059    37986.909 
  193300    286.02733   -1443.6524    490.14728    334.76317   -575.20797    37986.909 
  193400    308.70734   -1407.3404    510.59302    493.67167   -475.85601    37986.909 
  193500    290.64442   -1465.5361    521.66656    365.19409   -212.02056    37986.909 
  193600    302.63189   -1481.1394    495.11192    377.02773   -418.54799    37986.909 
  193700    292.84169    -1460.527    490.30295    348.73605   -532.18506    37986.909 
  193800    306.15417   -1475.5836    479.25631    382.59235   -385.31554    37986.909 
  193900    292.88567   -1440.7452    501.83367    380.24666   -366.25502    37986.909 
  194000    295.72448    -1469.363    471.57773    334.15897   -515.73038    37986.909 
  194100    309.93497   -1501.7018    480.43624    374.68276   -307.94172    37986.909 
  194200    300.75383    -1490.858    487.78998    351.52845   -170.03568    37986.909 
  194300    307.69435   -1531.0987    462.51551    317.27339    389.13652    37986.909 
  194400    305.17267   -1498.7477    469.00529    344.75654     58.91699    37986.909 
  194500    292.57638    -1489.586    504.20705    332.38626    297.85997    37986.909 
  194600    296.36429   -1478.9485    493.68656    349.56404   -160.89754    37986.909 
  194700    291.22642   -1502.4385    483.64986    292.89635    325.74663    37986.909 
  194800    297.12555   -1507.2505    471.98351    302.98773    468.91877    37986.909 
  194900    305.85862   -1469.4359    496.99451    405.14705    427.10626    37986.909 
  195000     300.3777   -1459.1179    490.10441    383.88887     53.65028    37986.909 
  195100    296.31483   -1471.1511    479.56192    343.01403   -698.31617    37986.909 
  195200    301.69125   -1485.2537    481.07695    354.64185   -420.34605    37986.909 
  195300    301.36045   -1506.7119    478.25022    328.86696   -572.98592    37986.909 
  195400    296.98684   -1474.9693    489.54187    352.20241   -331.96839    37986.909 
  195500    304.24972   -1525.1817    480.56995    325.73018    37.378981    37986.909 
  195600    300.19036   -1471.0624    498.59886    379.59502   -46.011599    37986.909 
  195700     303.0403   -1468.0118    488.70271    385.58559    293.71882    37986.909 
  195800    297.98441   -1502.9468    491.38482    330.56097   -79.742173    37986.909 
  195900    299.68781   -1536.2614    461.42338    274.95705   -159.19433    37986.909 
  196000    307.56849   -1526.3675    472.16145    331.08366     -99.5003    37986.909 
  196100     305.6633   -1535.8149    475.19617    316.08997   -493.64577    37986.909 
  196200    304.92231   -1517.6854    478.60948    334.29536   -415.30577    37986.909 
  196300    297.93866   -1445.6944    485.96726    382.18974   -669.83233    37986.909 
  196400    296.65858   -1435.1137    497.40058    398.43836   -547.97619    37986.909 
  196500    296.40486   -1493.1783    494.45471    336.28503   -294.15949    37986.909 
  196600    309.46608   -1512.3609    498.30478    379.78039    376.42774    37986.909 
  196700    299.11689   -1514.9964    477.29385    309.52108    541.55537    37986.909 
  196800      303.848   -1462.2127    494.72973    401.04966    30.290892    37986.909 
  196900    302.76862   -1452.9976    504.10639    414.77987    950.37628    37986.909 
  197000    293.89685   -1479.7445    498.82818    342.79628    636.80674    37986.909 
  197100    293.67601   -1480.0096    489.62659    332.33493    478.67922    37986.909 
  197200       296.04   -1472.6986    472.60108    333.26777    134.63286    37986.909 
  197300    303.92501   -1469.4586    524.62884    424.04975   -250.44904    37986.909 
  197400     289.4866   -1456.7618    488.09674    335.18379   -104.74139    37986.909 
  197500    298.19587   -1475.6301    501.96558    369.41084    -164.6921    37986.909 
  197600    299.86933   -1468.3379    505.59774    387.87246    649.53343    37986.909 
  197700    291.33019   -1477.8144    483.21338    317.55137   -33.930565    37986.909 
  197800    298.11221   -1458.6229     502.5908    386.66648    306.11822    37986.909 
  197900    309.08531   -1463.6708    485.71666    414.16733    813.71061    37986.909 
  198000    306.27728   -1492.4845    502.53703     389.5266    2.9375089    37986.909 
  198100    306.70997   -1460.3475    494.95724    416.03264    259.91569    37986.909 
  198200    300.52593   -1488.6881    486.25325    351.13514    363.54489    37986.909 
  198300    302.69832    -1491.147    501.46961    373.67704    504.20271    37986.909 
  198400    295.60924   -1477.2362    486.25763    340.44666   -229.08039    37986.909 
  198500    313.63997   -1444.8702    481.85243     449.6179    627.93222    37986.909 
  198600     308.3391   -1423.8386    486.20346    451.12537   -158.01176    37986.909 
  198700    301.80445   -1428.3516    519.07122    450.04806   -609.08402    37986.909 
  198800    297.11725   -1451.2885    494.07791    381.00665   -784.89943    37986.909 
  198900    307.08614   -1462.0344     491.1459    412.22873   -585.91962    37986.909 
  199000    299.92209   -1448.8354    486.76894    388.78383   -69.230703    37986.909 
  199100     300.9605   -1432.9535     479.7631    402.33694     565.2237    37986.909 
  199200    292.66347   -1487.6047    489.83882    320.39155    531.16952    37986.909 
  199300    302.96514   -1430.2018    481.31648    415.67085    677.48666    37986.909 
  199400    302.34699   -1495.1303    515.40205    382.04378    206.90208    37986.909 
  199500    304.96077   -1456.3415    515.62381    432.82689    356.33396    37986.909 
  199600    291.42261   -1471.7555    506.43551    347.24857    426.52898    37986.909 
  199700    311.84301   -1458.9486    485.88003     431.4736    479.20078    37986.909 
  199800    304.31155   -1442.6691    496.49967    424.45103    345.27142    37986.909 
  199900    298.01986   -1454.8248    512.05759    399.51545    321.64621    37986.909 
  200000    308.40134   -1448.7242    484.60744    424.92406    914.77653    37986.909 
  200100     308.3192   -1422.3958    534.69601    500.97106    864.40556    37986.909 
  200200    294.28812   -1422.4223    496.04072    399.09332    559.71393    37986.909 
  200300    297.89065   -1429.6716    487.79845    399.82748    431.89604    37986.909 
  200400    302.51548   -1434.5681    526.61898    454.58181     409.8942    37986.909 
  200500    295.05069   -1433.9369    489.24048    384.21306    192.63357    37986.909 
  200600    294.11686   -1466.8229    492.50167    350.38223    31.000283    37986.909 
  200700     293.0407   -1452.7955    513.96202    381.02303    541.05504    37986.909 
  200800    290.95874    -1459.976    501.13727    351.64058    5.5749413    37986.909 
  200900    299.18487   -1446.1411    494.27891    395.66768   -346.28286    37986.909 
  201000     299.4211   -1455.1389    521.16169    414.61665   -446.97087    37986.909 
  201100    301.37229   -1438.4593    517.03425    435.95691   -649.22754    37986.909 
  201200    303.83096   -1432.2356    496.86438     433.0846   -154.97842    37986.909 
  201300    305.81711   -1447.6869    491.03899    420.75356    135.72018    37986.909 
  201400    299.72335    -1490.078    505.70654    365.58366    163.17438    37986.909 
  201500    283.25974   -1496.2691     522.2998     301.8337     234.8389    37986.909 
  201600    295.27877   -1443.3245    466.48109    353.09335    232.89749    37986.909 
  201700    310.89615   -1473.5495    508.41682    435.14481    87.075698    37986.909 
  201800    307.71973   -1488.7904    484.22331    381.40382     242.5005    37986.909 
  201900    303.14529   -1501.5451    473.52367    337.34613    70.641542    37986.909 
  202000    306.57434   -1482.7642    511.89247     409.9403    450.71756    37986.909 
  202100    289.43912   -1462.2265    492.86958      334.278    520.23212    37986.909 
  202200    292.25508   -1436.9215    493.99512    373.39161   -5.1685155    37986.909 
  202300    311.66449    -1450.646    521.56212    474.65418    275.58505    37986.909 
  202400    303.92243   -1454.3377    486.74914    401.27927   -441.59721    37986.909 
  202500    292.14915   -1438.6124    495.76956    372.99806   -121.79984    37986.909 
  202600    288.21451    -1446.076     499.4699    351.51321    170.00859    37986.909 
  202700    296.76034   -1480.1243    515.84721    372.33266    18.173274    37986.909 
  202800     303.8059   -1489.9114    477.85114    356.28271   -20.144076    37986.909 
  202900    301.39377   -1501.3774    489.48147    345.58279   -6.8119529    37986.909 
  203000    300.00497   -1508.7699    481.90204     324.3557   -301.70841    37986.909 
  203100     290.9776   -1478.4607    487.16715    319.27075   -221.54205    37986.909 
  203200    312.43035   -1512.4895     506.9281    401.62618    304.61693    37986.909 
  203300    306.35338   -1500.8462    494.64436    373.61507   -368.83788    37986.909 
  203400    303.90307   -1472.3006    492.44225    388.92226     202.4042    37986.909 
  203500    305.14648   -1447.2386    483.82339    410.96578   -172.53384    37986.909 
  203600    289.47216   -1429.4932    487.18768    361.47826    277.62367    37986.909 
  203700     303.4025   -1462.6881    482.67289    386.51087    141.74868    37986.909 
  203800    316.62409   -1529.2791    483.02216     379.8192    363.72552    37986.909 
  203900    293.58487   -1476.2873     493.7751    339.79522    808.72063    37986.909 
  204000    309.18296   -1498.4929     498.6381    392.70647    323.70077    37986.909 
  204100    291.69969   -1492.2489    514.51154    336.07921    597.55681    37986.909 
  204200    297.83562    -1481.179    480.15046    340.42432   -265.85454    37986.909 
  204300    298.01905   -1518.3209    486.10354    310.06168   -461.28908    37986.909 
  204400    291.95029   -1477.1207    485.65071    323.47527    -139.6157    37986.909 
  204500    301.03204   -1462.1994    497.22471    390.87484    83.769535    37986.909 
  204600    293.33629   -1483.2873    509.97965    347.88017   -140.29611    37986.909 
  204700    314.20648   -1462.6922    496.95764    449.45274    314.07686    37986.909 
  204800    300.15445   -1494.9113    474.75087    331.73643    637.20198    37986.909 
  204900    301.41432   -1494.4683    518.74943     381.8524    273.61221    37986.909 
  205000    298.94738   -1487.9061    497.36228    355.91641    380.29022    37986.909 
  205100    301.24186   -1489.6475    520.66319    387.81023     204.3247    37986.909 
  205200    300.04051   -1483.3124    498.23269    366.30392   -6.3897278    37986.909 
  205300    294.11814   -1468.7369    479.08567    335.05808   -565.45215    37986.909 
  205400    303.10023   -1495.2693    506.89801    376.79331   -794.43853    37986.909 
  205500    300.54285   -1451.7684    457.08473    358.96252   -749.78937    37986.909 
  205600    297.09163   -1499.3928    504.15852    342.86763   -1311.7389    37986.909 
  205700    292.14032   -1501.3548     486.2138    300.66017   -1102.0549    37986.909 
  205800    306.27153   -1479.3312    484.36856    384.48551    -369.3561    37986.909 
  205900     296.6655   -1488.4999    508.40824    356.09093   -1205.0847    37986.909 
  206000    291.88683   -1456.9709    481.06213    338.75063   -479.58467    37986.909 
  206100    301.51592   -1503.3397    511.55588    366.24514   -159.68096    37986.909 
  206200    283.56771   -1514.6187     493.9835    256.55487   -223.42356    37986.909 
  206300    300.63988   -1497.9999    487.20188    343.28524    41.947278    37986.909 
  206400    306.94607   -1496.7841    488.25333     373.9556   -477.20855    37986.909 
  206500    297.30568   -1462.8952    467.48497    343.65575   -15.284093    37986.909 
  206600    308.82371   -1412.0827    485.98974    464.85032   -345.29552    37986.909 
  206700    303.19643   -1423.6875    506.46117    448.37161    21.339976    37986.909 
  206800    296.59697   -1426.1306    511.36996    421.11332    172.29149    37986.909 
  206900    302.32347   -1476.7732    492.22741    377.12037    87.179827    37986.909 
  207000    303.42074   -1468.7226    515.47153    413.35715   -609.21908    37986.909 
  207100    297.42494   -1478.0975    493.68651    355.19217   -917.63815    37986.909 
  207200    306.77388   -1449.0784     484.1602    416.79254   -610.99807    37986.909 
  207300    297.49534   -1467.0951    487.37891    360.20403   -719.96445    37986.909 
  207400    295.91834   -1522.5663    491.39982    301.65088   -227.40586    37986.909 
  207500    305.17873   -1507.3337    486.04949    353.24202   -160.18986    37986.909 
  207600    296.83299   -1486.7117    494.62358    344.84891   -50.916025    37986.909 
  207700    293.08085    -1478.091     476.5942    318.54054   -476.84534    37986.909 
  207800    301.72803   -1473.7943    499.62799    384.81792   -845.92151    37986.909 
  207900     306.6928   -1474.9097    487.93433    394.37024   -9.6069083    37986.909 
  208000    301.60335   -1464.1205    488.16282    382.46498   -245.16436    37986.909 
  208100    300.67164   -1460.0636    504.04769    398.21039   -438.92312    37986.909 
  208200     297.5507   -1495.6305    482.11855    326.65755   -908.94689    37986.909 
  208300     305.0397   -1520.7907    496.46136    349.57074    27.774697    37986.909 
  208400    304.98749   -1505.0451    459.00023    327.62006    490.05159    37986.909 
  208500    296.53758    -1524.124    492.52985     304.0123    779.09819    37986.909 
  208600    303.40648   -1516.6658    501.34152    351.21969    817.15372    37986.909 
  208700    315.22377   -1505.8478    515.83068      429.752    411.49737    37986.909 
  208800    300.64675   -1502.7926    475.97566    327.29719    173.15673    37986.909 
  208900    301.07894   -1506.6829    501.13214    350.50993    121.99697    37986.909 
  209000    293.83317   -1484.0676    493.85024    333.20847   -74.998087    37986.909 
  209100    286.38481   -1508.7005    502.88589    284.06374    -428.5042    37986.909 
  209200     304.4224   -1493.7891     497.0788    374.40943   -205.97756    37986.909 
  209300    294.68875   -1460.1944    496.49821    363.58313   -1214.8006    37986.909 
  209400    300.39447   -1485.1737    509.74029     377.5445    -755.4709    37986.909 
  209500    295.71954   -1487.7426    506.93306    351.11247   -388.05741    37986.909 
  209600    294.44414   -1456.8218     492.9421    362.29793   -400.86328    37986.909 
  209700    302.12635    -1476.608    505.80505    389.97528   -828.39373    37986.909 
  209800    304.56807   -1496.9393    521.17905    396.01553     70.01439    37986.909 
  209900    312.23679   -1491.8602    485.72907    400.18464   -353.72264    37986.909 
  210000    299.75727    -1502.356    492.32083    340.07279   -520.85059    37986.909 
  210100     308.7355   -1523.5575    485.01071    351.99909   -448.22169    37986.909 
  210200    293.73011   -1541.4621    505.01237    286.51182   -641.71077    37986.909 
  210300    301.10654   -1520.0248    511.14774    347.30804   -105.51415    37986.909 
  210400    295.03297   -1495.8565     487.1596    320.13273    -247.9446    37986.909 
  210500    312.98124   -1505.3414    490.64576    394.97313    175.14617    37986.909 
  210600    312.25879   -1486.1077    483.14279    403.44993    359.77792    37986.909 
  210700    300.55016    -1474.616    493.24863    372.31173    172.37883    37986.909 
  210800    305.51145   -1490.2642    493.26548    379.02609    -180.8961    37986.909 
  210900    291.15796   -1455.6588     508.4055    364.12332     184.0103    37986.909 
  211000    298.05409   -1449.6066     509.7553    402.58546    358.71104    37986.909 
  211100    294.54844   -1496.5959    495.45034    325.50183   -125.95091    37986.909 
  211200    294.14885   -1472.3196    503.50228    356.03022    50.290061    37986.909 
  211300    306.26969   -1459.8931    529.40683    448.95365    62.928747    37986.909 
  211400     305.2367   -1428.1388    509.61067    456.25913   -266.11473    37986.909 
  211500    306.05525   -1449.1536    493.77518    423.09562    257.61803    37986.909 
  211600    304.91037   -1450.0428    488.88985    412.16458     138.6013    37986.909 
  211700    295.00458   -1464.8867    496.00589    359.82098   -276.44135    37986.909 
  211800    300.91687   -1447.7709    490.00315    397.56308    3.0308055    37986.909 
  211900    293.62066   -1481.2999    526.90383     368.0726    -396.9795    37986.909 
  212000    303.69518   -1468.5318    509.66708    408.97961    378.17767    37986.909 
  212100    298.50777   -1484.4089     489.9812    350.05248   -183.26867    37986.909 
  212200    299.26172   -1475.8304     498.6516    370.69719   -193.97537    37986.909 
  212300    294.24225   -1458.9973    484.11662    350.38765   -371.88794    37986.909 
  212400    301.05275   -1487.9522    495.73777    363.72838   -92.101898    37986.909 
  212500    299.99724   -1497.7048     492.8271    346.31101    -815.4313    37986.909 
  212600    304.99559   -1486.8836    493.46911    380.28682   -717.05447    37986.909 
  212700    308.25568   -1499.9914    500.40954    388.80291   -78.978791    37986.909 
  212800    305.56875    -1465.689    500.03609    410.62998    716.01223    37986.909 
  212900    291.64945   -1500.7514    497.80413    310.64299    690.74267    37986.909 
  213000    291.42976   -1453.0895    504.15676    363.66813    429.89957    37986.909 
  213100      299.222    -1486.922    519.75789    380.53297    7.4402497    37986.909 
  213200    302.86761   -1493.1588    487.74265    358.70075    154.10578    37986.909 
  213300    305.25976   -1449.9759    518.79959    443.71491   -34.405814    37986.909 
  213400    306.98446   -1483.1703    483.02582    382.51478   -101.97953    37986.909 
  213500    294.68712   -1517.6802    496.52437    306.11616   -180.14164    37986.909 
  213600    288.58085   -1504.7433    515.65405       310.68   -456.76004    37986.909 
  213700    293.78122   -1478.2825    511.94405    356.85335   -107.08505    37986.909 
  213800    297.77737   -1457.7498    484.80435    368.24504   -261.04256    37986.909 
  213900    307.07418   -1429.9699    526.87946    479.97289   -443.18329    37986.909 
  214000    296.84801   -1496.9076    467.70102      307.798   -281.16913    37986.909 
  214100     300.4565   -1473.1386    480.37768    360.49636    -113.2145    37986.909 
  214200    308.64791   -1504.4953    502.08966    387.74579   -14.907781    37986.909 
  214300    303.51282   -1554.5527    498.90931     311.3796    326.70019    37986.909 
  214400    298.49358   -1537.3519    500.65327    307.71762   -93.997228    37986.909 
  214500    296.01741   -1525.2034    484.30442    292.36465    9.1005092    37986.909 
  214600    302.79643   -1493.7295    495.37363    365.44041     184.1957    37986.909 
  214700    303.30989   -1496.5107    497.20579    366.80408    614.12262    37986.909 
  214800    300.76158   -1515.3331    513.36092    352.65917   -382.00288    37986.909 
  214900    308.76946    -1480.027    509.64827    420.32018    271.63868    37986.909 
  215000    284.54715   -1507.1628     501.0873    275.52599    241.82738    37986.909 
  215100    295.70574   -1518.5714    486.40397    299.69241   -534.52029    37986.909 
  215200    295.95931   -1492.3941    483.98051     324.5883   -25.476874    37986.909 
  215300    306.04637   -1453.3181    512.52973    437.64568    145.02029    37986.909 
  215400    296.69268    -1467.338    507.59391     376.5609    395.10152    37986.909 
  215500    289.87288   -1476.5716    498.58697    327.60399    872.24352    37986.909 
  215600    306.87585   -1497.2564    519.89357    404.80721    708.04453    37986.909 
  215700    292.01762   -1499.5738    474.22676    289.90148    396.35698    37986.909 
  215800    299.34771   -1518.7323    503.76226    333.29319    245.10554    37986.909 
  215900    291.61982   -1523.3746    493.81507    283.89733   -658.75579    37986.909 
  216000    306.06818   -1504.1714    469.56684    343.92776   -658.24538    37986.909 
  216100    299.41169   -1482.5214    487.93403    353.96406   -786.95234    37986.909 
  216200     299.2848   -1476.2332    488.20867    359.95545   -120.26122    37986.909 
  216300    295.14838   -1488.4843    503.06951    343.93465   -62.182209    37986.909 
  216400    302.66749   -1498.2277    501.14797    366.13582   -81.966785    37986.909 
  216500    295.52812   -1531.1828    493.84829     293.7253    582.34987    37986.909 
  216600    318.82931   -1538.1345    491.12851     389.0025    625.42374    37986.909 
  216700    298.71767   -1489.2157    502.99482    359.20472    144.58816    37986.909 
  216800    302.58834   -1492.5086    473.40123    343.75174    570.40145    37986.909 
  216900    288.77647   -1517.9109    502.68057    285.42002    394.54285    37986.909 
  217000    303.70709   -1502.2844    502.71096    368.32452     225.1543    37986.909 
  217100    302.73434   -1505.5575    500.56587    358.52504    185.68072    37986.909 
  217200    303.43761   -1471.0658    527.55187    423.17025    80.017487    37986.909 
  217300    291.03869   -1461.8961    496.97022    345.91355   -90.546405    37986.909 
  217400    292.30067   -1466.6886     519.1657    369.00044   -333.11042    37986.909 
  217500    299.64613   -1504.0676    479.45763    324.99739   -39.398386    37986.909 
  217600    311.62983   -1480.0241    513.92721     437.4851   -726.69459    37986.909 
  217700    300.95434   -1514.2194    488.07193    329.35206   -246.51611    37986.909 
  217800    294.87264   -1469.4673    512.25809     370.8983   -887.69858    37986.909 
  217900    301.86745    -1451.827    491.41369    399.19892   -802.18782    37986.909 
  218000    304.90504   -1464.4945    501.23464    410.03365   -100.24764    37986.909 
  218100    295.51638   -1510.3479    493.20452    313.86359   -254.19423    37986.909 
  218200    289.06887   -1506.1352    494.17341    290.00559   -384.23838    37986.909 
  218300    310.28712   -1503.6638    519.59164    413.46224   -12.261766    37986.909 
  218400    313.76535   -1497.7127     508.3521     423.8398    71.544101    37986.909 
  218500    294.38927   -1469.5349    519.35982    375.75535   -61.563414    37986.909 
  218600    303.94951   -1516.7328    510.15824    362.41525    6.1140033    37986.909 
  218700    293.87946   -1564.5504    494.80591    253.88975    570.33073    37986.909 
  218800    296.13705   -1581.2913    508.65807    261.16923    63.838245    37986.909 
  218900    303.03311   -1550.8347    523.89785    337.92551     119.2742    37986.909 
  219000    296.74604   -1548.5135    476.99192    265.02377    492.38246    37986.909 
  219100    311.04939   -1525.9305    503.78069     378.8179    22.469065    37986.909 
  219200    295.11061   -1518.6838    484.76033     295.2559   -266.41723    37986.909 
  219300    308.92384    -1492.489    488.29496    387.20011   -42.926741    37986.909 
  219400    302.47887   -1479.1214     509.8961    393.14074    534.95647    37986.909 
  219500    296.08308   -1472.6285    507.06208    367.99293    20.057443    37986.909 
  219600    306.59593   -1469.0289    497.43685     409.3172    280.30753    37986.909 
  219700    298.81443   -1484.3613    499.22614    360.72628    170.46573    37986.909 
  219800    305.39046   -1455.0258    499.99248    420.44656    143.61827    37986.909 
  219900    294.35236   -1500.4557    496.50014     321.8086    422.57514    37986.909 
  220000    300.70269   -1466.8293    512.21322    399.75009    192.16435    37986.909 
  220100    305.73632   -1478.3364    503.68384    402.38499    1037.3138    37986.909 
  220200     308.4907   -1488.5379    515.40206    416.30749    450.45402    37986.909 
  220300    300.26537    -1461.971    495.28554    385.71102   -271.59294    37986.909 
  220400    305.80972   -1466.1181    485.26354    396.51363   -485.19504    37986.909 
  220500    302.23364   -1454.1157    506.66875    413.81458   -593.37327    37986.909 
  220600    304.59009   -1433.2054    484.88103    423.55061   -462.49893    37986.909 
  220700    301.23201   -1463.9853    509.03615    401.80103   -119.12697    37986.909 
  220800    303.53658   -1480.9116    496.34847    382.56679    349.40187    37986.909 
  220900    294.91907   -1489.0634    493.44557    332.69881    227.94547    37986.909 
  221000    297.52736   -1478.6128    523.77343    385.22504   -142.06655    37986.909 
  221100    299.40296   -1472.7688    479.58235    355.32568    229.66332    37986.909 
  221200    295.61883   -1464.1922     489.9558    357.23202   -106.68972    37986.909 
  221300    302.23329   -1496.5164    507.67212    372.41568    -135.2656    37986.909 
  221400    290.19734   -1482.1985    487.67251    312.52395   -172.25462    37986.909 
  221500    289.49069   -1477.0095    474.84458    301.70234   -670.13867    37986.909 
  221600    296.44784   -1511.9957    508.88749      332.094   -152.08982    37986.909 
  221700    303.50596   -1475.9262    507.21716      398.283    424.25547    37986.909 
  221800    306.84474   -1503.4908    506.36774     384.9069    75.102303    37986.909 
  221900    300.26504   -1487.6132    478.11674    342.89843   -248.06821    37986.909 
  222000    303.47506   -1496.6516    501.59047    371.79169   -198.22194    37986.909 
  222100    303.73223   -1493.1208    506.40288    381.29327   -874.99768    37986.909 
  222200    296.89551   -1467.1656    492.26767    362.32067   -598.97965    37986.909 
  222300    301.95218   -1436.6537    516.61832    439.95844   -325.87228    37986.909 
  222400    299.50531   -1462.1208    483.55947    370.41175   -227.57116    37986.909 
  222500    306.78417   -1461.6205    508.80392    428.94058    195.02427    37986.909 
  222600    306.21284   -1481.9251    492.63982    389.89859   -86.123008    37986.909 
  222700    292.04431   -1474.9438    510.43055    350.85554    630.63344    37986.909 
  222800    309.82842   -1466.0001    491.37684    420.84514    495.73802    37986.909 
  222900    302.09148   -1483.3274    499.78139     377.0752   -93.031953    37986.909 
  223000    312.10478   -1485.3022    476.50082    396.91979    -305.9942    37986.909 
  223100    305.98171   -1469.8792    518.64465    426.90827    17.952087    37986.909 
  223200    302.42684    -1456.196    506.80397     412.7397   -73.276733    37986.909 
  223300    299.44172   -1472.4839    493.45186    369.65467   -204.01813    37986.909 
  223400    302.61435    -1486.912    504.22665    380.29092   -244.22973    37986.909 
  223500    295.60627   -1476.9742    517.86775    372.30538    260.28675    37986.909 
  223600    304.33375   -1514.6161    500.59403    356.69833    331.41522    37986.909 
  223700    301.25896    -1509.096    511.53241    359.30795    188.23006    37986.909 
  223800    304.13696   -1523.4426    488.57664    334.96812    319.56991    37986.909 
  223900    293.72826   -1465.9411    499.68112    356.69328    359.90535    37986.909 
  224000     299.9454   -1498.9485    502.29562    354.30238    202.85293    37986.909 
  224100    308.06833   -1462.7947    518.73772    443.48405    133.08356    37986.909 
  224200    298.15406   -1465.6499    501.87301    379.11019   -19.296732    37986.909 
  224300     303.1352   -1490.8613    469.75248    344.21331   -420.44666    37986.909 
  224400    289.53553   -1463.4608    497.38988    337.99824   -490.56277    37986.909 
  224500    304.29953   -1460.6972    523.40897     433.2781    91.091559    37986.909 
  224600    293.61324   -1455.3408    485.34128    352.43564    42.576079    37986.909 
  224700    298.62346   -1472.5336    523.72901    396.19663    112.27387    37986.909 
  224800    297.44723   -1466.6994    489.02217    362.02631     381.1319    37986.909 
  224900    310.88377   -1489.3661    544.49324    455.34888    298.58424    37986.909 
  225000    300.42172   -1488.7172    527.11621    391.49964    -79.51357    37986.909 
  225100    299.56548   -1503.5823    509.01686    354.67865   -438.72882    37986.909 
  225200    299.30647   -1489.1325    519.60132    378.54634   -48.505554    37986.909 
  225300    304.15118   -1487.4963    512.73485    395.13662     168.5829    37986.909 
  225400    308.66009   -1486.3693    537.13703    440.97402    301.51331    37986.909 
  225500    289.27697   -1496.1417     507.4565    314.21945     694.6514    37986.909 
  225600    296.06846   -1511.8176    532.04906    353.72494    481.91653    37986.909 
  225700    300.90294   -1529.0445    501.97932    328.20286    244.11886    37986.909 
  225800    299.65943   -1549.3383    483.48016    283.80912   -47.657654    37986.909 
  225900    307.18846     -1537.16    513.74926    360.16728    468.96571    37986.909 
  226000    295.08153   -1502.9327    489.22074    315.33641   -254.46231    37986.909 
  226100    294.24843   -1482.4894    497.52998    340.33674   -562.36943    37986.909 
  226200    290.65138   -1479.9303    548.28278    377.44745   -773.87224    37986.909 
  226300    293.44089   -1454.2934     511.2672    378.63272   -566.89198    37986.909 
  226400    302.41812   -1464.8708    538.88176    436.10332    286.50126    37986.909 
  226500    300.60385   -1481.4576     524.6223    397.08565    397.09067    37986.909 
  226600    293.04573   -1514.0602    509.68203    315.50096    191.04627    37986.909 
  226700    292.60628   -1526.5617    497.01824    288.35637   -72.843971    37986.909 
  226800    285.29103   -1510.1837     522.0349    296.80307   -172.14964    37986.909 
  226900    303.02667   -1476.0743    521.04114    409.80021   -130.49076    37986.909 
  227000    309.54252   -1545.8385    496.48187    344.82409   -147.84703    37986.909 
  227100    298.23889   -1533.5193    496.39817    306.14805    175.79707    37986.909 
  227200     302.2287   -1519.0332    517.52285    359.72892   -248.48134    37986.909 
  227300    302.84389   -1484.6327    504.95661    384.33404   -262.23486    37986.909 
  227400    297.55601   -1546.9324    473.19752    266.45858   -387.87304    37986.909 
  227500    285.63913   -1515.7022    527.08689    297.90444   -352.83499    37986.909 
  227600    302.04909   -1544.0879    488.13773    304.48018   -217.71673    37986.909 
  227700    297.05087   -1486.7794    508.25218    359.39108    192.29114    37986.909 
  227800    298.27051     -1501.35    524.28233    366.34396   -612.33435    37986.909 
  227900    299.50492    -1487.999    524.90615    385.87852  -0.12691167    37986.909 
  228000    295.38358   -1537.9465    506.03346    298.49576    13.744306    37986.909 
  228100    298.57024   -1534.4705    508.64582    318.93685    46.147141    37986.909 
  228200    286.87842   -1520.5643    493.75774    265.29501   -221.59019    37986.909 
  228300    302.34292   -1474.3326    525.63717    413.05832   -275.65245    37986.909 
  228400    293.92524   -1489.9716     507.3218    341.19065   -443.82988    37986.909 
  228500    304.43027   -1493.9351    504.22075    381.44078     198.5801    37986.909 
  228600    314.24304   -1544.0224      511.007    382.33647    254.97769    37986.909 
  228700    288.21424   -1480.0863    506.34771    324.37948    -504.6656    37986.909 
  228800    307.94589   -1523.5823    510.88699    374.29416   -166.96423    37986.909 
  228900    308.06959    -1531.112    523.41239    379.84708    273.35009    37986.909 
  229000    304.65042   -1540.2086    513.71579    345.65393    173.87385    37986.909 
  229100     303.6323   -1569.3921    480.25899    278.42797    256.56203    37986.909 
  229200    303.58495    -1563.222    526.33353     330.4593    743.50808    37986.909 
  229300    288.88761   -1524.2005    494.19989     271.1503    335.09849    37986.909 
  229400    310.90368   -1522.7176    486.66212    364.25594     539.7666    37986.909 
  229500    300.10762   -1530.1212    530.54187    352.10661   -187.92274    37986.909 
  229600    297.21185   -1561.9105    501.32085    278.05372    214.98901    37986.909 
  229700    298.97877    -1509.418    515.48279    352.66637    153.17734    37986.909 
  229800    297.23291   -1516.7309    538.38581    360.39315    -13.52618    37986.909 
  229900    298.41171   -1572.3005    511.21704    282.96408   -764.64451    37986.909 
  230000    308.63339    -1577.933    504.53276    316.68574   -946.88314    37986.909 
  230100     310.4883   -1530.7535    507.73281     375.4199   -515.32848    37986.909 
  230200    303.85679    -1514.809    525.79895    379.56218   -741.15766    37986.909 
  230300    311.02536   -1551.9877    497.14535    346.01714   -952.79116    37986.909 
  230400    299.44377   -1495.5434    510.23934    363.39188   -773.88396    37986.909 
  230500    297.40048    -1525.776    523.08795    336.80487   -763.39647    37986.909 
  230600    296.45187   -1522.8315    509.09255     321.4815    281.44023    37986.909 
  230700    297.97472   -1508.9431    500.02793    333.16412     -119.514    37986.909 
  230800    306.57232   -1491.2977    521.26485    410.77014   -206.77533    37986.909 
  230900    308.71597   -1482.5989    535.63407    443.49317    386.94791    37986.909 
  231000    299.45154   -1548.7691    519.01518    318.97702   -168.69593    37986.909 
  231100    296.69751   -1537.5359    525.50892    324.29978   -447.06855    37986.909 
  231200    298.95637   -1503.9223    508.73343     351.3118   -57.188832    37986.909 
  231300    303.19931   -1528.7863    513.15836    349.98294   -308.44716    37986.909 
  231400    300.43603   -1501.4705    533.23395    384.92847   -528.55292    37986.909 
  231500    302.50168   -1520.8404    503.11963    344.74796   -432.18094    37986.909 
  231600    299.53303   -1485.6928    509.67787    373.08303    -430.4865    37986.909 
  231700    292.52549   -1488.1172    509.57632    338.99515    647.77794    37986.909 
  231800     302.5176   -1511.0623    545.61709    397.09532   -4.1489796    37986.909 
  231900    303.05233   -1509.8968    500.23331    355.28536    280.91344    37986.909 
  232000    297.59972    -1545.062    494.80975    290.13812   -205.75406    37986.909 
  232100    306.46281   -1510.7642     515.7141    385.25963    496.36456    37986.909 
  232200     297.1309   -1518.9369    508.28942     327.6313    298.76491    37986.909 
  232300    302.98671   -1527.0027    511.28027    348.93095    533.52386    37986.909 
  232400    301.51486   -1492.1351    504.38403    370.27305   -264.30718    37986.909 
  232500    302.54962   -1481.7416    492.50829    373.45138   -142.24746    37986.909 
  232600    305.55508   -1491.6039    525.33983    409.95723   -91.477545    37986.909 
  232700    289.20671   -1553.1192    494.18215    243.65109   -498.25262    37986.909 
  232800    305.30902   -1504.5517    511.31513    381.87652   -504.33019    37986.909 
  232900    292.24536   -1521.9334    517.63952    311.98037   -544.41641    37986.909 
  233000    306.19099   -1527.6549    502.38012    353.81067   -830.42662    37986.909 
  233100    307.64412   -1488.7987    506.45364    403.28531   -660.06922    37986.909 
  233200    311.02777   -1497.0822    514.21757    418.00568   -812.00354    37986.909 
  233300    328.29487   -1546.6338    496.97953    428.98709   -485.49953    37986.909 
  233400    301.02756   -1534.0859    524.85435    346.59779   -392.18173    37986.909 
  233500    291.83955   -1516.1872    531.32855    329.58785    31.008178    37986.909 
  233600    294.08632   -1508.6264    501.83576    317.77532   -30.667586    37986.909 
  233700     304.2776   -1539.8254    505.93807    336.58022   0.26389991    37986.909 
  233800    301.39826     -1556.06    523.84565     325.2846    701.39802    37986.909 
  233900    298.53552   -1553.4523    516.35989     307.5128    501.43042    37986.909 
  234000    303.72705   -1544.7154    503.39147    326.66393     394.6797    37986.909 
  234100    297.54777   -1571.6241    501.75743    270.28966    302.27037    37986.909 
  234200    308.08072   -1596.4343    510.75361    301.91606    572.09856    37986.909 
  234300    312.93341   -1556.6676    520.90638    373.69204    514.32104    37986.909 
  234400    291.30732   -1555.5937    514.29105    270.74668   -189.17898    37986.909 
  234500    288.17392    -1549.292    495.10887    243.75335    191.68846    37986.909 
  234600    300.36597   -1534.0746    529.53129    348.30616   -46.308636    37986.909 
  234700    292.39592   -1561.7782    482.55171    237.72587    366.99673    37986.909 
  234800    297.75171   -1520.4948    492.60198    313.18207   -173.20768    37986.909 
  234900    287.16595   -1522.8497    547.01313    317.55997    264.30318    37986.909 
  235000    308.25603   -1510.3833    508.30654     386.3096    180.32175    37986.909 
  235100    301.54457    -1525.305    535.56286     368.4158    102.38333    37986.909 
  235200    289.03035   -1535.1688    514.29098    280.91601    20.253747    37986.909 
  235300    294.26122   -1527.4271     493.4258    291.35244   -80.422562    37986.909 
  235400    302.32984   -1561.0889    530.99209    331.59798    -438.0212    37986.909 
  235500    301.25342   -1503.9922    502.34281    355.19719    161.19869    37986.909 
  235600    291.59499   -1516.9494    535.73476    332.13037   -558.51993    37986.909 
  235700     294.8591   -1532.5167    504.38736    299.91728    91.644548    37986.909 
  235800    286.65249   -1541.9442    516.74509    265.88481   -528.04015    37986.909 
  235900     302.1112   -1528.0666    524.53452    357.17796    5.3890219    37986.909 
  236000     302.7329   -1500.2703     494.6197    357.85959     354.9218    37986.909 
  236100    304.64345   -1536.8297    512.74163    348.02721   -108.78105    37986.909 
  236200    307.44063   -1573.8813    505.28844    316.12101    379.27274    37986.909 
  236300    302.06399   -1565.2346     484.8624    280.12525   -269.38405    37986.909 
  236400    304.12577   -1537.5477    518.02042     350.2564   -190.64924    37986.909 
  236500    307.09945   -1563.4141    494.28583    314.04886   -363.24617    37986.909 
  236600    309.43317   -1584.8508    499.96052    308.79795   -155.77612    37986.909 
  236700    302.72824    -1587.156    523.39647    299.72965   -372.42617    37986.909 
  236800    298.48867   -1529.7264    533.35738    348.02517   -227.61992    37986.909 
  236900    301.74907   -1535.8393    525.39224    348.63192    169.91571    37986.909 
  237000    303.42675   -1551.9358    501.28299    315.98248    238.52321    37986.909 
  237100    296.33889   -1555.1674    516.24634    295.79044   -107.04231    37986.909 
  237200    301.34853   -1560.6862    497.59777    294.18655    30.356254    37986.909 
  237300     298.6859   -1513.9777    504.24712    335.55191    352.05666    37986.909 
  237400    292.89482   -1538.7228    513.45522    293.93187    51.886554    37986.909 
  237500    307.89046   -1529.9083    480.01889    336.85043   -135.56917    37986.909 
  237600    298.24247   -1496.5941    515.82761    362.51878   -667.18844    37986.909 
  237700     297.2657   -1514.8267    529.02601     353.0852   -221.95164    37986.909 
  237800    300.18049   -1521.0153    531.55837    362.55723   -934.66664    37986.909 
  237900    289.40979   -1470.9752    524.45184    356.97948   -225.88371    37986.909 
  238000    304.23595   -1511.7505     520.0806    378.61005   -486.09858    37986.909 
  238100    295.52914    -1523.798    503.24324    310.50971    16.098038    37986.909 
  238200    304.96365   -1577.8214    506.66304    302.39913   -28.240237    37986.909 
  238300    301.68696   -1572.1025     477.5664    264.26317   -118.49379    37986.909 
  238400    299.45872   -1551.1986    523.60434    321.16901    804.59491    37986.909 
  238500    292.65029    -1564.172    493.90423    247.83034    481.62002    37986.909 
  238600    301.80111   -1571.9974    532.68866    320.00461     1029.055    37986.909 
  238700    302.58827   -1550.8944    535.26519     347.2296    1647.3139    37986.909 
  238800    303.58127   -1579.7833    523.48051    311.02846    1236.5044    37986.909 
  238900    298.10041   -1561.8563    530.80516    311.59435    679.30994    37986.909 
  239000       306.06   -1570.9791    508.68732    316.20367    316.51581    37986.909 
  239100    297.56447   -1548.3121    493.57499    285.49442    4.7457363    37986.909 
  239200    301.72414   -1517.7676    502.09473    343.29384   -135.44901    37986.909 
  239300    304.77907   -1551.9667    499.19579    319.95517   -235.60131    37986.909 
  239400    313.37126   -1536.3231    506.15151    381.25386    456.11431    37986.909 
  239500    305.77646   -1550.9036    523.84092    350.15577    531.72922    37986.909 
  239600    289.01993   -1553.1445    530.40918    279.01163    47.738342    37986.909 
  239700     297.1897   -1495.3756    484.59631     327.7643   -93.802985    37986.909 
  239800    295.30422   -1528.3582    526.63162    328.32477   -734.81824    37986.909 
  239900    308.12429   -1512.3378    485.07225     360.5275    60.481473    37986.909 
  240000    297.49165    -1583.853    519.35811    275.40866     8.845465    37986.909 
  240100    303.63295   -1553.7952    490.49368    304.26246    214.64832    37986.909 
  240200     301.6054   -1571.6363    475.28732    262.08297   -480.28624    37986.909 
  240300    294.60454    -1538.423    502.55827    291.03528   -412.79777    37986.909 
  240400    309.44575   -1543.8379    479.58597    329.49297   -661.35221    37986.909 
  240500    302.36383   -1574.8769    499.12988    286.10089   -460.81925    37986.909 
  240600    294.76043   -1552.1171    502.10281    277.58783    -324.9545    37986.909 
  240700    311.22158   -1516.3458    507.31345    392.71092   -1526.0896    37986.909 
  240800    310.68478   -1519.3275    493.92643    373.92445   -622.58435    37986.909 
  240900    290.41578   -1581.4325    503.81536    230.41666   -517.61334    37986.909 
  241000    291.13464    -1531.631      513.363    293.00361   -342.76698    37986.909 
  241100    308.39872   -1516.1146    495.07217    367.98663     221.6137    37986.909 
  241200    306.61509   -1553.9387    517.53764    344.59458    132.06161    37986.909 
  241300    297.25025   -1496.5827    523.94098    366.17459    200.15246    37986.909 
  241400    295.95908   -1449.1103      512.853    396.74355    13.753095    37986.909 
  241500    306.06495   -1498.4775    516.88009    396.92039   -207.37934    37986.909 
  241600    307.08876   -1487.0838    497.08905    393.13425   -278.96268    37986.909 
  241700    303.73399   -1464.6386    562.79957    466.18013    -863.9608    37986.909 
  241800    294.32256   -1496.8011    496.28935    325.11821   -130.39804    37986.909 
  241900    300.75713   -1493.0722    518.79338    380.33253   -146.24471    37986.909 
  242000    293.48431   -1540.3297    580.42852    361.95336    351.28195    37986.909 
  242100    289.74082   -1520.5614    506.00041    290.43279    102.54441    37986.909 
  242200    313.32626   -1493.5948    527.14593    444.77382    307.31952    37986.909 
  242300    300.39051   -1489.2575    517.19891    380.90143     165.9503    37986.909 
  242400    296.22212   -1519.8964    506.14063    320.42984    385.43217    37986.909 
  242500    307.04835   -1526.4242    536.83428    393.35705    106.82186    37986.909 
  242600    294.43554    -1473.342     490.9397    343.73654    75.227905    37986.909 
  242700    291.12724    -1484.727    523.04251    349.55371    334.37598    37986.909 
  242800     293.3959   -1504.8469    533.40067    350.01003    696.68338    37986.909 
  242900     299.9802   -1522.5595    532.81015    361.36269    757.88432    37986.909 
  243000    296.82911   -1536.3153    513.00616    313.61033   -204.64423    37986.909 
  243100     295.0846   -1538.7582    537.05819    327.36219    470.05714    37986.909 
  243200    294.91464   -1499.5116    514.59181    343.37696    -587.2599    37986.909 
  243300    314.17912   -1483.4114    515.74719    447.39982   -296.82496    37986.909 
  243400    290.87754   -1506.0224    522.24175     326.3329   -826.13191    37986.909 
  243500    292.90557   -1491.7424    543.69439    371.19986   -675.15142    37986.909 
  243600    291.45977   -1497.8992    527.20886    342.04568   -9.5194731    37986.909 
  243700    295.03082   -1510.4066    509.36926    327.78271   -204.08108    37986.909 
  243800    291.85325   -1533.5397    517.13266    298.10115    279.51433    37986.909 
  243900    303.96099   -1529.7314    502.12984    341.43992    643.31106    37986.909 
  244000    285.49758   -1508.5589    523.40724    300.73057      744.691    37986.909 
  244100     299.4179   -1505.5066    526.18277    369.25557    865.33848    37986.909 
  244200    293.16068   -1495.6066    506.63812    331.42837    374.53083    37986.909 
  244300    294.37516   -1504.0875    550.75033    372.52976    237.48646    37986.909 
  244400    295.44311   -1475.9685    519.30967    374.01817   -304.66004    37986.909 
  244500    298.01692   -1491.3142    531.34504    382.30024   -532.24872    37986.909 
  244600    302.68037   -1494.8438    532.28867    400.71851   -686.06137    37986.909 
  244700    296.97055   -1521.8697    518.26053    333.94733   -502.35335    37986.909 
  244800    302.52273   -1489.3361    512.09309    385.32059   -4.1928176    37986.909 
  244900     281.5923   -1522.7366    519.52962    265.08588   -183.95169    37986.909 
  245000    298.84385   -1569.9536    496.49744    272.53776    76.450627    37986.909 
  245100    286.59582   -1495.5871    502.24846    297.49011   -408.51968    37986.909 
  245200    291.30953   -1541.1479    526.14983    297.06118   -349.85749    37986.909 
  245300    305.98856   -1480.7643    484.36061    381.76998    -321.3413    37986.909 
  245400    299.62088   -1509.0514    529.07286    369.51513     28.91928    37986.909 
  245500    298.17015   -1493.9423    472.68193    321.69916   -135.54047    37986.909 
  245600    306.43431   -1494.4715    515.05676    400.76657   -356.92638    37986.909 
  245700    295.81445    -1520.835    520.82672     332.3412   -480.35769    37986.909 
  245800    294.01066   -1510.0387    512.28322    326.46966   -309.68127    37986.909 
  245900     309.0801     -1493.06    510.83119    409.86922   -524.21987    37986.909 
  246000    298.31775   -1520.0653    478.25154    301.81053   -693.88639    37986.909 
  246100    314.92759   -1492.9003    524.30341    449.83823   -761.70078    37986.909 
  246200    306.18885   -1553.3049     499.7992     325.5701   -372.31637    37986.909 
  246300    291.34527   -1541.1303     516.1803    287.27021   -98.988106    37986.909 
  246400    290.80964   -1573.6482    508.32906    244.48859   -53.539117    37986.909 
  246500    309.79736   -1511.1646     483.9537    368.11764   -173.70899    37986.909 
  246600    305.83952   -1535.4427    532.27379    374.33351   -284.79951    37986.909 
  246700    286.95918   -1544.1929    500.20548     248.4779   -390.17518    37986.909 
  246800     304.1903    -1513.376    510.78699    367.48535    220.83526    37986.909 
  246900     294.2024   -1521.5689    510.31904     313.8389   -267.44223    37986.909 
  247000    318.23252    -1474.285    520.95004     479.9856    237.45769    37986.909 
  247100    293.20114   -1476.2998    509.65777    353.93708   -475.08394    37986.909 
  247200    293.74369   -1492.9508    530.31518    360.38713   -348.27944    37986.909 
  247300    298.88447   -1487.5625    523.05979    381.67419   -149.31118    37986.909 
  247400    308.99469   -1464.5828    507.45881    434.58933   -219.68342    37986.909 
  247500    301.62785    -1484.364    529.61712    403.78612    -74.65013    37986.909 
  247600    304.02359   -1483.5774    515.16451    400.91052    126.07617    37986.909 
  247700    307.25494   -1466.6305    518.04937    435.29642    -43.30357    37986.909 
  247800    292.22036   -1493.0166    529.85034    352.99541   -78.479226    37986.909 
  247900    302.51491     -1494.87    521.34105    388.99939    39.588883    37986.909 
  248000    298.80611    -1513.674    496.85603    329.00589   -3.0208615    37986.909 
  248100    303.75102   -1480.9966    529.36127    416.46053   -280.72903    37986.909 
  248200    298.68974   -1461.6603    534.90399     418.5435    -429.3753    37986.909 
  248300    305.30752   -1521.3527    544.77775    398.53136   -411.67817    37986.909 
  248400    302.35716   -1457.9173    550.43178     454.3323    104.03757    37986.909 
  248500    304.51925     -1447.63    520.12625    444.05217    215.61742    37986.909 
  248600    302.27298    -1474.169    502.53946    389.80916    -231.6402    37986.909 
  248700    308.11266   -1521.1633    507.21782    373.79519    157.64197    37986.909 
  248800    295.19815   -1509.2442    507.74676    328.07623   -327.99185    37986.909 
  248900    309.53953   -1533.8961    468.34036    328.61152   -286.92096    37986.909 
  249000    303.38289   -1499.5339     502.6788    369.58261    106.60435    37986.909 
  249100    307.38801     -1509.71     502.4209     377.1877   -51.545055    37986.909 
  249200    306.32054   -1502.2828    512.54691    389.93307     173.5671    37986.909 
  249300    298.79828   -1481.3878    518.99618    383.39706   -167.70212    37986.909 
  249400    292.57078   -1531.5653    533.06785    319.24252   -394.55474    37986.909 
  249500    300.41359   -1504.1822    480.80321    329.68503   -467.26494    37986.909 
  249600    302.44669   -1522.7318    510.54024    350.02956   -378.47137    37986.909 
  249700    297.73825   -1525.3802    504.62326    320.25731   -82.452812    37986.909 
  249800    300.67164   -1513.8726    514.11007     354.4638    352.70524    37986.909 
  249900    295.75712   -1501.4118    518.32587    349.00538    832.82986    37986.909 
  250000    298.09287   -1469.3181    544.90444    418.19785    270.57807    37986.909 
  250100    294.09073   -1461.2905    533.06726    396.36263    570.80128    37986.909 
  250200    310.75878   -1438.3155    496.64974    457.99302    786.54614    37986.909 
  250300    290.45662   -1514.0789    532.90126    327.04011    408.58383    37986.909 
  250400     299.8337   -1424.9106    556.02561    481.56714    297.10757    37986.909 
  250500    308.05627   -1483.9843    489.96697    393.46937    495.53352    37986.909 
  250600    303.75996   -1475.4076      518.015    410.74346    932.95282    37986.909 
  250700    303.65832   -1467.4364    517.94472    418.18658    70.270022    37986.909 
  250800    306.15502   -1481.4403    514.58138    412.06445    555.07506    37986.909 
  250900    299.34024   -1526.9008    510.73062    332.05946    459.06538    37986.909 
  251000    303.80881   -1522.8395    504.34292    349.85949    76.342655    37986.909 
  251100    295.36971   -1480.3994    510.62246    360.56936    269.73809    37986.909 
  251200     297.3039   -1469.6352    555.07342     424.4962    61.699641    37986.909 
  251300    295.72072   -1423.7521    527.23485    435.41012    145.05446    37986.909 
  251400    307.63621   -1424.8118    553.94245    514.72538    187.32751    37986.909 
  251500    297.09738   -1479.7476    511.83517    370.21535   -65.634221    37986.909 
  251600    291.05451   -1454.8248    514.83383    370.91967    272.36775    37986.909 
  251700    303.10425   -1445.4742    506.66633    426.37495   -423.57233    37986.909 
  251800    294.58387    -1447.306    541.95085    421.45182   -800.44711    37986.909 
  251900    292.77022   -1443.5006    493.10646     368.2441   -567.75419    37986.909 
  252000    302.74093    -1473.789    493.46064    383.21795   -836.85471    37986.909 
  252100    296.32646   -1436.3574    515.08409    413.38224   -814.30967    37986.909 
  252200    289.30368   -1428.4708    515.78603    390.34014   -681.92668    37986.909 
  252300    302.14109   -1481.9782     524.2413    403.10782    296.33483    37986.909 
  252400    302.76101   -1466.1866    493.69099     391.1412    520.86103    37986.909 
  252500    298.80442   -1489.1265    524.78134    381.47118    611.26393    37986.909 
  252600    305.88464   -1506.4962    519.54012    390.74952    327.89992    37986.909 
  252700    290.56296   -1491.8788    515.24698    332.06491   -115.74474    37986.909 
  252800    292.72106   -1490.7353    525.12217    352.80368    204.45897    37986.909 
  252900    287.16101   -1485.8916    501.09194    308.57466    235.85929    37986.909 
  253000    289.08067   -1481.5997    506.22409    326.64487   -207.83287    37986.909 
  253100    294.16533    -1462.732    525.17194    387.36179   -497.53938    37986.909 
  253200    283.28569   -1474.9304    532.03376    333.02326   -628.63435    37986.909 
  253300    306.57546   -1482.4168    491.03646    389.43678   -754.74246    37986.909 
  253400    293.40302   -1489.6493     497.9035    329.74254   -786.72518    37986.909 
  253500    320.88279   -1477.2313    491.90518    459.93121   -968.10755    37986.909 
  253600    311.89681   -1464.5749    536.56379    476.77332    -174.4917    37986.909 
  253700    293.60754   -1478.2137    517.45715      361.653   -67.650385    37986.909 
  253800    295.22751   -1498.2515     529.8559    361.31028   -184.18202    37986.909 
  253900    296.03376   -1440.1825    531.89756     425.0523    275.37911    37986.909 
  254000    301.07252   -1447.4132    523.87358    432.49217   -240.86258    37986.909 
  254100    297.70634   -1520.3595    477.25866     297.7697    267.82554    37986.909 
  254200      292.296   -1498.6173    508.98469    326.86971   -184.94896    37986.909 
  254300    299.52388   -1500.7705    525.03133    373.31758    196.82933    37986.909 
  254400    302.12361    -1497.447    500.28679    363.60577    228.43565    37986.909 
  254500    292.19723   -1452.6639    561.93394    425.32754   -262.68158    37986.909 
  254600    305.17781   -1474.3306    515.74857       415.94   -252.73787    37986.909 
  254700     299.8959   -1460.3344    528.07033    418.46825   -211.51351    37986.909 
  254800    301.49574   -1475.0642    502.38102    385.25485   -128.16756    37986.909 
  254900    300.38415   -1482.9739    511.78646    381.74401   -535.94628    37986.909 
  255000    295.03778   -1454.6089    518.24772    392.49017   -640.77324    37986.909 
  255100    308.24589   -1462.0542    519.88163    446.16818   -257.45557    37986.909 
  255200    306.21487   -1537.1542    511.95484    353.99364   -546.21578    37986.909 
  255300    304.82079   -1523.7445    522.62467    371.79422   -193.57587    37986.909 
  255400    304.08163   -1466.2875    511.80282    415.10025    206.34462    37986.909 
  255500    309.64269   -1506.8268    499.07342    386.87852   -526.50467    37986.909 
  255600    310.06805   -1476.3231    522.37481    442.59948   -290.80183    37986.909 
  255700    295.15614   -1514.4689    511.00609    325.92158   -472.70491    37986.909 
  255800    305.18445   -1507.8765    520.12573     386.8012   -508.81893    37986.909 
  255900    290.09951   -1532.7482    506.96705    280.82814   -557.33352    37986.909 
  256000    298.78778   -1529.5769    503.85808    320.02258   -875.52847    37986.909 
  256100    304.24485   -1542.4201    507.41207    335.31198   -462.20415    37986.909 
  256200    297.16735   -1569.2764    492.36987    261.53644   -554.22275    37986.909 
  256300     289.6756   -1586.2128    486.51499    205.00231   -444.75991    37986.909 
  256400     295.4985   -1525.3803    494.38712    299.93324   -172.44367    37986.909 
  256500    300.59632   -1550.5815    513.55709    316.86257    66.451374    37986.909 
  256600     292.7613   -1519.4451    499.10593    298.25891    159.86815    37986.909 
  256700    303.32883   -1533.4243    511.46453    344.23451   -35.089656    37986.909 
  256800    293.04358   -1554.3415    480.30176     245.8297    764.70544    37986.909 
  256900    299.96854   -1524.2505    533.36871    360.17769    586.10279    37986.909 
  257000     291.2356   -1509.9752    505.25963    307.01076    601.58614    37986.909 
  257100    307.55781   -1547.3152    505.30406     343.2305    838.55393    37986.909 
  257200    304.19354   -1526.0096    507.91158    351.99089    104.39571    37986.909 
  257300    305.13587   -1526.9808    506.41755    353.76987   -149.00949    37986.909 
  257400    298.78393   -1541.0958    499.52849    304.15671   -412.95991    37986.909 
  257500    303.59866   -1572.9726    498.49851    292.93555    316.65998    37986.909 
  257600    287.59125   -1557.4661    526.30719    264.15325    381.84766    37986.909 
  257700    294.47774   -1552.9458    526.73906    300.12216   -145.06681    37986.909 
  257800    290.97337   -1503.0786    520.41173     327.8784    603.84802    37986.909 
  257900    308.52599   -1519.0658    523.64835    394.18489    713.73904    37986.909 
  258000    299.67763   -1589.8562    515.53595    275.42899    644.55782    37986.909 
  258100    309.79185   -1543.7585    508.51206    360.05734    716.56869    37986.909 
  258200    299.52994   -1569.4739    526.84472    306.45482    666.00985    37986.909 
  258300     291.1613   -1555.1928    524.37126    280.57013    407.57315    37986.909 
  258400    307.13428   -1564.9358    530.94126    349.33945    317.13191    37986.909 
  258500    295.56206   -1543.7137    503.48808    290.98707   -317.27316    37986.909 
  258600    302.34873   -1521.2687    514.38618    354.89741   -123.66989    37986.909 
  258700    307.63885   -1504.7131    522.23996     403.1335   -429.29187    37986.909 
  258800    291.48291   -1520.9792    509.24222    301.10326   -38.152068    37986.909 
  258900    305.38747   -1513.0495    524.81993    387.23678   -337.82527    37986.909 
  259000    303.20638   -1515.1059    506.80061     357.3375   -439.36328    37986.909 
  259100    307.30685   -1495.8217    501.91424    390.20382   -213.55009    37986.909 
  259200    301.62341   -1481.7432    525.60798    402.37778   -671.94529    37986.909 
  259300    298.16325   -1473.3822    524.66693    394.21323   -287.91387    37986.909 
  259400     292.6218   -1471.3307    528.46194    375.10104   -724.68255    37986.909 
  259500    304.77862   -1496.4041    509.33072     385.6507   -395.81316    37986.909 
  259600    284.38482   -1534.2257    517.71314    264.35778   -38.342821    37986.909 
  259700    335.32429   -1510.3606    486.75942    486.70077    122.68599    37986.909 
  259800    304.86252   -1479.1226    505.74887     399.7283   -491.32222    37986.909 
  259900    306.69674   -1482.1914    484.07079    383.24276   -597.97571    37986.909 
  260000    291.84043   -1510.4976    499.97515      303.928   -378.24768    37986.909 
  260100      297.459   -1489.9675    522.80604    372.59511   -417.13478    37986.909 
  260200    304.44024   -1458.9818    535.63182    447.85012    248.73855    37986.909 
  260300    299.50507   -1494.6982    505.42702    359.70084    716.44886    37986.909 
  260400    306.50222   -1487.5879    519.08973    411.98906    242.25124    37986.909 
  260500    301.30221   -1471.1795    517.94295     403.8298    326.15158    37986.909 
  260600    288.42194   -1490.4504    520.24088    328.84403     164.4175    37986.909 
  260700     306.3693   -1461.9544    539.62014    457.55431    151.78737    37986.909 
  260800    307.53937   -1489.5632    507.26203     402.8574    112.61571    37986.909 
  260900    290.78362   -1493.3904     532.7505    349.05065    381.60826    37986.909 
  261000    302.46274   -1460.7423    548.70779     450.2589   -299.87344    37986.909 
  261100    299.63632   -1476.5584    493.59511    366.59989    318.38288    37986.909 
  261200    296.46791   -1537.0303    527.47297    325.73528   -48.578398    37986.909 
  261300    295.42528   -1488.8351    530.43898    372.20056   -48.251901    37986.909 
  261400    301.57018   -1559.2975    496.20736    295.18313    73.650491    37986.909 
  261500    303.15502   -1564.7006    491.10478    291.81564   -350.80671    37986.909 
  261600    296.08321   -1578.9015    498.73747    253.39592   -337.47904    37986.909 
  261700    300.61964   -1546.7532    513.36966    320.60855    220.47397    37986.909 
  261800     295.1344   -1507.7734    521.54904    343.06218    537.84267    37986.909 
  261900    300.91762   -1531.1214       502.23    326.44279    1.4252152    37986.909 
  262000    306.95727   -1540.1521    493.33415    335.71881    789.37506    37986.909 
  262100    299.88022   -1588.3044    529.50382    291.86109   -225.93751    37986.909 
  262200    295.60054   -1522.6834    512.41868    321.12136    243.60206    37986.909 
  262300    303.91211   -1522.5859     492.3926     338.6281    846.94621    37986.909 
  262400    293.88071    -1536.802    550.86677    337.70468    560.38637    37986.909 
  262500    298.05748   -1516.2508    499.98595    326.18717    706.83989    37986.909 
  262600    305.89064   -1505.2651    523.60184    396.06934    204.40661    37986.909 
  262700    292.48102     -1484.56    509.55367    342.32936    145.14894    37986.909 
  262800    295.99715   -1510.5031    537.80163    360.47086   -283.47553    37986.909 
  262900    303.77251   -1528.0395    488.16282    328.31589   -366.40323    37986.909 
  263000    292.91946   -1520.1707    520.92136    320.06104   -121.61326    37986.909 
  263100    305.77394   -1521.2533     495.5616    351.51539    43.242012    37986.909 
  263200    308.16446   -1511.3489    503.87552    380.50061    408.26506    37986.909 
  263300    300.23478   -1526.8155    514.73184    340.17496    124.94573    37986.909 
  263400    300.99516   -1524.9091    499.17506    329.94941    657.65866    37986.909 
  263500    307.44066   -1551.2497    494.51628    327.98049    835.57929    37986.909 
  263600     302.7186   -1559.4661    538.26217    342.24189    228.99345    37986.909 
  263700    294.90268   -1528.8678    483.92184     283.2969     174.6857    37986.909 
  263800    303.68919    -1503.928    493.52145    357.41073   -380.56109    37986.909 
  263900    298.61641   -1483.0639    502.05012    363.95572    465.50754    37986.909 
  264000     294.2576   -1495.5274    502.43081    332.24082   -328.93801    37986.909 
  264100    293.64247   -1458.8206    516.93641    380.68266   -581.57238    37986.909 
  264200    299.49603   -1475.2324    527.16629    400.86519    162.47858    37986.909 
  264300    293.63475   -1471.0445    521.52056    373.00813   -218.87024    37986.909 
  264400    307.25821   -1453.7925    523.84916    453.94886    47.494945    37986.909 
  264500    303.78604   -1464.3391    497.26781    401.18229    49.708469    37986.909 
  264600    300.09138    -1456.415    517.71332    412.91106    455.03594    37986.909 
  264700    294.28049   -1540.4469    480.29256    265.28621    162.85436    37986.909 
  264800    301.41516    -1499.556    523.36075    381.37988    208.21571    37986.909 
  264900     300.0239   -1519.2692     502.1576    334.19725    248.13558    37986.909 
  265000    303.86879   -1490.1418    502.79614    381.28055    241.11202    37986.909 
  265100    307.19208   -1515.5809    516.87822    384.89168   -437.66071    37986.909 
  265200    303.97705   -1564.9661    482.15069    286.29844   -227.77431    37986.909 
  265300    297.78685   -1536.4884    515.71549    320.46023   -62.892877    37986.909 
  265400    302.34699   -1548.1531    520.61706    334.23596   -489.25081    37986.909 
  265500    291.01128   -1539.8329    461.55562    232.43868   -461.27639    37986.909 
  265600    305.17441   -1525.8345     510.7156    359.38784   -246.13516    37986.909 
  265700    294.00166   -1533.3419     495.8883    286.73109    -99.98416    37986.909 
  265800    293.36315   -1565.1511    508.32903    264.48678    -284.5879    37986.909 
  265900    289.90871     -1540.13    497.53279     263.1528   -299.89533    37986.909 
  266000    290.82854   -1568.4078    499.82442    241.30952   -135.42579    37986.909 
  266100    297.43291   -1552.7415    532.82339    319.72094    292.20482    37986.909 
  266200    301.93629   -1552.5075    490.53992    297.95465    507.34773    37986.909 
  266300    297.99994   -1523.3049    522.64942    341.53744    164.72843    37986.909 
  266400    292.90887   -1503.2483    490.65162    306.66598    36.500887    37986.909 
  266500     298.0239   -1540.5652    501.27351    303.00919    206.48291    37986.909 
  266600    299.29855   -1546.6485    503.94522    305.33855   -13.850562    37986.909 
  266700    302.08543   -1537.0497    497.11301    320.65727    31.997659    37986.909 
  266800    293.57355   -1549.1268    492.57405    265.70365   -444.38647    37986.909 
  266900    312.76392   -1562.5379    498.14852    344.30058   -36.907751    37986.909 
  267000    306.39759   -1563.3389    470.07753     286.7546    24.068301    37986.909 
  267100    308.53507   -1596.4159    496.06298    289.29023    -322.9461    37986.909 
  267200    295.80512   -1564.8793    474.45598    241.88416   -541.71263    37986.909 
  267300    296.09799   -1552.1366    480.39734    261.88729   -474.68628    37986.909 
  267400    312.10098   -1576.4376    481.08131    310.34777    -392.2195    37986.909 
  267500    303.70666   -1551.6779     515.4224    331.64056   -382.26633    37986.909 
  267600     306.6499   -1596.1387     477.9634     262.9771   -461.53314    37986.909 
  267700    295.82244   -1534.8198    502.15236    299.71806   -103.90644    37986.909 
  267800    302.81633   -1506.2363    485.60214    343.25184   -12.258516    37986.909 
  267900    290.13695   -1517.5057    498.13896    287.41129    834.90125    37986.909 
  268000    299.19398   -1523.5854    462.39782    286.38324    582.49477    37986.909 
  268100    307.11557    -1515.316    490.88021    358.81401    558.05976    37986.909 
  268200    305.07965   -1540.7503    483.55983    316.88949   -55.285316    37986.909 
  268300    303.02448    -1555.121    474.50459    284.20703   -184.63262    37986.909 
  268400    303.92064   -1572.4517    454.80284    251.21094    51.232863    37986.909 
  268500    293.95568   -1567.9598    493.29144    249.30918   -99.261945    37986.909 
  268600    296.11273   -1559.3466    456.68607    231.03238   -92.703064    37986.909 
  268700    296.83528   -1556.0577    497.30693    278.19649   -458.22362    37986.909 
  268800    306.85099    -1540.184    468.97776    310.85186   -33.041069    37986.909 
  268900    312.72017   -1552.2394    490.39056     346.6441   -19.994566    37986.909 
  269000    298.66905   -1549.7133    503.40948    298.90275   -191.87868    37986.909 
  269100    300.77481   -1536.9968    487.29927    304.99337    271.69011    37986.909 
  269200    299.65516   -1543.7274    490.06334    295.98399    -252.0749    37986.909 
  269300     310.8413   -1517.5912    509.55624    391.99556    89.591582    37986.909 
  269400    289.00696   -1501.6428    515.11079    315.15652    379.55214    37986.909 
  269500    300.50504    -1517.713    508.05695    343.81985   -365.75407    37986.909 
  269600    304.30123   -1522.3181    490.10538    338.36117   -591.09822    37986.909 
  269700    289.95286   -1523.0927    495.42201    278.27817    -219.7624    37986.909 
  269800    309.50545   -1485.4813    507.89513    416.42759    236.99606    37986.909 
  269900    307.10918   -1495.3257     460.4941    348.38939    136.42228    37986.909 
  270000    306.74953   -1542.4833    527.46679    366.58457    170.89386    37986.909 
  270100    302.35681   -1514.4148    476.01942    323.42093     -4.47283    37986.909 
  270200    298.25214   -1524.3557     493.7184    312.69155   -183.50771    37986.909 
  270300    300.30107   -1499.8286    490.37316    343.10181    355.49076    37986.909 
  270400    299.77472   -1501.9189    506.56293     354.8306   -2.1901732    37986.909 
  270500    300.61826   -1499.5928    504.40506    358.79809    464.02987    37986.909 
  270600    289.05757   -1548.3536    508.28072    261.84359    78.948905    37986.909 
  270700    295.79286   -1497.6101    495.69207    330.33424     178.0422    37986.909 
  270800    301.68033   -1531.7692    502.32652    329.32668    306.77112    37986.909 
  270900    303.24082   -1549.4052    487.78404    304.17671    502.05447    37986.909 
  271000    308.56899   -1511.8089    504.23695    382.22401      959.681    37986.909 
  271100      297.955   -1479.7755    488.09749    350.31249    570.66443    37986.909 
  271200    302.61063   -1506.5908    495.62215    351.99087    754.44365    37986.909 
  271300    308.67389   -1533.4973    520.08114    376.85224    285.21938    37986.909 
  271400    308.75117   -1523.2582    464.49974      331.858    368.01987    37986.909 
  271500    309.51815   -1539.7105    466.42027     320.7808    649.42938    37986.909 
  271600    300.56304    -1524.328    513.61061    343.01971   -77.512771    37986.909 
  271700    296.56291   -1530.5653    510.32014    315.47533    143.64446    37986.909 
  271800    305.13582    -1582.497    520.34135    312.17736    161.63632    37986.909 
  271900    301.40825   -1516.1445    493.83991    335.23938    85.802082    37986.909 
  272000    299.60556   -1532.8038    485.00036    301.62118    424.07109    37986.909 
  272100    309.57555   -1542.0594    511.98806    364.25816     85.71064    37986.909 
  272200    311.40337   -1497.2797    469.75715    375.03945    -91.71494    37986.909 
  272300    295.34584   -1519.7794    497.91041     308.3699    127.13894    37986.909 
  272400    306.23082   -1540.0291    514.47253    353.70827    383.25467    37986.909 
  272500    293.69183   -1518.3787    498.04433    302.45487    394.30075    37986.909 
  272600    309.04804    -1482.775      506.075    415.25365    213.05096    37986.909 
  272700    296.12983   -1513.6628    482.94784    303.05497    31.764572    37986.909 
  272800    289.62805    -1500.288    519.33691    323.53475   -172.27259    37986.909 
  272900    302.59551      -1468.7     485.0597    379.25111   -476.43669    37986.909 
  273000    298.95375   -1489.2938    496.79309    353.98819   -832.38086    37986.909 
  273100    301.66032   -1513.8975    493.60555    338.38731    -410.8152    37986.909 
  273200    304.78225   -1476.2294     498.4344     394.9455   -669.16602    37986.909 
  273300    313.69448    -1507.485    492.93975    398.33591   -547.00917    37986.909 
  273400    307.95274   -1488.8412    486.00059    384.17977   -172.72888    37986.909 
  273500    301.28525   -1532.9282    518.51964    342.58139   -124.29335    37986.909 
  273600     299.4802   -1491.9047    479.51785    336.47313    -650.5852    37986.909 
  273700    309.40157   -1465.0359    510.41003    438.91999   -16.902385    37986.909 
  273800    315.26522   -1453.7651    470.16395    436.35464    16.016109    37986.909 
  273900    296.84317   -1500.7121     518.6021    354.87278    734.85064    37986.909 
  274000    312.70247   -1533.4752    492.72525    367.66323    700.30259    37986.909 
  274100    301.15874   -1489.6797    498.08345    364.82391    1014.5189    37986.909 
  274200    302.31962   -1459.5099    484.86071     386.9996    1021.1507    37986.909 
  274300    305.49998   -1490.3599    516.28169    401.89494    750.98143    37986.909 
  274400    299.79345   -1482.4017    508.26456    376.13371    969.89523    37986.909 
  274500    300.41376   -1487.9611    511.12583     376.2295     194.3813    37986.909 
  274600    309.59906   -1494.3503    496.60325    396.68838      431.094    37986.909 
  274700    306.13443   -1468.7998    505.78836    415.81931    231.27364    37986.909 
  274800    293.23182   -1480.0221    487.40063    328.09585   -103.98698    37986.909 
  274900    291.34802   -1520.4198    509.29955    301.11241    502.36859    37986.909 
  275000    292.77833   -1496.4858    517.64105    339.83002   -73.095609    37986.909 
  275100     294.4221   -1463.7243    491.07541    353.42946     164.7045    37986.909 
  275200    302.26635   -1502.9019    483.81361     342.3205    201.26649    37986.909 
  275300     296.3503   -1465.6187    491.21367    360.35786    74.092829    37986.909 
  275400    304.66838   -1494.3351    482.40776    360.30031    328.59158    37986.909 
  275500    289.63406   -1475.4066    507.01151    336.11789   -33.266961    37986.909 
  275600    306.68476   -1491.8571    484.40849     373.8608    96.502536    37986.909 
  275700    304.34005   -1479.4009    481.77435    373.12223   -134.15581    37986.909 
  275800    303.46387   -1481.8076    494.06456    379.05939   -664.95995    37986.909 
  275900    296.24958   -1454.8303    484.08526    363.56424   -541.51461    37986.909 
  276000    303.47667   -1509.5272     490.3477    347.68066   -566.55594    37986.909 
  276100    303.54492   -1499.0664     480.3541     348.4552   -212.29515    37986.909 
  276200    315.01163   -1524.0241    494.40553    389.19501   -68.379698    37986.909 
  276300    307.03304   -1508.1939    501.31229    375.99641   -164.40308    37986.909 
  276400    293.21737   -1499.2465    459.07701    280.48271   -243.49153    37986.909 
  276500     296.9833   -1474.4112    486.22687    349.42964   -30.154339    37986.909 
  276600    310.23121   -1488.4359    507.26814    416.11481    334.90005    37986.909 
  276700    295.04585    -1517.781    475.38576    286.49244    577.47457    37986.909 
  276800    293.64182   -1489.8051    504.61984    337.37872    718.32405    37986.909 
  276900    308.73338   -1506.2682    480.07078    364.33895    19.485969    37986.909 
  277000    302.88881   -1514.6279    475.91372    325.49823    11.395942    37986.909 
  277100    297.17881   -1538.3998    498.43678    298.53153    512.36316    37986.909 
  277200    292.77286   -1536.0493     493.8237     276.4245   -217.72444    37986.909 
  277300     306.7637     -1490.02    494.01533     385.6602   -77.457738    37986.909 
  277400    299.67255   -1463.2438    503.65754    390.14012   -1027.4494    37986.909 
  277500    298.61753   -1490.7045    479.70059    333.97065   -345.74062    37986.909 
  277600    296.53977   -1447.5328    482.50853    370.59207   -624.93855    37986.909 
  277700    304.48965   -1493.8039    490.73952    368.35824   -688.47302    37986.909 
  277800    287.11108   -1513.4935    486.81629    266.47228   -260.53668    37986.909 
  277900    297.80035   -1486.8171     494.0646    348.54146    -412.1123    37986.909 
  278000    293.82423   -1481.9808    491.10892    332.51364   -403.63127    37986.909 
  278100     291.6694   -1501.6805    461.35357    273.35322   -245.49941    37986.909 
  278200     292.4369   -1522.7731    486.85211    281.21595     59.71396    37986.909 
  278300     297.1722     -1498.24    474.27977    314.50455   -320.60452    37986.909 
  278400    295.24534   -1506.8002    470.33696    293.32291   -172.52633    37986.909 
  278500    298.86153   -1523.0073    477.42576    300.49194    170.15662    37986.909 
  278600    307.14303   -1508.5848    504.90937    379.69802    714.24997    37986.909 
  278700    308.35633   -1497.8726    471.62784    362.59331    604.79097    37986.909 
  278800    302.93183   -1481.8723    477.92643    360.46031    25.030423    37986.909 
  278900    301.48864    -1534.469    501.75293    325.18996   -577.30955    37986.909 
  279000    287.76994   -1507.8251      476.262    264.55386   -53.522804    37986.909 
  279100    293.17469    -1498.713     476.0601     297.8071   -540.22743    37986.909 
  279200    302.98847   -1516.4502    490.26837    338.47946   -131.60025    37986.909 
  279300    294.84042   -1518.1346    478.19606    288.02384    33.495352    37986.909 
  279400    298.74649   -1480.6409    490.90336    355.81788   -7.7537157    37986.909 
  279500    309.84686   -1463.6157    466.60782    398.54359    799.68543    37986.909 
  279600    306.65911   -1497.6464    467.31985     350.8673    637.29437    37986.909 
  279700    308.29961   -1500.1358    482.48508    370.93196    315.28361    37986.909 
  279800    311.74238   -1518.4415    472.08835    357.73584     180.1102    37986.909 
  279900    298.77099   -1501.5149    473.04526    317.19603    -84.83804    37986.909 
  280000    304.29842   -1490.0248    498.22912    378.76562   -85.150112    37986.909 
  280100    296.14382   -1428.9292    473.98807    378.89178    34.395973    37986.909 
  280200    292.51989   -1443.0489    492.34352    366.80537  -0.90735827    37986.909 
  280300    295.14185   -1500.2303    482.16404    311.25383   -108.02687    37986.909 
  280400    296.71653    -1520.239    444.73513    260.90852   -735.24762    37986.909 
  280500    300.91329   -1499.5485     479.2047    334.97091   -330.40765    37986.909 
  280600    293.33757   -1503.3758    465.85752    283.67529   -351.76954    37986.909 
  280700    304.14199   -1507.2042    497.94386    360.59634   -116.68785    37986.909 
  280800    298.29835   -1487.6044     472.1286    328.06116    167.32643    37986.909 
  280900    289.18312   -1514.7928    485.02366    272.71281    159.89558    37986.909 
  281000    303.16905   -1498.1808     480.4588    347.75261    497.27402    37986.909 
  281100    307.61565   -1491.9358    467.97636     361.5427   -368.43732    37986.909 
  281200    304.72663   -1471.8124    482.25572    382.93329   -232.83596    37986.909 
  281300    295.23346   -1511.6763    458.37755    276.43392   -298.92252    37986.909 
  281400    301.60739   -1488.2972    503.41452    373.55822   -469.32329    37986.909 
  281500    300.92979   -1517.9524    470.14087     307.5774    -418.1504    37986.909 
  281600    301.97748    -1512.744    469.80983    317.17358   -536.46601    37986.909 
  281700    301.48619    -1495.992    480.18107    342.08406   -254.75312    37986.909 
  281800      287.398   -1457.3583    488.55349    325.63693   -74.060099    37986.909 
  281900    294.15346   -1444.0624     493.6177     374.4237    155.50066    37986.909 
  282000    311.39859   -1451.9038    479.33877    429.97547   -139.25873    37986.909 
  282100    305.07896   -1433.9117    480.42575    420.59093    87.881577    37986.909 
  282200    292.38943    -1469.092    488.47276    336.30395   -448.85689    37986.909 
  282300    300.22066   -1441.6901    490.05447    400.55939   -628.65894    37986.909 
  282400    288.23244   -1454.7243     448.3642    291.83998   -850.39651    37986.909 
  282500    299.20739   -1472.2973    481.18156    356.51554   -956.48475    37986.909 
  282600    303.67022   -1405.6787    485.68267    447.73586   -758.49904    37986.909 
  282700    300.47155   -1438.0691    466.13731    381.39323    123.41736    37986.909 
  282800    301.17787   -1423.2302    489.99398    423.27007   -430.30533    37986.909 
  282900    287.89569   -1359.8057    509.36754    446.24513    66.896716    37986.909 
  283000     299.9873   -1410.1233    522.21881     463.2395   -224.05786    37986.909 
  283100    295.55488   -1445.1642    488.72434    374.74049    124.44731    37986.909 
  283200    306.45383   -1433.9399    506.34607    452.67545    466.79363    37986.909 
  283300    295.84617   -1479.6115    472.69237    325.57316    360.60787    37986.909 
  283400     294.7157   -1418.3167    487.39042    396.47445   -139.73298    37986.909 
  283500    307.59022   -1447.5149    489.57764    427.45029   -160.16727    37986.909 
  283600    292.06357   -1431.0494     502.6361    387.04216   -3.8311651    37986.909 
  283700    303.75801   -1473.9766    471.03585    365.18653   -34.620388    37986.909 
  283800    299.40381    -1540.728    482.11928    289.90722     4.257914    37986.909 
  283900    291.71467   -1447.9545    475.67165    341.60119    250.97235    37986.909 
  284000    295.44119   -1446.7266    511.24183    395.18355   -125.17763    37986.909 
  284100     302.2921   -1455.0647    472.37774    378.83787   -452.75512    37986.909 
  284200    299.53606    -1467.847    497.61194     378.8765   -632.48084    37986.909 
  284300    303.49086   -1438.7905    477.38604    405.51957   -53.235375    37986.909 
  284400    306.89127   -1428.1782     494.2097      448.271    345.97417    37986.909 
  284500    298.10764   -1477.9077    478.63772    343.40799    228.76535    37986.909 
  284600    290.21082   -1472.1078    504.40312    339.40603    520.86537    37986.909 
  284700    300.26837   -1476.5203    490.46113    366.35074    95.907864    37986.909 
  284800    291.80827    -1442.411    504.15658    376.05117    534.35129    37986.909 
  284900    301.74816   -1477.0466    484.55153    366.57986    349.43961    37986.909 
  285000    302.20263   -1475.1046    496.05984    382.07711   -214.96009    37986.909 
  285100    297.35258   -1462.8313    491.33202    367.77796   -152.10969    37986.909 
  285200     306.8729   -1447.2034    494.27451     429.2279   -637.13279    37986.909 
  285300     298.4368   -1494.5836    481.79228    331.36924   -432.90861    37986.909 
  285400      289.486    -1460.666    486.19481    329.37492   -264.68076    37986.909 
  285500    294.11152   -1461.1594    511.67387    375.19393   -18.741996    37986.909 
  285600    295.27072   -1446.9175    501.72893    384.71189   -184.73298    37986.909 
  285700     307.9251   -1450.4603    479.19065    415.62619     -358.824    37986.909 
  285800    298.94802   -1433.8722    505.05735    417.64824   -586.21695    37986.909 
  285900    303.91863   -1461.6457     488.7208    395.92585   -826.69576    37986.909 
  286000    293.66431    -1405.834    504.21631    421.04755   -538.08437    37986.909 
  286100    299.67474   -1450.8682    477.75008    376.61807   -147.19784    37986.909 
  286200    304.02422   -1450.4886    525.77929    444.61695   -251.16415    37986.909 
  286300    307.25844    -1435.623    509.19056    457.46086    380.66689    37986.909 
  286400    299.89622   -1411.1255    477.56215    417.17037    320.17875    37986.909 
  286500    301.83812   -1440.7912    477.45917    396.14806    552.18663    37986.909 
  286600    303.60133   -1438.5413    486.79122    415.67155    97.593694    37986.909 
  286700    298.73839   -1460.1911    497.47885    382.80664   -213.37656    37986.909 
  286800    295.81092     -1455.51    483.62172    360.44522   -394.57066    37986.909 
  286900    308.50591   -1466.3475    477.70961    400.87393    111.66403    37986.909 
  287000    294.13091   -1432.5024    496.26303    388.52745   -79.680447    37986.909 
  287100    283.77084   -1457.5031    493.82451    314.42639    29.658711    37986.909 
  287200     309.1164   -1452.1606    491.21648    431.31741    23.483895    37986.909 
  287300     300.6349   -1418.8586    477.23367    412.43589    228.34965    37986.909 
  287400    296.24271   -1417.8946    483.14439    399.52811    259.46959    37986.909 
  287500    300.61396   -1422.3694     503.5875    435.18462    217.46629    37986.909 
  287600    302.33825   -1450.1624    471.66792    383.23819    64.241711    37986.909 
  287700    301.90017    -1457.521    477.23493    379.47356    273.39934    37986.909 
  287800    311.98353   -1481.9406    442.26351    365.49795    145.70462    37986.909 
  287900    289.49738   -1483.7631    491.07847    311.21267   -202.17603    37986.909 
  288000    290.66498   -1441.5513    481.35184    348.95673    53.439028    37986.909 
  288100    294.86971   -1443.7621    498.99564    383.32789    292.10167    37986.909 
  288200    299.19727   -1432.4798    513.44972    428.55561   -287.61219    37986.909 
  288300    301.83035   -1452.0241    490.33561    397.75661   -473.10558    37986.909 
  288400     291.0517   -1448.5696    488.98389    351.31227   -408.89032    37986.909 
  288500    293.91423   -1434.8189    499.02831     388.0003   -519.66354    37986.909 
  288600    287.12687   -1417.1445    505.08367    381.15975   -394.09666    37986.909 
  288700    311.96574   -1393.7854    503.10419    514.41372    -340.4189    37986.909 
  288800    301.44396   -1416.7068    488.39234     429.3904   -202.11518    37986.909 
  288900    290.29899   -1462.5334    509.73907    354.71348   -883.38842    37986.909 
  289000    302.35951   -1392.9691    488.46387    457.32323    156.07722    37986.909 
  289100    301.41173    -1426.317    504.58109     435.8237   -343.73889    37986.909 
  289200    298.76571   -1407.0702     506.5078     445.0796     33.52673    37986.909 
  289300    296.49404   -1441.6578    477.95594    371.70846    -202.5565    37986.909 
  289400    306.03494   -1454.8976    499.88679    423.37176   -75.655657    37986.909 
  289500    294.53826   -1474.3005    471.97833    324.27927    178.11773    37986.909 
  289600    295.76298   -1457.0311    470.97035    346.05694    246.86905    37986.909 
  289700    295.91982   -1481.4227    505.50238     356.9038    57.170129    37986.909 
  289800    301.92286   -1440.1439    470.96963    390.68751    136.11042    37986.909 
  289900    292.41272    -1450.722    505.65398    371.96005    285.13392    37986.909 
  290000    294.78427   -1459.7704    495.58555    363.52474    120.88875    37986.909 
  290100    299.20557   -1466.1239     496.7401    378.23935   -564.26075    37986.909 
  290200    306.60633   -1442.0582    488.36714    427.26507   -252.62913    37986.909 
  290300    312.31916   -1430.5207    477.28981    453.45586   -166.17255    37986.909 
  290400    294.98237   -1441.6344    501.54027    388.50758    91.819286    37986.909 
  290500    308.73012    -1462.298    471.15194    399.37569    441.19483    37986.909 
  290600    305.21268   -1418.9352    514.93322    470.67715     553.2928    37986.909 
  290700    300.83262   -1422.1843    460.38031    393.14733    280.00719    37986.909 
  290800    294.62164   -1423.9921    492.74321    395.72815    154.19798    37986.909 
  290900    306.38328   -1448.4069    498.60441    430.14906   -247.35566    37986.909 
  291000    303.69401   -1418.7147    454.14816    403.27252   -117.94501    37986.909 
  291100    306.83491   -1430.9021    498.12522    449.20873    54.172448    37986.909 
  291200    293.58039   -1469.6458    475.12766    327.76912    -200.8023    37986.909 
  291300    306.30561   -1446.0589    474.68296    408.22579    -355.1241    37986.909 
  291400    298.78635   -1502.6063    472.48939    315.61795    -607.2122    37986.909 
  291500    302.22252   -1501.5348    498.29685    357.97342   -177.23497    37986.909 
  291600    293.75087   -1512.5737    490.31452    300.79589   -184.93367    37986.909 
  291700    303.68282   -1500.8425     476.7388    343.68488   -543.16368    37986.909 
  291800    293.07882   -1512.2278    497.52944    305.32984   -477.12874    37986.909 
  291900    310.60354   -1511.7475     469.8272    357.03922    6.5288372    37986.909 
  292000     292.3222   -1473.6538    492.49339    335.45992    -186.3056    37986.909 
  292100    299.85385   -1516.3007    464.54638    298.78866    14.857823    37986.909 
  292200    293.30451   -1482.9637    477.33057    315.41156    194.45855    37986.909 
  292300     288.8845   -1453.7536    513.70157    361.08491    55.857371    37986.909 
  292400    301.01579    -1461.566    464.11416    358.32443    57.109721    37986.909 
  292500    300.00687   -1463.5441     496.6149    384.30296    189.27371    37986.909 
  292600    298.48868   -1471.4617    497.99309    370.92559    868.16593    37986.909 
  292700     307.9794   -1461.0968    466.60912    392.65277    1032.0758    37986.909 
  292800      300.414   -1463.8975     502.4816     391.6499    162.42998    37986.909 
  292900    297.39715   -1483.2042     487.3859    343.65967    311.72898    37986.909 
  293000    308.13008   -1490.9457    481.02499     377.8984    29.238337    37986.909 
  293100    298.04083   -1449.2063    481.22326    374.39408    -329.1045    37986.909 
  293200    294.03861   -1483.8812    491.61409    332.08398   -500.10098    37986.909 
  293300    293.36064    -1417.926    505.63734    409.00878   -291.64142    37986.909 
  293400    301.34398   -1419.2658    477.98967    415.97838   -584.36827    37986.909 
  293500    304.66122   -1451.5146    525.00394     445.6847   -956.73026    37986.909 
  293600     299.8623   -1440.9864    485.43618    395.03076   -672.00299    37986.909 
  293700    300.34695   -1473.8326    481.74624    360.67749   -454.97242    37986.909 
  293800    308.72124   -1511.8458    474.34915    352.98505    14.420158    37986.909 
  293900    293.02245   -1507.2112    465.93856    278.50163   -300.96127    37986.909 
  294000     313.1944   -1510.2959    485.37527    385.70816   -29.131551    37986.909 
  294100    294.09742   -1518.4268    476.54202     282.7312    542.45405    37986.909 
  294200    311.04432   -1501.0975    486.84934    386.69674     690.8085    37986.909 
  294300    296.82802    -1494.946    480.02257    321.99114    505.59627    37986.909 
  294400    292.30092    -1493.112    490.85695    314.26945    203.21119    37986.909 
  294500    293.05673    -1483.852    492.44191    328.51861    280.13245    37986.909 
  294600    302.37276     -1472.72    501.84974     391.0178    303.04245    37986.909 
  294700    288.71464   -1459.1344    491.85745    333.09498    -3.815491    37986.909 
  294800    300.18481    -1461.696    494.38658    384.72415   -657.69753    37986.909 
  294900    298.05651   -1486.2468    502.92733    359.12818   -66.168865    37986.909 
  295000    286.86745   -1506.3722    477.77601    263.45591   -132.05872    37986.909 
  295100    297.94339   -1496.1879    483.12788    328.87821    318.27536    37986.909 
  295200    298.18139    -1516.171    457.77898    284.61813   -63.991392    37986.909 
  295300    306.11144   -1499.7276    486.47647    365.47606    126.77716    37986.909 
  295400     306.2834   -1512.6099    488.17266    355.06445    398.00324    37986.909 
  295500    299.83787    -1493.306    487.28396    344.44894    224.29209    37986.909 
  295600     305.4326   -1485.5702    496.38226    386.48174    572.16255    37986.909 
  295700    299.58763   -1473.6657     482.1266    357.80482   -129.42161    37986.909 
  295800    300.09149   -1495.6845    481.26874    337.19752    15.622272    37986.909 
  295900    291.18791   -1479.7393    499.92101    331.69319   -462.68383    37986.909 
  296000    297.81709   -1490.3669    504.90174    355.90421    135.80226    37986.909 
  296100    300.55807   -1470.5229    489.74271    372.93459    341.50821    37986.909 
  296200    303.24464   -1440.8013    506.22734    431.24109   -837.12575    37986.909 
  296300    304.42193   -1454.1331    502.44816    419.43263   -655.53934    37986.909 
  296400    293.59387   -1485.6797    479.89734    316.56555    179.49101    37986.909 
  296500    301.64288   -1472.7292     492.4234    378.29499   -398.77076    37986.909 
  296600    299.23708   -1442.0326     493.1337    398.86612     -80.3445    37986.909 
  296700    312.52169   -1450.3155    479.03194    436.31539     52.57107    37986.909 
  296800    299.33267   -1449.3721    486.43705    385.26048    -102.4606    37986.909 
  296900    295.59425   -1473.0322    480.81182    339.13726   -26.944401    37986.909 
  297000    296.95831   -1507.9804    478.14082    307.66177    91.835928    37986.909 
  297100    295.54106   -1480.2453    475.14496    326.01775     -534.917    37986.909 
  297200    298.98088    -1441.166    491.09836    396.54341   -575.49329    37986.909 
  297300     295.6111    -1456.412    487.46532     362.4869   -77.207515    37986.909 
  297400    289.26252   -1463.4031    495.95326    335.38973   -152.43714    37986.909 
  297500    296.98797   -1458.1348    501.45104     380.9512   -314.10125    37986.909 
  297600     300.0453   -1449.2708    488.23681    390.37126   -121.38519    37986.909 
  297700     290.4737   -1485.5415    490.92706    313.68028   -654.35256    37986.909 
  297800    288.79182   -1469.6104    496.19629    327.30543    4.7812638    37986.909 
  297900    301.56835    -1531.489    508.35876    335.13482    -516.0744    37986.909 
  298000    303.17329   -1484.5883    461.06806    341.97344   -365.75978    37986.909 
  298100    302.33424   -1523.0819    478.28482    316.91752   0.20901634    37986.909 
  298200    302.48769   -1469.9532    494.95134    387.40391   -261.33435    37986.909 
  298300    302.82895   -1468.2187    481.58116    377.30528    248.23204    37986.909 
  298400    303.99983   -1440.3748    489.93044    418.77211    350.03394    37986.909 
  298500    295.67608   -1481.1987    481.55796    332.08554    548.65374    37986.909 
  298600     298.8562   -1451.6622    485.41966    379.80699   -114.41552    37986.909 
  298700    298.38415   -1399.7603    491.87891    436.04199   -438.05569    37986.909 
  298800    299.87539   -1429.4148    443.46107    364.68626    192.05467    37986.909 
  298900     297.0122   -1460.6231     474.0933    351.21435   -31.337758    37986.909 
  299000    292.43708   -1441.2762    470.82968    346.69124   -292.04306    37986.909 
  299100    292.04332   -1415.2651    506.11777    406.21693   -270.26279    37986.909 
  299200     293.9979   -1413.7119    488.99812    399.45395   -422.75508    37986.909 
  299300    290.73469   -1388.0061    471.77036    393.23449    -132.2231    37986.909 
  299400    305.78277   -1416.5816    499.69184    460.35703    -231.1783    37986.909 
  299500    296.71343   -1378.9549    510.26729    467.71092    245.80481    37986.909 
  299600    306.60226   -1432.4929    489.93067    438.37559   -354.54565    37986.909 
  299700    297.16409   -1425.5394    495.76391     408.6527   -671.04279    37986.909 
  299800    296.62921   -1419.5925    489.62157    406.04823    -739.7397    37986.909 
  299900    297.64626   -1437.9146    504.23517    406.92045   -535.82773    37986.909 
  300000     302.7053   -1406.6128    498.58098    455.35411    -752.6603    37986.909 
  300100    298.62382   -1439.3833    497.17039    402.79002   -634.25615    37986.909 
  300200    306.83621   -1410.5714    492.29052    463.71067   -221.25386    37986.909 
  300300    307.09698   -1465.7566    487.04399    404.45343    318.07545    37986.909 
  300400    290.72758   -1465.1365    492.68505    336.98673     233.6035    37986.909 
  300500    306.16173   -1456.2373    484.33803     407.0544     189.6325    37986.909 
  300600    302.56461      -1446.7    478.03902     394.0912   -352.29113    37986.909 
  300700    300.15481   -1440.6248    483.06242    394.33601   -752.71019    37986.909 
  300800    302.82155    -1436.687    460.38649    387.60893   -393.93353    37986.909 
  300900    296.63074   -1415.6325    487.40804    407.80161   -210.52792    37986.909 
  301000    297.85277   -1437.9934    473.60219    377.13885    14.373074    37986.909 
  301100    295.84478   -1436.3788    502.30864    398.41586   -60.882999    37986.909 
  301200    299.02017   -1427.7693    500.77036    419.78909     118.5574    37986.909 
  301300    306.51966   -1429.8124    514.26346    465.01678    1105.9993    37986.909 
  301400    307.72975    -1418.281    523.17641    490.91138    1330.2689    37986.909 
  301500    297.32651   -1451.2697    498.26747    386.15762    930.55123    37986.909 
  301600    301.98391    -1487.222    481.43358    354.34838    857.68358    37986.909 
  301700    297.59284     -1451.88    486.86524    375.34457    707.07971    37986.909 
  301800     301.9113   -1419.6147    505.41163     445.6066    149.81446    37986.909 
  301900    304.80955    -1501.964    480.87612    351.77558    610.84265    37986.909 
  302000    303.23754   -1459.7743    492.12333    398.13213    207.92863    37986.909 
  302100    294.56675   -1477.2851    497.83398    347.27871    417.53944    37986.909 
  302200    302.80328   -1428.4179    483.97109    419.38035    632.69351    37986.909 
  302300    297.01597   -1471.1994    480.44324     347.0049    676.27752    37986.909 
  302400    308.43198   -1473.4996    488.41474    404.09405    659.58029    37986.909 
  302500     299.3813   -1495.7124    480.98115    333.68333     801.7249    37986.909 
  302600     292.8826   -1510.5693    478.50126     287.0764   -128.22262    37986.909 
  302700    308.48964   -1489.9218    483.20679    382.72356    219.17671    37986.909 
  302800    286.32429   -1475.0225    496.07323    310.65646   -690.26156    37986.909 
  302900    292.14312   -1477.9619    455.66733    293.51923    -438.1378    37986.909 
  303000    305.78799   -1475.2049    478.61057    380.67599   -262.88151    37986.909 
  303100    306.64385   -1473.7921    463.00388    370.33696   -9.9939388    37986.909 
  303200    307.72535   -1500.6705    480.28989    365.61558    644.59253    37986.909 
  303300     304.2037   -1470.2692    481.14399    381.00948    245.88291    37986.909 
  303400    300.87689   -1443.5168    494.75458    406.38844    297.08355    37986.909 
  303500    298.04992   -1481.0064    496.56446    357.97611    -83.94267    37986.909 
  303600    296.13576   -1475.1748    482.64288    341.26477    737.40297    37986.909 
  303700    306.61197    -1510.895    475.35034    345.43689    350.71435    37986.909 
  303800    305.82601   -1449.3074    511.41439    439.54858    367.20379    37986.909 
  303900    297.83898   -1498.4049     465.1877    308.25076    332.11141    37986.909 
  304000    306.62121   -1499.4645    478.07094    359.62961    134.54584    37986.909 
  304100    306.38925   -1485.9622    489.87645    383.89268    149.76081    37986.909 
  304200    296.49049   -1507.9615    494.53441    321.96728    226.71573    37986.909 
  304300    304.92357    -1516.158    457.14905    314.36801   -91.561816    37986.909 
  304400    302.11935   -1505.5384    484.60036    339.80867     425.0339    37986.909 
  304500    297.88664    -1444.888    492.29662    389.09118    -152.3925    37986.909 
  304600    304.91966    -1460.475    482.38161    395.26597   -377.86308    37986.909 
  304700    299.70682   -1455.6449    485.89544    380.13128   -275.56189    37986.909 
  304800    296.67495   -1471.5271    480.43365    345.13171   -288.00349    37986.909 
  304900     298.5803   -1507.4765    469.82515    307.15554    91.057536    37986.909 
  305000    290.22169   -1516.2063    487.97452    278.92789   -235.12585    37986.909 
  305100    302.70512   -1476.3794    491.65097    378.65663    203.77774    37986.909 
  305200    294.35579   -1472.0726    475.97773     329.6848     235.5457    37986.909 
  305300    288.44489   -1503.8022    489.58733    284.94209    58.019882    37986.909 
  305400    307.89047   -1474.4021    488.15401    400.49178   -238.68456    37986.909 
  305500    301.75709   -1493.1419    491.65071    357.62391   -142.62313    37986.909 
  305600    302.53897   -1495.0807    483.68876    351.24475   -298.60775    37986.909 
  305700    297.16765   -1474.9541    491.21032     354.7005   -559.07327    37986.909 
  305800    286.89587   -1467.3912    493.82627    318.61514   -590.07551    37986.909 
  305900    294.33847   -1510.6291     480.1668    295.23934   -717.69415    37986.909 
  306000    301.29842   -1504.8916    485.33394    337.49166    -79.48249    37986.909 
  306100     306.6097   -1490.8728    496.23951    386.33805    276.38083    37986.909 
  306200    311.06204   -1448.1401    500.23866    453.12319   -31.054533    37986.909 
  306300     293.3566   -1419.0964    493.90678    396.08967    54.342188    37986.909 
  306400    301.74002   -1449.4175    496.46938    406.09011   -335.21903    37986.909 
  306500    307.81044   -1471.7929     501.8081    416.39468   -912.27496    37986.909 
  306600    292.64161   -1428.8249    499.28339    388.51751   -550.86935    37986.909 
  306700    296.98994    -1444.071    486.82161    380.39443   -598.00193    37986.909 
  306800    288.67133   -1432.2721    491.09523    358.99998   -66.805435    37986.909 
  306900    304.25738    -1472.674    507.56875    405.27117   -1.1641058    37986.909 
  307000    295.92597   -1455.7151    504.37544    381.51202    926.41361    37986.909 
  307100    301.69013    -1452.274    518.07608    424.61561    841.98615    37986.909 
  307200    303.42626    -1431.898    506.12216    440.85724    697.64645    37986.909 
  307300    295.94799   -1441.0938     470.5016    362.35867    332.01538    37986.909 
  307400    294.73667   -1440.8376    511.03971    397.69727   -379.35522    37986.909 
  307500    304.39291    -1447.821    500.15573    423.32157    204.94352    37986.909 
  307600    294.53953   -1447.7195    501.74084     380.6286    619.33723    37986.909 
  307700    300.89602   -1423.8628    553.70167    485.07575    135.42898    37986.909 
  307800    306.61887    -1462.932    491.62098     409.7016    244.46862    37986.909 
  307900      294.817   -1418.8999    493.23173     402.1888    376.68572    37986.909 
  308000    288.28121   -1431.8104    519.81481    386.42413    353.97709    37986.909 
  308100    301.10738   -1437.1122    510.55154    429.62814    378.17936    37986.909 
  308200    303.07822   -1450.2046    498.82139    413.68227    534.59334    37986.909 
  308300    308.25354   -1455.5428    492.33548    425.16782    38.614324    37986.909 
  308400    299.61415   -1467.9845    496.67256    378.15138   -556.91648    37986.909 
  308500    305.77507   -1444.7188    467.14778    399.64109   -416.13992    37986.909 
  308600    305.16726   -1451.9936    483.87825    406.35924   -141.68678    37986.909 
  308700    312.35689   -1458.2499    479.79597    428.40271   -358.05801    37986.909 
  308800    297.48213    -1433.366    508.34803    414.84267   -316.53078    37986.909 
  308900    290.30232   -1454.9652    491.89242    344.45004    -42.31403    37986.909 
  309000    304.93078    -1454.238    503.24602    422.41751   -21.051398    37986.909 
  309100    291.54873   -1432.5419    493.12672    373.72149   -116.68524    37986.909 
  309200    294.61474   -1437.1679    535.82849    425.60658    17.274231    37986.909 
  309300    306.01588   -1466.2592    487.22688    399.26439    218.21973    37986.909 
  309400    303.36013   -1453.0468    494.26397    407.55243   -755.21019    37986.909 
  309500    301.75365   -1433.9876    479.59848    404.71056   -72.338519    37986.909 
  309600    297.50635   -1415.8983    516.83091    440.90242   -339.15016    37986.909 
  309700    300.62888    -1474.805    479.33933    358.56801   -23.184896    37986.909 
  309800    301.85747   -1465.2945    481.56316    375.83587    327.95836    37986.909 
  309900    308.51239   -1468.8472    488.88096    409.57484    823.15725    37986.909 
  310000    295.56159   -1479.5896    499.45442    351.07538    648.82095    37986.909 
  310100    294.07466   -1492.1276    516.33575    348.72163    326.83713    37986.909 
  310200    302.03138   -1411.5459    513.74057    462.54525    387.06523    37986.909 
  310300    309.08848   -1461.7859    508.16872    438.51859   -127.46058    37986.909 
  310400    308.98502   -1467.6477    510.99684    435.01886   -408.87465    37986.909 
  310500    306.87303   -1421.2176    506.71291    467.65268   -518.66202    37986.909 
  310600    304.63011   -1489.0713    492.01697    375.00087   -851.12373    37986.909 
  310700    294.64499   -1435.3364     514.2633    406.00909    -559.2226    37986.909 
  310800    294.46389   -1437.3182    492.31214    381.26052    320.75893    37986.909 
  310900    298.38101   -1444.2399    498.14651    397.81589    111.63419    37986.909 
  311000    299.03157   -1445.9943    520.94241    421.78746    601.99669    37986.909 
  311100    290.80498   -1516.3435     505.5327    298.97595    1184.6833    37986.909 
  311200    306.77187    -1471.715    503.99397    413.98069    986.46924    37986.909 
  311300    296.99545   -1459.3305    509.35664    387.69483    485.72437    37986.909 
  311400    299.11822   -1470.2792    497.28677    374.23724    621.90873    37986.909 
  311500    307.90076   -1436.1696    497.47425    448.09087     279.3143    37986.909 
  311600    294.13116   -1446.8535    517.54373    395.45814   -469.06657    37986.909 
  311700    305.34146   -1477.7792    481.01353    378.49347   -67.218279    37986.909 
  311800    293.46241   -1463.3587    498.70963    357.10685   -739.40829    37986.909 
  311900    299.81478   -1464.8283    473.34703    358.88565   -508.16487    37986.909 
  312000    298.43764   -1451.4348    506.06219    398.79166    644.36615    37986.909 
  312100     294.5251   -1475.5264    475.84043    326.85625    -319.4564    37986.909 
  312200    309.66509   -1459.9762    497.28547    432.04205    72.142294    37986.909 
  312300    294.21556   -1499.0374    519.45215    345.56276   -276.25225    37986.909 
  312400      302.314   -1464.3215    509.17677    406.47876   -183.25336    37986.909 
  312500    296.79041   -1427.8099    494.00331    402.93859    -220.4101    37986.909 
  312600    296.56829   -1501.6065    512.58695    346.72522    462.91681    37986.909 
  312700    298.47758   -1512.3326    500.93909     332.9507    629.98682    37986.909 
  312800    306.85677   -1481.5024    485.52565    386.10734    548.92393    37986.909 
  312900    298.68559   -1453.3998    508.87601    400.75731     365.6737    37986.909 
  313000    312.70312   -1500.0238    478.45286    386.84516      659.316    37986.909 
  313100    309.51632    -1475.552    496.79126    415.30197   -41.915888    37986.909 
  313200    298.10571   -1445.8902    495.12621    391.90527   -77.436942    37986.909 
  313300    300.95759   -1486.5646    492.18372    361.13334   -395.51656    37986.909 
  313400    298.11891   -1432.9595    493.57837    403.34758    503.28072    37986.909 
  313500    307.41384   -1502.6792    497.69142    379.60535    92.395218    37986.909 
  313600    305.44226   -1451.3348    505.13263    429.51103    153.31993    37986.909 
  313700    303.94238   -1473.4521    481.56298     377.0686    543.86501    37986.909 
  313800    306.74182   -1468.6827    519.62904    432.51269    39.229004    37986.909 
  313900    292.13644   -1427.0169    528.82049    417.58727    428.74366    37986.909 
  314000    286.76248   -1444.9768    497.69147      344.294   -478.68792    37986.909 
  314100     302.3076   -1501.6268    492.47707    352.44492   -545.66849    37986.909 
  314200     302.8762   -1506.1125    473.92959    331.97276   -231.16492    37986.909 
  314300    314.35041   -1436.2167    495.41476     475.0336   -52.129877    37986.909 
  314400    295.78733   -1458.8935    499.45782    372.79167   -530.12044    37986.909 
  314500     293.7068   -1433.0133    516.09375    405.93709   -602.31796    37986.909 
  314600    307.63803   -1468.5921     480.3238     397.3346   -252.08766    37986.909 
  314700    313.84952   -1495.5436    485.47962    403.51552   -184.40443    37986.909 
  314800    293.41813   -1500.5007     488.0691    309.12481    98.061852    37986.909 
  314900    297.10481   -1507.7904    498.93861     329.3095    383.32157    37986.909 
  315000    293.68073   -1463.4344    478.28784    337.59261    146.96757    37986.909 
  315100    312.82369   -1477.2682    494.17026    425.86119    447.69412    37986.909 
  315200    308.23589   -1469.4156    507.56976    426.44981   -103.57568    37986.909 
  315300    303.91007   -1494.3566    484.83157    359.28708    72.464574    37986.909 
  315400    310.13258   -1444.1056    493.12238    445.85519   -106.25156    37986.909 
  315500    302.86577   -1484.9151    489.49393    368.68744   -322.06415    37986.909 
  315600    299.56371   -1495.3941    516.67452    370.51657    74.305884    37986.909 
  315700    302.25443   -1497.9507    493.21268    356.61711   -12.894243    37986.909 
  315800    307.24553   -1525.1441    486.61722    345.30823    2.0103465    37986.909 
  315900    302.28824   -1512.4633    459.32717    308.37134    114.01971    37986.909 
  316000    306.13491      -1500.5     518.9928    397.32563   -434.80918    37986.909 
  316100    292.59708   -1475.4451    499.69706    342.11037     142.3056    37986.909 
  316200     308.5816    -1510.685    487.51743    366.68522   -121.86567    37986.909 
  316300    306.57992   -1525.5183    515.87698     371.1959    285.02695    37986.909 
  316400    294.50932   -1503.6619    477.44346    300.25271    -192.6122    37986.909 
  316500    300.22215   -1495.0882    482.19482    339.30839    109.12479    37986.909 
  316600    302.21805   -1540.7423    497.58414    318.03313     231.7263    37986.909 
  316700    311.84504   -1551.5623    472.00418    324.99315   -13.501462    37986.909 
  316800    292.83471   -1484.2153     481.1598    315.87318   -470.34778    37986.909 
  316900    304.94464   -1501.4623    485.66201     357.6716   -239.84344    37986.909 
  317000    285.35985   -1535.9344    491.61308    240.94061   -369.46785    37986.909 
  317100    304.91329   -1481.5402    492.38471    384.17521   -241.20321    37986.909 
  317200    301.70165   -1522.0214    479.93622     316.7803   -361.70176    37986.909 
  317300    302.86379   -1533.6659    518.65772    349.09154   -343.35622    37986.909 
  317400    298.73203   -1503.9409    478.45443    320.00379   -659.70273    37986.909 
  317500    288.23724   -1444.1628    507.79648    361.85538   -469.19942    37986.909 
  317600    298.67598     -1496.67    491.00395    339.57178    100.71291    37986.909 
  317700    300.14922   -1424.5304    541.93308    469.27602    395.05381    37986.909 
  317800    291.75111   -1497.3949    509.64587     326.2992     366.9977    37986.909 
  317900    294.42307   -1483.2954    492.38025    335.16754   -89.486467    37986.909 
  318000    305.13853   -1517.8891    484.13197    340.58802    194.56715    37986.909 
  318100    293.92081   -1551.7544    498.22021    270.28633    77.823527    37986.909 
  318200    302.58399   -1543.1553    513.70211    333.38631    95.606375    37986.909 
  318300    299.27145   -1555.9923    482.26951    274.19706    311.67759    37986.909 
  318400    306.34245   -1510.8606    530.15037     399.0574    344.26752    37986.909 
  318500    309.88946   -1479.6984    489.44146    405.48646    707.31203    37986.909 
  318600    297.37201   -1469.5957    521.04873    390.81778   -231.98923    37986.909 
  318700    295.17539   -1483.7647    503.67153    349.37794   -395.84608    37986.909 
  318800    303.14424   -1544.6434    487.51667    308.23611   -40.561626    37986.909 
  318900    298.08189   -1533.5016    492.54893    301.60931    -337.1161    37986.909 
  319000    301.04953   -1535.7192     506.1498    326.35891    123.20594    37986.909 
  319100    298.98644   -1495.8707    512.68265    363.44813     124.2673    37986.909 
  319200    310.68372   -1481.5304    507.86253    425.65281    1043.8234    37986.909 
  319300    306.54103   -1466.7392    504.68379     418.6066    509.46493    37986.909 
  319400    292.16227   -1467.2634    525.04327     373.6799    773.95224    37986.909 
  319500    298.31746   -1441.1027    525.96676    428.48708    169.61557    37986.909 
  319600    294.32964   -1465.1277    506.33311    366.86725    512.11973    37986.909 
  319700    300.61921   -1455.6937    517.50855    415.80495    737.27149    37986.909 
  319800    295.24075   -1449.7538    524.68203    404.69371    -249.0414    37986.909 
  319900    307.75409   -1474.4259    480.35416    392.05394   -80.760778    37986.909 
  320000     294.0853   -1493.8092    517.97295    348.72508   -32.722255    37986.909 
  320100    309.56579   -1530.3685    485.09357    349.01061   -204.48002    37986.909 
  320200     296.1671   -1466.4941    458.56223    326.00596     106.9882    37986.909 
  320300    313.39806   -1473.0548    515.77243    454.26377    170.72169    37986.909 
  320400    288.86855   -1475.3764    495.28829    320.97702   -393.80264    37986.909 
  320500     300.5645   -1418.6209    478.78829    413.91109   -517.45496    37986.909 
  320600     298.6994   -1434.1205    526.60673    437.82953   -750.49963    37986.909 
  320700    297.34564   -1432.4099    508.14126    414.97733    -135.7608    37986.909 
  320800    292.67757      -1468.2    481.25002    331.27092   -156.93984    37986.909 
  320900    307.76737    -1436.585    491.48106    441.08148   -66.127693    37986.909 
  321000    300.24082   -1445.8561     500.5717    407.00143   -110.13214    37986.909 
  321100    304.06679   -1472.1093    482.13855    379.54726   -255.16161    37986.909 
  321200    300.48171   -1466.1226    495.85393    383.10216   -195.02907    37986.909 
  321300    294.72918    -1507.818    481.04532    300.68869   -62.288471    37986.909 
  321400    295.46005   -1439.6465    477.47119    368.57795    -266.8818    37986.909 
  321500     303.9569   -1447.1047    484.17862    406.09698    63.348495    37986.909 
  321600    284.53425   -1463.8361    483.24261    300.94986    289.95556    37986.909 
  321700    306.89459   -1434.6438     504.8457    452.45633    173.79326    37986.909 
  321800    293.18941   -1422.3452    508.85261    407.03369   -272.49101    37986.909 
  321900    297.60682   -1432.5206    500.75142     408.6531    291.74199    37986.909 
  322000    310.21831   -1431.2836    512.92467    478.86553    255.98872    37986.909 
  322100    298.90177   -1431.7619    482.07358     396.5665   -598.76309    37986.909 
  322200     307.6918   -1459.6196    506.09437    432.31992   -482.82065    37986.909 
  322300    300.12617   -1425.0155    479.46605    406.22003   -549.57999    37986.909 
  322400    310.56557   -1448.6359    480.93994    431.09265    76.386157    37986.909 
  322500    295.34218   -1409.8179    512.86589     433.2703   -241.60933    37986.909 
  322600    293.58298   -1439.7712    476.93886    359.46656    24.912682    37986.909 
  322700    302.44397   -1455.8468    502.20364    408.56566    513.41572    37986.909 
  322800    296.85081   -1489.1351    483.78456    331.66673   -200.37076    37986.909 
  322900    304.73208   -1495.3856    476.22453    353.35339   -492.13793    37986.909 
  323000    293.67676   -1493.8909    491.28548    320.11586   -598.44698    37986.909 
  323100    307.50789   -1472.9998    498.61689    410.63382   -100.21925    37986.909 
  323200    304.18954   -1494.8708    476.81763    352.01775   -63.628449    37986.909 
  323300    295.28237   -1512.0192    501.47657    319.41033    233.48538    37986.909 
  323400    298.15671   -1522.2405     498.7822    319.44073     -475.763    37986.909 
  323500    305.66086   -1463.1456    505.86685    419.41895   -164.13359    37986.909 
  323600    293.64454   -1460.5913    484.86132    346.84614    -225.7164    37986.909 
  323700    295.70053   -1427.6135    502.22976    406.45261   -10.312788    37986.909 
  323800    293.42954   -1435.3052    517.33989    403.64255    -322.3261    37986.909 
  323900    306.24792   -1437.5148    498.47697    440.30402   -356.12912    37986.909 
  324000    305.23036   -1485.1906    494.73652    384.30471      185.282    37986.909 
  324100    296.37105   -1488.6765    483.96654    330.14643   -307.69134    37986.909 
  324200    296.56449   -1484.3165    526.23501    377.64615    -395.4251    37986.909 
  324300    286.91151   -1474.8454    504.18238    321.58761    366.18357    37986.909 
  324400    307.85183   -1530.5675    458.99943    314.99779    440.46176    37986.909 
  324500    305.42176   -1497.7382    519.92939    397.81199    585.24823    37986.909 
  324600    297.85102    -1500.575    489.27134    330.21852   -47.848068    37986.909 
  324700    303.18266   -1518.7378    499.74489    346.54305    401.06186    37986.909 
  324800    295.65004   -1496.0088    479.73932    315.33947   -97.690925    37986.909 
  324900    302.36221   -1480.3746    503.31537    384.78141    197.34183    37986.909 
  325000    287.13017   -1472.0975    519.17884    340.31674    110.69021    37986.909 
  325100    300.43437   -1472.6989    480.69347    361.15217    400.54997    37986.909 
  325200     308.5624   -1467.8923    478.78509    400.65901    215.87066    37986.909 
  325300    294.97635   -1481.6832    483.34642    330.23789   -51.527588    37986.909 
  325400    295.58034    -1450.865     501.3125    381.74247    30.675319    37986.909 
  325500    294.62205   -1440.2587    480.98859    367.70883    337.35848    37986.909 
  325600     298.6369   -1469.6862    529.84421    405.21981    201.19249    37986.909 
  325700    301.72672   -1489.5052    504.40073    373.87387    391.32449    37986.909 
  325800    302.23577   -1470.6506    466.38528    357.00583    202.07334    37986.909 
  325900    295.62176   -1482.3874    489.69046    338.78465   -249.38746    37986.909 
  326000    307.50112   -1450.2722    495.59379    430.30785   -249.37809    37986.909 
  326100    295.20723   -1474.5511    490.62305    345.68652    22.971318    37986.909 
  326200    298.23818    -1491.326    490.19593    342.13584    40.528183    37986.909 
  326300     301.5107   -1501.2769     479.7417    336.47019   -14.269454    37986.909 
  326400    289.49158   -1519.9521    470.28995    254.20913   -17.251724    37986.909 
  326500    303.88981    -1514.587    472.65788    326.79179   -47.146805    37986.909 
  326600    303.06408    -1555.385    498.59775    308.21459    128.86892    37986.909 
  326700    294.85362   -1519.4945    474.27823    282.80559     410.5732    37986.909 
  326800     298.4345   -1483.6352    518.07104    378.58608    -274.7106    37986.909 
  326900     295.6229   -1465.3754    504.08667    370.19802    124.55803    37986.909 
  327000    303.27408   -1493.3211    478.15034     350.7769    586.26376    37986.909 
  327100    297.55592   -1482.7104    465.68156     323.1642   -127.90651    37986.909 
  327200    313.12871   -1436.3546    517.33741    491.31575   -50.522067    37986.909 
  327300    297.18171   -1479.5234    486.06681    345.05106    476.48103    37986.909 
  327400    304.52262   -1465.6496    487.20279     393.1243   -25.654236    37986.909 
  327500    291.94295   -1479.3871    507.16945     342.6945    322.71523    37986.909 
  327600    308.02553   -1493.3855    478.36903    372.33177    545.31202    37986.909 
  327700     305.8241   -1455.0153    508.60305    431.02069    402.14165    37986.909 
  327800    294.20623   -1483.4105     510.7276    352.42308    186.80704    37986.909 
  327900    296.34446   -1508.5109    476.48703    302.71276    460.77765    37986.909 
  328000    310.34391   -1514.1824    484.60895    368.21673    293.16816    37986.909 
  328100    294.60511   -1508.2834    479.32694    297.94613    241.69721    37986.909 
  328200    286.37063   -1529.9406    477.78792    237.66179   -296.39926    37986.909 
  328300    305.81029   -1516.4403    478.44393    339.37435   -541.17499    37986.909 
  328400     307.9824   -1517.9603    460.62713     329.8208   -201.00963    37986.909 
  328500     293.6786   -1526.9167     463.7484     259.5613   -333.23599    37986.909 
  328600    289.11189   -1529.2312    497.81834     270.7482     87.93641    37986.909 
  328700     307.6536   -1522.1833    451.36304    314.85275   -529.72797    37986.909 
  328800    316.72457    -1515.961    485.98937     396.5571    362.91094    37986.909 
  328900    300.76531   -1533.8201    490.52981    311.35783    65.155768    37986.909 
  329000    294.21619   -1490.9273    511.42581    345.64943   -224.85784    37986.909 
  329100     296.3033   -1543.3012     469.2724    260.52246   -38.465221    37986.909 
  329200    295.16143   -1507.1109    504.02334    326.32066   -469.78784    37986.909 
  329300    293.78542   -1441.0341    499.88724    382.06387   -257.14737    37986.909 
  329400    297.37478   -1496.3931    498.82085    341.80497   -655.12219    37986.909 
  329500    319.58177   -1464.2643    466.07025    441.20349   -494.45864    37986.909 
  329600    300.67633   -1512.1927    479.04278    321.09746   -796.56509    37986.909 
  329700    310.67094   -1487.0657    482.66635    394.86377    346.83598    37986.909 
  329800    300.41604    -1441.571    499.38693      410.891    50.759459    37986.909 
  329900    302.27342    -1491.715    466.76908    336.49478    42.465279    37986.909 
  330000    308.79955   -1472.3636    515.00169    433.47255   -52.315996    37986.909 
  330100    301.70923   -1471.2207    490.95639    378.63525   -627.63527    37986.909 
  330200    302.59459   -1449.3003    465.66851    379.25541   -317.59127    37986.909 
  330300    303.06533   -1450.4835     480.0484    394.57241   -350.20829    37986.909 
  330400    298.28032   -1457.4466    525.75365    411.76277   -102.71747    37986.909 
  330500    301.82641   -1494.1918    493.43801    358.67355    417.39814    37986.909 
  330600    295.28501   -1476.1191    481.99483    335.84057    221.72503    37986.909 
  330700    310.47962   -1490.5196     465.8212    373.70309     227.0943    37986.909 
  330800    302.60945   -1487.6165    473.05202    348.38972    141.69667    37986.909 
  330900    287.90687    -1516.836    489.85493    269.75261    211.15204    37986.909 
  331000    304.17965   -1440.1236     512.0161    441.91882    642.25281    37986.909 
  331100    290.80388   -1462.5211    536.05598    383.31669   -56.914031    37986.909 
  331200    304.11831    -1496.219     458.4797    332.01074   -42.527606    37986.909 
  331300    302.36748    -1464.361    503.59878    401.10209   -179.20519    37986.909 
  331400    299.50696   -1461.8546    498.85673    385.98265   -395.81013    37986.909 
  331500    290.03587   -1487.5604    477.56609    296.32843   -385.73819    37986.909 
  331600    313.04989   -1495.0643    496.29362    411.20723   -731.31616    37986.909 
  331700    300.37926   -1494.2258    493.49852    352.18216   -525.62229    37986.909 
  331800    293.92603   -1510.2728    511.37104    324.94228    52.486091    37986.909 
  331900    304.71375   -1506.2782    500.88318    367.03688    60.015026    37986.909 
  332000    284.80392   -1484.9452    487.12462    284.93743    537.92616    37986.909 
  332100    310.59751    -1506.796    503.05208    395.18848     233.5982    37986.909 
  332200     311.3464    -1468.869    484.49824    417.93473    182.91013    37986.909 
  332300    294.20247   -1504.2145    503.38556    324.26018   -194.75662    37986.909 
  332400    300.03072   -1527.0426    497.79902    322.09603   -210.36511    37986.909 
  332500    288.87263   -1488.7395    486.76415    299.10812    -129.9939    37986.909 
  332600    302.44279   -1476.2679    480.29405    366.22971    8.1546613    37986.909 
  332700    301.90319   -1487.7841    481.37312    353.36225   -371.45237    37986.909 
  332800    295.18034   -1493.4862    475.21608    311.22333    27.664151    37986.909 
  332900    301.67308    -1469.582    495.69719    384.85199    705.96012    37986.909 
  333000    299.06421   -1520.7923    486.42309    312.61715    674.95033    37986.909 
  333100    289.68585    -1459.948    492.49852     337.2967    571.13422    37986.909 
  333200    301.70297   -1471.4739    483.86342    371.26094    73.792848    37986.909 
  333300    299.63352   -1490.0586    503.45812    362.95014    74.696387    37986.909 
  333400    298.00063   -1473.0528    492.32283     361.4661    274.62083    37986.909 
  333500     297.2155   -1483.0686    496.78099    352.37222    247.80849    37986.909 
  333600    301.83781   -1417.7636    506.20621    447.92134    332.32134    37986.909 
  333700    298.60212   -1418.4622    493.66012    420.10303   -11.905493    37986.909 
  333800    304.74293    -1435.111    519.42035    456.87265    122.64064    37986.909 
  333900    297.30382   -1468.4444    501.06829    371.68147   -351.11864    37986.909 
  334000    289.18609   -1444.1034    510.69717     369.0891   -614.82281    37986.909 
  334100     304.5988   -1424.4465    513.60738    461.07506   -137.03413    37986.909 
  334200     305.1262   -1432.1891    489.00917    431.10967    127.57804    37986.909 
  334300    305.59073   -1467.8845    502.63617     411.1336    368.24347    37986.909 
  334400    305.12235   -1444.0768    485.93869    416.13413     741.6727    37986.909 
  334500    303.63793    -1455.083    498.18449    410.68796     61.10959    37986.909 
  334600    310.14906   -1444.6969    501.60182    453.81754    182.19597    37986.909 
  334700     308.6934   -1444.2232    497.10245    443.23558    204.11411    37986.909 
  334800    291.76979   -1453.7374    481.89558    342.29052    20.452013    37986.909 
  334900      295.571    -1472.146    499.06816    358.17506     140.4357    37986.909 
  335000    297.24622   -1485.5527    503.92251    357.16793   -194.66159    37986.909 
  335100    292.37401   -1449.1398     510.6465    378.36035   -560.15635    37986.909 
  335200    294.18147   -1458.5332      484.948    351.40929    17.722681    37986.909 
  335300    297.60043   -1486.1465    493.72162    347.96864    521.68781    37986.909 
  335400    294.29288   -1478.7827    472.92061     319.6342    410.42677    37986.909 
  335500    300.95217   -1441.1047     504.4046    418.78966    508.48078    37986.909 
  335600    310.65566   -1421.5138    486.89169    464.57223    56.255412    37986.909 
  335700    308.42173   -1432.9238     473.7333    429.94216   -247.20205    37986.909 
  335800    304.10781   -1390.8002    495.14708    474.04963   -709.56493    37986.909 
  335900    295.53956   -1430.5639    483.74794    384.29539   -532.10145    37986.909 
  336000    295.78169   -1420.7581    509.73196    421.17578   -209.54449    37986.909 
  336100    299.03545   -1436.6844    461.98562    372.15803    67.719393    37986.909 
  336200    305.07441   -1426.5402    491.23794    438.75414    66.736752    37986.909 
  336300    301.33395   -1457.5575    473.24326    372.89504    381.94392    37986.909 
  336400    301.14887   -1451.2698    492.82776    397.93371    111.63274    37986.909 
  336500    303.76553    -1469.393    475.30312    374.07125    833.23647    37986.909 
  336600    297.50202   -1478.0032    520.98575    382.93279    266.75794    37986.909 
  336700    305.31389   -1466.0093    474.51211    383.63779    651.52211    37986.909 
  336800    302.01357     -1446.46    491.02032    404.83061    2.4505972    37986.909 
  336900    291.40315   -1448.1774    503.50187    367.80536    -133.1546    37986.909 
  337000    295.52768   -1427.6133    511.59847    415.04299    155.67071    37986.909 
  337100    282.85298   -1444.1713    502.67255    332.47222   -365.90598    37986.909 
  337200    306.12544   -1424.9669    485.80306    439.62642    -280.7833    37986.909 
  337300    303.82789   -1458.6481    487.38829    397.18224   -1025.5522    37986.909 
  337400    303.45354   -1461.6564    506.29036    411.38995   -992.17047    37986.909 
  337500    312.01331   -1441.9097    485.84746    449.24696   -734.04402    37986.909 
  337600    304.10959   -1467.0748    491.13437    393.77036   -634.57822    37986.909 
  337700    305.23318   -1488.5141    491.52439    377.78169    267.37836    37986.909 
  337800    300.58686    -1464.502     503.3085    392.65097   -60.563177    37986.909 
  337900    288.86557   -1442.0284    509.26661    368.28993    119.96709    37986.909 
  338000    305.55301   -1455.1989    489.31766    410.33073    35.074621    37986.909 
  338100    302.96551   -1435.9535    515.55265    444.15698    128.43954    37986.909 
  338200    302.92352   -1423.8134    493.73696    434.29227     877.4104    37986.909 
  338300    298.96098   -1478.4436    500.53155    368.60939   -181.04714    37986.909 
  338400    304.95024    -1447.409    489.47951    415.56766    625.40089    37986.909 
  338500    307.89709   -1427.0941    508.89059    468.56617    700.32446    37986.909 
  338600    299.91658   -1451.9674    491.52952    390.38761    307.92078    37986.909 
  338700     292.5256   -1412.6767    498.04571    402.90543    140.06154    37986.909 
  338800     300.5374   -1421.8531    494.48898     426.2575    402.87025    37986.909 
  338900    308.37082    -1448.043    480.11515     420.9756   -138.01802    37986.909 
  339000     299.8458   -1479.6087    499.44666    370.34466   -27.897969    37986.909 
  339100    292.15902    -1425.737    463.08808    353.23646    315.02616    37986.909 
  339200    304.10993   -1447.0388    476.84754    399.52113    523.14582    37986.909 
  339300    300.89576   -1435.4672    494.73953    414.50803   -432.43608    37986.909 
  339400    297.93171   -1460.5072    481.42038    362.79882    -169.4296    37986.909 
  339500    306.35257   -1482.8023    479.80574    376.81666    251.50328    37986.909 
  339600    293.47349   -1531.5754    470.77337    261.00373    852.48098    37986.909 
  339700    305.47965   -1455.0789    522.93368    443.73629    1234.7404    37986.909 
  339800    284.98111   -1478.2105    514.45296    319.79852     383.4127    37986.909 
  339900    304.52664   -1477.8694    504.31893    398.03873    404.10178    37986.909 
  340000    310.67872    -1485.193    467.79061     381.8958    98.624111    37986.909 
  340100    304.64806   -1431.2015    514.97015    455.90476    23.662471    37986.909 
  340200    297.01273   -1417.1079    485.10724    405.74586   -71.125863    37986.909 
  340300    306.09201   -1391.1037      488.153    475.68894   -476.25212    37986.909 
  340400    301.46912   -1440.1109    505.49128    423.19851    321.41695    37986.909 
  340500    296.81627   -1464.6762    467.32841     339.5139   -135.59117    37986.909 
  340600    312.66016   -1464.8361    496.16288    439.54942    232.29354    37986.909 
  340700    305.93577   -1497.7674    497.25727    377.42583    244.28413    37986.909 
  340800    307.68523   -1483.8934    511.23042    413.15256    617.68591    37986.909 
  340900    302.16167   -1500.3457    504.34283    364.93448    571.23344    37986.909 
  341000    293.94877   -1480.9308     489.2922    332.30782    192.05291    37986.909 
  341100    302.67308   -1476.8387    467.62321    354.02531   -46.727298    37986.909 
  341200    296.47772   -1494.5006    475.90161    316.73782   -569.25638    37986.909 
  341300    301.68278   -1481.5859    453.03959    330.23416    57.550312    37986.909 
  341400    299.66028   -1476.3381    487.01896    360.35193    41.887394    37986.909 
  341500    291.97637   -1481.9142    515.09028    348.23879    479.53842    37986.909 
  341600    293.12399    -1517.541    465.22812     267.9188    335.81398    37986.909 
  341700    301.50768   -1509.2798    496.82427    345.53624    708.54107    37986.909 
  341800    301.42532   -1488.3122    484.77977    354.08838    323.29319    37986.909 
  341900    293.15163   -1453.7149     473.9363    340.57754    33.266637    37986.909 
  342000    304.68564   -1451.2259    488.51497    409.59443   -56.450882    37986.909 
  342100    289.90762    -1454.658    504.96366    356.05077    440.44605    37986.909 
  342200    287.60238   -1504.7213    463.51063    254.15159   -216.93267    37986.909 
  342300    294.61852   -1444.1401    489.05458    371.87745    162.98675    37986.909 
  342400    289.46297   -1469.0021    504.65742    339.39766   -87.891792    37986.909 
  342500    302.67358   -1487.4013    487.91407    363.75573    73.128922    37986.909 
  342600    312.13677   -1422.9344    480.27938    463.21023    200.44615    37986.909 
  342700    302.76089   -1423.8493    477.50182    417.28883    79.711846    37986.909 
  342800    305.04728   -1446.2981    489.47193    417.10802    346.72049    37986.909 
  342900    300.64657   -1440.6664    480.17684    393.62376    276.99469    37986.909 
  343000    296.02489   -1437.0826    519.71456    415.92925    858.70301    37986.909 
  343100     296.5635   -1457.7755     503.2985    381.24623    716.14762    37986.909 
  343200    301.52178    -1498.721    456.66468    315.99897    319.24691    37986.909 
  343300     305.5546   -1462.5957     479.8748    393.49825    354.98057    37986.909 
  343400    298.09775   -1444.4859    492.29216    390.43976    -158.1036    37986.909 
  343500    290.82793   -1442.7553    449.27592    316.41073    289.41887    37986.909 
  343600    295.36373   -1445.9239    486.36488    370.76037    13.572896    37986.909 
  343700    298.44051   -1415.4444    494.88226    423.61507   -176.75164    37986.909 
  343800    304.99915   -1439.5004    477.16213    411.37913   -68.953498    37986.909 
  343900    299.40318   -1410.9384    501.87077    439.44547   -917.83452    37986.909 
  344000    295.55265   -1419.5683    467.72726    379.32923    299.00115    37986.909 
  344100    299.57881   -1427.7386    488.72289    410.28847    453.19736    37986.909 
  344200    309.11469   -1421.1742     494.0897    465.16927    370.28372    37986.909 
  344300    302.78577   -1426.6518    475.75405    412.85059    103.21814    37986.909 
  344400    299.19969   -1425.6767    482.29553    404.21542   -149.30603    37986.909 
  344500    292.43775   -1406.6669    466.50967    376.98354   -194.59948    37986.909 
  344600    300.68105   -1406.1179    506.08808    454.23887   -641.54639    37986.909 
  344700    312.37589    -1422.509    481.13627    465.56948   -546.70385    37986.909 
  344800    302.04201   -1443.0076    486.00424    403.39504   -31.823482    37986.909 
  344900    300.81965   -1403.7548    469.31992    420.45806    187.73935    37986.909 
  345000    295.55405   -1400.2097    493.82317    424.79011    20.204482    37986.909 
  345100    295.06377   -1432.3747    456.99607     353.5898    312.44418    37986.909 
  345200     302.5912   -1389.8825    515.02678    488.01625    738.82216    37986.909 
  345300    297.86951   -1407.1716    482.26401    416.69786   -198.90865    37986.909 
  345400    305.94729   -1402.2118    486.04241    461.81839    251.07699    37986.909 
  345500     308.4346   -1385.0625    490.90771    495.03586   -564.88169    37986.909 
  345600    292.16819   -1422.5747    465.52055    358.87255   -708.43342    37986.909 
  345700    314.10469   -1405.0988     489.7133    499.34322   -258.85179    37986.909 
  345800    294.26903   -1426.1017     484.4656    383.75282    72.696797    37986.909 
  345900    306.38008   -1418.7248    500.26901    461.48128    136.14716    37986.909 
  346000    297.44578   -1415.2202      495.797    420.27373   -129.45019    37986.909 
  346100    299.11915   -1429.8739    506.90251    424.26245    5.3892057    37986.909 
  346200    294.82423   -1408.4373    495.87513     415.3273    226.41723    37986.909 
  346300    297.81038   -1436.2082    499.06538     404.1963   -18.401562    37986.909 
  346400     294.7613   -1448.0088    473.03348    352.63072    588.29717    37986.909 
  346500    295.70785   -1418.3856    490.66623    404.14997     28.65455    37986.909 
  346600    307.28223   -1432.3598    490.51233    442.15294    272.33479    37986.909 
  346700     293.2505   -1442.4208    470.10767    348.48833    314.04303    37986.909 
  346800    305.14026   -1433.1395    471.86878    413.08221   -185.44473    37986.909 
  346900    288.30582     -1437.09    477.30901    338.74962   -842.42739    37986.909 
  347000    305.84907   -1450.9777    465.09296    391.66069   -160.76658    37986.909 
  347100    302.93945   -1449.3732    470.95447    386.02178    202.86124    37986.909 
  347200    301.71666   -1474.5974      475.788    360.12364    389.40937    37986.909 
  347300    294.94914   -1465.8472    495.75237    358.35726   -208.51919    37986.909 
  347400    305.52523   -1482.8529    478.89449     372.1285    140.33013    37986.909 
  347500    305.41623   -1488.3348    494.75401     382.0151    685.36289    37986.909 
  347600    314.24254   -1413.5757    494.96957    496.74357    679.06112    37986.909 
  347700    301.09147   -1403.9396    490.37163    442.54921    399.03006    37986.909 
  347800    299.35273    -1424.199    480.65716    404.74404    359.55913    37986.909 
  347900    297.11626   -1404.2435    517.58126     451.5506    147.46089    37986.909 
  348000    305.16628   -1419.5539    504.46152    459.37775   -25.594725    37986.909 
  348100    295.47936   -1384.5134    466.81272    413.13952    232.56825    37986.909 
  348200    297.77953   -1421.6121    522.35753    441.94565      53.4148    37986.909 
  348300    303.55226   -1420.2236    485.50221    432.47919    701.22588    37986.909 
  348400    307.13007   -1458.0203    497.63276    422.92751     746.5501    37986.909 
  348500    297.70882   -1447.8187    469.75369    362.81671    346.56379    37986.909 
  348600     311.6859   -1459.8356    505.24645    449.24544    583.71368    37986.909 
  348700    307.79589   -1452.8621    486.44815    419.89999    34.117258    37986.909 
  348800    296.48966    -1428.441    497.51449     404.4641    60.877919    37986.909 
  348900    305.34638   -1396.0098    493.24745    472.51894   -2.3989234    37986.909 
  349000    295.10537   -1424.3885    487.30586    392.07317   -58.194528    37986.909 
  349100    295.30766   -1418.9124    518.66467    429.81911    606.60894    37986.909 
  349200    297.93873   -1429.3364    495.76651    408.34729    202.56881    37986.909 
  349300    297.91585   -1418.5022    495.80197    419.11396    265.20791    37986.909 
  349400    290.80382   -1425.1506    495.19542    379.82643   -195.11416    37986.909 
  349500    300.62754   -1425.2162    512.64594     441.4574   -94.712212    37986.909 
  349600    291.31517   -1403.9915    480.96619    389.05939    286.56458    37986.909 
  349700    293.78332   -1444.6531    473.86247    352.41058    -283.5566    37986.909 
  349800    293.28071   -1438.3569    454.27497    336.85552    66.352871    37986.909 
  349900    296.00526   -1489.8205    482.14895    325.53737   -113.22469    37986.909 
  350000    303.79381   -1496.5978     474.8085    346.49927   -228.15576    37986.909 
  350100    299.88494   -1454.6216    468.66959    364.73097    98.109208    37986.909 
  350200    296.14831   -1435.7469    508.55152    406.65774     276.4493    37986.909 
  350300    284.29625   -1461.5906    470.76731     289.6482    496.11362    37986.909 
  350400    299.04474   -1457.1138    464.51849    354.30343    808.46002    37986.909 
  350500    298.71327   -1461.2909    448.25345    332.36831    478.19119    37986.909 
  350600    289.86753   -1437.5305      491.678    359.71204    5.6614792    37986.909 
  350700    310.46027   -1393.6823    493.85634    498.48833    -354.7356    37986.909 
  350800    292.13918   -1434.9717    466.07095    346.89529   -611.03167    37986.909 
  350900    301.64268    -1442.967    490.98515    406.61802   -231.30051    37986.909 
  351000    292.29917   -1446.2502    477.56189    347.82836   -321.74977    37986.909 
  351100    304.58584   -1451.4305    472.41597    392.84134   -153.76995    37986.909 
  351200    307.54958   -1485.7588    480.92271    380.36844   -349.61963    37986.909 
  351300    296.11983   -1433.2225    488.66147    389.16387   -57.927404    37986.909 
  351400    290.58293   -1423.0408    484.85624    370.60205    34.090935    37986.909 
  351500    308.13035   -1433.6887    474.42805    428.55963   -43.357161    37986.909 
  351600    290.09031   -1478.5933    495.76943    323.74403   -205.38644    37986.909 
  351700    297.19535   -1442.6848    474.89152     370.7757   -394.08822    37986.909 
  351800      301.535   -1476.9713    479.53146    360.67495   -456.83057    37986.909 
  351900    301.02671   -1482.1746    457.24188    330.89275   -464.05843    37986.909 
  352000    305.41311   -1404.1175     489.6722    461.13653   -70.901695    37986.909 
  352100    297.40944   -1461.9498     462.3345    339.91803   -355.57856    37986.909 
  352200    301.83145   -1427.6135    484.97942    416.81601    399.84778    37986.909 
  352300     305.6838   -1459.0688    504.21661    421.94883    1235.8504    37986.909 
  352400    297.28461   -1434.7387    493.65183    397.88423    312.58779    37986.909 
  352500    301.41876   -1406.7477    461.70529    412.54885    414.12399    37986.909 
  352600    297.67282   -1435.2106    510.23508    415.74399    239.02288    37986.909 
  352700    299.13689   -1409.7578    475.07698    412.63295    137.10765    37986.909 
  352800    286.55378   -1439.9666    481.41224    332.08501    105.02947    37986.909 
  352900    292.16906   -1453.5859    479.96423    342.30898   -375.47609    37986.909 
  353000    305.42104   -1463.5527    488.45075    400.51561    495.59581    37986.909 
  353100    295.35419   -1429.2294    500.08238    401.12947   -119.38202    37986.909 
  353200    298.15045   -1427.4812    481.35147    396.74113    -30.05288    37986.909 
  353300    317.83099   -1433.5614    463.40281    461.35346    148.39173    37986.909 
  353400    304.60476   -1440.5851    482.26259    413.61856   -8.0436941    37986.909 
  353500    286.12719   -1432.9414    471.15484    326.93146    7.1771941    37986.909 
  353600    296.21192   -1449.4019    481.20072    365.93845   -77.522228    37986.909 
  353700    295.87939   -1437.1471    467.50914      363.004    292.13848    37986.909 
  353800    306.73117   -1472.9766    466.31184    374.85362   -26.936598    37986.909 
  353900    302.34087   -1508.1407    473.83342    327.43723   -12.711202    37986.909 
  354000    297.80036    -1507.592    444.21364    277.91561    -251.4879    37986.909 
  354100    299.72511   -1504.4396    497.57189    343.09537    -53.57653    37986.909 
  354200     300.6705   -1472.8068    459.26084    340.67514    190.29145    37986.909 
  354300    298.87759   -1453.3273    473.48092    366.29947   -3.5749563    37986.909 
  354400    299.58449   -1466.2835    479.41161    362.45784    406.98957    37986.909 
  354500    299.90945   -1440.0396    483.00984    393.76364   -24.155902    37986.909 
  354600    308.67689   -1452.2138    459.47004    397.53819    139.46293    37986.909 
  354700    304.40408   -1426.7661    475.69067    419.96179   -294.34719    37986.909 
  354800    294.80746   -1447.7033     482.2114    362.32209   -464.09086    37986.909 
  354900    298.68669   -1456.9792    454.79741    343.10427   -634.36946    37986.909 
  355000    297.45617    -1445.101    468.43133    363.07405   -249.75791    37986.909 
  355100    298.71532   -1403.4087    500.27569    442.28199   -312.32791    37986.909 
  355200    291.60211    -1446.988    484.82831    351.21739   -244.61971    37986.909 
  355300    298.83785   -1451.1792    494.03523    388.82291    113.90478    37986.909 
  355400    291.02322   -1456.0576    489.38666    344.09877    321.26947    37986.909 
  355500    296.41177   -1445.9546    482.59606    371.68124   -200.92984    37986.909 
  355600     306.1896   -1475.6352    472.55287    375.99681   -146.15372    37986.909 
  355700    307.21701   -1470.5391    464.14666    377.31416    -132.2419    37986.909 
  355800    297.26264   -1420.2712    475.01987    393.62079    63.214542    37986.909 
  355900    294.75288   -1410.2414     487.5096    404.83638    8.1068178    37986.909 
  356000    295.33109   -1457.9578    489.06186    361.27641    39.956139    37986.909 
  356100    304.60709   -1448.2054    479.85892    403.60509    -322.7782    37986.909 
  356200    303.29939   -1448.7172    465.06875    382.41325    286.58368    37986.909 
  356300    294.09924   -1446.8088    480.20193    358.01726   -641.82765    37986.909 
  356400    311.05716   -1457.4597    484.33725    427.88028    268.62368    37986.909 
  356500    287.76751   -1471.0272    497.64719    322.72599   -381.86168    37986.909 
  356600    305.60624   -1432.4083    463.10969    407.15316    355.01699    37986.909 
  356700    298.61897   -1434.9769    486.88046    396.88464   -401.47248    37986.909 
  356800    306.72026    -1431.835    496.51233    446.14657   -347.21755    37986.909 
  356900    293.20712    -1414.258    457.57248    363.92049    -547.4354    37986.909 
  357000    302.29506   -1387.9018    503.99624     477.6326    166.57488    37986.909 
  357100    312.78656   -1395.9313     479.3301    492.19076    817.98038    37986.909 
  357200    293.26256   -1453.5746    471.12508     338.4062    84.338297    37986.909 
  357300    308.72252   -1423.5518    494.76495    461.70065   -70.365857    37986.909 
  357400    297.18482   -1418.1758    488.60483    408.95061    537.48852    37986.909 
  357500     298.3601   -1398.3139    492.25902    437.76019    266.51519    37986.909 
  357600    311.62035   -1419.0635    474.05743    458.53323     90.55463    37986.909 
  357700    297.80718   -1395.6758    492.70123    438.35014    -83.13013    37986.909 
  357800    303.25905   -1375.9198    483.22709    473.18725    113.90837    37986.909 
  357900    297.72112   -1363.8896    475.21958    452.26714   -321.05107    37986.909 
  358000    296.59953   -1415.4178    479.05871    399.52638   -107.58495    37986.909 
  358100    299.68327     -1399.94    478.02582    427.86046    238.39957    37986.909 
  358200    300.28241   -1418.9045    498.31727    431.88596     162.6975    37986.909 
  358300    306.13412   -1400.4471    478.69085    457.07301   -24.351495    37986.909 
  358400     312.0041   -1411.9111    466.13443    459.49101    281.51852    37986.909 
  358500    286.57613   -1367.8987     501.3197    424.16108     167.5786    37986.909 
  358600    310.53278    -1392.271    468.96126    475.33117     116.7437    37986.909 
  358700     298.0682   -1404.6335    515.36719    453.23404   -36.606404    37986.909 
  358800    295.02163   -1389.2269    478.97679     418.5285    -67.14388    37986.909 
  358900    302.24405   -1409.8351    485.33004    436.80332    49.186357    37986.909 
  359000    291.81904    -1427.179     473.7885    360.96364   -117.40798    37986.909 
  359100     304.1993   -1385.5738    508.03939    492.58042    52.575016    37986.909 
  359200    290.95591    -1390.889    460.43929    380.01685   -10.136729    37986.909 
  359300    304.02262   -1388.1873    515.09412    496.22589    371.76892    37986.909 
  359400    310.30385   -1420.5116    514.06301    491.16116    584.63829    37986.909 
  359500    295.34612   -1446.0445    457.37627    341.57185    340.60912    37986.909 
  359600    286.85589   -1470.8758    477.51879    298.64308    514.75558    37986.909 
  359700    303.37464   -1461.4786    482.09819    387.02018    1000.0955    37986.909 
  359800    309.26967   -1451.1666    478.22887    420.01409    484.66658    37986.909 
  359900    297.66255   -1462.0977    497.53348    376.10912    808.47711    37986.909 
  360000    304.79587   -1454.9669    501.74887    419.58373    501.57801    37986.909 
  360100    298.19928   -1457.0892    494.48983    380.49138    357.19889    37986.909 
  360200    304.16066   -1400.0751    512.52969    482.39543    309.70528    37986.909 
  360300    309.17576   -1413.5706    519.73456    498.69277    129.39366    37986.909 
  360400    294.42796   -1432.6885    486.28763    379.70385   -152.25681    37986.909 
  360500    295.38437   -1466.2322    476.80235     340.9825    358.44485    37986.909 
  360600    291.63832    -1431.447    518.67075    400.76397   -50.958306    37986.909 
  360700    302.13975   -1466.8134    492.10899    386.13423    403.69951    37986.909 
  360800    297.61955    -1446.289    508.70002    402.89066    35.200624    37986.909 
  360900    303.32129   -1443.8286    501.72413    424.05583   -218.48697    37986.909 
  361000    297.53884   -1399.1354    494.47631    435.45708    506.68729    37986.909 
  361100    304.98546    -1441.457     487.8941    420.09278   -135.96569    37986.909 
  361200    298.16478   -1412.3422    497.86251    428.45568   -277.91978    37986.909 
  361300    291.28713    -1402.832    486.81307     395.9395   -282.77908    37986.909 
  361400    311.36147   -1427.6198    489.86004    464.61357   -712.00838    37986.909 
  361500    300.32095   -1441.4053    469.87939    381.12087   -227.50427    37986.909 
  361600    292.57279   -1413.9165    504.15291    407.98542   -162.48522    37986.909 
  361700    297.95824   -1471.5273    499.58353    370.06128      138.672    37986.909 
  361800    295.31715    -1432.865    479.87794    377.12251   -60.980087    37986.909 
  361900    297.43966   -1446.0518    504.70639    398.32396   -122.30266    37986.909 
  362000    303.17614   -1447.9512    497.59236    415.14774   -365.79152    37986.909 
  362100    305.17063   -1431.9279    489.61934    432.18124   -539.31425    37986.909 
  362200    301.22941   -1413.3302    503.29402    446.70233    -16.29002    37986.909 
  362300    298.64025   -1454.0705    472.58101    363.58745    126.40698    37986.909 
  362400    308.33862   -1477.3659    463.43289    374.82534    523.94888    37986.909 
  362500    291.31624   -1451.0951    472.66967    333.66403    161.16376    37986.909 
  362600    294.95823   -1393.6176    499.58653    434.46196   -261.99412    37986.909 
  362700    297.54077   -1450.3289    480.69246     370.4884    56.018253    37986.909 
  362800    303.77573    -1480.169    507.85359    395.89175   -744.29048    37986.909 
  362900    296.00499   -1453.2148    481.47073    361.46357    -106.5431    37986.909 
  363000     298.6158   -1511.4224    481.24725    314.79162   -403.69843    37986.909 
  363100    305.51348   -1455.7954    479.28199    399.52048   -329.80006    37986.909 
  363200    289.30665   -1434.1596    505.65436    374.53312    180.82152    37986.909 
  363300    295.08258   -1420.2849    504.04485    412.81306    104.45578    37986.909 
  363400    303.52356   -1442.8858    493.18839    417.37387    253.82858    37986.909 
  363500    305.32314   -1462.9183    478.97801    391.23632   -97.694909    37986.909 
  363600    292.15738   -1461.1586    491.28184     346.0013    29.858984    37986.909 
  363700     297.2678   -1452.0047    465.81897    352.70956   -356.74437    37986.909 
  363800    303.59173   -1443.6622    492.10315    415.81928    -1162.301    37986.909 
  363900    293.39709   -1441.1722    476.79376    357.08323   -510.91924    37986.909 
  364000    316.79326   -1479.5418    490.85849    438.15478   -422.86488    37986.909 
  364100     284.0222   -1494.9985    485.92442    270.16303   -1044.1974    37986.909 
  364200    306.96676   -1467.0646    488.98776    404.50264   -535.32525    37986.909 
  364300    298.38948   -1487.2445    470.69585    327.39873   -702.42136    37986.909 
  364400    296.11856   -1413.4397    491.30907     411.5885   -130.76773    37986.909 
  364500    297.90041   -1464.3009    504.25649    381.70022   -382.98872    37986.909 
  364600    297.77747   -1464.6222     469.4565    346.02523   -16.548207    37986.909 
  364700    295.21893   -1495.4775    479.58707    313.77681     361.0743    37986.909 
  364800    287.04843    -1466.207    487.15019    313.81047    342.39495    37986.909 
  364900     299.6549   -1448.5967    495.32534    396.37554     673.6577    37986.909 
  365000    302.88935    -1493.639    487.35904    357.93492    71.510142    37986.909 
  365100    296.70575   -1498.5102    508.43655    346.29026   -22.238211    37986.909 
  365200    301.08058   -1443.5266    467.69384    380.23539   -347.46374    37986.909 
  365300    297.59072   -1453.2395    510.90521    398.01548   -496.53137    37986.909 
  365400    298.29808   -1481.2075    485.19502    347.52328    -67.62944    37986.909 
  365500    301.46956   -1502.7181    500.60497    355.70693    365.75254    37986.909 
  365600    302.53457   -1485.1676    511.35814    388.80748   -147.88495    37986.909 
  365700    298.35423   -1494.8791    473.07728    321.98684   -53.331471    37986.909 
  365800     294.3936   -1455.8109    493.72384     363.8629     68.88545    37986.909 
  365900    305.98409   -1447.1117    485.14322    416.18508    421.82442    37986.909 
  366000    302.43357    -1436.657    487.76183    413.26686    22.914676    37986.909 
  366100     297.6644   -1386.2256    499.62743     454.0835   -243.64852    37986.909 
  366200    307.89951   -1405.3147    498.42402    479.89001   -20.504476    37986.909 
  366300    310.03521    -1441.379    494.97309     449.9939   -161.46704    37986.909 
  366400    295.21183   -1376.9634    512.17856    464.85044   -238.55469    37986.909 
  366500    301.50578   -1441.2361     495.9671    412.71428   -970.73065    37986.909 
  366600    301.41966   -1421.5587    508.27456    444.31125   -69.995384    37986.909 
  366700     302.4293   -1450.5301    475.38864    387.00133    -296.1459    37986.909 
  366800    295.83835     -1471.45    505.22281    366.22997   -445.56338    37986.909 
  366900    300.94176   -1451.3672    495.19672    399.27241    -259.4044    37986.909 
  367000    306.38658   -1431.6016    486.59541    434.96016   -581.18569    37986.909 
  367100    302.72812   -1416.7272    534.33125    481.09272   -691.24071    37986.909 
  367200    300.63753   -1471.2246    487.73685    370.58484   -504.13667    37986.909 
  367300    294.38287   -1462.7103    509.76594    372.95726   -464.61011    37986.909 
  367400    308.31632   -1488.2765    504.53866    404.92013   -656.79603    37986.909 
  367500    291.00144   -1483.9282    479.42624    306.16967    -387.0672    37986.909 
  367600    302.15747   -1508.9071     476.0792    328.09052     95.39551    37986.909 
  367700    292.96045   -1473.2902    508.01685    354.22171   -449.06992    37986.909 
  367800    303.32385   -1512.7501    481.30526    334.72706    529.00211    37986.909 
  367900    315.28795   -1471.5154    474.16125    422.70405    558.71879    37986.909 
  368000    286.64294   -1460.5944     526.5442    356.99079    710.12126    37986.909 
  368100    303.41218   -1435.7407    519.88881    450.71781    559.05383    37986.909 
  368200      306.859   -1498.9896    476.67974    359.78424   -391.84389    37986.909 
  368300    298.77641   -1484.0459    460.47493    322.11913   -193.01676    37986.909 
  368400    294.64001    -1452.595    503.91279    378.37758   -741.34352    37986.909 
  368500    301.72135   -1486.4286    485.63361    358.15915   -98.117933    37986.909 
  368600    301.19038   -1461.5754    500.59165    395.57892    47.921015    37986.909 
  368700    296.49829   -1472.7132    497.84784    360.56413   -22.617137    37986.909 
  368800    318.69414   -1432.2152    516.05885    519.24329    618.24887    37986.909 
  368900    293.22227   -1450.6256    495.89252    365.94115    502.97728    37986.909 
  369000    304.25292   -1467.7041    518.56134    421.21359    613.13967    37986.909 
  369100    290.97111   -1472.7687    487.74945    325.51584    235.33007    37986.909 
  369200    308.66781   -1454.2532    507.22243     443.2103   -108.09965    37986.909 
  369300    301.66349   -1481.7001     490.9663    367.95971    -202.1167    37986.909 
  369400    297.86635   -1481.4535    513.42506     373.5628   -137.14344    37986.909 
  369500     288.8217   -1434.9866    492.50236    358.36985   -159.30454    37986.909 
  369600    302.08718   -1481.6177    496.25183    375.23601   -642.56555    37986.909 
  369700    292.30687    -1450.929    473.21773     338.8401   -408.78633    37986.909 
  369800    307.27739   -1423.2938    525.82917    486.51397   -399.09623    37986.909 
  369900    302.09146   -1469.4161    493.64222    384.84726    -606.1478    37986.909 
  370000    302.27863   -1432.6056    489.98076    418.83934    287.74929    37986.909 
  370100    296.73779   -1453.1093    526.24993    409.64879   -217.69045    37986.909 
  370200    301.84714   -1422.3343    492.28202    429.46844    908.24271    37986.909 
  370300    301.24149   -1438.0187    486.39183    405.16597    417.84208    37986.909 
  370400    301.86934   -1417.6707    511.68386    453.63384   -32.963608    37986.909 
  370500    300.88298   -1446.3548    510.95629    419.77957    407.19176    37986.909 
  370600    285.33554   -1476.0914    473.12066    282.18164   -328.07567    37986.909 
  370700     313.3205   -1475.0774    485.55089     421.6703    268.48009    37986.909 
  370800    290.51397   -1483.1325    496.72398    322.06754    264.54964    37986.909 
  370900    303.58389   -1467.7398    496.45921    396.06241     353.6842    37986.909 
  371000    301.43242   -1465.2257    498.28384    390.71093    666.08184    37986.909 
  371100    302.53249   -1474.1292    527.94497    416.42333     596.5311    37986.909 
  371200    301.32967   -1497.4777    465.67609    325.38844    519.82595    37986.909 
  371300    295.89223   -1450.1689    498.01797    380.54888   -12.217419    37986.909 
  371400    310.13336   -1469.9993    515.35118    442.19376     134.5865    37986.909 
  371500     310.8317   -1457.8384    459.87536    402.02416    431.08106    37986.909 
  371600    304.07526   -1449.9564    519.57991    439.17964   -8.0939422    37986.909 
  371700    297.26319   -1456.4104    485.07086    367.53508    218.35416    37986.909 
  371800    303.62643   -1475.0443    498.13817    390.62859   -164.79086    37986.909 
  371900    297.46923    -1450.958    505.24732    394.09195    208.89165    37986.909 
  372000    300.17806   -1472.9059    502.73729    381.83456   -33.052424    37986.909 
  372100    307.86726   -1475.6705    514.97941    425.94426   -97.625971    37986.909 
  372200    296.45414   -1433.0334    506.07105    408.26825   -253.82748    37986.909 
  372300    291.49722    -1431.245    489.66554    371.32519     163.5539    37986.909 
  372400    302.05767    -1485.912    491.02921    365.58621    315.66615    37986.909 
  372500    306.79562    -1483.721    476.63376    374.72146    66.826079    37986.909 
  372600    308.23347   -1491.0729    495.89643    393.10827   -317.03037    37986.909 
  372700    300.42357   -1464.7487    487.05021    375.41053   -301.20527    37986.909 
  372800    300.27897   -1496.0584    516.70813    373.10737    -34.82179    37986.909 
  372900    299.04128   -1471.7937    487.20649    362.29593   -345.66808    37986.909 
  373000    297.76943    -1460.584    499.26411    379.83482   -184.97321    37986.909 
  373100    296.19198   -1472.1263    475.44619    337.36979    314.48113    37986.909 
  373200    303.75821   -1444.4054     509.7727    433.49547    447.69128    37986.909 
  373300    302.77135   -1474.5584    515.50268    404.62765   -189.31685    37986.909 
  373400    302.67565   -1487.4437    493.78723    369.59583   -66.203324    37986.909 
  373500    300.93776   -1493.1594     520.9984    383.26394    408.08278    37986.909 
  373600    313.08829   -1477.9032    484.20658    416.45425    740.62537    37986.909 
  373700    295.49822   -1488.7292    493.42332    335.61926    225.06512    37986.909 
  373800    300.86045   -1499.5393    502.11872    357.65603   -83.551181    37986.909 
  373900    301.95212   -1510.0244    467.95977    317.92899    117.47002    37986.909 
  374000    296.68207   -1496.8541    523.86736    363.27047    858.58226    37986.909 
  374100    299.27083   -1491.4003    481.80915    338.32586    266.81035    37986.909 
  374200    297.20141   -1470.5454    512.70814    380.75905    48.958418    37986.909 
  374300    288.51849   -1519.2079    483.46259    263.74311   -226.80232    37986.909 
  374400    296.24674   -1511.0829    466.13827    289.35183     316.2463    37986.909 
  374500     299.1371   -1529.2319    534.43732     352.5201    122.11038    37986.909 
  374600    291.85665    -1504.574    487.60322    297.55274   -9.0439791    37986.909 
  374700     309.7914    -1487.189    467.75297    375.86567    121.71056    37986.909 
  374800    291.09956   -1492.9518    518.50145    336.66329    45.240086    37986.909 
  374900    295.90029   -1494.1203    492.97509    331.59085    207.47958    37986.909 
  375000    296.58886   -1486.6355    486.46337    335.66526    254.84053    37986.909 
  375100    306.10922   -1476.5148      500.435    402.63736   -125.42358    37986.909 
  375200    300.60132   -1462.8882    503.97812    394.99946    345.86172    37986.909 
  375300    296.95234   -1497.9898    504.45969    343.94443    342.00225    37986.909 
  375400    298.51266   -1487.1039    488.66987    346.06812    511.25369    37986.909 
  375500    304.03028   -1500.3276    531.48509    400.51114    653.39992    37986.909 
  375600    296.32582   -1473.0467    484.89176    346.49768    176.84159    37986.909 
  375700     309.3464   -1460.7821    497.40195    429.91723    129.42829    37986.909 
  375800     311.5123     -1449.17    519.50509    473.38775    253.79645    37986.909 
  375900    297.54215   -1402.7028     485.7839     423.2121   -280.65444    37986.909 
  376000     296.6964   -1466.2219     500.2234    370.32325   -724.03925    37986.909 
  376100    304.82918   -1481.5016    485.30158    376.75186   -204.44677    37986.909 
  376200    296.83736    -1447.864    498.34269    387.43535   -1010.4418    37986.909 
  376300    304.05581   -1438.1783     493.8278    425.11808   -800.82474    37986.909 
  376400    301.74618   -1441.7172    501.26952     418.6183   -180.59157    37986.909 
  376500    292.62487   -1452.7528    481.04122    346.27204   -511.36415    37986.909 
  376600    310.48131   -1463.0353    508.02716    443.40088   -725.71901    37986.909 
  376700    299.28806   -1399.4872     499.4968    448.00424   -820.24482    37986.909 
  376800    297.80569   -1448.2087    510.14156    403.25089   -650.02806    37986.909 
  376900    297.79238   -1441.0249    494.76992    395.00312   -806.95951    37986.909 
  377000     296.4343     -1432.08    480.55344    383.61469   -65.258457    37986.909 
  377100    297.98284   -1480.1298    524.38951    386.37563    137.21883    37986.909 
  377200    306.32563    -1459.925    473.11601    392.88291    478.88536    37986.909 
  377300    305.49973   -1414.6037    535.22985    496.59811    404.91777    37986.909 
  377400    302.95825   -1423.3181    483.26085    424.46795    203.94404    37986.909 
  377500    304.23236   -1413.5375    478.83353    435.55978    262.52748    37986.909 
  377600    292.63295   -1421.5003    511.49559    408.01526    416.93298    37986.909 
  377700     296.1629   -1473.2464    506.31771    366.99023    493.48418    37986.909 
  377800    290.10917   -1402.6634    499.46171    403.45111     240.0677    37986.909 
  377900    302.06559   -1392.5632    491.23551    459.17687    -478.7808    37986.909 
  378000    306.81198   -1397.7711     494.7349    478.84619   -440.47974    37986.909 
  378100    297.59885   -1455.6656     479.7786    364.49945   -396.99081    37986.909 
  378200    296.70408   -1457.8518    479.98032    358.48486   -702.35799    37986.909 
  378300    303.39464   -1447.5116    477.58336    396.56242   -353.76606    37986.909 
  378400    293.57498   -1414.7044    498.07596     405.6344   -92.746694    37986.909 
  378500    298.36233   -1484.3783    470.13166    329.57842   -204.26539    37986.909 
  378600    312.24136   -1487.8521    465.47083     383.9551    39.580715    37986.909 
  378700    296.71113   -1483.4718    471.12722    324.04356    294.20646    37986.909 
  378800    294.31841   -1472.0555    476.84474    330.40058    595.70574    37986.909 
  378900    299.89886   -1477.5941    476.82604    349.97761   -75.461935    37986.909 
  379000    306.47754   -1455.0427    500.32782    425.66118    247.89419    37986.909 
  379100    302.18719   -1450.3313    476.71397    387.43495     508.5871    37986.909 
  379200    305.17213   -1438.2967    500.17982    436.37958    469.68023    37986.909 
  379300    297.72215   -1424.1736    478.46548    395.23363   -126.97713    37986.909 
  379400    301.28868    -1436.018    498.23633     419.2238   -320.60255    37986.909 
  379500    308.39996   -1450.8365    473.96656    412.16467   -499.76289    37986.909 
  379600    297.62607   -1480.6044    480.63473    340.53927    -304.4954    37986.909 
  379700    306.67622   -1460.9192    510.73665    431.08835    -831.2919    37986.909 
  379800    299.00394   -1455.6871    464.74828    355.77613   -125.18372    37986.909 
  379900     295.4387   -1472.4337    483.73031    341.95366    459.06608    37986.909 
  380000    312.92289   -1473.5009    487.27366    423.17869    364.21743    37986.909 
  380100    300.97009   -1456.6238    496.72834    395.67508     180.7062    37986.909 
  380200    289.74679   -1439.4845    473.81844    339.35469    131.80942    37986.909 
  380300    300.00735   -1463.7535    473.52414    361.00496   -39.320949    37986.909 
  380400    304.11903   -1457.8552    498.80013    410.69823   -736.93342    37986.909 
  380500    301.91053    -1452.331    479.78855    387.26381   -275.38223    37986.909 
  380600    306.45365   -1456.2809    498.44845    422.43597    184.60137    37986.909 
  380700    302.80594     -1441.08    487.77206    410.53127   -336.99092    37986.909 
  380800    311.78808   -1485.0876    469.37018    388.57733   -39.257602    37986.909 
  380900    296.44467   -1473.6275    495.12956    356.69001   -328.92162    37986.909 
  381000    307.81756   -1449.2804    490.04018    427.17134    338.48698    37986.909 
  381100    306.62151   -1469.5552    488.18322    399.65255    688.12045    37986.909 
  381200     299.2968   -1460.3669     500.6245     388.2916    150.30767    37986.909 
  381300    293.94014   -1495.0857    471.97274    300.79456    500.10046    37986.909 
  381400     314.1992   -1466.4565    480.86013    429.55808    -154.5657    37986.909 
  381500    296.06376     -1433.26    500.87317    401.08553   -1.0065187    37986.909 
  381600    297.04687    -1440.093    479.58981    377.39706    309.78333    37986.909 
  381700    315.24922   -1450.0884     503.5909    473.38628   -127.22669    37986.909 
  381800    295.53716   -1441.4806    472.45469     362.0747    279.81535    37986.909 
  381900    304.92551   -1443.8907    471.54359    401.03857     512.9042    37986.909 
  382000     289.0266   -1432.8361    515.45598     384.3968   -68.628607    37986.909 
  382100    291.97828   -1486.3097     498.3556    327.11722    77.945582    37986.909 
  382200    290.10956    -1447.979    475.60793    334.28356   -158.18365    37986.909 
  382300    302.83913   -1473.8625    500.25853    390.38463    37.315896    37986.909 
  382400    297.23987   -1480.5759    485.02842    343.22205   -24.564732    37986.909 
  382500    302.34708   -1440.8837    493.02459    413.91339    39.433576    37986.909 
  382600    301.68061   -1460.6416    490.14445    388.27356   -458.69217    37986.909 
  382700    289.49625   -1431.0637    489.52761    362.35616   -593.66528    37986.909 
  382800    301.43476   -1435.8936    520.38123    442.15099    15.555853    37986.909 
  382900    310.08342   -1468.1136    473.05862    401.56201   -484.58301    37986.909 
  383000    305.63459   -1433.3645    500.97643    444.19133   -462.79145    37986.909 
  383100    300.18238   -1457.5811    459.19716    353.63866    -237.5389    37986.909 
  383200    303.67599   -1455.0212    448.68991    361.42658   -311.22511    37986.909 
  383300    304.19898   -1414.1009    508.34105    464.35359    242.51618    37986.909 
  383400    294.88657   -1444.0171    490.23998    374.39322   -148.21817    37986.909 
  383500    298.02885   -1497.7382    487.69676    332.28164    310.36004    37986.909 
  383600    304.48121    -1480.724    487.51148      378.172    286.16275    37986.909 
  383700    289.95153   -1509.3776    496.45781    293.02311   -234.08796    37986.909 
  383800    292.35697   -1493.2835    484.60441    308.09789   -223.41317    37986.909 
  383900    301.39198   -1515.7251    463.34682    305.09238    233.91422    37986.909 
  384000    290.02316   -1505.3289    481.01301    281.94959    451.88961    37986.909 
  384100    300.54328   -1548.1205    476.88377    282.41137   -132.09156    37986.909 
  384200    307.34344   -1502.5118     451.7301    333.49442   -239.95236    37986.909 
  384300     302.2515   -1509.6036    477.17975    328.91808     141.3928    37986.909 
  384400    307.10855   -1472.5557    485.02027    395.68272     156.8897    37986.909 
  384500     300.8912   -1482.6367    500.65928    373.23772    303.03045    37986.909 
  384600    300.53998   -1455.7774    520.92528    418.78111    253.79526    37986.909 
  384700    296.93442   -1460.4933    492.20032    369.10089    505.66685    37986.909 
  384800    296.18208   -1414.1967    504.97851    424.78708   -277.50636    37986.909 
  384900    299.82428   -1436.2382    493.36524    407.53673     -596.424    37986.909 
  385000    294.67647   -1388.8062    490.80378    429.22157   -619.28644    37986.909 
  385100     305.3739   -1422.0782    521.11704    474.44407   -805.44482    37986.909 
  385200    297.90106   -1426.0551    481.91988    397.61238   -733.88241    37986.909 
  385300    292.91304   -1412.2752     500.1012    407.10751   -802.10529    37986.909 
  385400    289.25929   -1432.2073    496.23105    366.84881   -933.38279    37986.909 
  385500    299.76946   -1461.9662    460.20492    348.40153   -244.49821    37986.909 
  385600    306.49088   -1485.4817     502.3285    397.28288   -20.211176    37986.909 
  385700    300.53239    -1486.048      471.476    339.02711   -314.27805    37986.909 
  385800    303.03605   -1456.1869    488.21138    396.90002   -418.65648    37986.909 
  385900    304.38262   -1480.7464    503.45039    393.64451    111.53615    37986.909 
  386000    300.44443   -1476.7775    460.02666     336.4521    335.52641    37986.909 
  386100    293.66912   -1511.6985    470.42959    281.41793    297.45642    37986.909 
  386200    303.47259   -1518.0355     491.1449    339.95113    1023.4152    37986.909 
  386300    293.34629   -1481.9977    463.13312    302.36826     786.1343    37986.909 
  386400    306.23387   -1458.2768    487.37308     408.3748    453.24634    37986.909 
  386500    300.52998   -1477.8569    506.95767    382.68904    478.37129    37986.909 
  386600    290.96934    -1502.009    480.15755    288.67561    187.18455    37986.909 
  386700    312.84678   -1505.7447    469.97061    373.28907    89.326838    37986.909 
  386800     300.1117   -1500.9021    495.39143    346.19359    -262.3265    37986.909 
  386900    295.34136   -1478.2099      472.397    324.40579     -952.775    37986.909 
  387000    292.03172   -1466.1031    472.01188     321.2208   -822.19996    37986.909 
  387100    304.61474   -1463.6502    516.09537    424.43114   -385.43881    37986.909 
  387200    299.33052   -1502.0321    461.86618    308.01992   -257.69448    37986.909 
  387300    294.03428   -1478.9402    508.56288     353.9543    280.17833    37986.909 
  387400    311.63289   -1454.1093     497.0144    446.50085     85.12099    37986.909 
  387500    289.45467   -1513.8629    480.96013    270.80226    179.57778    37986.909 
  387600    305.46798   -1491.5035    480.18623    364.51172     65.59209    37986.909 
  387700    300.54783    -1508.742    471.85762    316.78423   -823.60871    37986.909 
  387800    296.85946   -1490.9284    492.86427     338.9921   -1111.4606    37986.909 
  387900    301.03736     -1471.92      487.565    371.51849   -309.28946    37986.909 
  388000    295.50427   -1487.9408    486.81507    329.82668    6.1487706    37986.909 
  388100    291.70614   -1490.9854    473.82755    296.68778    46.666796    37986.909 
  388200    301.52885    -1473.887    518.97034    403.17048    155.36729    37986.909 
  388300    305.37814   -1463.9441    468.16417    379.64444     274.8816    37986.909 
  388400    293.50851   -1507.9637    466.90324    280.90305    71.398794    37986.909 
  388500    293.45305   -1534.5905    494.77655    281.89974    651.29991    37986.909 
  388600    306.23271   -1502.2634    484.03162    361.04155    254.44857    37986.909 
  388700    298.91795   -1494.8585    456.89925    308.36834   -138.08143    37986.909 
  388800    303.65484   -1470.2493    480.13516    377.54843    -76.99965    37986.909 
  388900    310.96427   -1517.6045    487.59605     370.5758    8.9817895    37986.909 
  389000    290.95272   -1480.0559    481.13976    311.53612    -591.7239    37986.909 
  389100    303.19606   -1503.4821    483.68276    345.79687    34.089756    37986.909 
  389200     294.9854   -1464.5445     486.4276    350.49849   -274.40195    37986.909 
  389300    301.01271   -1484.9032    489.41362    360.27288   -555.32411    37986.909 
  389400    298.66929   -1536.1707     470.4087    279.44568    -326.6789    37986.909 
  389500    296.97399   -1516.6275    464.47569     285.4202    4.0196196    37986.909 
  389600    295.71176   -1531.0806     512.5893    313.39565    -204.2795    37986.909 
  389700    289.59296   -1460.1008    497.69885    341.92591   -237.90704    37986.909 
  389800    291.51841   -1479.3095     491.2832     324.9738   -36.158754    37986.909 
  389900    302.11285   -1475.6099     450.3248    335.43234   -755.53576    37986.909 
  390000    288.45607   -1448.5207    513.06002    363.74659   -175.75531    37986.909 
  390100    292.06426   -1466.5726    504.15255    353.03848    30.360099    37986.909 
  390200    296.25957    -1441.628    501.58127    394.30756    474.64725    37986.909 
  390300    299.44464   -1460.9259    495.99059    383.76459    88.352385    37986.909 
  390400    287.07462   -1467.1026    503.43002    329.31267    -117.4665    37986.909 
  390500    297.42837   -1437.7817    488.16077    389.99767   -554.29452    37986.909 
  390600    306.97998   -1427.2272     506.4318     461.8436    251.79822    37986.909 
  390700    291.91639   -1448.9205    499.91253    365.78463    172.58872    37986.909 
  390800    299.86704   -1440.2686    484.54585    394.87957   -6.8096743    37986.909 
  390900    299.92157   -1439.6145    497.95798    409.19143     125.4697    37986.909 
  391000    302.47042   -1432.3764     489.8201    419.77167    495.90066    37986.909 
  391100    286.20689    -1444.623     512.9587    357.41261    448.49944    37986.909 
  391200    293.63252   -1417.2643    486.96972    392.22745    445.37117    37986.909 
  391300    296.41355   -1415.6141    524.17926    443.61301    579.64441    37986.909 
  391400    294.68581   -1441.9684    505.00816    390.30579    463.45776    37986.909 
  391500    299.93423   -1484.0954    517.51294    384.32252    353.50306    37986.909 
  391600    289.76415   -1496.2173    473.48224    282.36384      -105.33    37986.909 
  391700    305.39975   -1479.0779    483.20308    379.64686   -600.27578    37986.909 
  391800     296.1107    -1456.777    473.05773    349.96452   -452.57548    37986.909 
  391900    310.87597   -1501.9767    501.95768    400.16761   -478.42758    37986.909 
  392000    301.80758   -1450.0104    494.06741    403.39958    69.807991    37986.909 
  392100    290.56014   -1509.4692    490.17881     289.3936   -1028.4933    37986.909 
  392200    306.03848   -1506.8176    515.75594    387.33686     -88.6885    37986.909 
  392300    311.77092   -1484.5418    507.96107    427.63674    460.32854    37986.909 
  392400    293.77511   -1491.0696    483.15597    315.25068    20.999999    37986.909 
  392500    296.75655   -1453.9366    492.19808    374.85421   -63.133065    37986.909 
  392600    310.12902   -1458.8987    501.73219    439.65578    379.24443    37986.909 
  392700    292.63244   -1523.1156    491.88857    286.79064    318.68366    37986.909 
  392800    295.31522   -1543.6874    494.40982    280.82339    114.46416    37986.909 
  392900     294.9671   -1556.7662    458.62017    230.38695    125.38415    37986.909 
  393000    298.73616   -1519.4822    477.27228    303.29893    500.12316    37986.909 
  393100    301.86204   -1509.3779    495.67563    345.88561    83.996788    37986.909 
  393200    302.63111   -1523.1057    488.52697    328.47302    199.44095    37986.909 
  393300     298.2759   -1507.4707    495.15105    331.11615     673.5988    37986.909 
  393400     293.0471    -1505.931    492.21198    306.16632    664.69778    37986.909 
  393500    301.73872    -1506.626    486.44595    338.85236    562.18277    37986.909 
  393600    294.82939   -1476.9951    505.50349    356.42113    1054.1207    37986.909 
  393700    305.24127   -1501.3344    486.03471    359.50815    742.30723    37986.909 
  393800    304.04341   -1503.5847    495.97182    361.79979    508.35008    37986.909 
  393900    291.46629   -1491.8686    489.07644    309.97317      31.3115    37986.909 
  394000    296.62022   -1499.5243    482.59744    319.05179   -167.33296    37986.909 
  394100    301.90216   -1468.8124    480.20878    371.16486    166.67888    37986.909 
  394200    297.03815   -1494.4745    519.46974     362.8563    323.66863    37986.909 
  394300    311.38214   -1516.3081    508.32006    394.47835    813.58984    37986.909 
  394400    297.18654    -1511.377    517.91618    345.06859    343.21257    37986.909 
  394500    300.78764   -1466.4366    516.56501    404.87718    75.783682    37986.909 
  394600    308.00429   -1503.1197    514.89082    399.02369    194.07737    37986.909 
  394700    292.97701   -1521.9686    488.36329    285.96431   -73.873606    37986.909 
  394800    307.85496   -1498.4148    502.97548    391.14064   -161.61848    37986.909 
  394900    297.31376   -1503.0723    497.24133    333.27141    245.60465    37986.909 
  395000    301.47869   -1522.3208    497.98301    333.52344   -368.92567    37986.909 
  395100    297.19909   -1520.9534    489.84477    307.47725   -483.87631    37986.909 
  395200    293.84407   -1501.5708    504.90748    326.81156   -724.04719    37986.909 
  395300    305.69266   -1498.5186    499.47927    377.80167   -409.09095    37986.909 
  395400    299.04432   -1523.1504    462.25126    285.99766   -221.65094    37986.909 
  395500     304.3919   -1505.3799    497.85982    363.46229   -546.98103    37986.909 
  395600    294.76191   -1559.0431    491.27057    259.83628   -360.71042    37986.909 
  395700    306.95632   -1509.4804    498.10612    371.15821   -450.10227    37986.909 
  395800    308.27641   -1537.2998    493.23041    344.40883    -373.4066    37986.909 
  395900    297.50466   -1552.6932    471.02637    258.29539   -388.79968    37986.909 
  396000    291.56153   -1522.9722    501.45344     291.6755   -527.58675    37986.909 
  396100     308.1786   -1497.8933    480.22445    370.36878    215.70501    37986.909 
  396200    302.37279   -1510.5533    499.30806    350.64306   -281.89134    37986.909 
  396300    293.71815    -1527.202     478.6672    274.37289   -673.80581    37986.909 
  396400    292.61482   -1519.8164    489.89963    288.02153    339.11732    37986.909 
  396500    297.71742   -1570.7843     499.5205    269.65663     268.3565    37986.909 
  396600    302.97398   -1531.1356    502.27912    335.73952    808.51099    37986.909 
  396700    303.05587   -1553.3209    497.97165    309.61561    418.52763    37986.909 
  396800    315.66436   -1536.1962      509.658    395.21534    161.62438    37986.909 
  396900    294.92404   -1515.3093    489.00126    302.03105    -344.3945    37986.909 
  397000    304.56775   -1574.4321    474.98949    272.33177   -548.87155    37986.909 
  397100    299.15768   -1523.7419    485.02569    308.69119   -475.96158    37986.909 
  397200    304.36105   -1531.2378    501.08219    340.68773   -495.32863    37986.909 
  397300    301.38634   -1491.9755    504.15626    369.62601    76.825292    37986.909 
  397400    307.95968   -1512.0699    470.34603    345.32771     359.6181    37986.909 
  397500    304.30172   -1542.3572    483.69639    311.91537    551.22314    37986.909 
  397600    306.11584   -1529.2762    519.17991    368.65067    507.46688    37986.909 
  397700    297.15445    -1505.817    483.96106    316.52893    300.81297    37986.909 
  397800     299.5008   -1467.4321    504.42529    385.94601    984.71156    37986.909 
  397900    306.40674   -1496.3173    499.45615    383.19603    406.14177    37986.909 
  398000    304.01659   -1497.9251    506.39674    377.76357     528.3024    37986.909 
  398100    298.68513   -1497.7003    538.32896     385.9077    920.99474    37986.909 
  398200    299.27753   -1530.4479    472.48549    289.98475    729.80637    37986.909 
  398300    300.00207   -1498.1777      533.394    386.42681    791.48526    37986.909 
  398400    304.18964   -1499.2764    506.65861    377.45357    435.46019    37986.909 
  398500    305.33901   -1458.0231    495.49092    412.71591    173.40687    37986.909 
  398600    307.10877   -1506.9639    503.29243    379.54767    256.31919    37986.909 
  398700    292.84975   -1536.1769    510.24898     293.0685   -74.099414    37986.909 
  398800    302.39258   -1475.9273    495.32671    381.37681    72.050839    37986.909 
  398900    300.10503   -1509.9883    489.42211    331.10809    55.669629    37986.909 
  399000    300.07249   -1494.9688    506.45604    363.01493    719.05313    37986.909 
  399100    292.15626   -1485.8667    505.40675    335.41304    127.69493    37986.909 
  399200     302.3773   -1503.0299    491.83921    350.71788    569.53979    37986.909 
  399300    294.17231    -1499.059    509.00519    334.89949    1088.1563    37986.909 
  399400    302.58459   -1545.4172     514.4421    331.86712     1004.859    37986.909 
  399500     291.4854   -1513.2555    499.59098     299.1869    493.72813    37986.909 
  399600    295.05587   -1519.9307    512.99796    322.00002    571.19594    37986.909 
  399700    295.32614   -1542.8513    513.78095    301.07981    456.43018    37986.909 
  399800    299.87007   -1527.1288    486.54264    310.02981    253.77161    37986.909 
  399900    303.19035   -1525.0924     469.8902    310.36835   -144.09841    37986.909 
  400000    299.59404   -1441.9087    478.61623    386.08029   -452.96266    37986.909 
  400100    302.17523   -1476.3048    516.66158    401.35523    117.46022    37986.909 
  400200    306.03459   -1518.9765    494.03937    353.44388    468.90256    37986.909 
  400300    299.93611   -1482.8609    505.67253    373.72508    716.10833    37986.909 
  400400    297.49245   -1444.4612     494.2616     389.7076    64.927277    37986.909 
  400500    293.94893     -1477.42     510.2334    356.76049    224.96662    37986.909 
  400600    298.98991   -1494.8854    495.35833    347.12468    -244.2968    37986.909 
  400700    306.52828   -1520.9422    516.60262    376.26498   -337.07082    37986.909 
  400800    291.59995   -1493.3584    479.27558    299.28452    54.305885    37986.909 
  400900    292.53899   -1466.7534    518.83505    369.67844   -298.11289    37986.909 
  401000    297.09012   -1477.7413    500.17596     360.5298    66.133862    37986.909 
  401100    302.25099   -1494.9545    502.95876    369.34386     135.6143    37986.909 
  401200    296.56349   -1502.1537     495.6506    329.22006    96.561753    37986.909 
  401300    304.74042   -1524.7156    472.52308    320.35958    143.67302    37986.909 
  401400    290.10046   -1494.3244    492.43049    304.71966    161.59033    37986.909 
  401500    291.92455   -1483.1674    495.43966    327.10166   -221.81644    37986.909 
  401600    297.84239   -1481.4049    493.26144    353.33989   -127.24221    37986.909 
  401700    300.57332   -1476.7571    513.38339    390.40969   -37.506997    37986.909 
  401800    297.12401   -1484.6745    494.08977    347.66301   -380.84345    37986.909 
  401900    305.22386   -1480.2049    486.16266    380.68727   -270.69562    37986.909 
  402000     296.4972   -1530.6779    481.63817    286.38484    20.505372    37986.909 
  402100    301.04725   -1521.0346    508.24613    343.12958    -182.5021    37986.909 
  402200    297.24492   -1504.0576    474.96415    309.69891   -361.92502    37986.909 
  402300    288.85085   -1484.9682    519.18963    335.20677    365.12486    37986.909 
  402400    293.94987   -1542.7942    503.32392    284.48113    494.14067    37986.909 
  402500     300.6175   -1522.7121    493.80662      325.077    281.95712    37986.909 
  402600    304.96065   -1512.0652    488.81912    350.29789    667.79999    37986.909 
  402700    301.49275   -1490.7767    503.73863    370.88648   -291.03897    37986.909 
  402800    305.32628   -1443.1166    488.78867    420.86289   -284.19067    37986.909 
  402900     303.6074   -1461.7623    508.49202    414.17869   -602.86861    37986.909 
  403000    297.01539   -1489.3174    448.15048    296.59156   -584.27687    37986.909 
  403100    301.38089   -1495.4714    516.60179    378.55108   -75.958822    37986.909 
  403200    308.66996   -1461.9672    505.24401    433.52752   -147.80517    37986.909 
  403300     303.0328   -1489.2687    513.47997    389.07226   -272.13268    37986.909 
  403400     299.9037   -1482.3433    484.34926    352.77341    227.20983    37986.909 
  403500    301.09305   -1509.3729    482.81394    329.56538   -575.48215    37986.909 
  403600     314.3706   -1485.7842    535.83375    465.97603    142.81485    37986.909 
  403700    300.28524    -1484.556    493.86406    361.79403     319.6989    37986.909 
  403800     298.5896    -1503.025    489.12024    330.94402   -182.77143    37986.909 
  403900    288.19523   -1523.1626    529.60273    304.47256    183.54638    37986.909 
  404000    310.42357   -1481.6783    462.08169    378.55238     213.7849    37986.909 
  404100    301.50138   -1526.1838      520.205    351.98467    155.39999    37986.909 
  404200    307.53516   -1480.9141    513.81073    418.03619     -309.324    37986.909 
  404300     308.3622   -1516.8769    482.08338    354.07108    27.703166    37986.909 
  404400    295.34392   -1525.9346     518.2638    322.55939    236.12148    37986.909 
  404500    300.63893   -1494.0644    466.57267    326.58716    107.58772    37986.909 
  404600    302.15279   -1496.8568    489.17307    353.21369    597.26472    37986.909 
  404700    306.60737   -1498.7968    482.29774    364.46182   -76.517617    37986.909 
  404800    290.74704   -1508.1694    512.25015    313.60652   -190.14621    37986.909 
  404900    301.24823   -1504.5424    499.45114    351.73194    169.69742    37986.909 
  405000    299.82461   -1507.5817    481.97358    324.80317   -196.53917    37986.909 
  405100    308.42073   -1501.2402    509.05471    396.94277    38.686055    37986.909 
  405200    298.85599   -1490.8978    516.47832    371.62906    -91.01325    37986.909 
  405300    317.08504   -1543.4326    484.35036    369.07009    2.6132644    37986.909 
  405400    297.74181    -1522.018    488.24717    307.25946    603.26543    37986.909 
  405500    292.94982    -1514.075    499.94279    305.31489     941.2458    37986.909 
  405600    307.37819   -1520.2521    522.06361     386.2441    1243.2681    37986.909 
  405700    310.02594   -1549.0437    504.26952    351.58382    966.28037    37986.909 
  405800    289.41861   -1537.6542    479.46247    245.35085    967.89803    37986.909 
  405900    310.76897   -1564.6036    502.95721    338.05829    282.70142    37986.909 
  406000    302.42794   -1546.4151    505.64876    321.37035   -77.096895    37986.909 
  406100     307.8572   -1499.1334    484.80929    372.26599    80.391014    37986.909 
  406200    301.23522   -1524.9947    495.81886    327.58881    17.280495    37986.909 
  406300     303.8938   -1518.3858    480.84707    331.20011   -193.31576    37986.909 
  406400    299.36372   -1487.3061    521.40654    382.43581   -222.50862    37986.909 
  406500     294.6614   -1509.2744     493.3545    311.23625    98.713332    37986.909 
  406600    296.95807   -1499.5162    494.98841    332.97259    106.47519    37986.909 
  406700    310.80748   -1549.0318    494.06823    344.91454    369.13785    37986.909 
  406800    300.60219   -1528.6759    500.03638    325.27392    302.22307    37986.909 
  406900    301.93879   -1505.0645    501.82104    356.69006    478.71005    37986.909 
  407000    299.86016   -1510.9715    524.13106    363.73092    226.95922    37986.909 
  407100    312.42334   -1528.8792    463.05566    341.33247    72.147502    37986.909 
  407200    299.74796   -1506.5267    480.69135     324.2306   -667.45578    37986.909 
  407300    301.98732   -1496.5986    484.99159    348.54504   -350.86208    37986.909 
  407400    301.38374   -1488.0514     489.8214    359.20357   -1247.9324    37986.909 
  407500    314.89822   -1462.5402    488.28982    444.05251   -421.64959    37986.909 
  407600    305.49327   -1440.2322    496.86431    432.57498   -219.11808    37986.909 
  407700    299.87835   -1412.4908     489.8699    428.03243   -300.37865    37986.909 
  407800    303.92799    -1471.053    496.21571    394.05564    99.365625    37986.909 
  407900    306.03618   -1441.3318    520.08592    457.14233   -71.146049    37986.909 
  408000     297.6374   -1429.6291    496.91029    407.84122    78.923278    37986.909 
  408100    303.79123   -1449.2612     500.7573    419.77298    227.66367    37986.909 
  408200    300.88049   -1457.4538    484.05139    381.76454    575.02241    37986.909 
  408300    297.69633   -1428.6674    490.24699    402.40502      584.613    37986.909 
  408400    302.58609   -1445.8388    506.25905    423.26925    378.18454    37986.909 
  408500    296.59068   -1451.2389    487.45141    372.05808    119.83847    37986.909 
  408600    309.75824   -1458.4429    516.18689    452.89631     -69.1753    37986.909 
  408700    298.20234   -1415.0367    507.97186    436.03966    369.71389    37986.909 
  408800    301.46673   -1406.7075    516.02872    467.12855    142.35042    37986.909 
  408900    306.50556   -1422.5839    519.32418    477.24259    418.87633    37986.909 
  409000     288.0822   -1407.0962     495.8392    386.26639    176.33366    37986.909 
  409100    297.35162   -1462.3984    493.05188    369.92633   -12.150269    37986.909 
  409200    306.08727   -1426.3147     497.6466    449.95018   -227.39262    37986.909 
  409300    293.32107   -1429.1605     508.5141    400.47289    30.135403    37986.909 
  409400    301.37728   -1451.0113    484.97928    391.37243   -571.93434    37986.909 
  409500    310.75038   -1396.8927    502.34931    505.07754   -507.19083    37986.909 
  409600    304.19249   -1462.9894    491.76657    398.86133   -516.21418    37986.909 
  409700    299.38237   -1485.3231    508.70018    371.79647   -231.02879    37986.909 
  409800    306.68655   -1434.6787    481.98452    428.62328   -627.81347    37986.909 
  409900    306.58738   -1393.9412    493.23973    480.16929   -570.48779    37986.909 
  410000    299.49499   -1403.5866    482.66076    428.00079    -702.6317    37986.909 
  410100    309.07261   -1423.9678    478.32867    446.42509   -708.35793    37986.909 
  410200    294.29378   -1480.2474    492.12991     337.3829   -207.41972    37986.909 
  410300    302.02719   -1509.0087    485.55291    336.87591    241.43476    37986.909 
  410400    297.62445   -1511.2691     464.6679    293.90053    341.21979    37986.909 
  410500    294.55818    -1497.585    493.26072    322.36691    21.480041    37986.909 
  410600    298.13308   -1441.5231    494.12536    395.39483    547.66056    37986.909 
  410700    296.75534   -1507.3806    483.94402    313.15066    692.56974    37986.909 
  410800    302.30664   -1503.6074    500.01364    357.99651    131.39595    37986.909 
  410900    302.25015   -1481.5672      482.573    362.34168    496.45942    37986.909 
  411000    311.91933   -1458.9025    479.41003    425.39348     1014.144    37986.909 
  411100    315.69038   -1458.0285    487.66771    451.50992    340.32253    37986.909 
  411200    304.28755   -1456.6276    519.50039    433.38512    772.48024    37986.909 
  411300    300.76355   -1467.9735    482.41124      369.078    417.91962    37986.909 
  411400    300.82208   -1483.9371    492.20831    363.17507   -26.932361    37986.909 
  411500    311.44233   -1518.9867    474.75374    358.50457    492.22929    37986.909 
  411600    297.06954    -1512.519    498.09783    323.58126    233.79384    37986.909 
  411700    300.70997   -1444.3839    498.40527     408.4203   -227.90772    37986.909 
  411800    294.52607   -1482.3628    474.56524    318.74904   -354.45298    37986.909 
  411900    299.73968   -1461.0013    482.69381    371.72124   -544.80449    37986.909 
  412000    300.34812   -1454.5018    511.90286    410.17015    211.43821    37986.909 
  412100    305.55085   -1465.6314    474.87115    385.44201   -211.82101    37986.909 
  412200    298.57643   -1455.7605    502.89962    391.92859   -503.49383    37986.909 
  412300    290.92926   -1457.7483    465.59764     318.1959   -291.91305    37986.909 
  412400    291.73369   -1451.2977    497.47179    360.14378   -383.81231    37986.909 
  412500    305.57348   -1457.8217    469.60867    388.09116   -216.56529    37986.909 
  412600    305.49885   -1500.0342    461.80614    337.74001    -708.7895    37986.909 
  412700    305.02066   -1464.6355    466.23003    375.40877   -471.62801    37986.909 
  412800    298.35377    -1498.909    491.79939    336.67694    231.74512    37986.909 
  412900    308.42762   -1506.1879    494.02936    377.00075   -56.086786    37986.909 
  413000     298.8563   -1482.6092    458.96095    322.40179   -718.50915    37986.909 
  413100    288.53205   -1509.3465    478.49913    268.70218   -383.64834    37986.909 
  413200    296.27159   -1510.1345    483.91916    308.19305   -530.97712    37986.909 
  413300    301.42461   -1506.5272    474.62334    325.71382    10.072233    37986.909 
  413400    306.73867   -1508.4064     494.6957    367.84152   -147.64966    37986.909 
  413500    299.16223   -1473.7434    490.24514     363.9296    332.43382    37986.909 
  413600    291.95777   -1485.8248    479.03291    308.18708    155.76044    37986.909 
  413700    296.00145   -1527.4134     480.9768    286.75515    360.30668    37986.909 
  413800    289.19568   -1523.3286    468.42427    247.63417   -186.54136    37986.909 
  413900    296.89711   -1494.3345    470.86332    313.75462   -326.32472    37986.909 
  414000    299.26182   -1506.7349    455.38217    296.52368   -35.868365    37986.909 
  414100    303.88229   -1483.1831    502.64451    388.14847   -617.52721    37986.909 
  414200    300.05844   -1499.8085    486.81791    338.47377   -514.22018    37986.909 
  414300    293.64483   -1504.3654    499.73209    317.94413   -182.42011    37986.909 
  414400       301.49   -1504.1145    479.87106    333.66871    6.0335137    37986.909 
  414500    302.94423   -1525.9827    450.74424    289.22355    415.61718    37986.909 
  414600    303.06367   -1545.2251    452.64414    272.41908     915.3629    37986.909 
  414700     290.1579   -1514.0514    459.69019    252.51109    224.33791    37986.909 
  414800    306.20356   -1496.4266      488.634    371.34943    889.09281    37986.909 
  414900    310.96582   -1545.4193    502.26276    357.43479     385.2764    37986.909 
  415000    298.22881   -1491.7954    458.14664    309.57495    340.69001    37986.909 
  415100    304.51505   -1510.9705    486.76063     347.3271   -3.1270001    37986.909 
  415200    295.47561   -1510.2738    465.65177    286.20129    54.409802    37986.909 
  415300    303.78347   -1495.1743    475.32446    348.39214    387.52527    37986.909 
  415400    303.85009   -1500.8137    462.07998    329.80826    461.74994    37986.909 
  415500      302.472   -1475.4083    523.30573    410.23253    778.99963    37986.909 
  415600    307.02641   -1483.1517    466.12494    365.82145    685.51642    37986.909 
  415700    303.49456   -1486.3862    500.59282    381.14736    809.84453    37986.909 
  415800    303.43909    -1484.307    510.69013      393.074    471.73047    37986.909 
  415900    301.64533   -1520.2018    489.12795    327.53794   -29.646129    37986.909 
  416000    313.37536   -1515.7803    516.52883    412.19243    826.31859    37986.909 
  416100    300.95149   -1554.5801    482.36249    283.26908    33.461987    37986.909 
  416200    295.62018   -1524.0562    473.14858    280.56686   -108.22194    37986.909 
  416300    307.42796   -1485.9396    507.05491    405.77207   -470.37794    37986.909 
  416400    289.10573   -1463.8288     502.6921    340.99661   -140.09861    37986.909 
  416500    301.65092   -1494.4844    488.12949    352.28206    22.319249    37986.909 
  416600    290.01831   -1497.9953    493.71692    301.96527    214.36481    37986.909 
  416700     309.4806   -1478.9215    502.73851    417.71885     317.3914    37986.909 
  416800    293.51851   -1494.6809    479.41778    306.74542    118.02431    37986.909 
  416900    287.90054   -1488.5432    481.98847    290.15045   -107.42446    37986.909 
  417000    299.45857   -1502.9588    472.81583     318.6196    334.00753    37986.909 
  417100    299.19123   -1462.4439    490.02705    375.14165    28.765321    37986.909 
  417200    292.22059   -1460.8203    505.71335     361.0558   -209.44533    37986.909 
  417300    305.77504   -1468.2524    494.25388    403.21349     -423.116    37986.909 
  417400    301.59709   -1488.7203    480.86414    350.53833   -760.00882    37986.909 
  417500    301.73716   -1476.0948    487.91683    370.84742   -601.85671    37986.909 
  417600    291.24988   -1444.5264    527.49827    394.76245    228.17772    37986.909 
  417700    292.02447   -1472.0977    477.82679     321.0085     31.51006    37986.909 
  417800    293.77019   -1517.3137    501.39151    307.21988    687.31819    37986.909 
  417900    297.26087   -1463.1036    494.24371    370.00431    162.48834    37986.909 
  418000    308.53928   -1493.5569     484.7342    380.83947    413.80678    37986.909 
  418100    294.42938   -1475.1523    534.36402    385.32284    557.41134    37986.909 
  418200    301.36488   -1451.7225    484.03827    389.66442   -165.04987    37986.909 
  418300     305.8519   -1508.8667    494.62282    363.31428   -79.809648    37986.909 
  418400     300.8805   -1478.4251    476.81506    353.55697    408.61405    37986.909 
  418500    303.68898   -1509.2429    523.58161    382.15512      319.845    37986.909 
  418600    296.82617   -1500.5712    485.50654    321.84157    175.38673    37986.909 
  418700    302.82761   -1472.2926    524.42069    416.06487    635.09711    37986.909 
  418800    307.25843   -1456.2007    503.31578    431.00828    331.40005    37986.909 
  418900    299.32166    -1443.863     512.1967    416.47963   -553.65283    37986.909 
  419000    293.00373    -1454.764    502.36231     367.2883   -315.68481    37986.909 
  419100    294.12639   -1461.6994    499.50874    362.55573   -616.01791    37986.909 
  419200    293.58324    -1479.964    498.25162    340.58766   -911.96534    37986.909 
  419300    290.19169   -1481.5716    489.88203    315.33497   -108.10747    37986.909 
  419400    301.06015   -1527.5498    483.43011    311.85641    -113.2599    37986.909 
  419500    303.53848   -1522.3683    493.61098    338.38124   -165.11603    37986.909 
  419600    293.04594    -1512.643    506.61263    313.84973   -688.84413    37986.909 
  419700    287.67543   -1502.6083    503.87349    296.95643   -416.11411    37986.909 
  419800    310.72435   -1524.9615    510.11048     384.6527    187.45391    37986.909 
  419900    300.09176   -1508.9996    496.56204     339.1769   -43.269147    37986.909 
  420000    300.01498   -1478.7122    486.90234    359.45883   -244.85155    37986.909 
  420100    295.35558   -1484.1396     498.7653    344.90848    40.056826    37986.909 
  420200    298.23311   -1500.5341    474.54922    317.25827   -219.57703    37986.909 
  420300    297.15264    -1474.695    506.22656    369.90821   -29.145904    37986.909 
  420400    308.76549    -1476.589     519.5769    433.66892    56.470815    37986.909 
  420500    294.85222    -1419.167    510.25985    419.10847    104.34888    37986.909 
  420600    304.13401   -1453.7784    484.24039    400.28272    42.698245    37986.909 
  420700    299.73493   -1433.2557    503.09484    419.84642   -64.146102    37986.909 
  420800    302.63191   -1500.3946    486.84375    349.50448    526.96461    37986.909 
  420900    304.50391   -1493.0056    498.00324    376.48445    523.11282    37986.909 
  421000    295.95002   -1479.7174    475.34246    328.58517   -33.873482    37986.909 
  421100    298.54143   -1458.1257    523.12752    409.63364    157.22922    37986.909 
  421200    293.03513   -1470.6318    498.16489    347.36453     155.9573    37986.909 
  421300    300.25088   -1472.2829    518.31789    398.36611    86.586407    37986.909 
  421400    293.55287   -1514.9578    490.55124    297.75679    137.92426    37986.909 
  421500      299.201   -1471.7927    488.73477    364.54454    782.01926    37986.909 
  421600    296.18042   -1481.9848    519.21355    371.22655   -308.92245    37986.909 
  421700    303.41652   -1457.7832     496.7595    405.56553    133.86654    37986.909 
  421800    307.47735   -1478.0084     491.9546    398.82539   -5.4835634    37986.909 
  421900    294.04744   -1489.9266    484.83866    319.30288   -229.22016    37986.909 
  422000    300.02799   -1455.8818     510.1143    405.55975    255.46536    37986.909 
  422100    299.97337    -1512.104    505.51182    344.48906    104.02476    37986.909 
  422200    296.11506   -1489.3094    482.86334     327.2574    106.54022    37986.909 
  422300    292.07137   -1501.2987    490.10597    304.29787   -712.39014    37986.909 
  422400    291.82376   -1501.1477    498.78637    312.01408   -451.14426    37986.909 
  422500    298.97032   -1503.8241    490.21384    332.95323   -466.09817    37986.909 
  422600    306.68096   -1481.5569    512.51253    412.24792   -185.34658    37986.909 
  422700    294.55374   -1501.1783    482.64465    308.13758    162.15357    37986.909 
  422800    306.05761   -1468.0839    510.40297     420.8038   -167.48711    37986.909 
  422900    295.93606   -1444.3103    504.58589    393.17282    148.49798    37986.909 
  423000    295.54036   -1497.4349    484.04489    317.72492     185.2081    37986.909 
  423100    296.48646   -1508.7532    521.77399    348.39694    146.80773    37986.909 
  423200    299.36184   -1522.8853    483.52174    308.96336    777.38601    37986.909 
  423300    301.91608   -1537.3507    486.13024    308.61081   -47.798423    37986.909 
  423400    309.43791    -1521.438    512.25494    384.52654     171.3083    37986.909 
  423500    293.11034   -1542.8093    497.77101    275.13184    126.12817    37986.909 
  423600    301.11533   -1535.3972    498.55796    319.38536   -45.956834    37986.909 
  423700    296.13824   -1509.7536    486.23755    310.29173    43.712568    37986.909 
  423800    303.62829   -1511.3716    494.75616    350.92762    74.434256    37986.909 
  423900    299.14783   -1497.8674    519.28257    368.77818    430.12078    37986.909 
  424000    298.01821   -1489.1899    504.62948    357.71477    959.15317    37986.909 
  424100    294.18633   -1524.8263    484.99405    285.18419    468.73011    37986.909 
  424200    305.41917   -1564.8719    485.32123    296.05844     518.9668    37986.909 
  424300    306.18989   -1583.1591    475.03509    270.95648    291.39801    37986.909 
  424400    295.97341   -1554.9992    493.71169     271.7779    368.23024    37986.909 
  424500    300.10964   -1566.6791    490.16234    275.17827    7.7285984    37986.909 
  424600    291.05197   -1566.3303    504.42168    248.99063   -197.02787    37986.909 
  424700    309.20353   -1576.2719    492.59718    308.97923   -248.99492    37986.909 
  424800    300.14234   -1580.1064    481.60987    253.34577   -5.4899072    37986.909 
  424900    291.27233   -1546.2916    474.29303    239.89319    286.91906    37986.909 
  425000    299.14773   -1543.7501    504.57117    308.18362    168.12677    37986.909 
  425100    295.03907   -1529.9099    486.92201    285.86919    605.10085    37986.909 
  425200    295.47266   -1560.1534    502.49603     273.1527    568.83513    37986.909 
  425300    309.17503   -1573.0818    498.38197    317.82571    133.09463    37986.909 
  425400    300.79702   -1537.4712    478.97902    296.29878    554.25998    37986.909 
  425500     296.0566   -1524.5743    503.91695    312.78277    535.90637    37986.909 
  425600    293.79861   -1521.7385    502.64868    304.18024    201.08149    37986.909 
  425700    298.94195   -1533.6359    469.46582    282.26565    134.74844    37986.909 
  425800    300.87791   -1524.8952    471.64927    301.90935   -77.699358    37986.909 
  425900    300.39849   -1505.8046    481.16032    328.35168   -78.876196    37986.909 
  426000    299.05346   -1511.2723    460.01088    295.67659    143.75395    37986.909 
  426100    296.67736   -1543.7749    508.08859    300.54967   -11.357345    37986.909 
  426200    301.90596   -1505.1602    507.84484     362.4703    466.81464    37986.909 
  426300    292.91858   -1519.7384    498.03921    297.60728    59.498427    37986.909 
  426400    298.05259   -1491.1178    507.09519    358.40743    206.15498    37986.909 
  426500    302.04672   -1500.3473    506.34287    366.41518   -186.43635    37986.909 
  426600    286.44243   -1484.0947    479.98582    286.02902   -330.20158    37986.909 
  426700    308.65593   -1445.1055    553.19191    498.27398   -103.88697    37986.909 
  426800    304.46134   -1445.4727    498.41337    424.23571   -342.63916    37986.909 
  426900    302.79795    -1481.432    494.30027    376.67143    -154.5964    37986.909 
  427000    306.67396   -1473.6929    511.22315      418.791    260.43644    37986.909 
  427100    292.46848   -1489.5353    492.75696    320.50081   -177.55338    37986.909 
  427200    299.00296   -1523.9366    483.47472    306.24866   -138.50545    37986.909 
  427300    297.90836   -1464.0345    493.99281    371.73878   -46.127676    37986.909 
  427400    305.58235   -1485.1519    509.56399     400.7562   -561.48812    37986.909 
  427500    289.47123   -1461.8531    481.72183    323.64835   -803.75888    37986.909 
  427600    304.50119    -1449.406     496.3332    418.40176    -616.3999    37986.909 
  427700    310.26287   -1488.6972     499.9993    408.72728    -224.0615    37986.909 
  427800    291.53926   -1508.4555    481.19404    285.83255   -317.97418    37986.909 
  427900    298.24026   -1473.6574    495.80136    365.41926    -743.3295    37986.909 
  428000    308.11087   -1466.6109     493.1421    414.26379   -548.71121    37986.909 
  428100    295.21109    -1435.096    516.35713    410.89307   -500.44236    37986.909 
  428200    306.09215   -1492.6804    506.97603    392.93594    -194.9727    37986.909 
  428300    304.41948   -1454.3162    499.72913    416.51951     447.8909    37986.909 
  428400    301.37128   -1447.9189    497.25223    406.71077    321.70578    37986.909 
  428500    312.82263   -1474.5202    523.86249    458.29665   -6.8282125    37986.909 
  428600    301.21204   -1512.0107    471.06591    315.71539    256.25878    37986.909 
  428700    296.40559   -1486.6411    505.55478    353.92562    303.09676    37986.909 
  428800    302.96397   -1465.6701    494.50458    393.38543   -135.92255    37986.909 
  428900    293.22168   -1505.4488    480.34334    295.56616   -178.56793    37986.909 
  429000    301.16581   -1499.5001    502.21751    359.16944     35.57593    37986.909 
  429100    300.56089   -1472.7855    519.42109    400.36304    276.30201    37986.909 
  429200    291.00073   -1477.4669    511.54324    344.74476    793.77187    37986.909 
  429300    294.22538   -1454.9519     476.5864    346.82675    523.36959    37986.909 
  429400     320.8248   -1425.5051    556.45732    575.94844    835.46423    37986.909 
  429500    295.42508   -1438.4119    474.50805    366.69187    531.14743    37986.909 
  429600    300.91604   -1446.6641    521.70517    430.36807    290.43147    37986.909 
  429700    289.66732   -1451.2753    494.10527    347.49277    200.66311    37986.909 
  429800    302.91038    -1473.817     512.4668    402.95934     481.3631    37986.909 
  429900    298.97469   -1499.0402    499.24162    346.78462    200.84062    37986.909 
  430000    295.52757   -1483.8328    476.73969    323.96419    84.691318    37986.909 
  430100    298.97722   -1515.2559    505.06521     336.4039   -112.70292    37986.909 
  430200    291.88384   -1492.0273    518.24705    340.86574   -207.77651    37986.909 
  430300    302.74783   -1456.9057    511.04917    417.72091    14.294938    37986.909 
  430400    302.73632   -1472.5896    522.48714    413.42309    312.03285    37986.909 
  430500    305.06335    -1482.529    508.65611     400.1337    60.121291    37986.909 
  430600    292.21204   -1434.4036    505.57378    387.29435    110.94551    37986.909 
  430700    313.92916   -1497.0794    516.92088    433.77969   -316.27433    37986.909 
  430800      308.109   -1503.6699    500.93543     384.9897    293.21648    37986.909 
  430900    303.07463   -1503.7144    496.66746    358.00236    228.86836    37986.909 
  431000    307.86972   -1475.8257    504.81875    415.63945    427.72729    37986.909 
  431100    305.63703   -1480.0183    479.27107     375.8432    348.55933    37986.909 
  431200    304.86986   -1489.7599    520.35307    403.72829   -268.25252    37986.909 
  431300    287.86897   -1470.2479    515.88368    342.19873    273.29578    37986.909 
  431400    284.92756   -1484.8932    502.46733    300.88902    210.26154    37986.909 
  431500    304.89661   -1483.7199    518.08726    407.62293    155.94472    37986.909 
  431600    297.37817   -1472.9067    531.05875    397.54453    766.20499    37986.909 
  431700    285.77657   -1483.4214    522.27308    325.99053    818.94799    37986.909 
  431800    293.47743   -1487.6998    479.48799     313.6117    700.48773    37986.909 
  431900     301.9428   -1489.6147    495.50254    365.83939    298.56397    37986.909 
  432000    309.87125   -1497.4713    480.79899    378.98898    102.33193    37986.909 
  432100    295.36927   -1498.2563    496.78252    328.87058    -310.8646    37986.909 
  432200    296.41491   -1459.3941    507.01455    382.67438    652.58475    37986.909 
  432300    302.71123   -1424.7325    519.83422    458.51431    -434.8116    37986.909 
  432400     307.6512   -1419.8772    503.87546    469.66044   -213.22048    37986.909 
  432500    295.15303   -1459.2545    492.47419    362.59008   -55.954798    37986.909 
  432600    303.24792   -1489.4603    492.43791    368.80739     30.01298    37986.909 
  432700    283.91477   -1496.7735    519.49735    301.47708   -396.27407    37986.909 
  432800    300.81435   -1536.0922    486.74676    305.52358    79.631699    37986.909 
  432900    298.87151   -1516.0886     516.3232    346.35309   -356.12785    37986.909 
  433000    298.11365   -1518.8048    499.12298    323.02324   -486.68638    37986.909 
  433100    291.08188   -1477.6058    493.59524    327.02343   -627.07301    37986.909 
  433200    306.05392   -1475.2085    496.24197    399.50159   -404.26176    37986.909 
  433300    299.69776   -1470.6185    487.46459    366.68597   -395.79427    37986.909 
  433400    309.34769   -1432.3257    505.48971    466.46719   -59.326145    37986.909 
  433500    297.86403   -1434.0941    500.65116    408.13779   -74.218359    37986.909 
  433600    308.30556   -1456.7529    488.94696     420.8035    95.639483    37986.909 
  433700    308.03589   -1472.9591     509.0446    423.48036    277.01787    37986.909 
  433800    312.99611   -1498.2763     487.4618    398.92123    416.82929    37986.909 
  433900    291.60763   -1482.9844    479.93195     310.3495   -16.031355    37986.909 
  434000    310.26252   -1495.3606    508.36834    410.43135    140.96079    37986.909 
  434100     295.6596    -1491.528      472.431    312.55503    465.71047    37986.909 
  434200    295.15567   -1506.3724    509.50552    332.51541   -361.66555    37986.909 
  434300    293.75258   -1475.1486    516.46029    364.37451     110.0873    37986.909 
  434400    308.31308   -1492.9293    505.39759    401.11165   -114.72853    37986.909 
  434500    304.66547   -1468.6669    515.85278    419.40034    41.157511    37986.909 
  434600     300.9804   -1472.6448    490.27758    373.24972   -374.57347    37986.909 
  434700    299.15274   -1489.7156    470.26246      327.932   -98.869651    37986.909 
  434800    302.85065   -1473.5995    491.26908    381.71008   -135.69518    37986.909 
  434900    311.66136   -1477.8966    491.02599    416.85337    338.53046    37986.909 
  435000    305.04572   -1473.0329      490.557    391.45123    87.330112    37986.909 
  435100    300.06924   -1493.9007    510.35685    367.96918     66.06093    37986.909 
  435200    301.30694   -1504.0848    491.40591    344.40882    395.09726    37986.909 
  435300    305.86339   -1517.6101    494.78906    354.78887    149.52027    37986.909 
  435400    303.26785   -1489.5538    493.09306    369.45883     303.2021    37986.909 
  435500    306.24653   -1496.3468    479.50183     362.4906   -312.54152    37986.909 
  435600    291.72315   -1471.6454    500.68867    342.96547   -57.514618    37986.909 
  435700    304.79508     -1429.82    497.55307     440.5313   -105.54691    37986.909 
  435800     297.9332   -1426.1732    496.28766    412.00675   -238.83079    37986.909 
  435900    308.11524   -1464.5264    494.26853    417.49438    16.398013    37986.909 
  436000     296.6722   -1507.0776    484.70663    313.84183    6.1304011    37986.909 
  436100    292.44729   -1475.9278    491.90874    333.16469    313.20989    37986.909 
  436200    299.92244   -1433.7698    502.09686    419.17888   -135.33508    37986.909 
  436300    299.77146   -1453.5221    517.50815    414.15786    515.16145    37986.909 
  436400    303.27023   -1484.2763    494.13006    375.78408    827.90031    37986.909 
  436500    294.87395   -1472.4345    508.28891    363.96783    156.18128    37986.909 
  436600    296.96666   -1517.7162    510.95427    330.77703    526.40827    37986.909 
  436700    315.58625   -1489.9013    504.46765    435.96805    317.20631    37986.909 
  436800    294.60024   -1502.7074    477.87369    302.04695   -214.23038    37986.909 
  436900    298.80288   -1482.5808    489.27337    352.50197    110.90495    37986.909 
  437000    305.07686   -1487.9872    482.39501    368.47526   -247.96366    37986.909 
  437100    305.98529   -1481.8092    492.29625    388.64601    313.49095    37986.909 
  437200    294.69673   -1475.1462    496.28685    348.45587    62.146695    37986.909 
  437300    301.36048   -1509.3719    477.11484    325.07178    152.21318    37986.909 
  437400    302.69058    -1477.414    522.67499    408.58057    973.54181    37986.909 
  437500    289.41479   -1463.4261    508.30531    348.40454    1194.5264    37986.909 
  437600    298.19849   -1511.0358    510.20582    342.25724    948.35213    37986.909 
  437700    297.88198   -1482.4411     510.0546    369.27515    588.66681    37986.909 
  437800     303.6618   -1489.6408    490.47094    368.52414   -61.464225    37986.909 
  437900    293.68417   -1499.5525    484.27096    307.47317   -653.19126    37986.909 
  438000    300.07004   -1518.1996     497.7808    331.09782    -341.7733    37986.909 
  438100    297.78617   -1523.7744    492.19264    309.64833   -142.73213    37986.909 
  438200    298.06518   -1557.4355    477.73524    262.78644   -264.20041    37986.909 
  438300    294.56265   -1557.6746    521.20973    290.24647    132.32932    37986.909 
  438400    291.66859   -1549.0614    483.45112    248.06622   -104.58913    37986.909 
  438500    307.93468   -1580.6624    482.30576    288.58245    393.04381    37986.909 
  438600    301.38803   -1565.0325    490.55647    282.97693    222.87947    37986.909 
  438700    301.83303   -1528.3103    469.75313    300.89996    -154.5389    37986.909 
  438800    299.02922   -1509.5622    496.81909    334.08573    44.785787    37986.909 
  438900    289.27784   -1562.4055    493.43593    233.93891    75.492956    37986.909 
  439000    301.91766   -1494.6026    499.78323    365.01903    31.834682    37986.909 
  439100    297.14176   -1486.1021    490.00994     342.2355    82.145984    37986.909 
  439200    300.34165   -1496.8763    495.47306     351.3367    228.48545    37986.909 
  439300    318.32412   -1486.4641    457.42854    404.69755   -152.53868    37986.909 
  439400    301.73269   -1502.4981    496.06062    352.56772    227.49652    37986.909 
  439500    298.68988   -1491.3309    494.11692    348.08645    117.98877    37986.909 
  439600    293.54811   -1516.6802    490.01945     295.4811    242.72832    37986.909 
  439700      299.929    -1522.021     479.2809    308.14133    694.42815    37986.909 
  439800    306.65014   -1487.0272    500.96912    395.09542    164.03482    37986.909 
  439900    298.24251   -1451.2715    483.71622    375.73011   -33.459998    37986.909 
  440000    293.55206   -1503.5062    459.25255    277.90601    -599.6621    37986.909 
  440100    304.17361   -1504.8662     497.0082    362.14114    20.556597    37986.909 
  440200    300.14233   -1544.4738    496.00397    303.37236   -159.71298    37986.909 
  440300    286.64017   -1510.2311    486.30636    267.10374    18.924334    37986.909 
  440400    298.35275   -1493.8236     488.0677    338.02602    280.95159    37986.909 
  440500    311.33989   -1498.2062    492.93101    397.00086    11.446884    37986.909 
  440600    308.34564   -1478.6797    491.25511    401.36547    404.85739    37986.909 
  440700    303.72856   -1462.4581    482.89099    388.42758   -116.78924    37986.909 
  440800    297.54434   -1481.0848    498.74072    357.79679    254.64122    37986.909 
  440900    299.65081   -1483.1155    458.36032    324.87326    62.891823    37986.909 
  441000    302.12571   -1511.6186    498.09379    347.25056   -275.94304    37986.909 
  441100    295.13877   -1472.2671    475.92434    332.96345    -617.8209    37986.909 
  441200    300.73463   -1494.2954     490.6157    350.83022   -435.46597    37986.909 
  441300    294.57838   -1496.1018    477.34259    308.02294    10.849618    37986.909 
  441400    294.35324   -1529.0873    481.53842    278.21927    291.40853    37986.909 
  441500    303.18432   -1488.9169    491.31846    367.94497    310.17642    37986.909 
  441600    294.74386   -1490.8613    474.05912    310.72532    527.08437    37986.909 
  441700    297.55516   -1480.8498    489.12281    348.46263    826.25679    37986.909 
  441800    297.32934   -1468.9014    487.13576    357.40691    36.521109    37986.909 
  441900    304.00641   -1495.7107    471.67143    345.20677    25.697462    37986.909 
  442000    303.11309   -1501.1312    465.96002    330.05141    495.20305    37986.909 
  442100    296.25588    -1475.041    485.06216    344.35882    693.44625    37986.909 
  442200    307.98928   -1477.0068     484.0096    394.18775    754.69409    37986.909 
  442300    294.78321   -1445.9146    499.46414    381.25426    474.84992    37986.909 
  442400    290.84468   -1426.0769    481.03424      364.923    351.23565    37986.909 
  442500    297.55134   -1418.1008    503.33353    425.40517   -412.21191    37986.909 
  442600    306.25629   -1384.5494    503.17097    498.00112    84.013825    37986.909 
  442700    296.56021   -1437.7346    495.68097    393.65475   -118.81392    37986.909 
  442800    297.60466   -1437.2102    500.82782    404.03025    439.45605    37986.909 
  442900    300.44888   -1475.9433    476.79062    354.07021   -28.934281    37986.909 
  443000     303.3706   -1458.5361     482.8858    390.73211   -272.50671    37986.909 
  443100     303.2941   -1454.5387    479.59267    391.09175   -282.62486    37986.909 
  443200    303.63109   -1468.4323    499.86275    398.98613    -129.8293    37986.909 
  443300    299.38965   -1477.4612    493.20753    364.19848    -75.74646    37986.909 
  443400    311.68184   -1474.7808     491.2596    420.29503    39.975575    37986.909 
  443500    305.62164   -1452.7841    498.46937     422.2063    -209.4416    37986.909 
  443600    313.16759   -1483.7979    465.75719    392.46731   -194.22136    37986.909 
  443700    313.30875   -1503.1801    492.83679    400.80058   -539.94237    37986.909 
  443800    312.56494   -1471.4302    474.17313    410.53661    229.38248    37986.909 
  443900    297.71138   -1509.0051    493.10693    324.99502   -122.98671    37986.909 
  444000    295.76262   -1447.0468    486.90849     371.9777   -106.16999    37986.909 
  444100      300.333    -1451.588    481.50558    382.61857   -161.36829    37986.909 
  444200    292.76083   -1453.6049    482.94619    347.93725    91.964548    37986.909 
  444300    310.76922      -1425.2    503.32127    477.82714    417.31936    37986.909 
  444400    289.49516   -1424.1422      480.397    360.14218   -119.47051    37986.909 
  444500    312.19777   -1409.5827    489.70787    486.26515    18.332377    37986.909 
  444600    306.98435   -1430.7458    476.55239    428.46538    -148.1696    37986.909 
  444700     312.8236   -1408.0685    508.36791    509.25811   -234.25686    37986.909 
  444800    296.54659   -1455.9053    485.35508    365.09681   -356.28884    37986.909 
  444900    289.76065   -1460.3428    509.81727     354.5576   -201.71746    37986.909 
  445000    295.99254   -1424.0825    509.47198    418.54105   -25.409258    37986.909 
  445100     292.3608   -1477.9121    502.33046    341.21256   -101.42088    37986.909 
  445200    309.32492   -1424.1573    481.63283     450.6762    189.48034    37986.909 
  445300    318.91276   -1417.8905    481.41471    499.90857   -175.09015    37986.909 
  445400    314.86223   -1420.3555    472.88302    470.66827   -849.24248    37986.909 
  445500    302.38611    -1443.378     484.0674     402.6377   -829.80084    37986.909 
  445600    303.69324   -1432.4158    491.96792    427.38767   -351.17526    37986.909 
  445700    303.83321   -1448.1876    481.38789    401.66628   -471.76767    37986.909 
  445800    297.22951   -1450.4977    474.20481    362.42998   -417.56441    37986.909 
  445900     298.9462   -1431.1709    507.72381    423.00773   -106.09195    37986.909 
  446000    300.62754   -1424.5728    494.33819      423.793    -388.1702    37986.909 
  446100    308.23337   -1468.2664     489.6961    409.71403    -380.4249    37986.909 
  446200    291.71689   -1408.8519    503.42069    408.46279    390.50236    37986.909 
  446300     292.2073    -1430.733    501.40734    386.77717     275.7915    37986.909 
  446400    310.65579   -1430.9756    520.70307    488.92243    449.09585    37986.909 
  446500    306.09262   -1430.9845    481.40456    429.06243    494.56666    37986.909 
  446600    300.86896   -1446.0357    481.70898    390.78826   -392.78357    37986.909 
  446700    299.11157   -1409.3562    479.76131    417.60483    125.46586    37986.909 
  446800    292.06935   -1389.2133    490.68147    416.94965   -739.21029    37986.909 
  446900    291.54142   -1380.4008    506.46589    439.16878   -517.29206    37986.909 
  447000    303.18719   -1391.8443     515.7541    489.46609   -11.331567    37986.909 
  447100    293.35474    -1454.878    481.06218    347.45511    -416.5797    37986.909 
  447200    307.41284   -1413.0669    526.48486    498.00658   -530.21734    37986.909 
  447300    306.07312   -1433.3228    495.84457    441.07638   -449.72423    37986.909 
  447400    295.17505   -1405.0882    526.41665      450.798   -541.38299    37986.909 
  447500     299.9592   -1388.8706    484.03161    446.17845    -645.1249    37986.909 
  447600    303.94175   -1416.6733    503.80389    456.08543   -870.83673    37986.909 
  447700    299.50428   -1404.8765    506.18463    450.27654   -667.35287    37986.909 
  447800    296.23511   -1387.9684    488.98769    435.26342   -395.30412    37986.909 
  447900    300.89502   -1402.6845    519.86677    472.41462    246.09555    37986.909 
  448000    311.71175   -1390.9804    477.40656    490.37712    151.25279    37986.909 
  448100    301.70661   -1368.8638    534.94268    524.96662   -113.00898    37986.909 
  448200    300.17414   -1434.1264    483.18245    401.04153   -336.10966    37986.909 
  448300    298.16288   -1414.6125    527.68229    455.99656   -97.643497    37986.909 
  448400    302.21475   -1426.8192    521.49046    455.84775    302.02062    37986.909 
  448500    306.13744    -1452.938    503.28036    429.18657    271.33198    37986.909 
  448600     302.4879   -1455.3194    499.81582    406.90309    112.68385    37986.909 
  448700    312.63404   -1419.7856    489.38588    477.70523   -30.691945    37986.909 
  448800    311.77825   -1406.6476    516.16114    513.76404     208.1975    37986.909 
  448900    298.65899   -1402.3522    478.86894    421.67802    114.87824    37986.909 
  449000    305.42131    -1428.421     501.7677    448.96547   -316.17838    37986.909 
  449100    292.00875   -1444.7865     500.4985    370.92055    -544.4581    37986.909 
  449200    294.00967   -1417.6325    483.71986    390.30814   -778.42714    37986.909 
  449300    301.03306   -1409.1089    505.24635    451.99149   -652.32848    37986.909 
  449400    300.64388   -1408.1921    457.04076    402.94983    112.54666    37986.909 
  449500    304.50095    -1431.429    509.99441    450.03889    72.400518    37986.909 
  449600     303.6321   -1427.1436    497.75185    438.16842   -3.5776911    37986.909 
  449700    306.39875   -1442.8529    476.82732     413.9956   -124.61627    37986.909 
  449800    301.03023   -1400.5834    546.32016    501.57809    483.98521    37986.909 
  449900    275.39854   -1422.6711    487.71246    305.43753    752.89029    37986.909 
  450000    295.05982   -1438.9363    512.25364    402.26798    539.34769    37986.909 
  450100    282.40406   -1429.1636    489.41157    332.19704    462.78691    37986.909 
  450200    301.33845   -1433.6565    511.77269    435.34579    11.395588    37986.909 
  450300    308.93126   -1385.0982    491.48831    497.81773    185.55049    37986.909 
  450400    305.57885   -1411.3609    498.72023    463.68772   -452.55008    37986.909 
  450500    297.16319   -1442.6113    485.00503    380.81791   -334.79205    37986.909 
  450600    293.64175   -1431.1154    485.63044     377.0787   -427.22652    37986.909 
  450700     307.2243   -1475.1307    496.37841    404.98719   -374.78358    37986.909 
  450800     299.1213    -1421.363    491.66015    417.54073   -556.97973    37986.909 
  450900    303.21053   -1418.4947    484.39001    431.55674   -783.39398    37986.909 
  451000    306.14403   -1417.0851    490.32499    452.11379   -638.50859    37986.909 
  451100    304.62971   -1434.4214    497.21268    434.84472   -649.27904    37986.909 
  451200    313.40945   -1458.7479    474.16738    427.01694   -517.04051    37986.909 
  451300    305.07996   -1457.9111    500.32478    416.49503   -434.46469    37986.909 
  451400    297.13066   -1488.3155    478.96623    328.92839   -289.92842    37986.909 
  451500    299.02839   -1481.3048    475.37382    340.89403   -654.21883    37986.909 
  451600    305.09077   -1469.5261    523.33164    427.93563   -158.28217    37986.909 
  451700    308.04048   -1425.7867    483.48805    445.11696    177.33382    37986.909 
  451800    296.39341   -1389.6929    502.28796     447.5521      294.549    37986.909 
  451900    296.49873   -1431.9696    485.21969    388.68152    481.32641    37986.909 
  452000    304.14076   -1419.6205    510.81788    461.04857    125.50641    37986.909 
  452100    302.70682   -1469.1808    491.31579    385.52771    197.21023    37986.909 
  452200    302.89785   -1432.6528     515.5979    447.19824   -491.95435    37986.909 
  452300     299.3615   -1418.8726    489.68384    419.13666   -654.91469    37986.909 
  452400    294.66951   -1446.3496    471.07657    351.91968    -637.4258    37986.909 
  452500    303.14323    -1433.371    487.81743    419.80474   -486.45245    37986.909 
  452600    297.56194   -1418.7931    517.85537    439.28239   -197.88492    37986.909 
  452700    303.17821   -1423.0529    498.67228    441.13527   -713.41348    37986.909 
  452800     304.1303   -1424.2714    499.48539    445.01811   -610.63149    37986.909 
  452900     297.9568   -1458.4743    484.84482    368.36914   -359.54558    37986.909 
  453000    298.38557   -1442.6946    503.05133    404.28654   -20.220898    37986.909 
  453100    291.57743   -1501.3989     482.7341    294.60116   -362.60677    37986.909 
  453200    302.03235   -1456.3619     461.3078    365.30083   -492.24985    37986.909 
  453300    301.70653   -1421.2071    488.05952    425.73982    189.45299    37986.909 
  453400    301.38826    -1487.638    472.42566    342.24163   -261.42226    37986.909 
  453500     294.5496   -1430.1973    479.59044    376.04568    81.081035    37986.909 
  453600    291.73737   -1456.2912    491.14062    348.83571   -478.01951    37986.909 
  453700    314.55886   -1449.8468    459.07694     426.0045     202.0456    37986.909 
  453800    298.00539   -1419.2384    476.49588    399.47491    346.43522    37986.909 
  453900    301.73558   -1425.3313    506.47988    440.16686    126.47197    37986.909 
  454000     307.4085   -1434.1195    478.53131    428.98095    51.818612    37986.909 
  454100    297.12229   -1424.1509    493.36964    407.45875   -365.15754    37986.909 
  454200    301.98881   -1440.4437    466.15726    385.87232   -18.095437    37986.909 
  454300    306.37088   -1470.9055    480.25991    389.25011   -62.632569    37986.909 
  454400    301.92245   -1435.2881    512.15932     436.7312    448.95009    37986.909 
  454500    295.07762   -1456.8081    479.23594    351.45862    75.275642    37986.909 
  454600    303.87803   -1444.2568    464.97661    389.38768   -7.4209807    37986.909 
  454700    298.55243   -1416.3723    509.39846    437.70751   -372.22751    37986.909 
  454800     310.4255   -1471.2312    474.40722    401.33374    473.59129    37986.909 
  454900    290.70016   -1441.1987    475.47699    343.59297   -202.42918    37986.909 
  455000    307.13033    -1434.337    473.87005    422.84928    221.96714    37986.909 
  455100    298.37731   -1407.7766    506.33545    442.45146   -80.597063    37986.909 
  455200    292.18972   -1411.5089     485.0445    389.55927    201.04522    37986.909 
  455300    300.56389   -1434.6497    475.21396    394.30523    566.64785    37986.909 
  455400    306.19906   -1456.8063    494.18275    416.49829   -119.77938    37986.909 
  455500    308.81734   -1472.2322    474.53787    393.22024    78.196425    37986.909 
  455600    311.37365   -1438.6768    491.27909     455.0304    526.19329    37986.909 
  455700    312.60169   -1444.6908    476.13485    439.40331    184.55055    37986.909 
  455800    293.01131   -1424.5312    493.80313    388.99605   -335.45652    37986.909 
  455900    309.44869   -1418.9489     479.2481    454.05728   -409.07186    37986.909 
  456000    298.28396   -1439.4833    482.89713    386.88596   -1151.8121    37986.909 
  456100    307.26247   -1433.1104    498.67263     449.4736   -762.80891    37986.909 
  456200    306.76327   -1450.7313    461.43884    392.37051   -979.79088    37986.909 
  456300    292.90336   -1435.1299    474.95393    359.06188   -811.64248    37986.909 
  456400    302.08929   -1480.9087    463.76654    343.46919    -272.5457    37986.909 
  456500    303.29013   -1492.7686    477.25941    350.51081    116.36213    37986.909 
  456600    300.82273   -1493.5087    528.56582    389.96385    335.65408    37986.909 
  456700    298.48925   -1472.7664    477.83397     349.4643    379.51586    37986.909 
  456800    300.59015   -1469.0264    477.61143    362.44431    382.87289    37986.909 
  456900    293.75721   -1437.1477    530.49172    416.42763    402.06901    37986.909 
  457000    303.09595   -1501.8339    497.53273     360.8442    152.85029    37986.909 
  457100    305.73633   -1459.8952    489.97252    407.11499    329.84908    37986.909 
  457200    300.96765   -1473.0381     468.1957    350.71704    205.72333    37986.909 
  457300    294.77448    -1473.149    510.77499    365.29141   -370.85892    37986.909 
  457400    293.91125   -1434.0759    472.99766    362.69916   -392.59265    37986.909 
  457500    298.25886   -1434.2952    460.90235    369.96625   -905.49241    37986.909 
  457600    295.49368   -1449.8916     475.8005     356.8136   -739.02587    37986.909 
  457700    297.72226   -1530.0562    466.72907     277.6151   -950.48322    37986.909 
  457800    302.71181   -1482.0294    499.37011     380.7559   -448.28469    37986.909 
  457900    295.64303   -1444.7572    495.49495    382.31515   -814.22524    37986.909 
  458000    294.29857   -1459.8381    468.33523    334.01908   -670.48057    37986.909 
  458100    305.49416   -1437.8377     499.0978    437.20699    38.471353    37986.909 
  458200    298.64372   -1443.0357     486.1408    388.19758   -109.39617    37986.909 
  458300    303.46311   -1418.4312    509.47423    457.84208     697.7327    37986.909 
  458400    303.69277   -1415.6865    460.82183    412.96871     479.1104    37986.909 
  458500    311.57824   -1459.2514     490.2638    434.36201    629.50768    37986.909 
  458600    299.47608   -1470.2549    484.37442    362.96097    37.830105    37986.909 
  458700     301.6033   -1417.9375    496.91492    437.39987   -178.20485    37986.909 
  458800    300.31484   -1438.2698    505.23922    419.58862   -4.5408145    37986.909 
  458900      303.852    -1444.093     487.1258    411.58337   -284.34508    37986.909 
  459000    298.33544   -1477.8393     504.6458    370.51052   -137.65449    37986.909 
  459100    295.56258   -1442.2729    471.07671     360.0189   -78.838961    37986.909 
  459200    305.75207   -1428.6346    489.34328     437.8172   -414.36511    37986.909 
  459300    298.13693   -1425.8894     494.6261     411.5466     69.89115    37986.909 
  459400    314.14051   -1437.4982    479.34653    456.73847    206.01624    37986.909 
  459500    297.15113   -1494.1397    480.58727    324.81743    191.42899    37986.909 
  459600    293.87087   -1491.8704    513.44056    345.16572    540.95841    37986.909 
  459700    296.99971   -1483.3497    483.64258    337.98072    685.19114    37986.909 
  459800    307.75674   -1476.1278    478.68856    388.69837     578.5213    37986.909 
  459900    295.94529   -1441.3095    489.93637     381.5656   -797.66995    37986.909 
  460000    292.00272   -1425.1795    490.15795    380.15985   -497.35667    37986.909 
  460100    303.59916   -1444.8085    500.48795    423.09128     9.241631    37986.909 
  460200    306.25595   -1469.3625    466.10657    376.12203    133.21292    37986.909 
  460300    306.84376   -1474.4324    476.86704    384.46012    524.38569    37986.909 
  460400    294.91966   -1471.6127    473.95795    330.66461    131.79395    37986.909 
  460500     306.5119   -1424.9942    503.77089    459.30753    6.3332894    37986.909 
  460600    304.17167    -1448.159    475.81797    397.64938    162.06444    37986.909 
  460700    306.71377   -1416.7952     496.4544     461.0992    57.893042    37986.909 
  460800    291.72685   -1455.4624    481.42999    339.90642    34.936978    37986.909 
  460900     305.8996   -1458.9007    507.40269    426.27502   -443.95686    37986.909 
  461000    310.70978   -1474.1232     484.0869    409.40184   -319.60242    37986.909 
  461100    290.84722   -1431.7449    479.64062    357.87277   -135.48559    37986.909 
  461200    314.38137   -1477.8032       482.08    420.25178    233.24243    37986.909 
  461300    301.47254   -1432.5198    518.96014    444.27387   -122.65941    37986.909 
  461400    310.73702   -1398.2763    494.36212    495.64664   -74.715102    37986.909 
  461500    295.05046    -1424.724    484.10789    388.29235   -68.095543    37986.909 
  461600    291.38457   -1426.8101    500.33961     385.9268   -423.03143    37986.909 
  461700    300.53095   -1423.3707    486.19513    416.41702   -411.62374    37986.909 
  461800    299.33609   -1437.2823    480.75163     391.6803   -36.037571    37986.909 
  461900    292.61647    -1429.124    485.73941    374.56115    521.23755    37986.909 
  462000    304.24732   -1462.1664    488.36696    396.53174    325.10747    37986.909 
  462100    301.08349   -1428.5546    494.96578    422.49243    537.05574    37986.909 
  462200    308.85185   -1429.5984    522.23592    483.70751    84.714841    37986.909 
  462300    302.37487   -1405.5851    483.92501    440.23751    335.32304    37986.909 
  462400    294.04199   -1433.7478    509.40034    400.01884    473.37779    37986.909 
  462500    296.14392   -1400.3627    499.19933     432.6701    581.37719    37986.909 
  462600    304.29563   -1430.7277    516.85484    456.67583     544.4033    37986.909 
  462700    294.31081   -1442.9639    514.75754    397.37071     506.9258    37986.909 
  462800    303.63078    -1479.332     500.2845    388.50679    202.98691    37986.909 
  462900    302.04504   -1473.1005    476.24938    363.56096    352.27797    37986.909 
  463000    299.60854   -1475.9426    483.37255    356.86799   -224.34516    37986.909 
  463100    308.97393   -1463.8534    458.50011    386.26657   -345.06375    37986.909 
  463200    296.43998   -1483.6768    471.64269    323.13277   -450.85019    37986.909 
  463300    305.25598   -1446.2444    475.10465    403.73442   -672.21794    37986.909 
  463400    296.88594   -1500.5987    458.35006    294.92683   -284.56701    37986.909 
  463500    304.03966   -1492.2678    466.87248    344.00055     -92.7643    37986.909 
  463600    303.54632   -1478.8236    483.03842    371.38864   -1039.4281    37986.909 
  463700    294.63111   -1472.9752    473.18091    327.22536   -12.715764    37986.909 
  463800    297.56873   -1505.4371    454.07106    288.88467   -142.21708    37986.909 
  463900    312.95802   -1483.6466    494.23026    420.14782   -360.28974    37986.909 
  464000    289.97259   -1461.1316    474.65425    319.56036   -216.78978    37986.909 
  464100    294.93671   -1445.8797    484.66705    367.18341   -123.14648    37986.909 
  464200    302.27938   -1448.1779    501.99707     415.2867   -190.95662    37986.909 
  464300    292.58853   -1461.4561    494.03271    350.39656    142.50857    37986.909 
  464400    298.70554   -1473.4943    499.22747    371.10413   -26.328483    37986.909 
  464500    300.10371   -1468.3008    497.75275    381.12027   -966.23682    37986.909 
  464600    293.22249   -1462.1763    486.09483    344.59375   -445.09372    37986.909 
  464700    289.84858    -1442.353    494.89354    358.01976   -666.66555    37986.909 
  464800    303.66197   -1493.3261    477.52422    351.89285   -653.22666    37986.909 
  464900    307.18976   -1526.0263    467.26085    324.81842   -555.59003    37986.909 
  465000    300.35493   -1531.5972    485.83904    307.04161   -615.71215    37986.909 
  465100    307.78669   -1510.5956    482.44347    358.12031    112.25173    37986.909 
  465200    292.12939   -1519.6571    465.81615    261.91093   -300.11233    37986.909 
  465300    305.82895   -1503.5012    498.81838      372.772   -552.69269    37986.909 
  465400    299.69086   -1514.3188    460.74377    296.23381    295.39357    37986.909 
  465500    301.79049   -1543.5929    457.74164    273.41432   -368.55102    37986.909 
  465600    291.97543   -1482.0043    471.16819    304.22243   -375.66338    37986.909 
  465700    295.98257   -1449.4872    488.52859    372.14811    143.07657    37986.909 
  465800     294.6338   -1449.1021    525.30195    403.23169    88.271289    37986.909 
  465900     283.8592   -1437.5493    486.28327    327.23692    817.95607    37986.909 
  466000    292.32695   -1492.7187    517.18417    341.10718    759.89153    37986.909 
  466100    303.94229   -1450.2127    508.91797    427.66254    992.20659    37986.909 
  466200    289.78826   -1474.3582    444.98356    275.83284    407.66944    37986.909 
  466300    308.97748   -1481.4144     479.8473    390.06868    202.40076    37986.909 
  466400    312.74122   -1447.4377    488.68462    449.83465    548.30033    37986.909 
  466500    293.59033   -1440.2852    481.58414    363.63097    554.87918    37986.909 
  466600    300.53748   -1425.1547    476.98781     405.4551    -35.51607    37986.909 
  466700    295.79738   -1459.1268    488.38437    361.53016    61.519407    37986.909 
  466800    301.11184   -1435.4809    489.79366    410.52173   -266.66282    37986.909 
  466900    304.81475   -1425.7321     492.4776    439.63238   -24.183795    37986.909 
  467000    294.00932   -1463.2234    472.14972    333.14552   -838.41912    37986.909 
  467100    294.76577    -1469.218    486.03437    344.44258    -1050.835    37986.909 
  467200    293.37291   -1436.0978     491.0914    376.34634   -821.96461    37986.909 
  467300     297.4281   -1460.3449    501.44098    380.71347    -8.146398    37986.909 
  467400    287.89511   -1443.7648    507.68357    360.59949   -119.34557    37986.909 
  467500     294.9553   -1393.3868    496.44178     431.5348   -64.685523    37986.909 
  467600    292.91345   -1437.4763    496.16222    377.96932    205.58988    37986.909 
  467700    293.12689   -1407.2817    497.94472    410.90774   -402.48539    37986.909 
  467800    291.20851   -1370.9635      476.048    416.68878   -630.74131    37986.909 
  467900    304.21702   -1396.1802    497.15085    471.16536   -564.40091    37986.909 
  468000    301.42704   -1448.7744    483.02649    391.88063   -337.52433    37986.909 
  468100    298.46983   -1422.0629    505.36511    427.61151   -270.46659    37986.909 
  468200    297.55198    -1423.663    511.21743    427.72977   -7.9760636    37986.909 
  468300      305.063   -1396.3917    513.98355    491.59684   -99.998914    37986.909 
  468400    300.75606   -1381.6852     508.4789     481.4002    243.00628    37986.909 
  468500    291.18414   -1392.1755    516.63908    435.95813   -588.16117    37986.909 
  468600    295.34544   -1372.7723    502.11395    459.57866   -292.33431    37986.909 
  468700    307.59005    -1422.406    496.83803    459.81882    186.19804    37986.909 
  468800    301.08013   -1425.8363    472.79384    403.02361    15.817162    37986.909 
  468900     303.5887   -1416.8024    495.47095    446.03324   -154.16307    37986.909 
  469000    299.07394   -1417.3826    506.72458    436.37219    494.32217    37986.909 
  469100    303.41161   -1417.2441    503.52128    452.84432    347.80332    37986.909 
  469200    291.44021     -1473.79    498.23599    337.09391   -192.93542    37986.909 
  469300    302.26281   -1432.5189    489.40741    418.28145   -101.89895    37986.909 
  469400    296.44181   -1393.0074    494.53853     436.7062   -211.81171    37986.909 
  469500    299.54946   -1432.7368    496.75638    413.19151   -647.98171    37986.909 
  469600    309.85165   -1431.6058     506.0594    470.02664   -247.03203    37986.909 
  469700    306.43994    -1410.903    490.12769     459.4314    328.00163    37986.909 
  469800    298.95198   -1407.9402    470.00661    408.54727    638.70541    37986.909 
  469900    309.34698   -1398.3585     486.4073     481.3488    610.71708    37986.909 
  470000    288.37518   -1427.1395    502.18637    373.88985    968.57469    37986.909 
  470100    294.48786    -1370.377    508.18411    464.18155    523.46973    37986.909 
  470200    308.99617   -1404.0224    539.75989    527.45747    709.07292    37986.909 
  470300    300.81338   -1410.5369    511.03787    455.36562    417.39874    37986.909 
  470400    302.50675    -1379.715    521.44826    504.22493    391.92167    37986.909 
  470500    289.73024    -1416.905    513.28909    401.33023    152.87068    37986.909 
  470600    292.08846   -1415.9926    517.11165    416.68665    49.029315    37986.909 
  470700    294.56908   -1437.6438    485.92202    375.01858   -409.69926    37986.909 
  470800    297.51636   -1467.1477     483.1512    356.01836   -15.626098    37986.909 
  470900    302.26377   -1464.3865    502.58491    399.59559   -420.21938    37986.909 
  471000    309.26608   -1442.3984    489.08783    439.62515   -634.61443    37986.909 
  471100    307.31251   -1448.1442    490.49031    426.48289    -370.0003    37986.909 
  471200    287.27938    -1450.859    487.75485    330.80333   -363.18319    37986.909 
  471300    307.84395   -1442.7528     500.0776    443.85519    331.41348    37986.909 
  471400    290.76142   -1451.6271    497.03333    354.99686    92.441568    37986.909 
  471500    295.69677   -1436.1154    485.66694    381.37093    466.98494    37986.909 
  471600    297.51301   -1429.5234    507.15779     417.6342   -107.72619    37986.909 
  471700     300.3932   -1451.9187    497.21875    398.27222     24.28582    37986.909 
  471800    292.96055   -1448.7356    467.18785    337.94771   -486.73919    37986.909 
  471900    296.24509   -1433.5203    497.09655    397.86536   -85.350115    37986.909 
  472000    305.30518   -1434.5086    514.71256    455.29971   -387.31196    37986.909 
  472100    299.49481   -1447.2954    501.41013    403.04055   -778.45736    37986.909 
  472200    304.41177   -1427.2956    488.11008     431.8863   -411.20292    37986.909 
  472300     310.1984   -1464.7353    487.51885    419.91837   -222.91497    37986.909 
  472400    299.20068   -1458.2983     471.9472    361.24993    640.94876    37986.909 
  472500    308.99156   -1466.6235    506.81353    431.88919   -173.43953    37986.909 
  472600    296.93526   -1436.9877     510.9534    411.36327    641.43036    37986.909 
  472700     309.0449   -1442.5562    489.63634    439.01955   -117.78286    37986.909 
  472800    295.74337    -1431.464    544.71751    445.28282   -191.60855    37986.909 
  472900     294.0033   -1406.9891    496.37436    413.57731   -56.572015    37986.909 
  473000    295.81171   -1446.1214    492.05564    378.27132   -77.121777    37986.909 
  473100    284.01161   -1437.4182    503.59709    345.36834   -171.50819    37986.909 
  473200    302.17739   -1419.5737     517.3547     458.7892   -802.67685    37986.909 
  473300    302.58392   -1430.1132    482.28189    415.00782    -990.4133    37986.909 
  473400    303.78944   -1402.7306    500.18727    465.72556   -1400.1333    37986.909 
  473500     299.4448   -1393.5264    479.94105    435.11526    -1568.726    37986.909 
  473600    302.89185    -1434.296    502.09264    432.02273   -1186.7702    37986.909 
  473700    300.46802   -1430.7313    502.98013    425.55795   -262.78715    37986.909 
  473800    294.55681   -1422.0627      484.943    389.56538   -616.93694    37986.909 
  473900    282.80104   -1441.8284    513.35706    345.26569   -776.86731    37986.909 
  474000    321.78052   -1437.5312    491.65922    503.42874   -402.45309    37986.909 
  474100    306.25944   -1433.9085    499.06459    444.54983   -361.20076    37986.909 
  474200    308.09507   -1451.2598    481.51769    417.91935   -536.12231    37986.909 
  474300    314.03289   -1436.8977    479.49815    457.00589    14.941953    37986.909 
  474400     291.0991   -1444.1412    488.49881    355.46917   -64.932743    37986.909 
  474500     300.7041   -1431.0645    484.64249    407.95048   -59.968634    37986.909 
  474600    289.94461   -1388.5198    489.52752    406.91941   -729.65334    37986.909 
  474700    295.42762   -1413.1235    486.44131    403.92502   -185.87474    37986.909 
  474800    298.99122   -1417.9792    475.64012    404.31855   -184.66999    37986.909 
  474900    301.77703   -1446.7264    489.98519    402.46378    314.07038    37986.909 
  475000    301.06684   -1443.9896    490.45244    402.46907    380.79493    37986.909 
  475100    294.16726   -1465.0195     489.6044    349.51541    147.65532    37986.909 
  475200    290.74787   -1478.9345     506.8024    337.39746   -147.53638    37986.909 
  475300    285.55541   -1434.8494     488.0752    339.36845   -466.56901    37986.909 
  475400     305.0872   -1446.2151    507.76958    435.66843   -831.37377    37986.909 
  475500    292.38451     -1447.83    484.43911    353.51011    -671.6105    37986.909 
  475600    300.42439   -1475.8969    490.30658     367.5223   -689.68058    37986.909 
  475700    300.99313   -1427.3134    515.24108    443.60194   -607.56779    37986.909 
  475800    304.39243   -1433.9606     475.6873    412.71143    284.29673    37986.909 
  475900    302.42797   -1461.8914    478.27282    378.51818    94.277104    37986.909 
  476000    309.54873   -1456.8008    483.21032    420.61821    331.27844    37986.909 
  476100    307.34784   -1482.5062     464.2179    366.00766    -165.4694    37986.909 
  476200    303.98951   -1528.6391    524.01721    364.54812    31.745565    37986.909 
  476300    306.15162   -1495.1219    466.34971    350.13595    217.35849    37986.909 
  476400    309.26767   -1510.4302    497.54999    380.06264    118.62263    37986.909 
  476500    293.70726   -1478.2934    475.30984    319.87509     88.69067    37986.909 
  476600    286.72742    -1461.902    478.19846     307.7179    15.275778    37986.909 
  476700    297.68458   -1458.0404    516.17868     398.9108    332.31887    37986.909 
  476800    315.01938   -1501.4187    492.90273     410.3326     508.6113    37986.909 
  476900    302.32317   -1464.4449    463.01268    360.23253    321.04335    37986.909 
  477000    295.03471   -1462.9855    501.33701    367.18898    73.060852    37986.909 
  477100     306.7784    -1454.155    479.72633    407.30245    -185.0659    37986.909 
  477200    311.40254   -1416.2162    494.76962    481.11173    353.94587    37986.909 
  477300     311.5687    -1434.878     496.1858    464.61445   -285.24436    37986.909 
  477400    307.75868   -1446.7177    500.38899    439.81766   -21.938893    37986.909 
  477500    291.33193   -1436.1113    515.50008    391.54895    387.73133    37986.909 
  477600    296.96885    -1436.377    492.76167    393.93359    468.15055    37986.909 
  477700     299.9238   -1447.6007    482.29712    385.55442    158.81344    37986.909 
  477800    301.09347   -1459.6192    469.86311    366.37014   -748.82867    37986.909 
  477900    301.80188   -1455.7002    487.44053    391.05727   -508.13731    37986.909 
  478000    295.81179   -1435.2308    470.06585    367.17255   -753.59683    37986.909 
  478100    309.99077   -1443.3297    494.45463     447.3246   -662.48815    37986.909 
  478200    292.60582   -1476.2096    486.82689    328.51501   -695.70847    37986.909 
  478300    307.13119   -1497.1459    497.12942    383.30364    416.84284    37986.909 
  478400    296.66166   -1461.7756    459.09997    333.48963    44.110654    37986.909 
  478500    309.73298     -1468.71    482.64773    408.97634    340.67936    37986.909 
  478600     298.4867   -1448.7668    485.09658    380.71511    540.29575    37986.909 
  478700    310.08041   -1467.7406    483.93477    412.79758   -52.325406    37986.909 
  478800    292.84132   -1496.3064    484.98439    307.63648    300.06878    37986.909 
  478900    293.30379   -1491.3396    475.09193    304.79376    375.67368    37986.909 
  479000     299.2971   -1500.4626    480.20063    327.77336    295.40614    37986.909 
  479100    307.96846   -1456.1359    512.44905    443.40434    784.00342    37986.909 
  479200    299.78319   -1478.1373    472.27763    344.36498     735.7664    37986.909 
  479300    309.76128   -1477.8917    481.97242     399.2468    399.16758    37986.909 
  479400    294.19353    -1428.825    485.36429     381.5881   -539.91582    37986.909 
  479500    283.42654   -1455.8397    481.14014    301.85475   -592.69131    37986.909 
  479600    300.56145   -1447.1964    494.39439    400.92793   -214.18399    37986.909 
  479700    313.40475   -1446.4173    486.13806    451.29705   -15.623848    37986.909 
  479800    304.75736   -1444.4778    515.19323    443.34386    255.77579    37986.909 
  479900    298.36686   -1399.8659      504.364    448.34368    309.59929    37986.909 
  480000    293.84865   -1417.0975    524.24165    430.63966    198.41266    37986.909 
  480100    298.11732   -1415.2108    482.56839    410.07913     316.2794    37986.909 
  480200    305.42848   -1450.5219    510.18773    435.31698   -379.69341    37986.909 
  480300     301.8896   -1462.9801    482.91203    379.64392   -4.7423721    37986.909 
  480400    301.69996   -1460.5225    489.40273    387.73807   -1.0786041    37986.909 
  480500    303.38014   -1426.3146    480.81656    420.92732   -109.50797    37986.909 
  480600    298.18476   -1453.1898    492.24208    382.07759   -60.064859    37986.909 
  480700    295.70949   -1455.2691     498.9384    375.54607     257.2805    37986.909 
  480800    297.44319   -1479.0119    478.22596     338.8994    769.42226    37986.909 
  480900    292.78112   -1473.0908    511.84626    357.44277    717.01388    37986.909 
  481000    306.73706   -1431.5184    518.27374    468.30022    880.37324    37986.909 
  481100    299.03165   -1429.7792    491.70687    408.76743    278.39311    37986.909 
  481200    299.80186   -1428.1016    487.25759    409.46473    424.12993    37986.909 
  481300    298.95488   -1426.7796    479.79173    399.50613    682.53886    37986.909 
  481400    297.79131   -1416.7018    483.72061    408.27203    249.58098    37986.909 
  481500    300.35864    -1435.476    508.00457    425.34505    81.658488    37986.909 
  481600    303.98916   -1486.0592    496.34528    379.45449    75.600693    37986.909 
  481700    305.25955   -1449.9993    485.39325     410.2842    60.164667    37986.909 
  481800    302.52735   -1446.4809    495.71424    411.81776    17.414003    37986.909 
  481900    306.82222   -1458.0977    482.75606    406.58683   -130.86766    37986.909 
  482000    308.68833   -1466.1222    494.30917    418.52047      282.018    37986.909 
  482100    307.91606   -1495.6279    476.61718    367.84447    -76.72755    37986.909 
  482200     293.3566   -1488.1882    473.21362    306.30469   -159.95762    37986.909 
  482300    297.36623   -1472.2449    482.33061    349.42443   -373.69937    37986.909 
  482400    302.06576   -1466.4454    472.51936    366.57933   -479.77978    37986.909 
  482500    304.66449   -1444.3102    486.28829    414.18821   -163.74758    37986.909 
  482600    305.23697   -1429.5045    489.39638    434.68039   -335.40825    37986.909 
  482700    296.09645   -1439.7652    477.21435     371.0687   -300.16709    37986.909 
  482800    297.52681     -1443.88    473.26681    369.44871   -640.27489    37986.909 
  482900    293.40726   -1449.9248     466.2981    337.88072   -180.93573    37986.909 
  483000     295.7219   -1465.8878    471.18998     337.2348   -130.92233    37986.909 
  483100    296.33596   -1463.7139    477.37518    348.35957   -300.37844    37986.909 
  483200    301.58809   -1480.0708    468.26301    346.54621    147.63302    37986.909 
  483300    307.79493   -1455.6607    493.25718    423.90604    370.74925    37986.909 
  483400    303.97377   -1462.2636    505.27417    412.10964    513.01552    37986.909 
  483500    300.76857   -1497.7582    476.47489     333.3796     423.6137    37986.909 
  483600    301.60491   -1447.6933    499.84407    410.58045    799.89827    37986.909 
  483700    288.58347   -1416.6207    507.36919    390.52957   -32.057227    37986.909 
  483800    303.05178   -1466.1697    499.80133    398.57802    484.80966    37986.909 
  483900    298.99535    -1482.362    496.69551    361.00979   -275.13508    37986.909 
  484000     300.3325   -1430.5495    486.06211    408.21141   -259.07794    37986.909 
  484100    309.68671   -1466.8721    465.02125    392.97931    -334.0675    37986.909 
  484200    295.67779   -1467.5196    492.47512    356.68951   -523.32371    37986.909 
  484300    301.94711   -1471.4609     497.1734    385.68344    118.27353    37986.909 
  484400    289.19524   -1440.5137    476.78825      338.811     664.6227    37986.909 
  484500    293.63488   -1473.2286    492.12454    341.42858   -102.85516    37986.909 
  484600    300.99717   -1444.4172     493.7445    405.01978   -246.91865    37986.909 
  484700    314.44174   -1465.0834    456.85222    408.01566    13.253611    37986.909 
  484800    299.88958   -1485.0403     525.1649    390.82841   -101.62189    37986.909 
  484900     294.8025    -1519.679    479.57372    287.68632     340.3403    37986.909 
  485000    304.00917   -1448.8765    492.18897    412.57095     415.8256    37986.909 
  485100    289.66152   -1443.1315    497.11674    358.62185    187.77573    37986.909 
  485200    296.55896   -1412.9822    482.37344    405.09397    -216.2415    37986.909 
  485300    306.77634   -1450.8152    482.64738    413.55403    61.619062    37986.909 
  485400     299.6815   -1444.1591    487.13982    392.74739   -169.34732    37986.909 
  485500    297.02661   -1428.2346    503.99834    413.57275   -320.75553    37986.909 
  485600    295.98297    -1447.181    501.95677    387.88423    -489.0123    37986.909 
  485700    294.01314   -1452.6882    510.46794    382.01613   -84.917774    37986.909 
  485800    313.57545   -1483.9838    489.94633    418.30763   -532.29614    37986.909 
  485900    308.69944   -1422.8055    477.54673    445.12479   -62.749948    37986.909 
  486000    296.25046   -1459.7017    484.47587    359.08744   -59.249347    37986.909 
  486100    304.15316   -1462.4017    472.13126    379.63658    499.41491    37986.909 
  486200    301.19417   -1460.9255    470.21613     365.8704    170.02131    37986.909 
  486300    299.40791   -1475.8718    503.71474    376.37739    436.41061    37986.909 
  486400    305.20708   -1499.6793    474.21215    349.18671   -224.35677    37986.909 
  486500    302.30513     -1493.39    505.25804    373.45157     247.5759    37986.909 
  486600    290.64869   -1412.4185    513.44014    410.10452    11.053021    37986.909 
  486700    305.12211   -1414.0616    490.66578    450.87536    136.92442    37986.909 
  486800     291.2812   -1425.5521    482.34437    368.72395   -570.31333    37986.909 
  486900    301.94283   -1432.4617    510.61475    438.10474    295.16479    37986.909 
  487000    292.87189   -1400.8199    481.41793    399.69422   -390.97961    37986.909 
  487100    293.49023   -1408.9743    486.87014    399.77702   -578.15442    37986.909 
  487200    306.82759   -1424.7354    479.89395    437.11124   -370.41904    37986.909 
  487300    290.31043   -1428.0034    501.31139    380.86728   -612.12678    37986.909 
  487400    298.01904   -1413.2662    507.79457    436.80732   -434.77799    37986.909 
  487500    301.89603   -1438.3732    489.26367    410.63141    7.0416095    37986.909 
  487600    297.69437   -1411.8765    507.94803    436.88818    456.40835    37986.909 
  487700    302.08208   -1413.3747    498.34954    445.55376    266.21312    37986.909 
  487800    305.52004   -1428.1063    503.06307    451.02024    -51.58394    37986.909 
  487900    298.99856   -1433.1789    477.15229    390.66411   -275.97008    37986.909 
  488000     295.4666   -1458.7698    494.54112    366.55407    -134.7332    37986.909 
  488100    312.33569   -1464.2503    487.98937    430.50023    -100.8559    37986.909 
  488200    307.39562    -1480.041    507.45653    411.92662   -648.09663    37986.909 
  488300    294.23164   -1455.9255    496.13568    365.43067   -603.27676    37986.909 
  488400    304.98344   -1444.6893    499.20787     428.1652    -424.1518    37986.909 
  488500    308.28202   -1474.5859      478.803    392.72052   -564.26937    37986.909 
  488600    302.38646   -1423.7964    511.49691    449.65037   -526.84393    37986.909 
  488700    305.07861   -1436.7894    514.94958    452.23544    100.01527    37986.909 
  488800    313.98498   -1408.8669    493.38265    498.70536   -30.748511    37986.909 
  488900    295.63053   -1439.7092     499.4777    391.28959    18.309472    37986.909 
  489000    294.58741    -1422.036    497.30844    402.09532    299.48888    37986.909 
  489100    296.36216   -1430.2484    500.73658    405.30455    403.38109    37986.909 
  489200    297.95337   -1440.1788    494.18947    395.99386    287.29286    37986.909 
  489300    308.36905   -1443.0833    478.96067    424.77277   -440.91037    37986.909 
  489400    293.77751   -1443.8593    493.98011     373.2959    122.31195    37986.909 
  489500     300.1212   -1419.7378    502.63344    434.64268    102.02304    37986.909 
  489600    297.79482   -1411.3478    498.19667    428.11792   -577.00803    37986.909 
  489700    307.94804   -1422.2943    485.47438    450.17933   -1029.1433    37986.909 
  489800    308.88002    -1412.386    499.11303    477.92383    -129.9783    37986.909 
  489900    299.56515   -1426.5097    496.20363    418.93655    -318.5154    37986.909 
  490000    291.15043   -1433.7506    525.59464    403.18674   -263.34636    37986.909 
  490100    309.56427   -1423.4435    499.41614    470.25133     288.8694    37986.909 
  490200    315.93033   -1403.6168      508.673    528.00766     243.8881    37986.909 
  490300    295.54629   -1404.5141    513.80913    440.43665    180.62907    37986.909 
  490400    296.66463   -1421.6836    505.16022    419.65527   -233.40489    37986.909 
  490500    302.90377   -1418.0081    479.20601    425.47767    186.05323    37986.909 
  490600    294.32098   -1433.8136    509.44309    401.25241    188.84467    37986.909 
  490700    304.43593   -1469.1473    503.23631    405.26965    447.70903    37986.909 
  490800    294.05558   -1432.7683    482.43031    374.08949    481.94139    37986.909 
  490900    301.25473   -1434.1396    487.49066    410.20357    233.03079    37986.909 
  491000    291.37195    -1382.064    499.89207    430.16851   -151.62118    37986.909 
  491100    303.04362   -1411.0698    506.17863    460.01856    512.24502    37986.909 
  491200    287.46399   -1413.1761    497.83943    379.40233   -545.78539    37986.909 
  491300    289.29347   -1442.0648    498.41549    359.32963    -268.7422    37986.909 
  491400    305.80772   -1463.9104    507.55328    421.00214    172.73536    37986.909 
  491500    288.90103   -1484.6107    490.35404     306.9547    184.02309    37986.909 
  491600    307.16467   -1483.5698     490.4446    390.34569    2.2312503    37986.909 
  491700    304.65275   -1489.1257    474.71587    357.74738   -187.23809    37986.909 
  491800    299.05735   -1435.1877     466.1385    377.90624       195.43    37986.909 
  491900    298.26097   -1463.5234    505.74948    385.59463    62.387201    37986.909 
  492000     306.4797   -1475.4371    518.40027    423.34899    388.86478    37986.909 
  492100    288.19669   -1503.2107    486.28496    281.11333    744.37633    37986.909 
  492200    292.40699   -1431.6211    479.75405     365.1352    361.47606    37986.909 
  492300    285.60463   -1418.4755    505.96854    373.85742   -357.47426    37986.909 
  492400    300.18602   -1466.9958     501.0543    386.09751   -377.12651    37986.909 
  492500    297.41179   -1468.7339    509.59985    380.40987    100.88334    37986.909 
  492600    303.81827   -1440.1387     496.0191    424.27914   -95.563947    37986.909 
  492700    299.70344   -1431.2672    495.15479    413.75304   -310.11893    37986.909 
  492800    305.94495   -1444.3071    495.92079      429.591   -42.115907    37986.909 
  492900    295.72531   -1390.6339    509.55039     450.8645   -133.13574    37986.909 
  493000    294.90081   -1433.8872    496.92018    391.26739   -79.135066    37986.909 
  493100    283.57268   -1416.8742    503.35377    363.69205   -341.04111    37986.909 
  493200    305.19384   -1458.5656    498.18396    414.21265   -443.10764    37986.909 
  493300    296.49228   -1494.1453    467.90532    309.16241   -796.02151    37986.909 
  493400     296.7359   -1459.8383    473.68117    350.34255   -323.67447    37986.909 
  493500    296.94994   -1469.5085    493.13308     361.0883   -286.04799    37986.909 
  493600    304.23707   -1482.7133    508.47806    396.04971   -247.19973    37986.909 
  493700    299.06899   -1463.3332    493.05436     376.7291   -104.48038    37986.909 
  493800    299.58508   -1499.1356    483.19188    333.38863   -455.19776    37986.909 
  493900    301.25388   -1476.3551     457.1205     337.6141     -303.404    37986.909 
  494000     300.3641   -1437.7893    512.04957    427.10141   -695.50891    37986.909 
  494100    287.21758   -1431.9488    472.94723    334.62751   -569.29867    37986.909 
  494200    296.80229   -1462.7889    495.31057    369.32031   -408.17032    37986.909 
  494300    306.34661   -1498.2995    489.33341    370.82027   -393.27626    37986.909 
  494400     305.9318   -1494.5206    477.13377    360.53118    -213.7012    37986.909 
  494500    299.64306    -1503.157    492.21566    338.65215   -653.96147    37986.909 
  494600    305.18908   -1508.0582    478.02423    344.53883   -265.52966    37986.909 
  494700    316.66161   -1467.5174    493.37892    452.10664   -520.70829    37986.909 
  494800    304.37155   -1484.0546    487.06413    373.90018   -376.01759    37986.909 
  494900    306.15451   -1454.3882     520.1395    444.67243   -423.69166    37986.909 
  495000    301.30324   -1466.1516    476.38894    367.30834    -234.1928    37986.909 
  495100    294.16133   -1466.2295    507.66165    366.33601    326.70648    37986.909 
  495200     300.2431   -1472.3617    486.10148    366.03593     534.8643    37986.909 
  495300    295.61903    -1464.706     493.1746    359.93786    388.39253    37986.909 
  495400    302.70939   -1516.8458    490.11715    336.67567    317.92567    37986.909 
  495500    301.49314   -1521.5779    500.36311    336.71147    145.95947    37986.909 
  495600    304.78557   -1498.0642     502.2754    376.96665     333.6374    37986.909 
  495700    304.77709   -1496.0129    516.90605    393.61043    222.59447    37986.909 
  495800    301.28596   -1456.1491    474.74716    375.59126   -247.49153    37986.909 
  495900    299.10526   -1490.8881    476.16955    332.45276   -288.53208    37986.909 
  496000    311.06678   -1436.4234    507.30565    471.92829    382.11823    37986.909 
  496100    312.11529   -1454.8865    480.70572    431.58773    345.03425    37986.909 
  496200    295.14053   -1454.1804    500.39168     375.5254   -332.51303    37986.909 
  496300    295.47614   -1473.2726    485.08959    342.64273   -3.4852502    37986.909 
  496400     296.1166   -1464.6094    486.62715     355.7281     -137.124    37986.909 
  496500    301.31209   -1497.7716    522.21348    381.55271    13.696041    37986.909 
  496600    285.08525   -1475.7009    514.00481    322.32902   -43.175441    37986.909 
  496700    306.23963   -1460.2883    500.46117    419.47743     131.6596    37986.909 
  496800    290.84365   -1453.7669    488.71682    344.91093    340.71731    37986.909 
  496900    302.33025   -1476.0175    493.50278    379.18189    455.26456    37986.909 
  497000    301.51582   -1469.4516    491.57211    380.14896    206.98122    37986.909 
  497100    310.96956   -1465.3782    521.92851    457.15841   -110.92902    37986.909 
  497200    299.10704    -1447.743    470.29901    369.73528   -342.02145    37986.909 
  497300    301.79812   -1449.8044    495.74488    405.24042   -312.08499    37986.909 
  497400    305.48435   -1438.1305     543.5381    481.31035   -513.20286    37986.909 
  497500    295.89189   -1462.0975    478.94914     349.5499    -472.6271    37986.909 
  497600     291.9398   -1458.8991    493.04565    349.04457   -784.83745    37986.909 
  497700    298.10614   -1419.3244    496.10585     419.4527    -149.0908    37986.909 
  497800     305.2139   -1443.5668     498.1182    429.23603   -12.690861    37986.909 
  497900    289.01075    -1457.807    493.92663    337.82521    138.58609    37986.909 
  498000    296.61213   -1478.5728    501.08935    358.45876    689.19153    37986.909 
  498100     310.0435   -1464.9795    508.51501    439.97267    552.07787    37986.909 
  498200    296.15468    -1455.128    506.15535    384.90922    260.04076    37986.909 
  498300    304.54856   -1403.5638    518.52864    486.65275    123.85314    37986.909 
  498400    296.68186   -1457.3443    494.56615    373.47811    115.96044    37986.909 
  498500    299.41589   -1456.2073    509.26993      401.633   -102.59313    37986.909 
  498600    300.43891    -1483.591    497.88548    367.47253   -269.42974    37986.909 
  498700    297.34244   -1481.4689    497.09792    354.86061    553.25057    37986.909 
  498800    288.86745   -1458.2849    497.70032    340.47555   -43.095312    37986.909 
  498900     304.1353   -1454.7911    545.27738    460.31288   -322.57531    37986.909 
  499000    306.88391   -1454.4108    498.10208     425.8977    -90.93123    37986.909 
  499100    306.61927   -1414.0401    503.58501    470.55932   -129.06939    37986.909 
  499200    302.21174    -1454.661    508.58707    415.08897    34.803425    37986.909 
  499300    303.74993   -1460.1738    535.46112    443.37826    289.27188    37986.909 
  499400    303.29765   -1486.5513    495.04369    374.54624    349.89679    37986.909 
  499500    303.58092   -1480.3454    500.82865    387.81289   -363.45682    37986.909 
  499600    296.04365   -1466.8846    514.51166    381.00883    -295.4166    37986.909 
  499700    302.59023   -1515.4364    472.60432    320.03553    29.535925    37986.909 
  499800    291.58095   -1496.8155    505.23031    321.69657   -123.98358    37986.909 
  499900    301.49143   -1461.8162    510.23906    406.34142   -125.69337    37986.909 
  500000     297.3059   -1474.6839    512.86298    377.24606   -160.85965    37986.909 
  500100    296.87469   -1495.7622    480.64797    322.01056    298.22282    37986.909 
  500200    300.85619   -1497.4739    513.83943    371.42302    550.72721    37986.909 
  500300     298.2732   -1498.6782     512.6832    357.42875   -72.648894    37986.909 
  500400    298.89318   -1465.1261    488.19211    369.28213    108.21111    37986.909 
  500500    296.36667   -1480.3388    501.77497    356.27282   -1000.1673    37986.909 
  500600    307.28448   -1517.6996    501.04844    367.35941   -316.62369    37986.909 
  500700    300.40671   -1496.9929    484.79479    340.83492    166.40398    37986.909 
  500800    305.46433   -1475.6241     490.3691    390.55752    298.92797    37986.909 
  500900    293.75916   -1536.5654    476.13468    262.66166    289.73696    37986.909 
  501000     290.4151   -1529.1319    489.71104    268.60993    -49.12639    37986.909 
  501100    302.85484   -1520.5141    484.21609     327.7614    586.07434    37986.909 
  501200    286.30249   -1530.3379    481.55552    240.72518    153.77765    37986.909 
  501300    302.51644   -1526.7895    491.86173     327.6075    124.85667    37986.909 
  501400    311.14934   -1524.1614    479.18395    356.44039   -77.801927    37986.909 
  501500    307.05621   -1496.7684    506.91786    393.13185   -90.574486    37986.909 
  501600    297.87358   -1497.9285    492.75725    336.45252     37.92002    37986.909 
  501700    296.84305   -1542.0928    480.94354    275.83308    342.50536    37986.909 
  501800     296.4169    -1496.478    499.32399    337.90885    522.56506    37986.909 
  501900     306.1164   -1501.9129    517.33284    394.16946    538.10535    37986.909 
  502000     300.8324   -1503.3987    483.93391    335.48553   -5.1775125    37986.909 
  502100    306.26298   -1544.6638    482.39948     317.1453    82.037027    37986.909 
  502200    295.03417   -1508.6689    476.96481    297.13103    -260.9814    37986.909 
  502300    304.59404   -1501.6811    489.45178    359.66341   -900.50071    37986.909 
  502400     299.1774   -1514.7861    492.83396      325.544   -780.61713    37986.909 
  502500    293.86371   -1498.5679    501.20399    326.19943   -406.95358    37986.909 
  502600    299.29315   -1498.1405    498.45284    348.32989   -933.89681    37986.909 
  502700    291.27163   -1481.6803    476.62035    306.82862   -826.12536    37986.909 
  502800     306.2537   -1489.4536    490.16216    380.07638   -569.04124    37986.909 
  502900    290.80936   -1515.1252    479.37569    274.05698   -328.48866    37986.909 
  503000    304.19474   -1539.2449    465.84183    296.69127   -497.36748    37986.909 
  503100     294.0836   -1537.8844    492.40593    279.07529    217.58744    37986.909 
  503200    298.85479   -1543.7915    519.04739    321.29903    564.30594    37986.909 
  503300    289.75598   -1520.4772     490.0954    274.68027    211.13974    37986.909 
  503400    299.43141   -1492.3254    485.24301    341.55785   -508.20432    37986.909 
  503500    299.29559   -1484.1356    478.26089    342.15377   -298.57756    37986.909 
  503600    297.95389   -1501.8691    482.44391    322.56028   -411.11626    37986.909 
  503700    315.94135   -1482.9524    485.69812    425.74682   -137.10662    37986.909 
  503800    307.87727   -1490.2999    493.68709    390.06766   -5.4979412    37986.909 
  503900    305.12273    -1487.251    488.30272    375.32574    25.016876    37986.909 
  504000    311.28296   -1466.1011    475.82085    411.73941   -10.663895    37986.909 
  504100    302.87644   -1476.3417    492.14611    379.96109    114.58301    37986.909 
  504200     303.6367   -1461.3773    495.69085    401.89448    124.62889    37986.909 
  504300    302.29316   -1517.0351    480.00094    324.49539    282.85678    37986.909 
  504400    286.21567   -1497.4526    499.22555    290.88946    104.45072    37986.909 
  504500    301.53325   -1500.6323    504.73068    362.20539     208.6066    37986.909 
  504600     294.2091   -1523.4837    508.17185    309.80712   -96.998006    37986.909 
  504700    301.49332   -1454.5722    492.54597    395.90091      93.9192    37986.909 
  504800    290.52726   -1466.2492    515.66836    357.95509   -163.15775    37986.909 
  504900     306.1542   -1485.1705    479.71901    373.46823   -142.83845    37986.909 
  505000    302.62066   -1479.4352    480.21696    363.78639    643.41284    37986.909 
  505100     293.6488   -1493.2491    511.61523    340.96152    271.72929    37986.909 
  505200    307.31724   -1497.2651    497.43827    384.33129    791.08802    37986.909 
  505300    297.77348   -1525.2604    487.11789    303.03044    122.36436    37986.909 
  505400    292.79772   -1492.8352    500.29367    326.22058    168.94873    37986.909 
  505500    305.22476     -1495.46    494.50609    373.77964    166.99348    37986.909 
  505600    299.16046   -1510.3971    505.41226    342.43504   -349.47655    37986.909 
  505700    308.45125   -1478.0179    480.19068     391.4384    20.606895    37986.909 
  505800    306.98711   -1496.9181    502.94858    388.70171    -113.5821    37986.909 
  505900    299.07086   -1509.3092    487.47493    325.18204    -206.8764    37986.909 
  506000    295.85163   -1510.3931     498.6826     320.8064   -288.34362    37986.909 
  506100      296.492   -1467.3511    507.82933    375.87937    128.25057    37986.909 
  506200    306.00199   -1483.0279      496.922    392.12829    61.655847    37986.909 
  506300    295.72524   -1452.8425    538.39852    417.50371    909.78227    37986.909 
  506400    299.07522   -1475.0776    500.26388    372.22221    550.50042    37986.909 
  506500    295.93245   -1420.3585    491.34124    403.86371    93.388672    37986.909 
  506600    301.78422   -1450.9405    464.08496    372.38177    147.07127    37986.909 
  506700    303.28783   -1432.6225    501.61984    435.00691   -478.39453    37986.909 
  506800    301.88951   -1413.7133    511.31383    457.31205   -484.27226    37986.909 
  506900    290.96982   -1427.9712    513.47528    396.03328   -890.60858    37986.909 
  507000    308.07119   -1490.4891    492.59694    389.66169   -608.91674    37986.909 
  507100     313.3882   -1457.8075     483.7189    437.41304   -627.85013    37986.909 
  507200    303.18571   -1508.8425    508.70019    365.40738   -721.20758    37986.909 
  507300    303.48552   -1506.9411    468.85359    328.81251   -805.45396    37986.909 
  507400    307.92366   -1451.9514    510.96095    445.89896    -248.8085    37986.909 
  507500    306.23369   -1463.4856    492.75844    408.55061    97.172597    37986.909 
  507600    292.36698   -1481.8935    491.15057    326.07909    108.04998    37986.909 
  507700    293.18079   -1526.2794    474.49261     268.7007   -198.25542    37986.909 
  507800    300.52411   -1471.7261    488.63344    370.46909    334.96118    37986.909 
  507900    301.10789   -1472.1151    495.42494      379.501    529.51741    37986.909 
  508000    300.78277   -1444.0225    510.62086     421.3252     322.7279    37986.909 
  508100     307.8812   -1455.4695    512.87167    444.10035    372.95785    37986.909 
  508200    293.53755   -1426.3159    491.00324    386.78162    220.97299    37986.909 
  508300     303.9238   -1406.3428    515.27462    477.80583   -245.44615    37986.909 
  508400    305.75235   -1460.0746    492.31385     409.3491    -82.46662    37986.909 
  508500    298.97416   -1433.9633    485.29565    397.91317   -653.34561    37986.909 
  508600    288.13344   -1408.4268     471.9634    361.29078   -439.92853    37986.909 
  508700    295.09013   -1461.1558    495.01935    362.95071   -480.99065    37986.909 
  508800    294.54898   -1489.1542    482.03945    319.53504   -764.87371    37986.909 
  508900    299.34599   -1478.1835    488.11137     358.1834   -331.77789    37986.909 
  509000    303.07179   -1501.1925    487.74619     351.5902   -255.63537    37986.909 
  509100    301.64579   -1522.6663     471.4782    307.42571   -256.41103    37986.909 
  509200    299.32239   -1537.1776    484.05648     295.0281   -203.49142    37986.909 
  509300    296.21851    -1491.121    490.49581    333.54418    33.425994    37986.909 
  509400    306.70261   -1511.2195    498.43758     368.6079    632.49743    37986.909 
  509500    297.21878    -1456.087    497.42626    380.01388    329.92721    37986.909 
  509600    294.77821   -1452.4734    482.42256    357.63135    1.2858851    37986.909 
  509700    299.74597   -1493.7267    495.72481    352.05517    -99.47595    37986.909 
  509800    303.69913   -1463.3112    504.56045    409.11138    290.39461    37986.909 
  509900    306.78436   -1449.7115    498.19922     430.2457   -160.02047    37986.909 
  510000    302.51941   -1448.8329    486.14093     399.8567    259.16777    37986.909 
  510100    295.33028   -1452.3542    500.23768    378.05219    -218.2212    37986.909 
  510200    305.58471   -1457.7929    480.87986    399.44171   -62.212014    37986.909 
  510300    284.57398   -1450.5995    490.29088    321.41375   -356.38632    37986.909 
  510400    284.80632   -1444.1148    499.23174    337.88581   -100.26883    37986.909 
  510500    304.81771   -1450.0972    488.92761    411.73057     63.74798    37986.909 
  510600    300.89147   -1444.5209     484.6075    395.30295   -339.37912    37986.909 
  510700    309.67813   -1487.2661    477.04032    384.56573   -252.94819    37986.909 
  510800    306.60032   -1467.5602    480.51648    393.88534   -99.807153    37986.909 
  510900    292.81247    -1430.317    484.45939    372.97098    -219.8715    37986.909 
  511000    293.52588   -1459.5462    505.83819    368.33367   -12.250567    37986.909 
  511100    308.34133   -1459.2081    498.85405    428.41651    46.415124    37986.909 
  511200    301.02703   -1460.4373    487.68393    383.07357    26.174484    37986.909 
  511300    291.73113   -1471.3797    498.16195    340.74037   -215.08611    37986.909 
  511400     299.4988   -1482.2591    500.22214    366.90687    248.20129    37986.909 
  511500    300.65532   -1477.3041    490.13868    366.98731   -34.007507    37986.909 
  511600     296.3368   -1482.9942    472.34433    324.05231    309.81827    37986.909 
  511700     300.7816   -1500.3015    504.52078    358.94082   -155.30322    37986.909 
  511800    297.96614   -1486.3643    470.38104    326.05742   -48.888456    37986.909 
  511900    303.69817   -1448.3534    485.53798    405.04233   -34.599107    37986.909 
  512000    297.82196   -1474.8942    498.87642    365.37352   -104.22305    37986.909 
  512100    300.04405   -1498.0331    490.18108    343.54758   -351.71347    37986.909 
  512200    292.30587   -1446.5748    496.17438    366.14642    71.662168    37986.909 
  512300    306.56393   -1457.4514    495.01733    418.33114   -109.82111    37986.909 
  512400    302.07943   -1517.3434    472.35058    315.57412   -725.80414    37986.909 
  512500    289.41203    -1453.605     466.8327    316.74063   -276.31174    37986.909 
  512600    299.29356   -1494.7427    498.75821    352.03492   -549.23522    37986.909 
  512700    298.86403   -1469.3502    480.06396    356.79857   -121.45168    37986.909 
  512800    302.26147   -1509.3442    482.32051    334.36322   -92.432658    37986.909 
  512900     300.6148   -1495.3568    493.90003    352.51345   -64.297403    37986.909 
  513000    303.37755   -1493.1569    507.22095    380.47768    79.757714    37986.909 
  513100    302.19895   -1456.9283    497.79231    401.96924    232.03606    37986.909 
  513200    301.89276   -1456.6469    465.49307    368.57234   -452.77283    37986.909 
  513300     293.6784   -1484.7754     485.6707    323.62396   -694.91031    37986.909 
  513400    303.55876   -1473.6601    530.23893    423.80871   -386.48037    37986.909 
  513500     297.2462   -1454.6958    484.29725    368.39951   -612.41579    37986.909 
  513600    300.69879   -1470.9221    514.26621    397.69267   -669.74391    37986.909 
  513700    305.01057   -1476.4332    512.00676    409.34242   -194.57951    37986.909 
  513800     290.4446   -1445.7799    491.91634    354.30006    190.43428    37986.909 
  513900    302.82508   -1500.3103    470.59756    334.21266    589.92201    37986.909 
  514000     302.7551   -1526.4735    495.48219    332.61888   -270.38316    37986.909 
  514100    293.93315   -1436.1526    499.41702    387.14049   -416.35383    37986.909 
  514200    297.90422   -1467.7015    478.47278    352.53311   -195.21439    37986.909 
  514300    289.96626   -1498.3092    495.85511    303.55508    158.56905    37986.909 
  514400     302.5999   -1485.8791     482.8573    359.88939    40.739464    37986.909 
  514500    292.57038   -1452.5983    490.57027    355.71011    210.68711    37986.909 
  514600    304.42293   -1448.1136    499.38402    422.39246   -146.43398    37986.909 
  514700    294.38288   -1462.5132    508.57262    371.96111     16.46724    37986.909 
  514800    298.05682   -1480.1252    505.69144    368.01534    264.76658    37986.909 
  514900    306.86943   -1404.2431    485.89701    463.79501    41.685512    37986.909 
  515000    308.66331   -1461.0753    502.24343     431.3889   -211.90356    37986.909 
  515100    302.47317   -1474.0031    484.90115    373.23841   -263.73226    37986.909 
  515200    296.93086   -1509.0381    467.03074    295.37044   -1021.0992    37986.909 
  515300    304.54036   -1494.2679    487.96964    365.35279   -442.95882    37986.909 
  515400    305.35623   -1502.9408    480.48021    352.86507   -202.72317    37986.909 
  515500    293.63946   -1519.1576    499.73354    303.12922   -736.11725    37986.909 
  515600    296.33138   -1484.4956    468.69918    318.88128   -636.72839    37986.909 
  515700     304.3481   -1505.0675    485.36196    351.07954   -37.334755    37986.909 
  515800    306.47529   -1473.9856    481.87607    388.25639    296.97781    37986.909 
  515900    291.28016   -1454.0359    495.89325     353.7843    222.72241    37986.909 
  516000    301.10042   -1454.6498    476.68186    378.18959    172.81483    37986.909 
  516100    304.85615   -1469.9289    489.59528    392.73969   -40.446955    37986.909 
  516200    296.26642   -1462.5308    516.95539    388.80971    78.032192    37986.909 
  516300    288.42894   -1473.8569    505.43988     330.6681    280.31576    37986.909 
  516400    306.61095   -1502.0407    487.06067    365.99692   -51.550517    37986.909 
  516500    299.89469   -1486.1885    466.97976    331.51816      399.634    37986.909 
  516600    300.93885   -1471.6165    482.81491     366.6282    733.18036    37986.909 
  516700    288.79209    -1457.796    506.36889    349.29366    649.86229    37986.909 
  516800      304.678   -1439.4388    488.68228    421.51436    688.36851    37986.909 
  516900    299.93996   -1469.1818    479.13302      360.882    502.67928    37986.909 
  517000    305.54404   -1398.4404    504.39958    482.13075   -255.97049    37986.909 
  517100     297.5819   -1429.2602    497.95093    409.00078    165.78109    37986.909 
  517200    302.42092   -1467.2521    482.64069    377.49365    613.20558    37986.909 
  517300    297.11425   -1445.9157    487.96429    380.25232     109.8853    37986.909 
  517400    293.43042   -1437.6788    507.26812    391.20111     249.6566    37986.909 
  517500    304.97169   -1499.2735    477.57932    351.89958   -178.12468    37986.909 
  517600    296.11359   -1436.4186     487.3166    384.59479   -388.17506    37986.909 
  517700    312.43211   -1464.4149    471.80562    414.58622   -412.92694    37986.909 
  517800     303.8687   -1468.3086    481.32325    381.64053   -130.09785    37986.909 
  517900    297.07594   -1449.4245    485.30082    373.90757   -169.74692    37986.909 
  518000    307.38518   -1448.4592    499.96078    435.96562   -270.36392    37986.909 
  518100    301.99962   -1382.0883    514.67179    492.79103    476.14903    37986.909 
  518200     314.3117   -1395.2466    515.03015    535.44473    89.502107    37986.909 
  518300      306.375   -1415.0265    499.12345    464.01118    386.47959    37986.909 
  518400    309.08542   -1421.7803    517.42668    487.76838     706.4687    37986.909 
  518500    307.10111   -1423.2704    514.32709     474.2413    402.57345    37986.909 
  518600     295.0642   -1431.4299    477.19499    374.73537    192.51903    37986.909 
  518700    298.86482   -1393.3418    504.64317    457.38969   -1.5204327    37986.909 
  518800    292.91665   -1434.1031    502.65696    387.85162    434.35154    37986.909 
  518900     312.0065   -1420.7212    514.18305    498.74039   -194.15449    37986.909 
  519000    303.23387   -1461.9116    473.56027     377.4152    317.97212    37986.909 
  519100    299.91803   -1465.4042     499.2714    384.69921   -97.496053    37986.909 
  519200    299.79359   -1465.2825    480.75845    365.74748    -698.8634    37986.909 
  519300    295.96525   -1457.7814    502.17861     377.4259    165.00524    37986.909 
  519400    295.69516   -1475.5539    478.62626    334.88449    303.14341    37986.909 
  519500    298.01793   -1510.3649    477.42391    309.33297    603.27015    37986.909 
  519600    305.95881   -1455.8543    487.17305    409.35849    354.84753    37986.909 
  519700    302.22568   -1487.7018    481.54482    355.06873   -51.022031    37986.909 
  519800     298.1891   -1500.7457    475.99187    318.29103    184.77141    37986.909 
  519900    296.91287   -1495.5919     507.1849    348.88973    46.569147    37986.909 
  520000    288.23951   -1517.7947    496.19594    276.63313    463.10584    37986.909 
  520100     298.9041   -1555.9008    466.09306    256.45751   -9.6981162    37986.909 
  520200    295.14142    -1525.456     488.5458    292.40791   -85.618752    37986.909 
  520300    300.05011   -1463.9521    490.89758    378.37242    -194.3329    37986.909 
  520400    288.89322   -1511.2032    467.54947    257.52251    359.06941    37986.909 
  520500    300.56867   -1497.5375    500.55616    356.78114    540.69456    37986.909 
  520600    287.99144   -1532.0124    495.22016    260.32234   -41.433774    37986.909 
  520700    294.60709   -1495.7292    477.03584    308.21817   -22.588213    37986.909 
  520800    296.39878   -1492.2693    490.29815    333.01016    85.214081    37986.909 
  520900    307.20391   -1491.5223    471.19471    363.32002   -24.387531    37986.909 
  521000    297.14703    -1450.018    463.48876    351.82215    150.02478    37986.909 
  521100     293.2089   -1431.5962    499.61466    388.63257    361.83616    37986.909 
  521200    294.04886   -1449.2913    494.77711    369.88306   -8.5660005    37986.909 
  521300    312.72288   -1413.0547    510.27021    505.72059    673.55247    37986.909 
  521400    304.03403   -1438.0458    499.01621    430.34086   -225.80219    37986.909 
  521500    305.99992   -1485.0109    503.29351    396.50749    -133.0593    37986.909 
  521600    304.91687   -1454.4728    501.85566    420.72968    213.54588    37986.909 
  521700    310.53118   -1435.2511    500.61954    464.00215    239.19417    37986.909 
  521800    289.13002   -1409.4802    507.58893    400.35152   -122.05091    37986.909 
  521900    304.82251   -1451.9294    500.64476    421.63719   -540.18568    37986.909 
  522000    290.73287   -1439.5594    499.59852    369.50112    92.540678    37986.909 
  522100    302.67969   -1436.6208    513.54538     440.1951    543.31289    37986.909 
  522200    300.38195   -1452.4196     483.7252     384.2271    454.67238    37986.909 
  522300    297.66235   -1475.7681    496.68503     361.5893     918.1721    37986.909 
  522400    294.72743   -1489.3345    501.77071    339.88975    544.96033    37986.909 
  522500    294.64069   -1453.7437    513.94428    387.26344    603.89014    37986.909 
  522600    302.67925   -1424.9644    507.08997    445.39411     620.5558    37986.909 
  522700    300.23055   -1460.9423    528.81483    420.11218    110.30221    37986.909 
  522800    288.39434   -1469.4399    516.37451    345.86384    260.64763    37986.909 
  522900    300.92992   -1497.2475    525.50217    383.64421      285.413    37986.909 
  523000    292.62812    -1473.183    495.68193    340.49715   -168.33149    37986.909 
  523100    290.38778   -1471.8029    508.48941    344.59419    119.94284    37986.909 
  523200    294.09055   -1457.7777    524.78745    391.59473    462.62514    37986.909 
  523300    283.41629   -1491.6718    502.47122    287.30752    133.49032    37986.909 
  523400    301.46552   -1497.2761     511.9741    372.49991    376.77415    37986.909 
  523500    298.20012   -1471.3946    487.44779    359.14772    789.67687    37986.909 
  523600    309.15144   -1514.1987    485.31384    363.53443    209.29925    37986.909 
  523700    294.63193   -1515.0149     504.5509    316.55938    170.71046    37986.909 
  523800    305.02756   -1492.9962    488.80041    369.64956     482.6382    37986.909 
  523900    306.47983   -1510.1647     495.2484    365.47008   -398.76109    37986.909 
  524000    310.74803   -1528.7427    491.25739    362.12511    48.908483    37986.909 
  524100     309.7202   -1516.7301    474.90291    353.15381    38.930108    37986.909 
  524200    299.90719     -1535.21    490.61506    306.18828    127.50077    37986.909 
  524300    298.30893   -1552.8433    497.17819    287.91954    257.35029    37986.909 
  524400    311.19502   -1475.0429    494.94488     421.5256    532.08973    37986.909 
  524500    310.44473   -1497.9019    520.93698    421.27942     1065.763    37986.909 
  524600    298.79814   -1487.2594    511.28184    369.81048    616.21295    37986.909 
  524700    315.24189   -1495.4964    507.39973    431.75407    1420.2553    37986.909 
  524800    295.56511   -1461.8309    500.03697    369.43255    645.86381    37986.909 
  524900    299.64011   -1490.9297    486.92283    345.57338    102.65513    37986.909 
  525000    304.90665   -1462.4613    504.79972    415.63925    490.50896    37986.909 
  525100    303.29761   -1418.0425    533.23542    481.24662    565.54336    37986.909 
  525200    307.95166   -1432.8626    503.49983    457.65271     383.3244    37986.909 
  525300    301.76673   -1496.1782     466.6712    329.65153    411.46742    37986.909 
  525400    308.76164   -1517.3541    495.88369    369.19324     7.585104    37986.909 
  525500    296.10968   -1478.3922      502.226    357.51292   -15.712647    37986.909 
  525600    303.32901   -1477.8699    522.13711    410.46233    39.927336    37986.909 
  525700    293.03497   -1486.1562    504.77589     338.4504    725.19773    37986.909 
  525800    296.60056   -1468.8605    536.34427    403.37385   -259.65744    37986.909 
  525900    305.11207   -1473.3498    494.62121    395.49738     285.0309    37986.909 
  526000    307.63763   -1466.2816    487.12568    406.44523    37.846836    37986.909 
  526100     301.5985   -1460.7596    503.46654    401.10778    150.03876    37986.909 
  526200    292.44491   -1496.6732    490.68014    311.18005    -411.6099    37986.909 
  526300      307.241   -1473.7827     480.4533    390.48526   -620.36588    37986.909 
  526400    296.06212   -1456.5748    497.84471    374.73486   -295.78881    37986.909 
  526500    296.92353   -1478.9444    502.04198    360.44239   -398.09987    37986.909 
  526600    293.46488   -1479.2696    537.19151    379.68889   -399.22808    37986.909 
  526700    302.99146   -1487.1174    488.76179    366.31909     152.7172    37986.909 
  526800    294.82388    -1511.061    507.33472    324.16171    498.54362    37986.909 
  526900    303.34068   -1489.3745    507.06663    383.93977    805.72082    37986.909 
  527000     300.6502   -1459.2028    519.45456    414.38146    314.49828    37986.909 
  527100    297.79243   -1421.8676     495.6439    415.03454     580.6698    37986.909 
  527200    304.16771    -1438.453    489.62163    421.14123    34.424023    37986.909 
  527300    304.52331   -1419.8775    516.10604    467.80275    79.294702    37986.909 
  527400    302.24472   -1450.3105    498.15345    409.15439   -303.69087    37986.909 
  527500    297.21011   -1481.9841    493.74251    350.39391   -703.19144    37986.909 
  527600    303.52134   -1429.7121     508.3705    445.71972   -200.07821    37986.909 
  527700    301.29286   -1429.9822    494.29311    421.33516   -489.97888    37986.909 
  527800     292.8785   -1436.6839    500.25224    382.69423   -293.04408    37986.909 
  527900    288.10489   -1452.9055    535.84662    380.56671   -270.60424    37986.909 
  528000    301.67923   -1469.0272     489.4471    379.18433   -369.41518    37986.909 
  528100    290.75826   -1447.1276    501.02649    363.47526    416.11846    37986.909 
  528200    300.92928   -1465.5765    516.77541    406.58556    417.22109    37986.909 
  528300    309.21034   -1473.4051    493.95292    413.23241     240.9563    37986.909 
  528400    282.14679   -1493.5226    480.81185    258.07947    57.010347    37986.909 
  528500    297.58641   -1468.8687    518.13123    389.59289    36.615985    37986.909 
  528600      311.046   -1439.3436    539.66743    501.27621    745.83333    37986.909 
  528700     303.3329   -1451.7401    504.86019    419.33266     502.7393    37986.909 
  528800    307.77345    -1475.167    501.67634    412.72214    774.50663    37986.909 
  528900    299.89383   -1458.0925    507.53972    400.17028    126.87105    37986.909 
  529000    301.33846   -1465.0854    493.66678    385.81101   -107.87666    37986.909 
  529100     305.6096   -1451.1014    496.90305    422.26846    162.62975    37986.909 
  529200    298.75523   -1449.1978    503.23804    399.63497    145.88124    37986.909 
  529300    304.94639    -1460.209    520.21431      433.485    554.18059    37986.909 
  529400    297.30872   -1449.7037     492.6024    381.97842   -475.55612    37986.909 
  529500    298.33466   -1427.5022    480.01066    396.20898    37.378628    37986.909 
  529600    308.81109   -1481.5988    482.94202    392.22959    94.736293    37986.909 
  529700    298.45396    -1462.233    495.50607    377.51088    87.008282    37986.909 
  529800    290.83546    -1476.977    497.52869    330.47577    342.68868    37986.909 
  529900     300.6136   -1472.9896    480.65145    361.62669    213.84858    37986.909 
  530000     300.0955   -1484.8162    490.96941    357.78453     41.64013    37986.909 
  530100    305.32835   -1489.1571    474.73801    360.78104    212.44762    37986.909 
  530200    305.20637   -1513.7282    481.09972     342.0222    152.10568    37986.909 
  530300    288.53836   -1516.5845    491.07395    274.06742    246.88131    37986.909 
  530400    298.79403   -1506.9883    485.82553    324.60667    248.29164    37986.909 
  530500    310.05912   -1485.1886    511.56464    422.88357    88.557689    37986.909 
  530600    303.08952   -1464.2276    502.47994    403.36871     211.1901    37986.909 
  530700     302.7746   -1480.2974    493.36979    376.77043     133.8662    37986.909 
  530800    307.20145   -1497.5458    510.81145     396.9022    544.68669    37986.909 
  530900    299.84319   -1474.2092    498.55242    374.83817    5.8302224    37986.909 
  531000    291.32095   -1483.0068    503.28268    332.38662   -202.74501    37986.909 
  531100    309.82296   -1505.6554    486.66815    376.45661    219.85513    37986.909 
  531200    305.00421   -1500.1461    526.37838    399.97247    356.17461    37986.909 
  531300    291.18635   -1465.7347    500.46652    346.23631     465.1251    37986.909 
  531400    298.73659   -1486.5896    502.20036    361.12158    567.25689    37986.909 
  531500    294.97732   -1505.8989    502.53233    325.21244   -21.306038    37986.909 
  531600    290.65046   -1465.8431    490.83677    334.08456    186.30346    37986.909 
  531700    294.55915   -1517.4615    500.60822    309.84225    1159.8233    37986.909 
  531800    300.62957   -1536.0327    506.03109    324.03514    664.72105    37986.909 
  531900    298.25385   -1524.2275    496.41096    315.51997    687.82063    37986.909 
  532000     304.0864   -1516.6174     516.3822    369.37116    577.22198    37986.909 
  532100    302.44425   -1511.1489     476.8954    327.95665     525.3058    37986.909 
  532200    312.72077    -1505.828    496.47026    399.13785    426.30157    37986.909 
  532300    291.99463   -1494.5923    514.66233    335.21503    473.35859    37986.909 
  532400    300.78284   -1501.0805    473.14597    326.79262    534.78149    37986.909 
  532500    306.57929   -1514.1394    515.05055    381.74547    517.49365    37986.909 
  532600    308.91287   -1506.3493    501.44619    386.44167    74.334936    37986.909 
  532700    304.99393    -1492.723    483.61228    364.58319    55.665655    37986.909 
  532800    297.81792   -1504.2804    469.77152    306.86425   -274.18508    37986.909 
  532900    304.96939   -1480.0825    489.36605    382.86693    -310.6472    37986.909 
  533000    301.38558    -1492.151    473.38221    338.67305   -639.85253    37986.909 
  533100    292.47182   -1509.6829    474.18103    281.79232   -628.35165    37986.909 
  533200    290.35396   -1454.5164    483.72697    336.96595   -449.70525    37986.909 
  533300    292.89943   -1459.6112    478.34135    337.95036   -779.08684    37986.909 
  533400     294.9032   -1492.4854    481.14487    316.90464   -216.54026    37986.909 
  533500     301.3865   -1532.7119    513.84934    338.58342    564.16146    37986.909 
  533600    303.61932   -1509.3909    493.41274     351.5245    264.57239    37986.909 
  533700    304.20019   -1557.8924    488.26575    300.49223    528.48255    37986.909 
  533800    302.37041   -1507.8914    500.31336    354.29946    112.97004    37986.909 
  533900    295.88474    -1480.651    516.03602    368.05103   -393.05384    37986.909 
  534000    300.42026   -1477.0354    525.64079    401.69946    451.09682    37986.909 
  534100    295.40897   -1489.8405    510.10128    350.78399    723.40405    37986.909 
  534200    298.84543   -1520.4498    512.53903    338.09023    968.26192    37986.909 
  534300    306.21546   -1523.5557     513.9066     369.5466    1178.6329    37986.909 
  534400    302.42661    -1541.253    495.49748    316.37513    871.70671    37986.909 
  534500    286.89644    -1494.085    511.60649    309.70413     497.0359    37986.909 
  534600    302.38126    -1464.934     506.1225    403.11489    133.35799    37986.909 
  534700    299.69456   -1432.4679    518.59312    435.95072    18.150571    37986.909 
  534800    297.67547   -1438.0158    526.03912    428.75485   -147.42442    37986.909 
  534900    300.05584    -1485.965    496.74735    362.23508   -223.27911    37986.909 
  535000    289.54622   -1517.0265    499.60773    286.69854   -8.8258338    37986.909 
  535100    295.82765   -1513.7365    504.67124    323.34362   -78.933724    37986.909 
  535200    290.94635   -1467.1334    515.59585    358.88602    168.15475    37986.909 
  535300    291.65712   -1494.5991    479.69629    298.72206   -307.61664    37986.909 
  535400    296.32474   -1506.8079    527.89013    355.73005    535.77647    37986.909 
  535500    294.50536   -1526.6674    473.48188    273.26784    174.20496    37986.909 
  535600    298.50602   -1494.3787    478.78632    328.87988    355.23253    37986.909 
  535700    295.54606   -1528.2127    492.83483    295.76275    8.9064987    37986.909 
  535800    293.51111   -1490.9407    494.56014     325.5947   -198.06062    37986.909 
  535900     308.1536   -1506.3914    526.80339    408.33703    130.85131    37986.909 
  536000     288.6622   -1520.9627    498.97496    278.14797    388.66898    37986.909 
  536100    296.55541   -1527.1251    475.00484    283.56648    374.57217    37986.909 
  536200    305.91826   -1539.9501    493.96065    331.86759   -119.94231    37986.909 
  536300    310.87947   -1535.2081    499.74536    364.73964   -117.49112    37986.909 
  536400    303.19546    -1477.601    520.83761    408.83012     224.1968    37986.909 
  536500    312.24148   -1488.1179    502.53267    420.75166    377.31693    37986.909 
  536600    300.93564   -1482.5417    521.35973    394.23335    -156.5534    37986.909 
  536700    293.69359   -1500.1702    496.03213    318.65898    282.55502    37986.909 
  536800    303.36385   -1492.0026    529.41391    403.76333   -223.43602    37986.909 
  536900    300.36669   -1508.3105    490.52957    335.07182   -136.06216    37986.909 
  537000    291.37628   -1516.1179    493.76411    290.00613    59.017457    37986.909 
  537100    297.58565    -1553.635    508.73245    295.42437   -111.31063    37986.909 
  537200    301.38735   -1544.8085    510.86107    323.50235      5.71061    37986.909 
  537300    313.15258   -1569.2256    504.35664    345.57154   -342.52286    37986.909 
  537400    309.52788    -1529.044    491.00118    356.07199   -380.23777    37986.909 
  537500    294.81501   -1551.8956    497.95552    273.90789   -790.01755    37986.909 
  537600    292.90561   -1563.1388    509.21641    265.32561    -197.6588    37986.909 
  537700    301.03013   -1550.8048    506.06058    311.09674    194.70535    37986.909 
  537800    303.06113   -1539.2171    504.54209    330.31355    -258.5211    37986.909 
  537900    300.81165   -1495.7275    491.71157    350.84093   -129.10619    37986.909 
  538000    308.75745   -1497.3681    510.33393    403.61062    232.70596    37986.909 
  538100    298.87396   -1498.4537    537.83388    385.50971    207.99714    37986.909 
  538200    298.54108   -1489.8199    510.39581    365.20613    704.57005    37986.909 
  538300    311.79738   -1511.8129    506.38357    398.90731   -72.212589    37986.909 
  538400    311.35277   -1567.5901    481.63467    316.37871    40.834954    37986.909 
  538500    293.34985      -1547.3    494.38789    268.33684    596.36329    37986.909 
  538600    296.61632   -1536.8993    509.49601    308.55784    201.79562    37986.909 
  538700    304.58754   -1515.6151    519.35632    375.60473    612.92457    37986.909 
  538800    295.08823   -1515.4007    490.84174    304.51964    387.80732    37986.909 
  538900    297.86732   -1548.5049    510.70515     303.7958    394.69594    37986.909 
  539000    306.33158   -1539.4694    501.78712    342.03639    823.79887    37986.909 
  539100     307.1684   -1524.3187    496.99152    356.16053    283.59853    37986.909 
  539200    304.77038   -1472.1268    497.20783    397.76803   -346.59311    37986.909 
  539300     296.7648   -1521.5057    503.87077    318.99486   -508.98445    37986.909 
  539400    300.62029   -1511.8313     504.0654    346.22913   -241.40406    37986.909 
  539500    294.50986   -1493.9377    500.54703    333.08291   -164.34385    37986.909 
  539600    288.96197    -1548.852    517.55506    270.18896    58.397877    37986.909 
  539700    291.56491   -1532.3014    511.45287    292.36097     84.44658    37986.909 
  539800    298.77042   -1559.4692    487.63262    273.82656    440.30722    37986.909 
  539900    306.21519   -1561.5165    497.66787    315.34579    484.05773    37986.909 
  540000    304.43649    -1530.989    478.40494    318.59913    447.72576    37986.909 
  540100    304.00201   -1499.8253    498.44284    367.84376    520.34651    37986.909 
  540200    303.08614   -1515.3835    467.75608    317.47373   -67.216146    37986.909 
  540300    303.45664   -1554.7905    517.79337    329.77275    430.28884    37986.909 
  540400    294.64763   -1520.9307    494.70045    300.86381    465.39042    37986.909 
  540500    292.36544   -1555.6463    478.45288    239.62169    323.46209    37986.909 
  540600    305.48291   -1525.7864    506.60483    356.71465    595.40466    37986.909 
  540700    306.81553   -1524.9689    512.26798    369.19743    409.41516    37986.909 
  540800     307.6201   -1531.6288    506.96927    360.86263    207.29938    37986.909 
  540900    292.63419   -1542.5429    503.47627    278.95893   -547.52348    37986.909 
  541000    302.73215   -1567.8823    488.55293    284.17743   -211.49279    37986.909 
  541100    309.31562   -1545.3191    479.76608    327.60575   -578.47784    37986.909 
  541200    306.95584   -1569.9363    494.82008    307.41413   -374.39067    37986.909 
  541300    292.72394   -1525.1992    496.96469    290.19526   -82.471448    37986.909 
  541400    301.20594   -1526.5807     494.7582    324.81026    233.17621    37986.909 
  541500    306.44161   -1571.3472    490.32378    299.19078   -16.489536    37986.909 
  541600     300.7265   -1580.0082     463.6868    238.15196   -225.36019    37986.909 
  541700     299.8552   -1576.4133    517.63302    291.76875    -69.12225    37986.909 
  541800    307.16636   -1576.0183    492.52532    299.98557    57.591672    37986.909 
  541900    293.27377   -1590.1076    501.43998    232.23862    22.888508    37986.909 
  542000    296.01649   -1525.4265    493.03038    300.86338    201.13234    37986.909 
  542100    302.59641   -1514.6045    505.73478    354.02576    205.11682    37986.909 
  542200    296.27741   -1550.7625    505.07072     288.7428    915.96012    37986.909 
  542300    288.36576   -1571.2249    504.27144    231.84704    386.03661    37986.909 
  542400    291.81583   -1540.3057     499.1488    273.18275    146.07886    37986.909 
  542500    299.03305   -1508.0774    500.94213    339.71075    177.02425    37986.909 
  542600    295.47224   -1548.4973    513.57667    295.88752    104.86299    37986.909 
  542700    297.57714   -1517.3708    490.84282    313.76066      195.337    37986.909 
  542800    303.17229   -1481.0327    496.89291    381.34938   -363.24057    37986.909 
  542900    302.64004   -1534.4106    494.93672    323.61809   -748.85862    37986.909 
  543000    304.74114   -1525.1265    504.47743    351.90628   -778.76363    37986.909 
  543100    299.63214     -1515.02    509.51992     344.0443   -817.59496    37986.909 
  543200    314.57078   -1484.6503    464.37085     396.5486   -504.26772    37986.909 
  543300    302.80056    -1531.934     496.4656    328.34652   -76.742453    37986.909 
  543400    299.61941   -1534.4843      491.965    306.96775   -173.83392    37986.909 
  543500    292.69126   -1509.8699    514.63506    323.04779   -116.18417    37986.909 
  543600    300.02506   -1530.5323    489.92127    310.70309    44.171612    37986.909 
  543700    292.65644   -1525.8363    506.08935    298.37887    164.56971    37986.909 
  543800     305.5778   -1503.3885    484.48923    357.42435    59.343521    37986.909 
  543900    299.87358   -1528.1167    503.72089    326.23599    558.25093    37986.909 
  544000    309.25069   -1567.1576    474.24805     299.9568    313.78621    37986.909 
  544100    302.51574    -1556.918    494.22665     299.8407   -218.85853    37986.909 
  544200    304.71239   -1532.9072    527.37178    366.89035    153.93224    37986.909 
  544300     296.8225   -1531.9631    500.60832    305.53496   -120.21867    37986.909 
  544400     303.0953   -1517.9924    492.48258    339.63261    301.98009    37986.909 
  544500    292.84736   -1516.9914    513.87966    315.87388   -70.827433    37986.909 
  544600    308.73782   -1533.8697    499.35583    356.04257   -7.6961065    37986.909 
  544700    292.97583   -1486.9955     507.0978    339.66657   -73.069624    37986.909 
  544800    292.21698   -1500.8868    543.53007    358.78971    8.2846343    37986.909 
  544900    297.37569   -1487.5839    472.19663    323.99399   -19.807984    37986.909 
  545000    301.11858   -1509.5878    517.24604    363.89747   -299.20123    37986.909 
  545100     293.9108   -1520.0392    496.63257    300.36881   -399.88489    37986.909 
  545200    300.51471   -1505.9229    524.91697    372.51356   -307.46052    37986.909 
  545300    293.56771   -1479.7852    488.54561    330.99055   -583.10775    37986.909 
  545400    306.74995   -1459.7238    498.62558    420.50484   -489.51566    37986.909 
  545500    302.25499   -1504.7172    491.06351    347.70398   -1078.3432    37986.909 
  545600    295.31379   -1496.5947    511.60281    345.10256   -418.41182    37986.909 
  545700    309.60667   -1508.1983    511.34461    397.61597     -385.803    37986.909 
  545800    295.85215   -1478.6426    498.01685    351.89358   -636.21156    37986.909 
  545900    302.88929   -1480.8373    493.85435    377.23163    264.73462    37986.909 
  546000    301.47048   -1513.6818    493.20093    337.34339   -130.85745    37986.909 
  546100    303.62541   -1458.1495    509.88245    419.26299   -156.69166    37986.909 
  546200    297.31643   -1461.8995     503.3864    380.60124    275.29991    37986.909 
  546300    296.56884   -1501.1583    528.66876    363.25771    144.46563    37986.909 
  546400    298.11677   -1475.1142    528.17533     395.7803    628.93408    37986.909 
  546500    298.73895   -1516.7641    501.21967    329.97703    1146.1548    37986.909 
  546600    309.28013   -1494.7507    490.22747    388.47569    382.38458    37986.909 
  546700    301.85033   -1451.9631    489.64142    397.21342   -448.78541    37986.909 
  546800    292.68634   -1436.5076    494.70179     376.4547   -388.52224    37986.909 
  546900    308.60677   -1502.1217    518.21951    406.06398   -413.30591    37986.909 
  547000    299.37748   -1477.9153    520.74173    391.22381   -78.449627    37986.909 
  547100    302.78906   -1482.1436    469.94542    351.56495   -355.14623    37986.909 
  547200    300.34005   -1500.5071    510.13174    362.35748   -458.63503    37986.909 
  547300    294.48257   -1460.3804    515.14354    381.11388   -385.54066    37986.909 
  547400    302.56593   -1485.2363    515.16162    392.68353   -1136.2162    37986.909 
  547500    293.29972   -1450.6994    509.85987    380.18362   -930.25476    37986.909 
  547600    297.75119    -1456.232    499.36074    384.20126   -711.16663    37986.909 
  547700    304.80657   -1452.1365    491.83246    412.54592   -106.64671    37986.909 
  547800    300.23294   -1495.4475    535.54265    392.34552   -110.22804    37986.909 
  547900    305.90587   -1441.4593     492.5487     428.8907    172.15707    37986.909 
  548000     295.8428   -1454.2249    514.08522     392.3375   -165.19731    37986.909 
  548100    298.64876   -1457.1885    513.55537    401.48213    313.60311    37986.909 
  548200    299.09624   -1495.4037    493.02683    344.75381    173.13303    37986.909 
  548300    306.05613   -1497.7381    515.32239    396.06229   -173.40327    37986.909 
  548400    300.64112   -1481.3522    501.11317     373.8498   -261.61318    37986.909 
  548500    310.32375   -1517.5049    495.67764    375.87213   -308.97676    37986.909 
  548600    305.81784   -1522.1048    486.47107    341.77104   -455.32327    37986.909 
  548700    297.46653    -1464.225    502.81376    378.37918    -457.2865    37986.909 
  548800    305.74847   -1472.8381    500.20712    404.46135   -64.207847    37986.909 
  548900    297.64154    -1490.087     514.1607    364.65239   -4.5357812    37986.909 
  549000    299.21932   -1475.3073    527.45928    399.83702    20.032111    37986.909 
  549100     294.8003   -1526.7971     525.9397    326.92434   -2.8863219    37986.909 
  549200    308.75071   -1510.1066    514.96874    395.47663    114.18182    37986.909 
  549300    298.62039   -1477.1983    496.76665    364.55578   -7.9525578    37986.909 
  549400    288.91468    -1543.916    508.05479    265.41168   -121.31716    37986.909 
  549500    297.78904   -1527.1898    524.95221    339.00537   -19.351627    37986.909 
  549600    299.46485   -1493.7652    498.69465     353.7204    796.61549    37986.909 
  549700     285.3969   -1537.0532    526.29649    274.67213    197.34777    37986.909 
  549800    297.36042     -1517.88    540.98133    362.41385    284.66485    37986.909 
  549900    300.17925   -1519.5603    484.07694    316.52516   -290.19584    37986.909 
  550000    308.68676   -1540.4419    503.12102    353.00548   -140.95386    37986.909 
  550100    308.06515    -1496.326    496.98889    388.18956    960.40494    37986.909 
  550200    308.46618   -1498.8189    484.84823    375.36221    425.70415    37986.909 
  550300    303.94825   -1528.3369    493.85166    334.49888   -53.194943    37986.909 
  550400    289.52392   -1521.9624    510.99743    293.05192   -52.915581    37986.909 
  550500    305.88745   -1565.5304    504.52476    316.71261   -86.098785    37986.909 
  550600    300.85346   -1533.7078    500.60804    321.94546    246.26494    37986.909 
  550700    305.74395   -1549.7626    488.47448    315.78387    161.16807    37986.909 
  550800    308.64591   -1541.9507     508.4349    356.62658   -11.432313    37986.909 
  550900    288.54834   -1518.8116    498.87303    279.68427    96.398829    37986.909 
  551000    308.75797   -1557.3223    500.44142    333.76621   -27.936606    37986.909 
  551100    298.47951   -1527.6341    492.04327    308.76207    180.38807    37986.909 
  551200    298.84999    -1538.288    507.40002    315.13363   -72.692621    37986.909 
  551300     298.2406   -1556.0564    495.30405    282.52452   -51.435049    37986.909 
  551400    295.02695   -1564.9795    482.41417    246.23722    287.70431    37986.909 
  551500    301.18259   -1547.0731    484.54534    293.99985   -260.55054    37986.909 
  551600    312.95612   -1563.2176    504.56337    350.90135   0.64682012    37986.909 
  551700    293.09984    -1514.538    493.98809    299.57289   -557.51576    37986.909 
  551800    303.09746   -1544.1817    505.41077    326.38126   -304.13574    37986.909 
  551900    297.58388   -1577.1946    489.19397     252.3183    87.485329    37986.909 
  552000    300.44996   -1562.4374    479.75069    270.54112   -122.56371    37986.909 
  552100    309.16745    -1498.372    509.82584    403.94522   -335.61307    37986.909 
  552200    304.27502   -1516.9427    506.97093    360.48416    -554.7694    37986.909 
  552300     292.3763   -1499.7539     486.2204    303.33051   -731.33822    37986.909 
  552400    305.06414   -1518.5286    499.67766     355.1592   -126.76906    37986.909 
  552500    299.08788   -1553.0452     494.9991    289.04691   -9.1780887    37986.909 
  552600    293.67874   -1527.0809    522.27069       317.92   -115.56685    37986.909 
  552700    293.65725   -1519.2669    521.14215    324.50863    -183.8281    37986.909 
  552800    301.32783   -1510.8681    513.33194    359.64558   -487.04812    37986.909 
  552900    293.56354   -1528.7721    514.12419    307.56342    114.60499    37986.909 
  553000    294.16226   -1542.3988    541.46755    323.97672    687.86634    37986.909 
  553100    298.97224   -1526.0532    510.64023    331.15922     252.3995    37986.909 
  553200    291.97588   -1528.9366    515.24329    301.36723     248.9736    37986.909 
  553300    298.93661   -1512.1888    526.44776    360.67062    210.94514    37986.909 
  553400    306.37968    -1526.368    490.93659    344.50386    225.43125    37986.909 
  553500    303.80237   -1473.2581    516.19909    411.26806   -308.36971    37986.909 
  553600    304.04326   -1477.3818    549.14455    441.17484     -29.8625    37986.909 
  553700    309.56258   -1495.2007    500.09905    399.16946    184.87251    37986.909 
  553800    295.39114   -1476.0149    508.68581    363.11383     392.7363    37986.909 
  553900    298.07914   -1525.4086    536.18611    353.32711    580.71588    37986.909 
  554000    298.24258    -1536.916    496.47466     302.8444    586.89291    37986.909 
  554100    301.16136   -1541.1966    509.14473    324.38006    422.21163    37986.909 
  554200     296.9042    -1520.021    484.00733    301.24401    252.50476    37986.909 
  554300    303.00758   -1541.0796    504.98807    328.65581    161.67167    37986.909 
  554400    297.17143   -1495.3111    458.32937    301.47957    86.894189    37986.909 
  554500    305.94265   -1525.1573    494.46924    347.27887    535.17031    37986.909 
  554600     293.6374   -1548.9185    497.81315    271.43868   -151.76812    37986.909 
  554700    295.07349   -1513.3052    515.88182    331.58883    40.240972    37986.909 
  554800     307.3528   -1522.4705    512.58088    374.42865   -205.31549    37986.909 
  554900    303.47737   -1559.1278    485.12398    292.85949   -590.87921    37986.909 
  555000      294.111   -1524.2663    485.03028    285.44113   -365.26064    37986.909 
  555100    307.63575   -1502.6131    507.32303    390.30262   -764.34917    37986.909 
  555200    300.89539   -1488.0516    516.41353    383.59595   -240.61343    37986.909 
  555300    298.19009   -1560.4113    472.01838    254.65639   -62.203661    37986.909 
  555400    298.42473   -1514.1402    519.49538    349.46135    432.87523    37986.909 
  555500    296.29344   -1512.2661    548.78842    371.02914   -578.83895    37986.909 
  555600    307.44887   -1483.2044    478.71404    380.26053   -175.95476    37986.909 
  555700    291.82556   -1483.4679    515.77132    346.68693   -703.14456    37986.909 
  555800    293.63664    -1485.989    494.84533    331.39686   -549.27605    37986.909 
  555900    308.30083   -1481.9124    521.77643    428.45221   -437.14719    37986.909 
  556000    292.70181   -1502.1822    509.12786    325.27581    582.43193    37986.909 
  556100    302.99425   -1527.2635    540.45471    377.87853    432.89874    37986.909 
  556200    293.73518    -1501.149    501.89265    323.72809    334.42839    37986.909 
  556300    299.14649   -1461.5122    515.26707    401.11187    1.5855043    37986.909 
  556400    302.01787   -1476.7798    503.34674    386.85669   -519.16581    37986.909 
  556500    298.10258   -1503.7685    491.47455    330.36125   -59.344797    37986.909 
  556600    306.60884   -1467.5669    493.82516    407.22573   -566.24027    37986.909 
  556700     297.9988   -1497.5504    510.11434    354.75168   -227.15507    37986.909 
  556800    306.77323   -1500.8158    500.88596    381.77805    -17.38824    37986.909 
  556900     302.5176   -1481.6589    494.77239    375.65401   -758.65496    37986.909 
  557000    301.36933   -1492.7175    484.36137    349.01255   -913.34495    37986.909 
  557100    297.18808   -1475.3041    506.50007    369.73228   -733.98011    37986.909 
  557200     305.4312   -1478.6348    493.16169    390.19024   -702.58464    37986.909 
  557300    302.17919   -1482.0138    491.30853    370.31104   -573.68171    37986.909 
  557400    303.08733   -1470.4314    499.50644    394.18162   -703.08072    37986.909 
  557500    307.35823   -1446.5629    506.78302    444.56281    92.474181    37986.909 
  557600    294.49451   -1441.1029    524.65196    409.95351 -0.073078509    37986.909 
  557700    305.72331   -1475.6199    489.48313    390.84224    56.500553    37986.909 
  557800    300.28756   -1494.6156    537.16378    395.04454    23.278626    37986.909 
  557900    289.76867   -1483.3322    508.07768    329.86473   -173.22358    37986.909 
  558000    293.06997   -1475.8754    497.89194    342.00483   -262.06226    37986.909 
  558100    302.34519   -1486.3611    517.46825    392.87104   -479.98771    37986.909 
  558200    302.60889   -1480.9332    502.60046    384.61892   -419.51492    37986.909 
  558300    293.48844   -1496.1317    511.45245    337.19384   -743.82534    37986.909 
  558400    308.31101   -1469.6295    518.05283    437.05735   -217.91376    37986.909 
  558500    295.63362   -1474.1652     483.2908     340.6606   -459.81229    37986.909 
  558600    296.67914   -1479.3177    492.31554     349.2419     305.3197    37986.909 
  558700    303.23299   -1489.5188    541.47447    417.71829    440.84928    37986.909 
  558800    291.34209   -1470.8959    501.38785    342.69793    314.96252    37986.909 
  558900    316.86597   -1466.4583     514.7625    475.46984    368.96449    37986.909 
  559000    298.72295   -1480.1535    519.22551    384.52142    187.29424    37986.909 
  559100    303.76827   -1491.0254    490.97052    368.11864   -431.84076    37986.909 
  559200    303.65031    -1480.498    498.11293    385.25712    51.468127    37986.909 
  559300    304.42633   -1496.3582    508.24972    383.02893    5.8282831    37986.909 
  559400    295.27935   -1511.3956    512.53742    331.08116   -24.845812    37986.909 
  559500    302.23253   -1498.1844    533.11576    396.18787    107.11292    37986.909 
  559600    310.35201   -1492.2232    499.01752    404.62105    47.171213    37986.909 
  559700     290.0854   -1545.9347    513.69678    274.30785   -429.23336    37986.909 
  559800    294.65202   -1514.2878    495.52917     308.3552    319.51059    37986.909 
  559900     301.3078   -1541.8486    540.93888    356.18182    588.21356    37986.909 
  560000    301.17761    -1511.237    489.35369     334.6218   -235.09927    37986.909 
  560100    304.15758   -1509.5239    512.85205    373.25507    89.029184    37986.909 
  560200    291.32938   -1507.9984    506.84408    310.99432   -103.94148    37986.909 
  560300    301.02085   -1445.4186    497.49112    407.87165   -181.80751    37986.909 
  560400    307.22078   -1486.5688    509.38882    406.54368   -64.021486    37986.909 
  560500    288.52152   -1445.8916     510.5897    364.20017   -135.24577    37986.909 
  560600    294.90489   -1522.9191    484.53723    289.87093   -505.05547    37986.909 
  560700    308.55033   -1528.3695    501.76187     363.1043   -137.65673    37986.909 
  560800    296.45222    -1480.181    523.48586    378.52682   -607.43065    37986.909 
  560900    293.56892   -1464.4518    500.15571    357.93945   -442.75239    37986.909 
  561000     291.4731   -1479.7145    496.19751    329.27907   -502.35964    37986.909 
  561100     306.9361   -1471.9886     494.5907    405.04349    20.884537    37986.909 
  561200    303.85074   -1455.3823    528.66175    441.82443    113.62988    37986.909 
  561300      305.081   -1482.4479     475.9434    367.58154   -296.51652    37986.909 
  561400    298.02052   -1500.3725    500.02464    341.93776   -94.263752    37986.909 
  561500    302.92146   -1516.4669     479.6445    327.53707   -283.51797    37986.909 
  561600    290.67784   -1488.6287     504.4628    325.04823   -191.74881    37986.909 
  561700    294.90322   -1525.7327    488.34151    290.85404   -693.51933    37986.909 
  561800    295.08792   -1467.2226    489.46829    351.32282   -819.42051    37986.909 
  561900    297.28175   -1510.6648    491.34312    319.63654   -370.35377    37986.909 
  562000    288.37337     -1532.06    513.39645    280.17125   -551.23863    37986.909 
  562100    298.96573   -1544.0926    494.29443    296.74469    296.64497    37986.909 
  562200    289.85931   -1507.5285    498.96387     296.9629   -160.89442    37986.909 
  562300    296.55459   -1526.9736    484.76884    293.47828   -316.89018    37986.909 
  562400     303.3985   -1511.8265    463.65875    318.34028   -660.57634    37986.909 
  562500    298.64931   -1486.9916    522.62969    380.75572   -278.21431    37986.909 
  562600    303.29785   -1529.4575     475.2318    311.82899   -605.37632    37986.909 
  562700    307.96068   -1537.6939    457.00075    306.36297   -129.54801    37986.909 
  562800    311.72879   -1495.9972    511.07239    419.10287   -662.33129    37986.909 
  562900    317.95908   -1508.8376    482.60568    405.85709    49.096018    37986.909 
  563000    305.70066   -1503.1081    527.59233    401.36124      451.687    37986.909 
  563100    302.84023   -1496.8362    464.02233    331.17977    -446.6424    37986.909 
  563200      296.892   -1472.5191    508.75673    373.44034   -173.18765    37986.909 
  563300    302.33943   -1500.9733    488.78372    349.54845   -102.40927    37986.909 
  563400    305.26232   -1524.8706    474.55669    324.58883   -360.89948    37986.909 
  563500    294.77736   -1509.1406    497.68882    316.22663   -389.29146    37986.909 
  563600      307.512   -1528.8102    479.94051    336.16559    76.879824    37986.909 
  563700    306.96618   -1523.6254    483.39073    342.34226    194.16869    37986.909 
  563800    298.26403   -1539.3023     520.8115    324.89154    393.54785    37986.909 
  563900    289.66494   -1561.9285    498.68402    241.40758    712.76113    37986.909 
  564000    291.88565   -1509.0364    516.60901    322.22679    870.71125    37986.909 
  564100    304.06857   -1474.9768    513.25303    407.80233     1029.848    37986.909 
  564200    308.35315   -1510.7154    490.55789    368.66635    182.79434    37986.909 
  564300    305.28506   -1471.7489    490.51286    393.76903     809.3785    37986.909 
  564400     301.8414   -1506.2567    496.84585    350.08398    412.44734    37986.909 
  564500    306.67344   -1473.4918    485.33292    393.09951    -252.4221    37986.909 
  564600    297.91858   -1508.1329    473.52972    307.22323   -571.83407    37986.909 
  564700     295.9734    -1502.339     495.8102    326.53654   -275.32212    37986.909 
  564800     307.9972   -1472.1142    510.92144    426.02782   -573.78123    37986.909 
  564900    300.97244   -1504.7421    498.99134    349.83031   -639.40664    37986.909 
  565000    301.13642   -1479.2207    488.45538    365.55429   -751.83369    37986.909 
  565100      294.945   -1525.9474     487.4032    289.88926   -638.35654    37986.909 
  565200    307.72467   -1533.7066    479.70147    331.98801    -112.4903    37986.909 
  565300    301.44018   -1537.3359    485.15596    305.50777    79.263487    37986.909 
  565400    309.15603   -1506.8988     481.2224    366.76355    51.354147    37986.909 
  565500     299.6558   -1531.8876    506.34782    324.11117    343.05235    37986.909 
  565600    290.22614   -1519.3742    500.45263    288.25811    343.79035    37986.909 
  565700    291.29137   -1486.5881    480.03084    305.42022    178.47562    37986.909 
  565800    303.86987   -1476.4242     454.0612    346.26809    122.80949    37986.909 
  565900    303.09464   -1517.7168    488.38837    335.81103    67.480419    37986.909 
  566000    299.22989   -1488.3036    483.46522    342.89421   -179.54179    37986.909 
  566100    297.61159   -1530.4432    493.08616    303.08674   -13.641177    37986.909 
  566200    300.72417   -1501.5722    502.99964     355.8903   -442.73312    37986.909 
  566300    300.53016   -1468.1027    503.01432    388.50063   -197.12192    37986.909 
  566400    297.76524   -1500.6213    455.88717    296.40172   -423.23949    37986.909 
  566500    301.69571   -1526.7878    503.89822    335.94909   -688.93736    37986.909 
  566600    297.67412   -1522.9134    490.42192    308.23394   -679.84127    37986.909 
  566700    293.50684    -1510.112    489.94559    301.78958   -384.66386    37986.909 
  566800    292.00827   -1492.1364     485.1352    308.20524    -293.6186    37986.909 
  566900    317.12147   -1457.9309    511.90934    482.29478   -220.82522    37986.909 
  567000     299.1952   -1487.5723    485.25466    345.25873    -902.3103    37986.909 
  567100    297.50463   -1459.3564    513.60801     394.2136   -341.59306    37986.909 
  567200    300.37817   -1494.9529    489.10691    347.05846   -752.23451    37986.909 
  567300    295.69855   -1474.9728    476.59743    333.45207   -311.46672    37986.909 
  567400    304.04398   -1520.8983     478.2822    326.79921  -0.82078434    37986.909 
  567500    306.83075   -1513.2374    494.33795    363.06746   -530.33036    37986.909 
  567600     294.7671   -1495.0154    486.65403    319.27083   -388.82061    37986.909 
  567700    294.99667    -1493.273    483.90638    319.29956   -424.16936    37986.909 
  567800    300.43293   -1511.9214    482.74918     323.9789    152.68753    37986.909 
  567900    305.02492   -1484.6312    507.10603    396.30831    130.43525    37986.909 
  568000    298.41548   -1463.4625     517.2796    397.88165   -34.174735    37986.909 
  568100    293.85841   -1506.0909    476.88673    294.33531   -801.92151    37986.909 
  568200    308.08534   -1490.6227     494.6512    391.64605    105.14433    37986.909 
  568300     299.3556   -1496.5331    465.32555    317.09122   -465.63736    37986.909 
  568400    294.54652   -1499.8639    504.54573    331.32047   -371.70597    37986.909 
  568500     307.3379   -1458.3584    504.59344     430.4862   -376.77034    37986.909 
  568600    294.09356   -1443.3762    500.37147    381.59386    -237.5228    37986.909 
  568700      300.434   -1467.6168    506.32335    391.86243   -74.122406    37986.909 
  568800    307.85191   -1470.4937     505.4655    421.53806    108.08162    37986.909 
  568900    304.55512   -1455.9487    504.62181    420.39061   -704.55026    37986.909 
  569000    289.97215   -1452.9048    510.95532    364.08628   -237.78125    37986.909 
  569100    294.75607   -1441.8384    508.69502    394.43911   -576.60438    37986.909 
  569200    296.24055   -1447.1229     516.7262    403.87197   -713.88424    37986.909 
  569300      309.807   -1483.1994    497.95842    410.13097     67.64347    37986.909 
  569400    301.88487   -1457.1838    512.78959    415.29651    276.99175    37986.909 
  569500    302.66992   -1495.7959    506.83919    374.26984    436.77321    37986.909 
  569600    296.00365    -1513.361    524.67273    344.51333   -159.37264    37986.909 
  569700    301.14338   -1487.5691    500.58813    369.37002   -82.991881    37986.909 
  569800    299.32092   -1462.6637     515.0915    400.57041   -1003.8866    37986.909 
  569900    302.53488   -1470.7401    497.05738    388.93556    -345.2514    37986.909 
  570000    297.31866   -1495.6815    485.87497    329.31788   -608.91031    37986.909 
  570100    290.72988   -1488.2183    516.37205     337.6023    277.83638    37986.909 
  570200    297.40563   -1529.9455    477.68181    287.25248      570.109    37986.909 
  570300    291.97734   -1493.8322    510.81476    332.04964    159.67036    37986.909 
  570400    302.04064   -1438.5352    498.73701    420.59404    206.62956    37986.909 
  570500    309.95969   -1460.2299    506.08161    441.91138    45.376561    37986.909 
  570600    295.71586   -1436.1068    510.10288    405.90152   -336.91186    37986.909 
  570700    297.72546   -1467.5247    491.81824    365.25022    264.35416    37986.909 
  570800    294.06713   -1488.7567    531.74091    367.46379    112.56293    37986.909 
  570900     305.6648   -1445.3234    517.49167    448.88375    462.38361    37986.909 
  571000    300.61863    -1446.777    501.22947    408.44004    111.18342    37986.909 
  571100    304.81677   -1438.4437    528.32181    462.77405   -594.01068    37986.909 
  571200    304.21466   -1463.0825    513.35094    420.45253   -308.59483    37986.909 
  571300    303.26163   -1500.5942    499.93367    365.23106   -552.60871    37986.909 
  571400    293.65841   -1480.6817    523.51323    365.47019   -663.63248    37986.909 
  571500    308.35529   -1518.2758    519.93407    390.49167   -108.66112    37986.909 
  571600    310.81885   -1493.7922    493.22212    399.35928   -123.01603    37986.909 
  571700     303.4441   -1494.9279    516.24238    388.02787   -222.08384    37986.909 
  571800    292.61292   -1487.3568    500.29967    330.87267   -480.40342    37986.909 
  571900    296.67445   -1516.5463    531.29101    350.96766   -764.32533    37986.909 
  572000    307.39117   -1451.0361    490.87131    424.32632   -197.84989    37986.909 
  572100     299.0167   -1489.1753    510.74545    368.34253    -678.9342    37986.909 
  572200    300.80279   -1511.8637    498.28641    341.23974   -548.47145    37986.909 
  572300    296.59433   -1538.2218    507.17115    304.81135   -662.99644    37986.909 
  572400    292.61443   -1546.6762    492.27885     263.5392   -167.22064    37986.909 
  572500    293.83551    -1490.537    510.85946    343.75875   -500.17301    37986.909 
  572600    298.67998   -1519.7502    488.43254    313.93821   -405.22888    37986.909 
  572700    308.13411   -1480.6796    503.15306     410.3107   -353.20428    37986.909 
  572800    302.25409   -1554.1589     501.1312     308.3259   -6.2673704    37986.909 
  572900     299.2957   -1531.6597    491.22505    307.59434    130.91984    37986.909 
  573000    308.67131   -1537.5521    490.75337    343.45809    690.58934    37986.909 
  573100    296.35367   -1516.9205    522.34027    340.19792    527.13684    37986.909 
  573200    298.34164   -1509.9421    500.31115    334.10098    723.08392    37986.909 
  573300    297.03067   -1538.4707    538.28611    337.64269    910.65174    37986.909 
  573400    315.86517   -1544.2958    497.70819    376.07043    821.29831    37986.909 
  573500    284.58785   -1525.8464    516.06232    272.00071    318.97837    37986.909 
  573600    305.53278   -1521.3488     499.6267    354.39874   -385.99647    37986.909 
  573700    299.56198   -1515.9161    488.08945    321.40175   -350.90784    37986.909 
  573800    298.10578   -1525.8476    504.48005    321.30204    -220.2712    37986.909 
  573900    291.07666    -1486.125    517.12223    342.00767   -329.49569    37986.909 
  574000     309.7376   -1525.2209    498.60852    368.44698    -94.87542    37986.909 
  574100    297.66488   -1572.7676    529.19222    297.10847   -470.30314    37986.909 
  574200    299.65838   -1521.5529    503.70528    331.81488   -160.46043    37986.909 
  574300    310.85193   -1538.5541    513.79059    375.31487   -307.86482    37986.909 
  574400    302.47162   -1542.7296    496.60941    316.21324   -64.877397    37986.909 
  574500    300.12751   -1510.5077    499.99658    341.26436   -313.54131    37986.909 
  574600    304.27579    -1492.539    505.52596    383.44628   -279.74905    37986.909 
  574700    292.52862   -1500.8657    480.71561    297.40002    326.29722    37986.909 
  574800    297.17402   -1493.2198    525.17322    370.42638    171.95783    37986.909 
  574900      303.143   -1525.6916    508.28169    347.94733    549.60224    37986.909 
  575000    292.02713   -1448.3206    506.95445    373.92523    675.33703    37986.909 
  575100    305.59207   -1489.3064    521.92145     409.0029    262.47686    37986.909 
  575200    308.95964   -1506.1056    490.98564    376.43553    195.14168    37986.909 
  575300    301.54364   -1518.5091     512.2296    351.87423    558.85127    37986.909 
  575400    302.79564   -1508.7568     499.0354    354.07137    323.73902    37986.909 
  575500     294.0447   -1500.8004    516.14797    339.72607    390.25519    37986.909 
  575600    297.44977   -1525.0183    511.34005    326.03666   -2.0239364    37986.909 
  575700    298.21364   -1500.1902    510.22684    353.19201    529.85877    37986.909 
  575800      303.766   -1481.1129    503.36178     390.4122    315.17898    37986.909 
  575900    305.89099   -1491.2831        525.3    411.75114    241.13489    37986.909 
  576000     304.5013   -1472.1249    514.97722    414.32737   -151.53309    37986.909 
  576100     302.0631   -1492.9833    512.14422    379.65438   -62.227678    37986.909 
  576200    297.36206   -1492.4478    487.56204    334.43413    369.98648    37986.909 
  576300    299.41592   -1507.9178    519.56169     360.2144    225.24116    37986.909 
  576400    307.72764   -1499.8046    509.32798    395.52985     47.66021    37986.909 
  576500     298.1525    -1530.675    511.62029    323.82535   -296.37428    37986.909 
  576600    300.16261    -1498.441    480.09766    333.59021    30.981016    37986.909 
  576700    305.99708   -1523.2744    483.78123    338.71893    319.76845    37986.909 
  576800    300.53279   -1558.8839    508.96809    303.68504    -77.09366    37986.909 
  576900    296.67643     -1550.39    503.03773    288.87953    60.178391    37986.909 
  577000    301.65553   -1513.1594     501.0982    346.59653    69.321293    37986.909 
  577100    299.01958   -1526.8622    507.57515    327.49828   -181.29681    37986.909 
  577200    291.58616   -1522.6546    469.78724    260.43784   -287.17038    37986.909 
  577300    293.13518   -1495.5373    512.79302     337.5377   -334.27187    37986.909 
  577400    305.81516   -1479.8264    508.87707    406.44338   -110.48944    37986.909 
  577500    292.28092   -1469.1412    500.16257    347.45574   -93.210976    37986.909 
  577600    293.62749   -1514.3292    493.43663    301.60681   -255.43518    37986.909 
  577700    298.15081   -1501.9787    522.74872    363.64244    57.992138    37986.909 
  577800    305.28059   -1494.4569    530.34495    410.87306    24.848527    37986.909 
  577900    296.67874   -1496.6863    506.30879    345.86477     192.2835    37986.909 
  578000     299.9732   -1477.3377    516.42075    390.16359    227.10281    37986.909 
  578100    298.90719   -1522.5896    502.37283    326.06238   -400.05537    37986.909 
  578200    298.14879   -1554.9418    485.47064    273.39216    55.001838    37986.909 
  578300    296.78895   -1545.2431    505.63259    297.12812    223.09188    37986.909 
  578400    298.89431   -1520.7228    494.02663    319.52502    235.26919    37986.909 
  578500     297.8114   -1535.3417     521.6674    327.66946     266.3691    37986.909 
  578600    299.18459   -1491.7228    505.46626    361.27208    269.95391    37986.909 
  578700    305.29075   -1488.0254    503.44148    390.44684    1133.2437    37986.909 
  578800    305.92103   -1515.9314    513.53469    375.47282    643.62858    37986.909 
  578900    296.27624   -1523.5354    474.83788    285.73182    256.36447    37986.909 
  579000    298.68703   -1545.0406    489.28774    289.53475   -406.65162    37986.909 
  579100    288.05859   -1545.2372    484.78234    236.96213   -232.94075    37986.909 
  579200    302.66918    -1529.674    488.80338    322.35258   -206.31551    37986.909 
  579300    289.28608   -1535.9509     509.9198    276.91455   -319.36019    37986.909 
  579400     301.4898   -1489.0031    500.78995    369.69806   -437.24804    37986.909 
  579500    303.28306    -1512.897    504.76928     357.8604   -118.26411    37986.909 
  579600    304.80517   -1504.6864    482.31133    350.46861    -922.0044    37986.909 
  579700    288.95648   -1476.7227    515.75652     340.4949   -24.647393    37986.909 
  579800    296.70882   -1468.1391    524.96713    393.20578   -65.696601    37986.909 
  579900    291.43212   -1495.1449    509.88087    327.34737   -108.54537    37986.909 
  580000    294.66009   -1488.1431    530.47629    369.48346    423.83128    37986.909 
  580100     307.6761   -1500.0829    513.07032    398.76185    477.02615    37986.909 
  580200    297.61977   -1476.4013    513.92585    378.00524    198.72546    37986.909 
  580300    296.83575   -1474.5978    497.70628    360.05782   -26.578369    37986.909 
  580400    299.31118   -1500.5369    481.51123    329.07302   -418.91625    37986.909 
  580500    307.94405   -1524.4918    472.37545    334.86494   -336.11311    37986.909 
  580600    297.34901   -1493.4578     508.9126    354.71594   -476.97269    37986.909 
  580700     298.3343   -1497.6188    484.11255    330.19266   -796.82531    37986.909 
  580800    300.21434    -1494.093    493.11475    351.18831   -653.47506    37986.909 
  580900    314.60264    -1459.275    500.02957    457.72612   -353.70734    37986.909 
  581000    299.13807    -1501.997    511.42114    356.74323   -499.75309    37986.909 
  581100     305.5339   -1500.2541    514.92266    390.79448   -32.847541    37986.909 
  581200    288.25866   -1471.3953    529.68995    356.61285   -173.05412    37986.909 
  581300    302.26295   -1465.6345     544.6137    440.37277   -40.540822    37986.909 
  581400     303.1741    -1502.281    502.08779    365.30416     296.1394    37986.909 
  581500    300.02682   -1510.4697    506.90693    347.75924    -303.6167    37986.909 
  581600    295.31915   -1504.2316    498.17882    324.06591    41.653579    37986.909 
  581700    300.41637    -1480.543    484.72357    357.25709    107.18237    37986.909 
  581800    307.30394   -1488.5639    490.25007    385.78432   -167.67532    37986.909 
  581900    293.18846   -1433.6418    521.02633    407.90655   -315.37561    37986.909 
  582000    291.94271   -1462.1877    484.41227    337.13566   -616.96326    37986.909 
  582100    299.57878   -1493.6359    482.79767    338.46582    25.682043    37986.909 
  582200    297.07958   -1504.3307    478.19472     311.9116    181.38452    37986.909 
  582300    295.25717   -1520.2949      520.036    329.58056    384.64156    37986.909 
  582400    301.38533   -1502.7142    464.03382    318.76029     493.4321    37986.909 
  582500    292.33916   -1519.3378    501.27415    298.63307   -183.03775    37986.909 
  582600    286.38101   -1498.4142     486.7949    278.24194    752.87295    37986.909 
  582700    307.67742   -1503.5334    501.28531    383.53219    375.46668    37986.909 
  582800    290.33568   -1505.7062    494.55534    296.52224    124.64689    37986.909 
  582900    286.72248   -1518.4814    509.13175    282.04956    638.58455    37986.909 
  583000    298.49734   -1506.1952    476.60759    314.84556   -74.859417    37986.909 
  583100    309.08701   -1491.0467    517.79543    418.87785    496.63173    37986.909 
  583200    289.06967   -1550.8393    484.10618     235.2378    314.47026    37986.909 
  583300    303.61039   -1533.0362    503.01707    337.44325    217.61112    37986.909 
  583400    294.13303   -1517.3007     496.8519    304.32756    1123.8309    37986.909 
  583500    295.23282   -1527.8291    507.10841    309.00914    469.61613    37986.909 
  583600    313.85915   -1552.5004    496.54735     357.6698    1050.4966    37986.909 
  583700    305.44284   -1514.9775    493.00701    353.74531    418.90046    37986.909 
  583800    304.84011   -1534.9764    487.96121    325.98583   -70.070087    37986.909 
  583900    301.21842    -1529.948    496.84223    323.58322    472.16567    37986.909 
  584000    301.35059   -1549.9324    499.91087    307.26267   -70.758015    37986.909 
  584100    294.82655   -1527.6058    502.03684    302.33103   -138.44712    37986.909 
  584200    298.90513    -1486.751    514.38077    373.89973   -588.02082    37986.909 
  584300    298.68326   -1447.2532    499.36361      397.381    123.31391    37986.909 
  584400    301.14745   -1421.9726    513.74451    448.14124   -298.81231    37986.909 
  584500     297.7626   -1448.1762    480.30188    373.24957    319.25836    37986.909 
  584600    305.60769   -1486.4357    508.97305     398.9956    805.63235    37986.909 
  584700    300.89734   -1468.6334    494.51186    381.12126    618.50233    37986.909 
  584800    299.61714   -1488.3634     502.1689    363.28229      873.671    37986.909 
  584900    294.19272   -1510.0414    493.56638    308.57021    1093.6345    37986.909 
  585000    307.27358   -1509.6607    498.83883    373.13952    799.85653    37986.909 
  585100    304.14995   -1438.3295    495.89872    427.46178    236.26648    37986.909 
  585200    305.69787   -1468.7902    492.89531    400.96955    440.96598    37986.909 
  585300    298.36952   -1464.0868    512.29399    392.06468     302.3801    37986.909 
  585400    296.04155   -1452.4326    474.24412    355.18389     357.0062    37986.909 
  585500    293.38476   -1451.9419    517.31071    386.77498   -643.19011    37986.909 
  585600      310.712   -1452.8168    455.43325    402.06452   -883.72916    37986.909 
  585700    297.64347   -1455.4628    498.28641    383.41102   -452.54118    37986.909 
  585800    310.80386   -1510.6465    488.61945    377.83476   -144.22193    37986.909 
  585900    302.74898   -1501.2933    501.41359    363.70292    758.02717    37986.909 
  586000    296.25856   -1492.6491    525.06641    366.76705   -429.33349    37986.909 
  586100    305.16891   -1483.9696    476.23136     366.7438    48.174437    37986.909 
  586200    303.08464   -1454.8577    517.40844    427.64515    255.49603    37986.909 
  586300    295.64502   -1432.9582     484.7615    383.38961    123.03743    37986.909 
  586400    300.95946   -1477.8707    503.77437    381.42626   -444.54202    37986.909 
  586500    295.37082   -1460.4759    508.89662    378.77203     113.2226    37986.909 
  586600    305.88754   -1476.5758    483.34201    384.48491    437.42961    37986.909 
  586700    300.89337    -1467.539    509.26557     396.9515    74.534341    37986.909 
  586800    305.54725   -1460.6882    509.27741    424.77525   -159.18683    37986.909 
  586900    291.95642   -1484.6407    486.86324    317.19541   -849.43313    37986.909 
  587000    306.59378   -1466.8632    499.04075    413.07719   -181.53765    37986.909 
  587100     294.0344   -1505.4534    470.66808    289.54674    245.48528    37986.909 
  587200    288.81823   -1514.9421    516.89916    302.79548   -288.01641    37986.909 
  587300    291.98734   -1472.8431    495.08355    337.35257   -241.41977    37986.909 
  587400    292.33951   -1477.6576    496.08308    335.12383    371.69677    37986.909 
  587500    303.22307   -1502.1675    507.58042     371.1308    28.088388    37986.909 
  587600    297.32585   -1433.4093    507.31918    413.06672    202.36742    37986.909 
  587700    293.70995   -1455.2398    485.21301    352.84401    150.25073    37986.909 
  587800    303.74797   -1473.4451    497.78208    392.41899  -0.70675241    37986.909 
  587900    306.36485   -1454.7334    495.40658    420.54165    109.17277    37986.909 
  588000    302.78142   -1447.7235    516.47359    432.47883    365.22113    37986.909 
  588100     307.7331   -1483.1372    488.15641    391.05029    136.01992    37986.909 
  588200    308.57648   -1478.0664    468.35487    380.11815    294.28605    37986.909 
  588300    297.60613   -1445.1527    501.08944    396.35595    324.52016    37986.909 
  588400    294.74699    -1450.034    476.62199    354.12962   -101.08449    37986.909 
  588500    293.01818   -1475.1467    484.72485    329.33313    -486.9449    37986.909 
  588600    299.31002    -1486.714    505.16847    366.54802   -752.78037    37986.909 
  588700    296.02749    -1498.498    498.18871    332.99965   -508.69452    37986.909 
  588800    289.17265   -1493.8266    500.88281    309.49094   -56.575325    37986.909 
  588900    286.35563   -1497.4366    469.93437     262.2447   -347.99516    37986.909 
  589000    288.34575   -1558.2138    482.66002    223.15659      190.313    37986.909 
  589100    293.03923   -1534.8179    474.00834    259.04027   -21.426754    37986.909 
  589200    305.43726   -1531.1245    518.30979    362.87596    744.47954    37986.909 
  589300     290.5016   -1495.6376    501.45417    314.23698    298.45466    37986.909 
  589400    299.15507   -1545.7478    529.75697    331.40476   -183.83324    37986.909 
  589500    300.92263   -1498.7486    475.21579    331.82391   -4.3418252    37986.909 
  589600     301.0743   -1487.9436    520.94009    389.03638   -507.66133    37986.909 
  589700     309.1541   -1507.1605    484.07092    369.34178   -409.86407    37986.909 
  589800    294.77442   -1498.6135    478.61925    307.67088   -626.58966    37986.909 
  589900    310.04997   -1475.6813    509.45295    430.23791   -155.92046    37986.909 
  590000    291.42339    -1512.667    496.66857    296.57366    87.901849    37986.909 
  590100    311.06153   -1510.4178    505.11599    395.72053    246.64256    37986.909 
  590200    295.24376   -1458.2731    504.60843    376.11446    135.40695    37986.909 
  590300    305.09797   -1458.1179    509.01319    425.05774    768.17306    37986.909 
  590400    295.61881   -1451.4631    530.96824     410.9734     164.1442    37986.909 
  590500    300.59702   -1454.9121    505.15022     404.1283    308.16713    37986.909 
  590600    304.05345   -1464.2158    514.59338     419.8355    73.845482    37986.909 
  590700    311.84793   -1471.5187    498.08478    431.13036    244.77516    37986.909 
  590800    297.08956   -1431.0057    492.54295    399.62985    -215.7495    37986.909 
  590900    300.22977   -1477.9467    484.56301    358.85239   -160.98898    37986.909 
  591000    299.54287   -1425.9535    508.09006     431.2788   -558.78405    37986.909 
  591100    303.19446   -1463.3162    522.08683    424.35966   -760.90809    37986.909 
  591200    319.59806   -1428.0209    529.21308    540.66316    95.586239    37986.909 
  591300    296.89093   -1454.6695    512.21098    394.73945    -92.43971    37986.909 
  591400    303.55393   -1437.4924    494.77364    424.48935    168.82249    37986.909 
  591500    296.99692    -1393.814    544.08639    487.94772     342.0815    37986.909 
  591600    303.62682   -1439.0721    555.15406    483.61843    568.64089    37986.909 
  591700    294.21356   -1447.1325    470.08158     348.0881    260.47485    37986.909 
  591800    301.80475   -1457.7204     520.2821    421.89152    167.11586    37986.909 
  591900    292.91869   -1442.7658    511.82449    388.36564   -505.12197    37986.909 
  592000    294.62289   -1402.6392    516.42726    440.77074    483.22462    37986.909 
  592100    301.54345   -1435.5886    512.18067    434.74503    489.04294    37986.909 
  592200    301.65176   -1438.7533    520.83727    440.72474    1095.3854    37986.909 
  592300     299.4445   -1472.9648    507.75774    383.49214    487.02164    37986.909 
  592400    304.00001   -1494.8194     518.3847     392.7826    87.555882    37986.909 
  592500    297.94775    -1483.002     507.1229    366.07878    466.21081    37986.909 
  592600    301.35917   -1475.2392    520.32615    402.40986    524.77752    37986.909 
  592700    296.08875   -1506.9629    527.16107    353.78305    692.31284    37986.909 
  592800    303.16074   -1524.9223    524.47953    364.99444    268.57455    37986.909 
  592900    299.14824   -1458.6197    497.08823    385.83343    -128.2188    37986.909 
  593000    294.84927   -1461.3104     514.4197    381.11154   -724.34023    37986.909 
  593100    296.07649   -1421.6348    490.02799    401.92287   -719.93412    37986.909 
  593200    294.94107   -1449.0572    517.28838    396.64696   -407.06274    37986.909 
  593300    309.60239   -1511.2184    494.72612    377.95808   -95.730198    37986.909 
  593400    297.97311   -1475.2477    504.34055    371.16493    395.56297    37986.909 
  593500    305.43431   -1507.4582    502.24796    370.46712     51.97463    37986.909 
  593600    293.43022    -1517.901    505.20713    308.91696    -57.82818    37986.909 
  593700    307.07197   -1478.7905    471.81766    376.08057   -440.98203    37986.909 
  593800    295.57813   -1499.8912    512.26142    343.65534   -543.31864    37986.909 
  593900    306.20302   -1423.6031    520.68588    476.22242   -60.525158    37986.909 
  594000    304.20405   -1470.3748    503.10011    402.86157   -17.155979    37986.909 
  594100    306.33173   -1450.4505    503.79172    433.06057   -458.26458    37986.909 
  594200    297.09132   -1466.8559    490.28276    361.52733    -335.6433    37986.909 
  594300    299.20159   -1443.8837    505.35579    409.07726   -599.96117    37986.909 
  594400    304.13804   -1465.3922    480.35449    384.80126   -481.26919    37986.909 
  594500    301.63603   -1504.7486    500.86657    354.68783    -950.2935    37986.909 
  594600    300.12513   -1456.7828    527.17104    422.15304   -113.69058    37986.909 
  594700    299.53809    -1475.787    486.96246    360.29624     354.2026    37986.909 
  594800    297.48468   -1460.3012    502.69661    382.26758   -123.17108    37986.909 
  594900     294.3651   -1491.2076    508.71544    343.32946    205.63651    37986.909 
  595000    302.89609    -1447.622    515.64082    432.26399    300.57529    37986.909 
  595100    309.95128   -1434.9247     532.1046    493.20164    160.22547    37986.909 
  595200    294.80486   -1466.4919    502.39093    363.70128    414.78898    37986.909 
  595300    294.16311   -1457.6888    523.58671     390.8097    338.79229    37986.909 
  595400     293.5196   -1457.5498    508.13023    372.59384    808.49411    37986.909 
  595500    293.73007   -1479.2838    512.58531     356.2629    206.16271    37986.909 
  595600    298.33891   -1460.4718    501.30898    384.55685    990.66731    37986.909 
  595700    296.30056   -1463.5482    500.63277    371.62344    304.87661    37986.909 
  595800    297.85442    -1485.982     492.1822    347.73772    21.314283    37986.909 
  595900    307.07195   -1470.1607    503.04549    415.93805    -118.3114    37986.909 
  596000     297.5233   -1507.1488    484.49559    317.39288   -494.75397    37986.909 
  596100    295.70135   -1513.2075    472.60318     291.2357   -121.45663    37986.909 
  596200    296.49598   -1508.1916    479.45524    306.68273   -192.13274    37986.909 
  596300    301.41614   -1477.8662    488.95772    368.67104    298.94946    37986.909 
  596400    308.96961   -1512.0368     473.7182    353.28175    445.51757    37986.909 
  596500    299.56378    -1483.742    499.17597    364.67037     200.8021    37986.909 
  596600    296.64109   -1527.7861    489.26876    297.55533    526.04189    37986.909 
  596700    291.13885   -1533.6789    500.36588    277.97753    47.600789    37986.909 
  596800    300.75368   -1482.1988    500.93761    373.33457    290.95635    37986.909 
  596900    305.50749   -1531.8994    487.79666    331.90424    114.03081    37986.909 
  597000    298.22568   -1563.3753    477.36426    257.19857   -404.10721    37986.909 
  597100     296.4914   -1503.9446    451.86208    283.31595    34.215465    37986.909 
  597200    311.06612   -1529.5099    568.76847    440.30166    189.81063    37986.909 
  597300    300.93762   -1478.2585    510.66556    387.83132   -257.96482    37986.909 
  597400    293.31656   -1488.4378    501.59186    334.25301   -308.69277    37986.909 
  597500     303.1949   -1486.2878    513.68755    392.99077   -318.99346    37986.909 
  597600    298.74462   -1473.6948    463.59777    335.44993    -500.8796    37986.909 
  597700    297.96497   -1498.9955    513.60647    356.64643   -556.09116    37986.909 
  597800    291.15243   -1471.0454    497.52334    337.82963    -511.3476    37986.909 
  597900    310.05368   -1499.1752    489.20178    386.50957   -692.06532    37986.909 
  598000    302.40942   -1474.7461    506.11605    393.42322   -353.65933    37986.909 
  598100    310.29887   -1513.7074    486.12844    370.00836   -12.101185    37986.909 
  598200    297.16193   -1533.4043    486.44442    291.45862    -320.9792    37986.909 
  598300    300.12759   -1533.0871    492.80157    311.49028   -243.96985    37986.909 
  598400    302.72475   -1511.1567    504.80869    357.12552   -670.51968    37986.909 
  598500    301.11634   -1497.3391    495.52118     354.4113   -805.60677    37986.909 
  598600    302.36232   -1507.8591     494.2271    348.20914   -222.92364    37986.909 
  598700    299.47522   -1454.6525    508.18856    402.37366    153.21041    37986.909 
  598800    305.32607   -1457.4783    504.36424    422.07581   -357.64895    37986.909 
  598900    292.27297   -1474.1737    523.49316    365.71806   -482.81808    37986.909 
  599000    305.97228   -1477.4034    508.23278    408.92975    564.15418    37986.909 
  599100     293.7565   -1502.6846     477.9892    298.38506   -172.45338    37986.909 
  599200    295.74365   -1479.3187    516.22382    368.93571    210.87126    37986.909 
  599300    308.63493   -1464.3553    490.37353    416.11118    569.74333    37986.909 
  599400    294.86749   -1489.7755    487.91098     326.2198    139.68667    37986.909 
  599500    308.52157    -1448.871    490.47334    431.18471    9.0413645    37986.909 
  599600    309.42551   -1451.1542    519.08094    461.58052     24.40749    37986.909 
  599700    291.42943   -1420.1676    504.11256    396.54434    28.384458    37986.909 
  599800    296.70694    -1416.309    484.52239    404.58263   -505.02597    37986.909 
  599900    297.09505   -1459.9678    510.67451    388.82396    38.545349    37986.909 
  600000    297.21217   -1470.8565    520.05529     387.8436    147.26817    37986.909 
  600100    315.48103   -1485.1868    515.15891    450.89998   -97.850125    37986.909 
  600200     293.9478   -1463.9588    471.97576    331.95899    463.05774    37986.909 
  600300    291.52076   -1510.8302    516.89627    319.07677    235.98177    37986.909 
  600400    300.46624    -1491.837    504.93057    366.39476    12.277117    37986.909 
  600500    289.97712   -1484.1068    478.51719    300.46847    132.08976    37986.909 
  600600    294.38297   -1446.8691     507.3489    386.38183   -384.78733    37986.909 
  600700    293.35603    -1527.682     482.5416    276.13635    98.704862    37986.909 
  600800    291.08144   -1543.4484    505.32451    272.90805    -478.9637    37986.909 
  600900    292.37163   -1539.9916    499.41716    276.26859    59.542754    37986.909 
  601000    297.51011   -1560.0807    499.42717    279.33321    402.32339    37986.909 
  601100    295.12563   -1518.8366    524.96385     335.3743    698.85861    37986.909 
  601200    298.48935   -1554.2672    479.90376    270.03378   -265.31733    37986.909 
  601300    301.27458   -1494.4898    516.65045    379.10252   -117.10734    37986.909 
  601400    302.52684   -1552.7185    491.84439    301.70795    126.36557    37986.909 
  601500    298.17935   -1570.8918    499.71076    271.81991    391.51991    37986.909 
  601600    286.83256   -1564.3349    496.02711    223.58719    411.80369    37986.909 
  601700    290.54176   -1517.3612    508.68334    299.92335    175.93094    37986.909 
  601800    298.37656   -1534.6917    479.89469    289.09222   -532.28113    37986.909 
  601900    298.71493   -1443.6182    515.87854    417.67355   -318.72307    37986.909 
  602000    297.78113   -1481.0466    487.01914    347.17991    75.372197    37986.909 
  602100    305.98495   -1498.3767    498.29839    378.07909     -202.051    37986.909 
  602200    291.84665   -1478.7141    505.53519    341.29954    321.34892    37986.909 
  602300    309.30327   -1518.8543    522.05705    396.30594    123.42432    37986.909 
  602400    303.24277   -1482.9634    485.73037    368.57366    529.11069    37986.909 
  602500    309.75394   -1518.2765    519.49215    396.34867   -326.14717    37986.909 
  602600     300.5393   -1492.8644    506.44678    367.21265   -410.91529    37986.909 
  602700    301.16546   -1454.5756    465.85649    367.73137   -320.63428    37986.909 
  602800    290.40044   -1491.6763    511.84899     328.1374   -981.61698    37986.909 
  602900    303.58679   -1509.3695    507.16256    365.14916     304.7509    37986.909 
  603000     301.0261   -1499.5776    488.11858     344.3637   -63.674358    37986.909 
  603100    303.66963   -1490.4865    487.76824    365.01091    119.83935    37986.909 
  603200    283.18897   -1479.7272    531.02129    326.77833    296.38321    37986.909 
  603300    311.64874   -1514.7499    504.92164    393.83896    495.83471    37986.909 
  603400     298.3579   -1507.3485    477.27596    313.73264    359.58176    37986.909 
  603500    305.25986   -1486.3826    508.37055    396.87961    572.93546    37986.909 
  603600    291.63122   -1512.2861    501.69684    302.91888    608.60282    37986.909 
  603700    300.15608   -1524.2405    511.67729    339.34094    143.25997    37986.909 
  603800    300.91377   -1505.5312    517.46424    367.24987    215.63843    37986.909 
  603900    308.08587   -1479.6543    504.98198    412.94767   -398.96338    37986.909 
  604000    293.24589   -1458.3512    528.94362     391.3731    40.069965    37986.909 
  604100     296.2162   -1522.8154    497.93433    309.27783    67.126383    37986.909 
  604200    309.41887   -1543.4603    508.22532    358.38884    8.9810706    37986.909 
  604300    304.92256   -1489.3274    490.60661    374.65163    347.91036    37986.909 
  604400    304.97878    -1518.161    536.29226    391.75687    131.20921    37986.909 
  604500    299.45926   -1562.3175    476.61913    263.06732   -688.25897    37986.909 
  604600    296.50572   -1510.2292    531.84805    357.08185   -70.037925    37986.909 
  604700    308.11172   -1514.8011    490.04919    362.98447   -125.32732    37986.909 
  604800    295.12268   -1499.3823     532.5295    362.38088   -110.96552    37986.909 
  604900    300.32479   -1520.2833    489.19619    321.57699    197.90959    37986.909 
  605000     308.3171   -1573.7962    485.37248    300.23771      306.006    37986.909 
  605100    297.93712   -1536.7796    493.55836    298.68877    546.73646    37986.909 
  605200    294.91687   -1562.1134    478.99074    245.18408   -119.40942    37986.909 
  605300    298.83801   -1536.8396    466.90283    276.03086    220.10675    37986.909 
  605400    309.08433   -1525.5469    524.88414    391.45432   -167.83655    37986.909 
  605500     292.3184   -1543.1343     509.1268    282.59574    567.18711    37986.909 
  605600    306.37566   -1548.1678    501.26107    333.01044    435.41168    37986.909 
  605700    300.62109   -1562.0548    515.80695    307.75077   -180.53701    37986.909 
  605800    301.01205   -1540.2622    484.71182    300.20906    794.69324    37986.909 
  605900    296.70878   -1545.5564     516.9593    307.78045    700.94908    37986.909 
  606000    300.04798    -1525.976    479.34496    304.78629    821.38403    37986.909 
  606100    302.51695     -1501.53    481.08566    342.09318     644.4157    37986.909 
  606200    305.50639   -1523.9861    528.21321    380.22905    191.63867    37986.909 
  606300    303.03534   -1497.4107    522.15289    389.61463    303.32084    37986.909 
  606400    290.34166   -1522.1381    505.45274    291.01461    200.50856    37986.909 
  606500     305.4666   -1496.7229    503.98861    383.08853    421.87242    37986.909 
  606600    296.63141   -1489.6641    506.25291    352.61788    509.36787    37986.909 
  606700    302.18872   -1499.9835    517.30741    378.38315    339.97708    37986.909 
  606800    297.35029   -1463.0634    480.72682     356.9303    408.95385    37986.909 
  606900    304.81583    -1513.999    511.29594    370.18868    6.2267058    37986.909 
  607000    308.44606   -1550.9568    491.09515    329.38065    746.49233    37986.909 
  607100    301.08537   -1538.6596    494.49144    311.92156   -204.68692    37986.909 
  607200     308.4501   -1515.1136    515.43798    389.58488    47.848916    37986.909 
  607300    295.21508   -1492.1571     490.8564    328.34915   -12.173054    37986.909 
  607400    302.92607   -1544.2305    494.53175    314.68149    254.71543    37986.909 
  607500    292.23411   -1503.4492    518.68881    331.46322    246.19547    37986.909 
  607600    305.35394   -1538.3118    488.56452    325.56809     172.4229    37986.909 
  607700    306.93323   -1554.9091    489.95262    317.47203   -150.47948    37986.909 
  607800    304.08235   -1543.9037     456.2887    281.97316    18.022397    37986.909 
  607900    305.44176   -1545.4591    512.90007    343.15182   -135.82989    37986.909 
  608000    296.52185    -1544.969    491.20628    281.77287   -291.98065    37986.909 
  608100    304.03232   -1540.8448     479.5445    308.06251    229.78845    37986.909 
  608200     301.2279   -1538.2019    491.81803    310.34781   -241.04898    37986.909 
  608300    300.12154   -1486.0922     480.6885     346.3449    -98.29752    37986.909 
  608400    306.60544   -1508.2937    529.91355    402.57199    59.338858    37986.909 
  608500    295.40631   -1517.2672    490.62272    303.86676   -15.044309    37986.909 
  608600    297.58077   -1490.9296     490.1303    339.50565   -205.96677    37986.909 
  608700    298.84952   -1467.1339     497.4501    376.33569   -377.15533    37986.909 
  608800    312.53715   -1421.2599    491.72739    478.13604     159.8088    37986.909 
  608900    295.92765   -1429.7822    523.53636    426.61346   -499.79774    37986.909 
  609000    301.61605   -1404.1571    515.08305    469.40585   -331.31305    37986.909 
  609100    296.54636   -1495.1224    530.35524    370.87876   -318.57953    37986.909 
  609200    293.47139   -1441.2921     515.1366    395.64084   -224.33591    37986.909 
  609300    301.50952    -1503.488    503.53027    358.04238   -657.67759    37986.909 
  609400    297.16728   -1442.6614    511.01808    406.79931    -375.6927    37986.909 
  609500    288.60914   -1416.8342    493.00277    376.06532   -291.10268    37986.909 
  609600    293.00961   -1468.5876    505.32477    356.45363   -353.27256    37986.909 
  609700    293.03096   -1450.3353    517.90901    387.38631   -28.042361    37986.909 
  609800    301.52199   -1502.6973    529.38997    384.74889    59.358615    37986.909 
  609900    304.39774   -1464.9015    523.13022    429.23731   -17.699256    37986.909 
  610000    297.00091   -1490.4761    530.75596    377.97317    142.94987    37986.909 
  610100     299.7515   -1452.1951    508.30631    406.19318   -405.29785    37986.909 
  610200    297.58519    -1461.677    495.53593    374.18378   -73.404682    37986.909 
  610300    302.06703   -1454.6665    514.99716    420.84172   -117.55031    37986.909 
  610400    309.46101   -1493.4787    487.99162    388.32651   -745.47156    37986.909 
  610500    304.75495   -1472.0838    498.69762    399.23132   -342.65193    37986.909 
  610600    296.88078   -1508.7089    508.42385     336.8672   -247.26204    37986.909 
  610700    295.55012   -1482.3949    523.52337    372.28743    249.72559    37986.909 
  610800    299.34781   -1518.7929    522.08761    351.55847    32.639678    37986.909 
  610900    304.87532   -1506.4573     482.9655    349.66789   -144.64402    37986.909 
  611000     298.5011   -1488.1432    533.79982    390.10676   -369.57616    37986.909 
  611100    290.07901   -1472.8751     525.5996    359.24151   -194.43017    37986.909 
  611200    310.09229   -1511.6633    481.94669    366.94035   -874.42433    37986.909 
  611300     298.5965   -1536.5609    506.66054    314.97946   -713.34808    37986.909 
  611400    293.15246   -1525.0251    477.17124    272.50599   -371.12881    37986.909 
  611500    298.18513   -1504.8023    511.22868    349.45337    -313.4791    37986.909 
  611600    290.44003   -1504.6826    528.19799    331.65848   -667.17067    37986.909 
  611700    295.38376   -1518.3197    494.75255    306.84244    260.89741    37986.909 
  611800    301.69316   -1539.0239    514.01846     333.8217   -362.32929    37986.909 
  611900    295.25736   -1538.3473    498.17382    289.66683    -430.1371    37986.909 
  612000    303.02585   -1554.3612    466.10715    276.57559    65.239353    37986.909 
  612100    309.60849   -1560.2137    492.43762    326.70179    161.74585    37986.909 
  612200    303.22184   -1539.0486    490.01643    316.68025     483.7464    37986.909 
  612300    297.62356     -1553.58    508.86543    295.78307    -461.6582    37986.909 
  612400    293.99605   -1515.6785    509.35971    317.84058   -496.90598    37986.909 
  612500    310.93217   -1513.4935     503.3069    390.25317   -57.335867    37986.909 
  612600     295.3232   -1546.1037    539.88279    323.91594    1.7547126    37986.909 
  612700    298.56971   -1556.9542    489.39062    277.19563   -337.25418    37986.909 
  612800    287.75017   -1526.9134    493.23537    262.34985    24.455606    37986.909 
  612900    286.99553   -1519.6825    494.07042    267.01692    313.72415    37986.909 
  613000    302.12268   -1530.7322    485.23071    315.26023   -369.59778    37986.909 
  613100    302.47425   -1502.0909    506.29466    366.54898   -36.391213    37986.909 
  613200    302.28425   -1508.3084     489.6574    342.83847   -61.404253    37986.909 
  613300    299.21905   -1543.8138    519.54566     323.4156    283.72119    37986.909 
  613400    301.08614   -1516.9656    492.85492    331.98247   -332.33282    37986.909 
  613500    304.67063   -1523.4204    498.07957    346.89688   -710.58555    37986.909 
  613600    308.63322   -1483.6466    485.29212    391.73078     -215.611    37986.909 
  613700    293.63734   -1508.6169    543.25866    357.18549   -592.10138    37986.909 
  613800    291.88539   -1533.5719    489.63086    270.71192   -573.97989    37986.909 
  613900    298.24832   -1503.0878    500.97277     341.1966   -109.55026    37986.909 
  614000    306.74548   -1556.9074     471.0205      295.696   -301.32845    37986.909 
  614100    300.05473   -1562.4533    510.86017     299.8546   -192.33039    37986.909 
  614200    299.14283   -1542.2344    526.73013    331.83621   -123.85488    37986.909 
  614300    302.93736   -1489.1137    479.14121    354.45854   -441.32459    37986.909 
  614400    306.12247   -1502.0803    515.44374    392.14029   -114.25983    37986.909 
  614500    295.90439   -1525.0168    512.40365     320.1414    271.38208    37986.909 
  614600    295.41669   -1497.5251    496.44512    329.47792    278.13953    37986.909 
  614700    308.03994   -1501.0161    515.31492    401.71197    445.91414    37986.909 
  614800    305.27961   -1496.9473     529.3441    407.37743    196.22159    37986.909 
  614900    297.29144   -1489.0831     487.2895     337.2082   -39.210421    37986.909 
  615000    294.87626   -1500.2185    515.98582    343.89122    191.17263    37986.909 
  615100    294.86246   -1487.5964    538.09075    378.55601   -64.658703    37986.909 
  615200    297.87633   -1486.3036    517.10876     372.4413    -79.60534    37986.909 
  615300    290.17858   -1465.4277    515.14623    356.68399   -208.99124    37986.909 
  615400    293.01728   -1455.9575    508.99163     372.7852   -102.54194    37986.909 
  615500    307.79923   -1529.6836    502.66609    359.31141    -500.9965    37986.909 
  615600    295.66162    -1499.706    517.95124     349.9063   -485.86878    37986.909 
  615700    297.87833   -1529.9687    497.90656    309.58308   -638.30294    37986.909 
  615800      304.872   -1498.5548    519.37534    393.96524   -453.26669    37986.909 
  615900    289.85551   -1503.9822    516.55727    318.08544   -563.87354    37986.909 
  616000    308.16184   -1533.0818    504.60255    359.48295   -389.71024    37986.909 
  616100    298.16442   -1519.5578    491.06108    314.43701    128.51498    37986.909 
  616200    308.30245   -1522.8476    495.36141    361.10932   -107.50022    37986.909 
  616300    299.86559   -1478.2934     502.1866      374.489    -199.2363    37986.909 
  616400    303.02338   -1524.0763    487.16578    327.90797    281.48184    37986.909 
  616500     295.6334    -1519.955    520.18735    331.76637   -135.24388    37986.909 
  616600    296.94746   -1547.3233    482.12002    272.24921    112.81639    37986.909 
  616700    304.48782   -1526.5448    510.42497    355.29453     433.0788    37986.909 
  616800    292.70658   -1494.6824    534.28753     357.9567    595.16261    37986.909 
  616900    303.34916   -1496.1674    490.67623    360.79466    544.78986    37986.909 
  617000    297.83568   -1484.7261    551.14652    407.87353   -213.39941    37986.909 
  617100    292.39066   -1440.0194    494.76049    371.66981    357.08089    37986.909 
  617200     304.0665   -1526.8173    512.70546    355.40491    747.19921    37986.909 
  617300    297.44679   -1487.9707    511.51482    363.24565    599.08869    37986.909 
  617400    290.79186   -1538.3938    490.05105    261.38495   -52.287697    37986.909 
  617500    305.44953   -1507.7024    485.94621    353.98973    -236.3701    37986.909 
  617600    309.32172   -1483.6143    539.10359    448.67549   -59.086854    37986.909 
  617700    302.95231   -1515.3633    509.99542    359.13053   -534.15586    37986.909 
  617800    294.46198   -1494.1409    469.76872    301.88569   -341.48316    37986.909 
  617900    297.00216   -1481.5547    521.89912    378.04336   -17.617232    37986.909 
  618000    296.37533   -1515.2524    529.21048    348.83372    298.26782    37986.909 
  618100    300.84314   -1514.3201    515.43698    356.11552    359.48348    37986.909 
  618200    299.24586   -1513.6409     530.1436    364.30725    558.29346    37986.909 
  618300    309.82683   -1533.4465    529.05655    391.07135    205.99961    37986.909 
  618400    303.71833     -1538.17    525.46481     355.2434    356.95914    37986.909 
  618500    302.56131   -1570.5382    475.75334    267.95254   -535.05414    37986.909 
  618600    299.49423   -1524.2834    523.05708    347.69691    41.124793    37986.909 
  618700    296.01484   -1564.4173    516.65657    285.49128    299.94593    37986.909 
  618800    309.90282   -1533.7652    494.62269    356.66104    537.73158    37986.909 
  618900     297.9903   -1551.2622    518.30767    309.19502    212.30878    37986.909 
  619000    290.17856    -1605.349    478.03277     179.6492    85.991521    37986.909 
  619100    300.33073   -1545.5884    520.67923    327.78164    166.97075    37986.909 
  619200    297.45044   -1580.0629    495.05897    254.71407   -15.105024    37986.909 
  619300    309.65982   -1512.6328    484.14793    366.22424     356.2828    37986.909 
  619400    311.33254   -1628.9451    489.49199    262.78994   -33.747157    37986.909 
  619500    306.25251   -1603.0272    519.42132    295.75666    453.69552    37986.909 
  619600    296.74155   -1549.4339    505.19349    292.28477    629.54811    37986.909 
  619700    303.71764   -1543.0399    522.95494    347.86053    756.85262    37986.909 
  619800    304.41045   -1507.4157     490.2976    353.94779    720.01148    37986.909 
  619900    297.92439   -1492.5859    536.91772    386.18445    273.51183    37986.909 
  620000    296.47756   -1520.8338    483.99142    298.49371    571.94671    37986.909 
  620100    303.47986   -1507.4622    473.61527    333.02758    166.62105    37986.909 
  620200    307.70934   -1531.0675     532.5267    387.38328   -301.03272    37986.909 
  620300     296.8474   -1494.6066    519.33827    361.73356    11.628603    37986.909 
  620400    311.46056   -1533.7776    507.40612    376.44809   -297.43152    37986.909 
  620500    305.47822   -1514.0809    494.53078    356.32499   -22.484648    37986.909 
  620600    296.43687   -1522.9898    515.20316    327.36625    206.02179    37986.909 
  620700    291.42343   -1538.8107    505.62966    279.39125     23.04929    37986.909 
  620800      293.203   -1508.2033    491.95951    304.34368   -24.456561    37986.909 
  620900    299.80861   -1538.1532    506.37674    318.56268    -220.0386    37986.909 
  621000    304.72887   -1533.9367    500.59564    339.15904    419.45121    37986.909 
  621100    307.26369   -1533.8828    470.63515    320.66918   -209.55105    37986.909 
  621200    289.25566   -1531.9358    516.27558    287.14847   -1163.7797    37986.909 
  621300    289.23199   -1541.5546    498.40065    259.54808    -473.1873    37986.909 
  621400    301.17081   -1511.0796    518.79689    364.19184   -425.51857    37986.909 
  621500    305.61282   -1527.6449    506.55005    355.38647    159.67165    37986.909 
  621600    305.94067   -1498.8257    490.96682    370.09912   -443.07614    37986.909 
  621700    294.89645   -1550.2202    488.39997    266.39459   -238.78139    37986.909 
  621800    303.55583   -1529.1535    513.27093    351.33412     140.1939    37986.909 
  621900    301.26336   -1536.2837    506.21105    326.81875   -308.43666    37986.909 
  622000    306.97035   -1477.4102    510.56319    415.74872   -82.997498    37986.909 
  622100     296.0322   -1503.2228    517.74011    347.84748    249.64452    37986.909 
  622200    303.41724   -1447.8403    510.99081    429.74293     403.7349    37986.909 
  622300    304.50548   -1513.0326    529.32818    387.78945    401.34486    37986.909 
  622400    297.76811   -1506.9256    520.72424     354.9474    535.27212    37986.909 
  622500    305.68395   -1453.9148    518.77264    441.65954    769.04704    37986.909 
  622600    295.07878   -1467.0545    525.77832    387.75985     124.8992    37986.909 
  622700    301.56219   -1458.8869     520.3461     419.6965    364.60989    37986.909 
  622800    296.98954   -1435.3652    506.48025    408.75711    -9.849936    37986.909 
  622900    299.02759   -1426.6208    561.68483    481.88549   -473.99289    37986.909 
  623000     293.2412   -1472.1479      503.556    352.16768   -429.01329    37986.909 
  623100    303.97321   -1493.1503     515.8599    391.80614   -201.81645    37986.909 
  623200    297.17906   -1451.2527    499.61054    386.85353   -437.91447    37986.909 
  623300    302.98147   -1455.9159    501.05255    409.76645    -84.21665    37986.909 
  623400    298.85213   -1460.0543    544.99341    430.97027    -341.9589    37986.909 
  623500    305.47226   -1468.4549    486.84846    394.24189    254.56983    37986.909 
  623600    298.32152   -1420.7665    525.12828    448.00308   -587.46886    37986.909 
  623700     310.5573   -1433.1406    496.71073    462.32146   -148.07586    37986.909 
  623800    301.72962   -1480.8194     498.5497    376.72169   -49.769736    37986.909 
  623900    302.32885   -1460.4354    524.65502    425.90996    939.39451    37986.909 
  624000     302.7881   -1453.3466     529.1145    439.52674    899.31762    37986.909 
  624100    298.34677   -1433.9755    545.18844    454.96794    444.24169    37986.909 
  624200    296.00128   -1467.8329     530.6406    395.99862     215.6775    37986.909 
  624300    300.63771   -1453.6345    505.82749    406.26637     38.06871    37986.909 
  624400    295.38315    -1464.764    526.46936    392.11224   -352.62042    37986.909 
  624500    293.17998   -1462.7449    501.37405    359.11295   -124.29765    37986.909 
  624600    294.17307   -1504.2713    544.78904    365.47441    409.17245    37986.909 
  624700    291.19119    -1493.192    506.18577    324.52004    685.04538    37986.909 
  624800    295.81611   -1449.5794    527.11838    409.89598    429.58005    37986.909 
  624900    292.96993   -1479.3522    520.54355    360.72908   -29.591032    37986.909 
  625000    301.02573   -1480.0489    512.99069    388.76288    624.23741    37986.909 
  625100    295.65543   -1476.4307     493.4016    348.60415    67.165651    37986.909 
  625200    294.31008    -1521.998    506.67591    310.25172  -0.67916274    37986.909 
  625300     308.9727   -1503.4258    515.83438    404.02283     309.0389    37986.909 
  625400    304.08977   -1490.5409    486.17679    365.25743   -285.57965    37986.909 
  625500    302.70874   -1471.1443    502.99533    395.25238   -285.10305    37986.909 
  625600    296.32541   -1472.4784    507.22402    369.39638   -420.93901    37986.909 
  625700    310.35632   -1483.1527    488.18521    402.87864   -493.06965    37986.909 
  625800    299.21876   -1494.2938    518.17869    371.56737   -291.77629    37986.909 
  625900    289.34784   -1473.3423    498.69646    328.57793   -229.06838    37986.909 
  626000    301.93316   -1480.3778     521.8974    401.42774   -1.6502354    37986.909 
  626100    290.98196   -1480.9967    522.12209    351.70929     355.9714    37986.909 
  626200    295.29707   -1506.0887    503.90691    327.83741    220.06181    37986.909 
  626300    308.07553   -1524.4166    544.14261    407.29943    885.16273    37986.909 
  626400    299.03503   -1525.7782    525.43647    346.51326    972.33977    37986.909 
  626500    292.85356   -1496.4526    512.63549    335.19647    172.74199    37986.909 
  626600    305.88747   -1501.3037     517.0877    393.50243   -483.13658    37986.909 
  626700    302.63013   -1455.9249    492.85478    399.97721    -459.7742    37986.909 
  626800    307.11997   -1474.6792    506.26675    414.85714   -85.993782    37986.909 
  626900    288.65763   -1538.8297    479.90018    241.18558    223.58291    37986.909 
  627000    290.75486   -1508.3059    497.87855    299.13374    215.45545    37986.909 
  627100    286.69243   -1508.3984    496.84403     279.7095    126.23696    37986.909 
  627200    299.09582   -1471.1263    494.76941    370.77191   -616.42018    37986.909 
  627300    301.26729   -1508.8358    508.04526    356.11857   -36.837809    37986.909 
  627400    308.93364   -1462.7971    502.35993     431.0012    237.10961    37986.909 
  627500    300.16902   -1473.6732    516.67463    394.96386   -150.25355    37986.909 
  627600    302.90417   -1443.5268    505.73227     426.4871    -263.3009    37986.909 
  627700    307.04658   -1451.6116    493.19032    424.51776   -48.226806    37986.909 
  627800    291.77019   -1461.1327    488.30829    341.30973     -388.508    37986.909 
  627900    295.28216   -1452.4985    527.89016    405.34368   -293.79066    37986.909 
  628000    307.83889   -1469.9454    487.15004    403.71223    28.858885    37986.909 
  628100    289.70597   -1510.0216    488.88991    283.70521   -58.600889    37986.909 
  628200    297.80448   -1498.0061    485.14215     328.4486    316.69066    37986.909 
  628300    289.83603   -1500.3123    525.19932    330.30962   -94.062342    37986.909 
  628400    292.68616   -1531.6295    509.66704    296.29718    554.42632    37986.909 
  628500    304.13701    -1508.493    497.42219     358.7635    507.45778    37986.909 
  628600    291.23438    -1511.617    512.39559    312.49938   -217.08941    37986.909 
  628700    300.47212   -1477.8377    497.41011        372.9    137.04733    37986.909 
  628800    297.18204   -1555.8832    493.21034     275.8362    -268.8871    37986.909 
  628900    292.18973   -1530.2158    489.47684    275.28479    415.14344    37986.909 
  629000    300.77224   -1511.9229    512.52295    355.27938     154.3276    37986.909 
  629100    298.79201    -1512.237     494.4513    327.97471   -142.19837    37986.909 
  629200    296.82503   -1491.0296     503.0349    348.90643    244.67337    37986.909 
  629300    299.14824   -1512.0448     507.7368    343.05684    8.1104921    37986.909 
  629400    296.33524   -1505.4833    488.54248    317.75424    426.44809    37986.909 
  629500    296.02678   -1479.1359    523.85035    378.02022    86.971152    37986.909 
  629600    309.33648   -1480.1448    499.87639    412.98435    514.40437    37986.909 
  629700    301.15828   -1478.9068    499.98594    377.49724    736.24181    37986.909 
  629800    309.90983   -1495.3602     512.4566    412.93151    530.45431    37986.909 
  629900    311.98364   -1448.4061    521.47088    478.24037    462.77634    37986.909 
  630000    296.66087   -1470.7343    520.42106    385.84851    142.03432    37986.909 
  630100    294.61607   -1497.8851    522.64514    351.71202    379.66067    37986.909 
  630200    297.30306   -1489.6526    499.51037    348.91194    356.19047    37986.909 
  630300    301.38124     -1533.72    501.40107    325.10336   -104.11101    37986.909 
  630400    300.30539   -1528.1184    490.67442    315.13272    150.61635    37986.909 
  630500    300.14435   -1498.7433    481.90745    335.01554   -665.90793    37986.909 
  630600    300.87967   -1508.5315    493.73813    340.36992   -195.06892    37986.909 
  630700    292.75798   -1539.6554    495.94023    274.86791   -341.63765    37986.909 
  630800    295.03843   -1551.1986    513.55122    291.20692   -181.13909    37986.909 
  630900    300.12372   -1521.7547    481.03014    311.03385    52.411905    37986.909 
  631000     307.9881    -1512.047    479.80742    354.94009   -334.43166    37986.909 
  631100    297.52892   -1515.5003    508.55335    333.12447   -155.36708    37986.909 
  631200    292.49332   -1521.9815    519.69078    315.10036    34.577692    37986.909 
  631300    306.68138   -1506.9729    496.65701     370.9782    69.713797    37986.909 
  631400    287.44125   -1515.8785    501.98057    280.73859    93.726948    37986.909 
  631500    302.99344   -1531.1608    517.26823    350.79111    268.04634    37986.909 
  631600    306.90985   -1552.4221    489.37201    319.27308    113.23558    37986.909 
  631700    303.80106   -1514.0818    497.90679    352.14612   -377.91212    37986.909 
  631800    302.56911   -1538.7546    493.00392    317.02186   -225.39498    37986.909 
  631900    298.47237   -1521.2468    461.42634    284.50024    47.121646    37986.909 
  632000    311.39176   -1545.2619    523.79324    381.04107    -16.81656    37986.909 
  632100    292.88832   -1527.1729    495.53678     287.5341   -297.60719    37986.909 
  632200    296.79402   -1539.4068    470.05308    267.40775    -614.6631    37986.909 
  632300    303.41898   -1495.1418    491.16886    362.62738   -236.43101    37986.909 
  632400    298.85721   -1516.8487    497.21387     326.4193     133.8013    37986.909 
  632500    289.78216   -1510.8514    500.38708    294.71567   -80.586268    37986.909 
  632600    296.02564   -1536.6934    500.40503    297.01229   -35.336783    37986.909 
  632700    305.84194   -1513.8884    502.26731    365.89224   -285.48399    37986.909 
  632800    303.27139    -1530.511     518.8148    354.23939    301.71937    37986.909 
  632900    306.26908   -1556.9623    509.85595    332.33077   -352.85083    37986.909 
  633000    303.49388   -1532.0329    483.11087    318.01562    416.10569    37986.909 
  633100    299.85105    -1553.733    476.52518    273.32248     17.85844    37986.909 
  633200    290.42339   -1576.1137    500.12746    232.08188    95.650352    37986.909 
  633300    295.67429   -1579.0827    496.54179    249.17728    171.10496    37986.909 
  633400    293.87877   -1523.1261    508.84664    309.35172    553.78788    37986.909 
  633500    304.82776   -1514.7231    518.56484    376.78717    745.91582    37986.909 
  633600    289.82109   -1537.2441    500.13909    268.25031    239.16976    37986.909 
  633700    298.94455    -1503.681    487.60201     330.3685   -301.67459    37986.909 
  633800    305.69694   -1496.9144    501.66424    381.61005   -341.40301    37986.909 
  633900    304.64791   -1536.9126    498.64363    333.86647    201.64728    37986.909 
  634000    302.19282   -1533.2693    489.29023    317.09856    351.60522    37986.909 
  634100    306.87046    -1513.786    497.10792    365.46768   -154.77085    37986.909 
  634200    296.23516   -1489.4676    506.88023    351.65699   -480.26421    37986.909 
  634300    309.46956   -1468.6785    523.09284    448.26641   -176.68257    37986.909 
  634400    306.29003   -1503.1983     507.2495    383.58267    197.43327    37986.909 
  634500    295.18544   -1550.6075    482.02944    260.93839    157.96343    37986.909 
  634600    295.02841   -1527.6068    537.48846    338.69079    199.59325    37986.909 
  634700    291.04396   -1518.4381    494.79522    287.22026   -132.78449    37986.909 
  634800    309.69308   -1507.4545    468.09412    355.49849    272.64084    37986.909 
  634900    291.40512   -1519.2148    512.66773    305.94278    230.56315    37986.909 
  635000    285.61241   -1481.7927    487.57413    292.18086    394.06973    37986.909 
  635100    308.59125   -1489.5074    493.93662     394.3254    419.67206    37986.909 
  635200    300.39567   -1514.3102    504.40133    343.07438   -198.26687    37986.909 
  635300    306.69284   -1522.0549    493.38436    352.67523   -107.33346    37986.909 
  635400    285.73116   -1507.2262    504.39254    284.10057     402.3251    37986.909 
  635500    309.83721   -1517.5384    507.68619    385.65586    454.04634    37986.909 
  635600    302.97388    -1501.469    535.25869    398.38523    304.60263    37986.909 
  635700    294.40885   -1459.5243    524.04733    390.54166    86.725407    37986.909 
  635800    299.40774   -1462.3768    508.39991    394.55674   -676.27837    37986.909 
  635900    306.27156   -1506.1501    537.84252    411.14072   -74.293227    37986.909 
  636000    288.38503   -1510.1288    506.64802    295.40657    -140.7344    37986.909 
  636100    314.46316   -1510.2178    511.58792    417.71338   -380.50198    37986.909 
  636200    296.24576   -1481.5314    515.52556    368.28625    -117.5382    37986.909 
  636300    295.71793    -1517.323    498.75035    313.34213    49.517538    37986.909 
  636400     299.8627   -1559.2098    475.04475    266.41776    32.173536    37986.909 
  636500    295.38743    -1501.585    492.67816    321.51935    77.479716    37986.909 
  636600    301.99289   -1525.5135    504.30034    338.96406   -117.67481    37986.909 
  636700     303.1635   -1499.7321     512.1905    377.90799   -13.288997    37986.909 
  636800    296.91643   -1499.0352    501.44089    339.71847   -364.47315    37986.909 
  636900    307.81483   -1497.7595    504.21992    392.85962   -205.35407    37986.909 
  637000    298.52573   -1500.6459    514.32879    358.24394   -27.149208    37986.909 
  637100    300.54605   -1505.2785    491.54739    339.92948   -202.70533    37986.909 
  637200    298.22596   -1463.1563    491.27809    371.33269     67.76206    37986.909 
  637300    306.48556   -1498.8348    508.21238    389.78983    74.456652    37986.909 
  637400     302.1294   -1509.6503    509.63025    360.77199    303.78195    37986.909 
  637500    305.09605   -1488.3646    537.57027    423.35951    110.47675    37986.909 
  637600    296.13446   -1485.2857     503.6679    352.17293   -419.49942    37986.909 
  637700    311.80684   -1490.1145    496.98328    411.24799   -446.76514    37986.909 
  637800    290.44962   -1513.7026    531.43134      325.915    -896.9807    37986.909 
  637900    311.01485   -1475.4023    497.15925    422.56913   -284.18417    37986.909 
  638000    292.70104   -1498.4579    495.10744    314.97623   -466.62454    37986.909 
  638100    296.85131   -1534.4404    531.42581    334.00484   -109.08112    37986.909 
  638200    292.72092   -1473.4841    523.92493    368.85701    674.25942    37986.909 
  638300    304.29306   -1477.9996    534.51408     427.0516    82.424488    37986.909 
  638400    295.20733   -1463.6028    522.33745    388.34967    -150.5991    37986.909 
  638500    302.13088   -1483.4899      517.028    394.33684   -555.41658    37986.909 
  638600    293.41375   -1473.5555    488.70783    336.68903   -734.25491    37986.909 
  638700    306.79568    -1483.438    520.94088     419.3119   -420.31063    37986.909 
  638800    305.65043   -1502.2482    527.14014    401.54268   -233.47106    37986.909 
  638900    308.24666   -1528.0228    496.57351    356.89487    311.01068    37986.909 
  639000    299.67152   -1512.4346    518.60795    355.89508    440.87611    37986.909 
  639100    291.08082     -1467.87    512.12322    355.28241    735.47515    37986.909 
  639200    299.26724   -1458.7233    521.99688    411.17439    671.30191    37986.909 
  639300    296.82651    -1488.083    499.82606    348.65081    161.95803    37986.909 
  639400    299.84632   -1491.2224    515.27207    374.55869    416.06109    37986.909 
  639500    311.10952   -1535.2302     506.1731    372.18141    22.248739    37986.909 
  639600    296.31468   -1512.0198    506.04179    328.62455    139.96552    37986.909 
  639700    308.80897   -1498.1602     487.5016    380.21822       408.38    37986.909 
  639800    301.04451   -1505.0919    500.70435    351.51811    545.87527    37986.909 
  639900    303.36059    -1493.971    505.55964     377.9259    14.337342    37986.909 
  640000    302.63696   -1484.2642    523.91776    402.73164    360.05665    37986.909 
  640100    298.87497   -1435.9083    528.27918    438.50496    157.88633    37986.909 
  640200    288.80955   -1463.7128    509.11018    346.19672   -275.50777    37986.909 
  640300    301.63867   -1453.4084    480.16229    385.33568   -173.89916    37986.909 
  640400    294.70575   -1480.1332    508.79038    356.01308   -258.05491    37986.909 
  640500    297.77603   -1455.1259     530.3297    416.38819   -278.95847    37986.909 
  640600     294.0236   -1461.1716    503.03716    366.14902   -1416.1356    37986.909 
  640700    303.80045   -1494.9837    489.35027      362.685   -787.62242    37986.909 
  640800    308.38799   -1491.5599    483.29148    380.71234   -343.27653    37986.909 
  640900    301.66504   -1497.9868    487.12588    347.83963   -420.61848    37986.909 
  641000    303.21669    -1497.864     500.5976    368.42284   -945.43562    37986.909 
  641100    301.44008     -1503.23    484.35181    338.80916   -708.63624    37986.909 
  641200    311.18614   -1495.3227    488.76611    395.02703   -681.51472    37986.909 
  641300    305.86332   -1476.5334     487.5287    388.60488   -1.5536823    37986.909 
  641400    296.23551   -1538.4313    488.32286    284.13748    57.447658    37986.909 
  641500    316.60457   -1500.3872    518.00257    443.60362    523.98165    37986.909 
  641600    290.87711    -1517.507    513.51055    306.11525    634.66853    37986.909 
  641700     300.2665   -1474.8987     524.7439    402.24666    711.16622    37986.909 
  641800    298.66572   -1493.6586    500.65937    352.19238    356.92146    37986.909 
  641900     296.4226   -1505.4447    500.47534    330.11918    430.82374    37986.909 
  642000    302.22922   -1498.5065     479.7395    342.47464    361.28723    37986.909 
  642100    312.11668   -1510.9392    483.97826    378.81383   -110.21304    37986.909 
  642200    303.72279   -1501.5647    493.42216    359.82613   -363.56249    37986.909 
  642300    297.44364   -1496.3491    483.92318    327.26142     150.9025    37986.909 
  642400    310.88188   -1505.3415    511.23725    406.10898    170.52662    37986.909 
  642500    293.71196   -1486.1485    497.04345    333.77484    541.35368    37986.909 
  642600    302.42553   -1452.0208    506.20283    416.30784    226.12507    37986.909 
  642700    298.23991   -1504.9238    503.45514    341.80512   -396.25362    37986.909 
  642800    301.46399   -1462.2137     510.8486    406.42993     75.58484    37986.909 
  642900    297.03068   -1476.7902    502.96571    364.00284    172.75616    37986.909 
  643000     297.9967   -1452.7309    501.56192    391.00937    82.548658    37986.909 
  643100    295.81716   -1437.4743     512.1984    407.08575   -688.59483    37986.909 
  643200    291.27669   -1442.2987    519.52348    389.13622   -873.23339    37986.909 
  643300    296.71832   -1435.7993    524.02276    424.64396   -224.92817    37986.909 
  643400    304.89195   -1461.6087    511.15348    422.77937   -549.20227    37986.909 
  643500    291.88033   -1451.9019    491.46477    354.19301   -228.49093    37986.909 
  643600    302.86911    -1479.861    502.60628    386.86895   -474.15523    37986.909 
  643700    297.56129   -1460.7894    495.15232    374.58015   -582.86447    37986.909 
  643800     302.7365   -1445.4609     488.0336    406.09913    40.359768    37986.909 
  643900    298.14324   -1491.8842    499.01891    349.97301    25.243021    37986.909 
  644000    309.81549   -1481.4956    502.47972    416.39429    668.09319    37986.909 
  644100    295.36653   -1457.6245    518.11195     390.8195     15.53908    37986.909 
  644200    310.55853   -1447.7079    510.86463    461.91362     191.1596    37986.909 
  644300    293.49366    -1444.131    505.53155    383.29715    565.27921    37986.909 
  644400    302.49593   -1488.1846    518.80538    393.06364   -59.152914    37986.909 
  644500    301.99887    -1430.714    507.16219    436.65225    13.832394    37986.909 
  644600    300.43789    -1424.567    503.85724     432.4637   -268.83749    37986.909 
  644700    297.14799   -1443.4392    523.00438    417.92095   -431.54775    37986.909 
  644800    304.56468   -1458.6055    480.20068    393.35575    280.85607    37986.909 
  644900    306.14199   -1487.9129    499.65824    390.61012   -141.81575    37986.909 
  645000    298.87785   -1444.7099    491.39671    392.83388    83.765597    37986.909 
  645100    298.06952   -1485.7378    509.21997    365.98847   -102.37355    37986.909 
  645200     293.8244   -1455.4969    488.33546     356.2248    202.95549    37986.909 
  645300    285.72078   -1448.7447      487.962    326.10485   -834.98339    37986.909 
  645400    305.50072   -1456.9818    498.13863    417.13324   -305.25662    37986.909 
  645500    312.06209   -1458.1743    488.24492    435.59951    175.68169    37986.909 
  645600    305.59568   -1474.8286    506.27092    407.84651    335.07635    37986.909 
  645700     299.3174   -1511.2693    486.93909    323.79657   -121.14151    37986.909 
  645800    308.75739   -1475.1485    506.01623    421.51229    651.08283    37986.909 
  645900    295.59794   -1458.9787    491.52809    363.92366   -238.26043    37986.909 
  646000    301.54224   -1441.8652    505.42526    421.70753    290.29604    37986.909 
  646100    305.21634   -1451.7354    503.47446    426.43471   -282.33314    37986.909 
  646200    306.48897   -1453.9229    474.22199    400.72664   -128.02284    37986.909 
  646300     293.8684   -1439.0516    488.04329    372.57615    -32.87532    37986.909 
  646400    297.21747    -1406.194    508.79747    441.27218   -464.54686    37986.909 
  646500    292.03894    -1403.065    491.09343    403.37299   -483.15194    37986.909 
  646600    289.10396   -1444.1904    509.20211    367.13709   -708.67486    37986.909 
  646700    292.87995   -1415.5251    505.29286    408.90024   -209.76183    37986.909 
  646800    298.86436   -1424.3953    510.89852    432.58949   -376.17326    37986.909 
  646900    288.05048   -1417.6309    506.01695    385.76657   -98.746315    37986.909 
  647000    298.36698    -1407.739    498.06831    434.17539   -234.65265    37986.909 
  647100    308.06407   -1426.2826    494.11901    455.35828   -850.99983    37986.909 
  647200    304.66716   -1421.6308    470.02456    420.61583     -462.595    37986.909 
  647300    296.03651   -1444.8899    503.31308    391.77279   -982.65448    37986.909 
  647400    298.34673   -1441.4012    471.49104    373.84467   -705.82385    37986.909 
  647500    309.78282   -1461.0197     512.8419    447.08525   -323.18877    37986.909 
  647600    313.02433   -1483.8128    483.38025    409.43027   -295.95534    37986.909 
  647700    299.70452    -1535.184     453.5564    268.24271   -83.084441    37986.909 
  647800    298.78692   -1526.0274    491.44456    311.15461    -248.4035    37986.909 
  647900    300.73921   -1482.3727    483.71996    355.87791   -282.30213    37986.909 
  648000    309.61313   -1494.0266    479.96786    380.44005   -6.1956281    37986.909 
  648100    310.10653   -1489.0861    508.57172    416.20671   -197.16481    37986.909 
  648200    298.34152    -1481.123    503.81581    366.42425   -260.80519    37986.909 
  648300    305.39154   -1512.6343    484.34177     347.1922    94.067262    37986.909 
  648400    307.22371   -1511.9937    476.52214    348.26527    481.62686    37986.909 
  648500    300.89877   -1530.9055    482.74857    307.09227    672.64235    37986.909 
  648600    300.25011   -1482.1255     491.0544    361.25657     747.0654    37986.909 
  648700    307.27426    -1503.733    490.78441    371.01588    615.67169    37986.909 
  648800    307.72759   -1535.1964    501.40817    352.21806      176.584    37986.909 
  648900    286.11178   -1496.0568    462.50239     255.0942   -123.93549    37986.909 
  649000    294.73513   -1532.4102    474.31003      269.388   -327.93091    37986.909 
  649100    304.29554   -1520.5636    467.84279    317.82749   -81.808393    37986.909 
  649200    300.76351   -1494.4085    464.30538    324.53695   -167.08174    37986.909 
  649300    293.90501   -1487.7914    486.87716    322.83515   -526.86901    37986.909 
  649400    309.43191   -1462.2113    476.09526    407.56656   -903.07361    37986.909 
  649500    299.09398   -1482.9641    482.78966    346.94601   -634.38811    37986.909 
  649600    292.33341   -1451.0463    492.34383    357.96841   -592.81793    37986.909 
  649700    309.73562   -1424.9061     492.3239     462.4683   -37.321749    37986.909 
  649800    300.00923   -1436.9958    499.08529    413.33224   -504.81388    37986.909 
  649900    308.97877   -1417.6698     488.2641    462.23598    449.63011    37986.909 
  650000    299.18256   -1423.2412    510.99393    435.27213   -93.599763    37986.909 
  650100    297.68304   -1418.2695    487.39121     409.8873   -239.76775    37986.909 
  650200    305.24519    -1410.405    477.99346    442.41404   -485.54441    37986.909 
  650300    295.14426    -1442.743    502.82112      389.409   -305.90721    37986.909 
  650400    298.10457   -1419.1611    498.60291    422.10596    408.05716    37986.909 
  650500    301.21871   -1440.8895     516.7765    432.57725   -110.68718    37986.909 
  650600    292.84069   -1407.5207    499.86702    411.30199    -206.6199    37986.909 
  650700    295.60974   -1419.6867    498.04924    409.79001   -540.63592    37986.909 
  650800    299.99885   -1424.3609    488.93516    415.77025   -911.90353    37986.909 
  650900    306.58796   -1404.6695    482.83735    459.04121   -638.19473    37986.909 
  651000    286.43781   -1419.7401    501.59749    371.97446   -425.54595    37986.909 
  651100    302.44013   -1422.3098    479.35684     419.2386   -473.46912    37986.909 
  651200    299.53827   -1452.8988    493.83798    390.06078   -743.02319    37986.909 
  651300    296.28024   -1416.0478    491.88087    410.28041   -282.93086    37986.909 
  651400      301.738    -1401.039    513.75882    471.74902   -528.10174    37986.909 
  651500    306.08597   -1420.9974    504.27561    461.89059   -994.35423    37986.909 
  651600    298.45434   -1427.9128    478.09842    394.42513   -481.65127    37986.909 
  651700    303.23088   -1446.5369    496.73525    415.95141   -385.93841    37986.909 
  651800    299.37986   -1441.0079    504.55544    411.95567   -398.93323    37986.909 
  651900    294.76726   -1426.3675    489.17084    390.43627    180.18882    37986.909 
  652000    299.45863   -1398.4415    541.18149    491.50281    368.72467    37986.909 
  652100    292.76952   -1401.0631    480.60354     398.1755    610.04107    37986.909 
  652200    301.17265   -1450.1611    475.71293    382.03461     437.1903    37986.909 
  652300    297.81965   -1434.0438    483.33595    390.67305    539.56529    37986.909 
  652400    305.73254   -1429.0336    493.83055    441.81749    67.026905    37986.909 
  652500    303.63546   -1460.5164    506.94009      413.999     135.0318    37986.909 
  652600    299.82296   -1448.9242    493.11519    394.59482    264.37928    37986.909 
  652700    291.69483   -1432.3768    518.76343    400.18134    255.58101    37986.909 
  652800      287.851   -1430.1249    499.18233    365.53954    595.90606    37986.909 
  652900     293.9175   -1437.7858    505.08189    391.10169    477.29729    37986.909 
  653000    290.87004   -1424.6061    507.68772     393.1614    559.15306    37986.909 
  653100    292.82931   -1407.2025    483.44773    395.14963    740.99416    37986.909 
  653200    289.98705   -1411.4613    520.03867    414.68021    -532.9749    37986.909 
  653300    296.13705   -1389.0877    489.39167    434.10641   -504.69991    37986.909 
  653400    309.57897   -1430.3399    495.41567    459.42067   -396.58879    37986.909 
  653500    294.58041   -1460.5094    490.68988    356.97178   -718.37727    37986.909 
  653600    297.34833   -1427.5487    488.22929    399.93866    17.543705    37986.909 
  653700    302.58845   -1439.6097    526.21622    449.46611   -150.76584    37986.909 
  653800    297.59474    -1439.152    476.65411       377.87   -164.66222    37986.909 
  653900    289.75398   -1456.2618    500.33512    349.12642   -888.03737    37986.909 
  654000    304.42331   -1478.6886     479.3588    371.79405   -743.08282    37986.909 
  654100    300.27149   -1463.6346     498.2445    387.03387   -1.3536868    37986.909 
  654200    303.17512   -1459.2126    484.26012    390.54947     126.7111    37986.909 
  654300    301.23079   -1434.9657    499.50933    421.28833    1024.9286    37986.909 
  654400    306.06098   -1433.1122    503.63995    449.02758    471.26222    37986.909 
  654500    295.09138   -1424.5554     507.9634    412.50078   -112.50458    37986.909 
  654600    300.45513   -1442.0247    477.92357    389.14996    126.14504    37986.909 
  654700    292.85593   -1482.9866    497.17923     333.2169    165.75662    37986.909 
  654800    300.94182   -1468.3947    464.13982    351.18827    186.73123    37986.909 
  654900    290.46805   -1461.7404    522.80461    369.33352    59.601268    37986.909 
  655000    294.86619   -1462.0042    472.11812    338.19246    139.29741    37986.909 
  655100    296.51996     -1447.76    478.78488    366.55193    459.86774    37986.909 
  655200    307.22792   -1439.9597    525.49644    469.29249     406.6156    37986.909 
  655300    301.06349   -1408.0542    489.17944    437.11635      642.226    37986.909 
  655400    303.27271   -1475.4061     498.6978    389.23316    459.85753    37986.909 
  655500     294.0412   -1463.3889    499.34389    360.31773   -410.12709    37986.909 
  655600    305.17908   -1441.7953    494.82142     427.5539    66.462907    37986.909 
  655700    307.76829   -1428.2778    534.81171     492.7235   -257.08895    37986.909 
  655800    296.52455   -1395.2192    515.18649    455.51501    224.76971    37986.909 
  655900    298.22132   -1385.4384    490.96618    448.71781    36.182554    37986.909 
  656000    302.15306     -1415.63    489.41846    434.68705    323.70295    37986.909 
  656100    293.57206   -1392.5364    510.63155     440.3449    399.91306    37986.909 
  656200    303.19651   -1427.4066    529.70142    467.89311    560.54414    37986.909 
  656300    304.19674   -1433.0803    496.44557    433.46855    399.74926    37986.909 
  656400    306.90772   -1439.1778    493.68054    436.81637    656.10973    37986.909 
  656500     295.9685   -1433.6163    511.17336    410.60039    239.21406    37986.909 
  656600    304.94532   -1462.7473     485.3523    396.07995   -72.671895    37986.909 
  656700    301.47929   -1458.7376    516.06145    415.18771     312.3832    37986.909 
  656800    307.24099   -1438.7243     501.4254    446.51575    255.00891    37986.909 
  656900    300.47934   -1483.3323    498.43734     368.4652    -433.9817    37986.909 
  657000    305.24931   -1553.0358    491.20531    313.01363    164.39876    37986.909 
  657100    305.94119   -1475.2038    481.75831    384.51487   -58.687536    37986.909 
  657200    298.13489   -1435.7348    496.94872    404.01464   -226.88155    37986.909 
  657300    307.47822   -1497.3698    486.13877    373.65215    345.04973    37986.909 
  657400    301.70515   -1504.7011    502.74725    356.92735    280.01948    37986.909 
  657500    303.47916   -1475.1596    493.21806    384.92981     87.65233    37986.909 
  657600    300.33159   -1499.5661    485.25605    338.38466   -430.96862    37986.909 
  657700    306.56347   -1522.3794    471.95788    330.34161   -170.86316    37986.909 
  657800    293.31125   -1468.8789    506.02828    358.22441    32.422511    37986.909 
  657900    287.97264    -1486.903    491.71113    301.83801   -236.09062    37986.909 
  658000    300.41077   -1464.8071    483.79266    372.03689   -312.97986    37986.909 
  658100    291.46713   -1480.6368    497.87003    330.00239    125.65954    37986.909 
  658200    282.89112   -1495.3018    535.96197    314.80288  -0.73877653    37986.909 
  658300    290.70814   -1484.4532    504.44497    329.34235   -134.70976    37986.909 
  658400    310.23059   -1520.4099    508.70179    385.57176    195.26074    37986.909 
  658500    299.79074   -1458.6424    488.09156    379.70781    198.73412    37986.909 
  658600    295.03395   -1469.9777    506.74758    365.60401   -301.23202    37986.909 
  658700    289.95168   -1527.1835    491.09276    269.85273  -0.82905346    37986.909 
  658800    305.53037   -1522.8289    476.85637    330.13745   -87.776375    37986.909 
  658900    300.66815   -1520.8301    517.96672     351.3472   -125.84828    37986.909 
  659000    316.12814   -1507.1265    484.46261    401.17847    213.60625    37986.909 
  659100    313.12246   -1495.8559    528.68834    443.13723    263.52551    37986.909 
  659200    304.09524   -1506.8677    480.44055    343.21898    410.13306    37986.909 
  659300     306.0743   -1498.0172    477.53434    358.07705    590.23377    37986.909 
  659400    308.21834   -1489.7634    514.44842    412.90165    621.45175    37986.909 
  659500     299.9266   -1485.6528    478.79953    344.01735    861.19685    37986.909 
  659600    286.09601   -1522.4624    500.52789    266.64312    319.70593    37986.909 
  659700    303.90607   -1482.6382    477.03767    363.19357    283.72884    37986.909 
  659800    295.23682   -1438.4556     507.5771    398.86933   -126.63717    37986.909 
  659900    298.98109   -1472.7017    506.52007    380.43044    82.407637    37986.909 
  660000    297.19239   -1451.5995    508.68022    395.63643   -429.46651    37986.909 
  660100    298.66053   -1463.4645     527.9753    409.67901    90.099747    37986.909 
  660200    302.90968    -1473.784    498.77052     389.2929    196.50233    37986.909 
  660300    290.79043   -1445.8401    541.16494    405.04602    252.97654    37986.909 
  660400    306.86884   -1464.0921    509.10528    427.15171    71.730867    37986.909 
  660500    292.60015   -1443.2758    514.59382    389.19021    842.40921    37986.909 
  660600    297.15014   -1454.7638    490.32143      373.923   -55.054095    37986.909 
  660700    302.85197   -1467.9878    517.30913    413.36787    153.15159    37986.909 
  660800    305.99454    -1465.979    505.63659     417.8582    -206.6357    37986.909 
  660900    307.19916   -1456.8552    495.35215    422.12317    182.26312    37986.909 
  661000    302.60399   -1462.9952    524.42994    424.36433   -288.74547    37986.909 
  661100    293.65195   -1512.8106    485.99524    295.79422   -289.48413    37986.909 
  661200    293.68822   -1503.3598    464.03886    283.45205    337.42682    37986.909 
  661300    301.97081   -1499.1468    500.56445    361.49541   -361.36289    37986.909 
  661400    299.53048   -1443.9778     509.2229    414.33156    293.96704    37986.909 
  661500    301.45254   -1468.6047    488.52555    377.66432    129.73642    37986.909 
  661600    293.64164   -1468.7907    520.50928    374.28171   -392.84787    37986.909 
  661700    315.31294   -1482.8248    497.36588    434.71183    354.89732    37986.909 
  661800    298.82013   -1514.0825    479.81637    311.62091    537.49648    37986.909 
  661900    311.17059   -1534.9298    487.04007    353.62389    605.32327    37986.909 
  662000    293.24928    -1534.681    511.41521     297.5301    536.56711    37986.909 
  662100    304.47722   -1550.8118     511.9109     332.4657    611.56785    37986.909 
  662200    299.91401   -1532.2162    501.44745    320.04512     585.9218    37986.909 
  662300    307.44105   -1492.8196    494.52027    386.41644    118.90634    37986.909 
  662400    305.25213   -1528.1548    479.27281    325.97484    306.02825    37986.909 
  662500    290.22263   -1522.1455    496.40539    281.42377   -152.04595    37986.909 
  662600    305.22595    -1498.816    488.53396    364.45683   -355.28195    37986.909 
  662700    289.09392   -1469.7647    503.71638    336.03183     327.5842    37986.909 
  662800    302.37812   -1520.0086    514.80972    356.71343    38.527769    37986.909 
  662900    300.15729   -1485.5159    479.67924    346.07301    116.16089    37986.909 
  663000    298.44901   -1482.3852    525.87744    387.70781   -157.41299    37986.909 
  663100    305.86556   -1501.3968    490.01367    366.23658   -297.53588    37986.909 
  663200    307.97921   -1517.0436    491.47588     361.5719   -317.65832    37986.909 
  663300    294.53318   -1516.5671    520.61094    330.62247   -149.37176    37986.909 
  663400    308.65862   -1496.8771    486.52421    379.84674    649.84538    37986.909 
  663500    300.25352   -1496.7079    514.28093    369.91608    116.11184    37986.909 
  663600    301.43178   -1529.3762    497.50118    325.77489   -62.583893    37986.909 
  663700    297.65893   -1497.2755    506.59364    349.97512    602.21707    37986.909 
  663800    308.39293   -1502.4436    524.79885    411.35827    523.02908    37986.909 
  663900    297.05029   -1487.0938    488.18637    339.00828    440.71459    37986.909 
  664000    299.02521   -1538.8589    492.82959    300.78139   -11.799622    37986.909 
  664100    301.99798   -1568.4549    481.05119     272.7964    287.56599    37986.909 
  664200    313.15831   -1547.8258    514.75264    377.39308    274.19233    37986.909 
  664300    291.97828   -1491.1717    496.42499    320.32464    -223.3455    37986.909 
  664400    292.30383   -1491.3468    484.61026    309.80103   -227.89285    37986.909 
  664500    290.48977   -1509.0152    493.52556    292.87746   -166.59557    37986.909 
  664600    305.39685   -1499.5806    502.07367    378.00168    319.14135    37986.909 
  664700    303.03977   -1489.6515    521.50331    396.74415    34.349291    37986.909 
  664800    299.07665   -1537.2903    486.86306    296.61514   -330.57434    37986.909 
  664900    300.28958   -1498.4764    498.27702    352.30604   -28.279357    37986.909 
  665000    299.16839   -1478.6999    530.03631    398.79202     99.46335    37986.909 
  665100     301.5652   -1505.3745    493.02092    345.89733   -13.445096    37986.909 
  665200     295.1032   -1502.6381    511.11121    337.61911   -427.66502    37986.909 
  665300    297.94783   -1476.3003    503.11989    368.77785    -87.40416    37986.909 
  665400     307.9696    -1452.311       531.17    465.95527    29.260379    37986.909 
  665500    295.26041   -1477.5565    541.47996    393.77753    248.84477    37986.909 
  665600    299.00995   -1433.5041    502.28073    415.51864    558.89316    37986.909 
  665700    292.71336   -1482.8707    527.66117    363.17265    528.92721    37986.909 
  665800    302.04388   -1491.3367    525.62227     394.6924    136.74285    37986.909 
  665900    297.06962   -1468.2274    529.12944    398.90484    188.68827    37986.909 
  666000    295.94444   -1464.9469    523.19478    391.18286   -546.77301    37986.909 
  666100     294.2053   -1488.2086    483.56898    320.46219    281.02026    37986.909 
  666200    296.60058   -1510.5198    511.48888    336.85931    166.89974    37986.909 
  666300    299.93932    -1507.306    511.80551    355.42739    1188.9082    37986.909 
  666400    300.06033   -1534.9288    501.31839    317.86252    997.95642    37986.909 
  666500    293.92573   -1529.4509    511.15488     305.5466    423.66336    37986.909 
  666600    309.81209   -1510.4662    464.17337    349.10204    643.62407    37986.909 
  666700    294.45747   -1537.8231    498.35354    286.76809    97.011091    37986.909 
  666800    294.03561   -1529.7231    532.90459    327.51901   -555.90976    37986.909 
  666900    295.64303   -1503.2876     502.5826    330.87239   -596.20273    37986.909 
  667000    305.58963   -1525.6355    501.54133    352.28269   -775.99245    37986.909 
  667100    296.52166   -1539.1004     496.6404    293.07472   -568.46623    37986.909 
  667200     300.9872   -1523.5758    512.02266    344.09437   -204.96285    37986.909 
  667300    294.48436   -1502.1986    495.93906    320.09922   -301.16929    37986.909 
  667400    296.70484   -1483.2963    502.08993    355.15342    -705.3758    37986.909 
  667500    288.40759   -1480.3249    509.31516    327.97923   -27.063172    37986.909 
  667600     297.4034   -1483.5557    513.86479    369.81519   -379.34963    37986.909 
  667700    298.61433   -1500.9526    513.00441    357.01191   -991.26824    37986.909 
  667800    290.53193   -1488.7558    493.63833    313.43949    -867.7971    37986.909 
  667900     304.1498   -1537.9103    496.61971    328.60132   -396.81327    37986.909 
  668000    298.65466   -1511.8798    511.10213    344.36413   -105.70387    37986.909 
  668100    286.94983   -1498.7071    487.85911     281.5752   -372.46573    37986.909 
  668200    308.87871   -1549.4325    479.35551    321.11401   -211.58802    37986.909 
  668300    301.67447   -1555.0078    493.99194    297.72715    -96.74142    37986.909 
  668400    289.75742   -1491.1962    516.24572    330.11811   -211.36697    37986.909 
  668500     306.1643   -1512.8744    489.47392    355.56473    66.456372    37986.909 
  668600    297.93821   -1505.5593    503.69616    340.05174    57.427208    37986.909 
  668700    302.55679    -1501.133    484.56947    346.15349     348.9187    37986.909 
  668800    286.90238   -1540.2345    499.51365    251.48864     449.7403    37986.909 
  668900    290.28817   -1511.3342    498.44253    294.56744    205.69104    37986.909 
  669000     305.7263   -1510.1206     480.6262    347.49812    471.80703    37986.909 
  669100    312.08115   -1489.9164    485.92313    401.62144    99.930276    37986.909 
  669200    287.43605   -1485.8293    497.08323    305.86698   -308.11378    37986.909 
  669300     300.3125   -1476.5567    507.95664    384.00867    382.97108    37986.909 
  669400    313.43918    -1497.482    526.52989    440.77923    972.27631    37986.909 
  669500     303.8896   -1481.3105    499.95877    387.36818    529.64456    37986.909 
  669600    301.56294   -1457.6119    501.92249    402.55132   -293.88822    37986.909 
  669700    308.19962   -1444.1655     505.4593    449.42613    191.30138    37986.909 
  669800    295.21217   -1421.4084    506.80473    415.03318   -177.63447    37986.909 
  669900    296.12099   -1426.4075     508.7061    416.02869   -262.01942    37986.909 
  670000    296.31773   -1471.5004    490.71959    353.83539   -2.9658407    37986.909 
  670100    294.67683   -1458.1701    518.57096    387.62645    149.99579    37986.909 
  670200    299.95351   -1471.7306    536.67316    415.93434   -14.340898    37986.909 
  670300    294.84803   -1499.8589    467.70392     295.8417    240.96247    37986.909 
  670400     306.1819   -1498.2616    529.40142    410.18433    262.14712    37986.909 
  670500    306.98454   -1481.2133     503.1302    404.57643   -93.830056    37986.909 
  670600    303.78442   -1459.9216    507.84076    416.16542   -169.29747    37986.909 
  670700     294.1638   -1445.6461    518.87316    398.14194   -484.96974    37986.909 
  670800    304.68309   -1463.6197    519.33922     428.0134    -147.0124    37986.909 
  670900    295.77642   -1444.5804    516.49554    404.09329   -692.17231    37986.909 
  671000    299.74769   -1445.3164    525.06024     429.8086   -704.48259    37986.909 
  671100    299.45598   -1462.8283     519.0071    404.92975    -322.9535    37986.909 
  671200    292.69782   -1418.6688    539.23903    438.88239   -449.44361    37986.909 
  671300    304.83158   -1479.3378    487.56291    381.18779   -419.94633    37986.909 
  671400    309.83444   -1449.8912    516.25076    461.85507   -290.10682    37986.909 
  671500    302.39699   -1465.9004    515.63468    411.73155   -426.23074    37986.909 
  671600    299.91556   -1479.6849    505.81525    376.95121   -449.25704    37986.909 
  671700    298.20506   -1479.8537     500.2272    363.49033    -435.9891    37986.909 
  671800    299.63386   -1464.1872    517.69861    403.06349   -89.325976    37986.909 
  671900    288.76715   -1451.0845    485.10148    334.62531    -55.75546    37986.909 
  672000    302.54897   -1489.0871    500.15644    373.75108     361.4228    37986.909 
  672100    300.00391   -1423.6717    492.76884    420.31595   -205.56601    37986.909 
  672200    300.78404   -1495.0575    482.29755    341.97259     73.16716    37986.909 
  672300    306.13605   -1456.4634    519.07062    441.44517   -71.194479    37986.909 
  672400    295.18234   -1472.2037    523.55515    380.85388   -228.40481    37986.909 
  672500    295.56769   -1475.8882     518.4427    373.79252   -384.40545    37986.909 
  672600    300.68544     -1518.36    502.43088    338.35926    265.41034    37986.909 
  672700    301.40059   -1491.9738    517.11081    382.64648    326.59972    37986.909 
  672800    297.97817   -1468.6657    530.40473    403.83395    57.487332    37986.909 
  672900    292.73937   -1405.2882    502.07782    415.28889   -203.73251    37986.909 
  673000    296.15297   -1477.8778    532.84086    388.83724   -421.85145    37986.909 
  673100    310.83823   -1403.0553    541.31648    538.27782   -138.28442    37986.909 
  673200    297.28785   -1449.4689    508.21316    397.72991    350.49939    37986.909 
  673300    294.00095   -1448.1557     518.8556    394.88133    529.57709    37986.909 
  673400    292.33163   -1454.3831    507.58067    369.86036     203.3745    37986.909 
  673500    311.73304   -1415.7423    531.32722     519.6318    -144.1487    37986.909 
  673600    305.68752   -1421.8961    527.82737    482.74909    348.89047    37986.909 
  673700    296.98526   -1456.2389    519.35257    400.73641    432.72661    37986.909 
  673800     304.0138   -1490.9993     514.7844    393.06446    621.22034    37986.909 
  673900    294.69101   -1447.4721    504.56106    384.37847    80.014142    37986.909 
  674000    284.82626   -1456.2801    543.67477    370.25325   -4.0262444    37986.909 
  674100    298.02203   -1490.4504    488.97586     340.8179     17.10144    37986.909 
  674200    291.97752   -1474.6405    540.22114     380.6486    264.49037    37986.909 
  674300    306.14575   -1506.0022    499.76186    372.64128    127.50365    37986.909 
  674400    305.92277   -1504.3011    485.78464    359.36095    126.29399    37986.909 
  674500    299.06081   -1492.8778    506.13772    360.23102    128.33435    37986.909 
  674600    299.80793   -1525.3169    490.97012    315.98937    105.74609    37986.909 
  674700    308.22137   -1494.0591    508.44949    402.62065    552.84335    37986.909 
  674800    304.27002   -1505.1269    479.56208    344.86853    534.77491    37986.909 
  674900    300.38139   -1539.1484    473.83195    287.60252    618.00831    37986.909 
  675000    301.79987   -1540.7915    501.37862    319.89495    397.21284    37986.909 
  675100    297.89387   -1538.2291    491.71895    295.20506   -60.654685    37986.909 
  675200    300.25376    -1481.205    489.49817     360.6373   -34.833041    37986.909 
  675300      305.087   -1493.5656    516.34202    396.88949    38.096746    37986.909 
  675400    305.69428   -1500.0303    511.67415    388.49206   -6.2483307    37986.909 
  675500    304.57603   -1444.9729     475.8045    402.64323   -82.610994    37986.909 
  675600    287.67563   -1497.2037    503.89644    302.38493    -217.5075    37986.909 
  675700    305.71406   -1448.2718    506.66074    435.32628   -86.542346    37986.909 
  675800    299.28892   -1436.4623    504.03436    415.57051    419.15907    37986.909 
  675900    301.19065   -1457.6794    506.15052    405.03501    91.861373    37986.909 
  676000    300.63902   -1476.4407    529.66109    407.29971    154.34446    37986.909 
  676100    288.55767   -1473.6689    488.40915    314.40515   -133.37561    37986.909 
  676200    302.16552   -1429.4112    529.70411    461.24759   -49.450347    37986.909 
  676300      292.954   -1431.5878    511.72102    399.59925   -559.23922    37986.909 
  676400    293.17279    -1413.853    483.23474     389.8331   -109.67877    37986.909 
  676500    295.17481   -1425.3671    521.88001    425.98139   -120.75872    37986.909 
  676600    304.88042   -1454.3771    505.87857    424.68412    194.44671    37986.909 
  676700    294.34615   -1429.6475    488.56744    384.65615     430.0711    37986.909 
  676800    303.91517   -1439.8882    521.53811    450.48507    77.524077    37986.909 
  676900    294.18571   -1403.0475    504.39267    426.35873    136.71049    37986.909 
  677000    305.83306   -1438.9119    505.21786    443.77928    20.423005    37986.909 
  677100    293.71446   -1443.2734    475.94886    355.56656    -253.4375    37986.909 
  677200    301.83104   -1435.1953    494.35372    418.60662   -393.06262    37986.909 
  677300    303.10227   -1421.8592    510.05447    453.36911    -208.0062    37986.909 
  677400    294.63412     -1418.68    518.99003    427.34332   -89.216945    37986.909 
  677500    303.56794   -1432.1001    518.01497    453.18606   -270.05633    37986.909 
  677600    300.34441   -1421.4577    521.14948    452.44421   -76.323875    37986.909 
  677700    301.52491   -1450.6048    513.47452    420.93914    184.07728    37986.909 
  677800    293.60705   -1443.9353    523.90107    402.37308    338.30348    37986.909 
  677900    302.81737   -1432.6002    526.78375     458.0742    478.86272    37986.909 
  678000    308.99244   -1429.3874    506.37541    468.69121   -108.83273    37986.909 
  678100    293.25856   -1432.8741     475.4582    363.42178    254.41343    37986.909 
  678200    304.75282   -1494.7312    485.03573    362.91242    169.13148    37986.909 
  678300     305.8711   -1522.0155    478.92353    334.55265   -55.510354    37986.909 
  678400    304.08528   -1568.1621    498.31498    299.75426   -366.22009    37986.909 
  678500    300.09564   -1551.8376    451.70616    251.50052   -442.33532    37986.909 
  678600    307.71589   -1508.5865    499.00906    376.37614   -329.23196    37986.909 
  678700    310.25167   -1474.0989    481.58153     404.8574   -226.45895    37986.909 
  678800    301.03134   -1462.7368    486.63677    379.74627   -116.21922    37986.909 
  678900    297.26092   -1463.6658     486.1862    361.38479    -660.0064    37986.909 
  679000     288.0097    -1512.028     479.0387    264.20754    23.610049    37986.909 
  679100    297.54777   -1492.9747    489.20215    336.38375    235.22831    37986.909 
  679200    293.41089    -1494.143    509.02058    336.40143    435.41172    37986.909 
  679300    293.76235   -1494.7031     499.4044    327.80805    289.89203    37986.909 
  679400     292.0523   -1524.2143    482.46185    273.65224   -52.591518    37986.909 
  679500    299.99509   -1560.8677    507.78776    298.09914    179.76313    37986.909 
  679600    310.83254    -1493.813    499.93094    406.10895    240.23431    37986.909 
  679700    308.40095   -1504.8344    463.42191    347.62666   -293.49441    37986.909 
  679800    305.63679   -1526.8349    493.90448    343.65884   -315.47924    37986.909 
  679900    297.50914   -1517.4443    514.58838    337.12647   -183.55591    37986.909 
  680000    295.46526   -1505.5104    471.25723    296.52355   -427.26826    37986.909 
  680100    297.57928   -1518.6836    518.25427    339.86896     -386.902    37986.909 
  680200    296.02053   -1486.2709    476.77466    323.78135   -680.03425    37986.909 
  680300     299.2356   -1512.2177    488.97268     324.5133   -375.25323    37986.909 
  680400    294.63479   -1504.8438    489.43154    311.62404   -797.00651    37986.909 
  680500    308.99983   -1514.3615    474.38064    351.75558    418.71839    37986.909 
  680600    303.84293    -1454.504    496.81445    410.82018    177.78228    37986.909 
  680700    305.78954   -1464.5781    490.42638    403.12557    169.91669    37986.909 
  680800    296.16405   -1488.6276    490.69415     335.9906   -34.430353    37986.909 
  680900    294.89311   -1545.1932    507.25325    290.25981   -104.72133    37986.909 
  681000    301.63954   -1538.8608    492.59027    312.31519   -54.207357    37986.909 
  681100    298.50544   -1524.6933    496.76523    316.54158   -228.32271    37986.909 
  681200    296.20945   -1460.7141    497.88935    371.30377    503.27523    37986.909 
  681300     299.7589   -1514.5098    510.42337    346.02882    225.96184    37986.909 
  681400    293.35614   -1517.3634    500.63551    304.54933   -3.2250081    37986.909 
  681500     300.6485   -1534.0273    497.93596    318.03067   -770.17684    37986.909 
  681600    310.94654   -1540.3918    479.85704    339.96968   -518.13882    37986.909 
  681700    298.32549   -1492.1465    505.56705    357.07977   -1259.4479    37986.909 
  681800    293.72436    -1522.608    487.31698    287.64468   -832.34239    37986.909 
  681900     302.1354   -1491.3249     506.9585    376.45263   -961.12219    37986.909 
  682000    304.74468   -1486.4387    490.34323    376.47581   -202.73378    37986.909 
  682100     304.8578   -1493.0921    493.66413    373.65282   -371.10324    37986.909 
  682200    296.97011   -1490.5009    476.25457    323.30821   -309.96883    37986.909 
  682300    303.80327   -1511.3257    496.81995    353.82536   -416.03894    37986.909 
  682400     316.7034   -1482.2573    491.59123     435.7673   -264.71952    37986.909 
  682500    294.64297   -1507.3028     492.4648    312.23509   -709.43015    37986.909 
  682600    301.84962   -1496.1321    484.69248    348.09229    -899.8317    37986.909 
  682700    310.22045   -1463.9953    506.74752    439.98631   -834.47151    37986.909 
  682800     292.1616   -1486.9112    527.81996     356.8058   -421.40683    37986.909 
  682900    306.37254   -1479.1756     502.5032    403.23075    13.496269    37986.909 
  683000    293.06904   -1491.7465    493.84782    322.08547   -55.289233    37986.909 
  683100    310.60709   -1462.4751    500.60628    437.10676    147.22838    37986.909 
  683200    298.84517   -1482.0209    506.35556    370.33446    83.462613    37986.909 
  683300     306.5357   -1514.4326    498.68713    364.89256    81.287063    37986.909 
  683400    308.56951   -1499.7081    490.95747    381.04766    755.98021    37986.909 
  683500    291.41746   -1516.0651    521.28888    317.76919   -182.93986    37986.909 
  683600    302.50543   -1514.8318     500.5943    348.24812   -499.46336    37986.909 
  683700    293.58706   -1495.5925     505.8896    332.61439   -635.63812    37986.909 
  683800    303.73829   -1521.3716    492.87287    339.53975   -610.48045    37986.909 
  683900    292.99135   -1488.4776    513.79151    344.94811   -612.64386    37986.909 
  684000    308.97551   -1470.9661    495.70559     416.3664   -460.65163    37986.909 
  684100     303.3039   -1476.9264    514.04094     403.1965   -430.60805    37986.909 
  684200    304.00299   -1489.0022    471.42527    351.65377   -295.51557    37986.909 
  684300    308.89533    -1454.355    512.53086    449.44168    195.91722    37986.909 
  684400    317.75899   -1460.9177    478.79479    449.06478    1069.3916    37986.909 
  684500    307.64717   -1477.2944    504.59505    412.94477    732.64627    37986.909 
  684600    298.76634   -1470.8537    518.02628     392.8174    628.87967    37986.909 
  684700    298.08197   -1459.4907    480.60931    363.68096    610.04109    37986.909 
  684800    305.48747   -1478.7986    526.86312    423.98136     933.3801    37986.909 
  684900    308.16268   -1454.9495    517.49147    450.50794     798.3405    37986.909 
  685000    299.46983   -1482.8129    533.33314    399.33352    467.30322    37986.909 
  685100    305.17979   -1489.9398    488.64474    373.23599    788.66646    37986.909 
  685200    313.47879   -1475.7245    498.11236    434.29759    529.60164    37986.909 
  685300    296.74251   -1478.8367    516.73948    374.43226    534.76683    37986.909 
  685400    306.49906   -1509.0912    496.07878    367.46057    330.89511    37986.909 
  685500    298.78483   -1488.2116    510.64355    368.15996    -46.02858    37986.909 
  685600     298.0567   -1460.8976    481.00325    362.55424   -403.66592    37986.909 
  685700    305.52532   -1476.1731    506.25171    406.16583    -558.1687    37986.909 
  685800    305.14415    -1507.693     505.5263     372.2038    173.20439    37986.909 
  685900    303.15897    -1521.359    485.02657     329.0968   -1004.4817    37986.909 
  686000    305.81995   -1503.5057     505.9255    379.83403   -86.126716    37986.909 
  686100    293.64154   -1506.2709    492.45522    308.74696   -425.89251    37986.909 
  686200    302.88671   -1501.2998    497.38394    360.28705    480.61077    37986.909 
  686300    292.91902   -1535.4421    495.19108    279.05741     249.6994    37986.909 
  686400    301.65163   -1507.4326    509.65885    360.86637    1037.0547    37986.909 
  686500    302.10154   -1501.3092    492.83444    352.19174    519.84965    37986.909 
  686600    308.23008   -1482.7572    488.96295    394.47522    384.78787    37986.909 
  686700    307.60744   -1453.3776    517.88456     449.9721    279.33734    37986.909 
  686800    306.26763   -1457.6917    544.04944    465.78838    333.54636    37986.909 
  686900    299.78923   -1479.8788    531.83209    402.20518    76.197707    37986.909 
  687000    300.09683   -1501.3258    473.66801    323.97955    380.35076    37986.909 
  687100    294.33752   -1511.1418    518.86263    333.41818    116.33898    37986.909 
  687200    307.01932   -1481.9326    504.31825    405.20185   -373.24156    37986.909 
  687300    299.04103   -1415.3261     505.1272    436.68307   -706.20036    37986.909 
  687400    299.30293   -1482.3151    501.37947    367.12597   -522.09354    37986.909 
  687500    301.77408   -1466.0746     478.1042    371.22125    -288.8884    37986.909 
  687600    307.61389    -1503.996    506.75097    388.24915   -537.23563    37986.909 
  687700    296.16443   -1433.1979    537.73655    438.46443   -443.74727    37986.909 
  687800    300.14116    -1468.676    481.11553    364.27651   -109.61051    37986.909 
  687900    301.64456   -1487.1052    507.09055    378.59364   -390.16115    37986.909 
  688000    304.00899   -1474.4808    498.89478    393.67168     610.1073    37986.909 
  688100    300.60767   -1500.2675    477.97441    331.64504    259.24247    37986.909 
  688200    305.47191   -1533.0717    498.93586    341.71082   -336.35833    37986.909 
  688300    305.37796   -1514.4838    508.29382    369.23355   -380.45006    37986.909 
  688400    302.82586   -1488.0811    482.13074    357.97848   -355.93952    37986.909 
  688500    310.51507   -1494.6588    499.82102    403.72329   -456.59061    37986.909 
  688600    293.89723   -1502.5091    471.00948    292.21471    166.57997    37986.909 
  688700    300.46973   -1500.3369    496.37011    349.35002   -264.56332    37986.909 
  688800    304.86992   -1503.4738    463.50195    333.16343    37.865523    37986.909 
  688900    311.65336   -1518.3742    505.75218    391.06594    318.78643    37986.909 
  689000    303.56455   -1525.5932    506.10732     347.7701   -87.389399    37986.909 
  689100    301.05871   -1531.0179    473.95616    298.90784    135.61736    37986.909 
  689200    294.21169   -1522.9047    516.01695    318.24289    2.5140102    37986.909 
  689300    286.53774   -1518.8573    500.57823    272.28808    78.505733    37986.909 
  689400    302.35376   -1478.5923    476.25185    359.46207    502.44207    37986.909 
  689500    295.26786   -1509.5307    485.21116    305.56802    267.84127    37986.909 
  689600    303.68258   -1520.4042    514.42101    361.80436   -94.371236    37986.909 
  689700    293.33454    -1528.447    499.30482    292.03777   -418.87399    37986.909 
  689800    302.87913   -1496.6149    506.08978    373.64374   -50.631073    37986.909 
  689900    288.44016   -1455.6324     497.2674    340.77069   -148.66813    37986.909 
  690000    306.85586   -1470.5062    505.98457    417.55839     115.4631    37986.909 
  690100    301.51907   -1484.3742    482.30295     355.9718   -53.801705    37986.909 
  690200    302.90413   -1497.7547    474.34301    340.86969     592.5818    37986.909 
  690300    294.28479   -1498.0107    504.18282    331.63199    248.48435    37986.909 
  690400    293.09445   -1529.7931    500.66126    290.96673    171.51721    37986.909 
  690500    299.48527   -1533.7125    495.45371     310.6241     260.4641    37986.909 
  690600    288.86722   -1550.7436    486.05475    236.37023    -164.8939    37986.909 
  690700    302.50358   -1551.5129    453.16569    264.13007   -381.15374    37986.909 
  690800    296.66949   -1554.9115    489.72831    271.01739   -455.14283    37986.909 
  690900     305.9854   -1518.0644    483.89262    343.98767   -363.02496    37986.909 
  691000    296.25879   -1535.8269    466.72827    265.25214   -485.91791    37986.909 
  691100    305.87553    -1509.228    501.97939    370.41602   -487.65031    37986.909 
  691200    308.97686   -1553.0444    477.29171    315.88028    36.526397    37986.909 
  691300    311.87591   -1529.3547    486.92578    362.26141   -45.613955    37986.909 
  691400    303.68629   -1510.7547     494.7969    351.84645    425.93872    37986.909 
  691500    296.24147   -1498.1999    476.36985    312.44272    638.08208    37986.909 
  691600    306.20616   -1536.0592    505.53703    348.63155    478.30522    37986.909 
  691700    299.16861   -1493.9338    478.25481    331.77761    517.81754    37986.909 
  691800    297.55852   -1482.0917    484.92556    343.03859    602.01548    37986.909 
  691900    310.77456   -1470.9945    487.85888    416.59423   -254.93606    37986.909 
  692000     295.8626   -1516.3691    494.37165    310.56887   -265.57147    37986.909 
  692100    298.14048   -1558.5924    490.06438     274.2979   -85.920804    37986.909 
  692200    293.06201   -1545.8672    484.94312    259.02838    23.075621    37986.909 
  692300    303.19678   -1517.9955    473.37219    320.97622   -75.185913    37986.909 
  692400    296.29626   -1532.3071    499.08422    301.29673    198.49515    37986.909 
  692500    295.07266   -1552.2884    504.55541    281.27547    473.83398    37986.909 
  692600    309.70751   -1540.2329    463.09882     317.7898   -183.87171    37986.909 
  692700    300.60415   -1514.1497    523.82597    363.59851    164.27411    37986.909 
  692800    292.91064    -1523.912    468.84265    264.20131   -8.2608035    37986.909 
  692900    303.81004      -1509.5    497.71871    356.58033    912.19362    37986.909 
  693000    295.62261   -1532.8061    471.06771    269.74704    758.84034    37986.909 
  693100    311.75938   -1488.7781    497.60122    412.98863    828.68933    37986.909 
  693200    297.24243   -1502.4794    504.89201    341.19368    898.61465    37986.909 
  693300    304.18707   -1481.7855      501.615     389.8893    844.39286    37986.909 
  693400    310.43399   -1512.1454    522.17276    408.22329    481.46637    37986.909 
  693500    296.02433   -1489.7863     504.4408    347.94925    1.4744371    37986.909 
  693600     294.7765   -1512.5316    482.50007    297.64299   -197.95776    37986.909 
  693700    303.89376   -1473.4531    485.17921    380.46479    229.11171    37986.909 
  693800    301.16447   -1461.6577    489.86984    384.65809    259.92562    37986.909 
  693900    291.42813   -1471.2338    504.85752    346.21712    493.31836    37986.909 
  694000    305.48591   -1489.0754    485.93394     372.7683    373.79347    37986.909 
  694100    301.03038   -1501.4735    503.74552    358.11402    300.76735    37986.909 
  694200    300.89556   -1522.7313    493.75902    326.26247    111.32805    37986.909 
  694300    300.24833   -1521.7784    494.50416    325.04542   -365.51948    37986.909 
  694400    297.85076    -1467.545    517.07596    391.05197    -17.89776    37986.909 
  694500    299.58089   -1505.6504    493.33913    337.00223   -284.09192    37986.909 
  694600    294.27809    -1463.778    506.01289    367.66459    123.78642    37986.909 
  694700    307.73315   -1455.9052    534.15728    464.28337    520.52605    37986.909 
  694800    298.88217   -1477.9834    509.05348    377.23655    470.87116    37986.909 
  694900    305.38315     -1446.21    506.37962    435.61652    971.24526    37986.909 
  695000    308.31743    -1454.387    519.09589    453.37184   -146.69605    37986.909 
  695100    290.01734   -1449.4827    483.34864    340.10515   -138.44454    37986.909 
  695200    285.29686    -1471.561    511.43465    324.85189   -409.65166    37986.909 
  695300    303.30268    -1461.898    517.05389     421.2324   -286.42459    37986.909 
  695400    300.55024   -1479.8798    492.90682    366.70647    498.49539    37986.909 
  695500     294.0852   -1476.9365    498.80275    346.42716    81.177115    37986.909 
  695600    297.27671   -1456.2618    490.67566    373.34938   -177.47654    37986.909 
  695700     308.8932   -1488.4318    484.89957    387.72393    65.052517    37986.909 
  695800    299.63255   -1456.2853    486.15505    379.41597   -596.12071    37986.909 
  695900    308.14913     -1423.18    514.68615      479.411   -646.95836    37986.909 
  696000    304.17064   -1467.0713      516.358     419.2725   -521.96028    37986.909 
  696100    297.10885    -1453.665    483.05652    367.57096   -64.858607    37986.909 
  696200    289.24209   -1470.5718    512.59849    344.77424    5.7444533    37986.909 
  696300    298.84241   -1465.2177    508.57159    389.34136   -758.30551    37986.909 
  696400    308.27372   -1487.0422     472.5308    373.95466   -353.12909    37986.909 
  696500    305.22222   -1481.7376    489.86978    382.85425    113.81952    37986.909 
  696600    303.56403   -1472.7285    520.01975    414.54484     121.5886    37986.909 
  696700    292.25722   -1477.7933    497.42335    335.95768    273.79557    37986.909 
  696800    301.91911    -1482.549     497.4642     374.7601     331.1185    37986.909 
  696900    296.02107   -1502.1424    498.20967    329.34729    779.91555    37986.909 
  697000    303.97846   -1471.1511    537.24223    435.21137    -97.73476    37986.909 
  697100    300.87398   -1488.5736     477.2415     343.8055   -176.51713    37986.909 
  697200    300.36785    -1457.988    527.33643    422.20638   -12.466431    37986.909 
  697300    304.62605   -1469.8879    507.71435    409.86343    292.51402    37986.909 
  697400    297.26225   -1485.0287     492.4088    346.25045    388.09349    37986.909 
  697500    298.42937   -1453.0687    540.70926    431.76766    549.26173    37986.909 
  697600    303.67391   -1528.6996    502.56442    341.61336    288.44828    37986.909 
  697700    313.21938   -1483.8859    498.40724    425.26265     -191.188    37986.909 
  697800    309.06761    -1499.783    497.21801     389.4768   -334.56397    37986.909 
  697900     293.3705   -1477.8443    512.98405    356.48168   -321.98259    37986.909 
  698000    294.31352   -1509.3879    504.80777    321.00908   -229.84076    37986.909 
  698100    302.22547   -1509.8254    515.42103    366.82032   -136.59189    37986.909 
  698200    293.47826   -1508.1146    507.99119    321.70386   -171.82563    37986.909 
  698300    303.10836   -1527.4435    516.17841    353.93611    16.015366    37986.909 
  698400    310.85883   -1519.9055     472.3598    352.56372    -410.4807    37986.909 
  698500    300.60355    -1508.725    490.29141    335.48604    91.567058    37986.909 
  698600    296.41306   -1503.1294    513.63934    345.55553    59.220073    37986.909 
  698700    301.02493   -1497.1485    494.03638    352.70533   -313.51452    37986.909 
  698800    298.48397   -1544.2789    497.69418    297.78832   -68.112899    37986.909 
  698900    302.92623   -1544.1186    498.47713    318.73947    433.54028    37986.909 
  699000    292.93223   -1541.3166    481.80454     259.8559    136.09455    37986.909 
  699100     303.6109   -1523.3345    520.27706    364.40728   -129.70455    37986.909 
  699200    306.35912   -1526.7857    487.33105    340.38811   -514.68649    37986.909 
  699300    302.96584   -1492.1468    496.77046    369.18297   -411.47867    37986.909 
  699400    299.37938   -1500.9596    508.56815    356.01445   -554.33783    37986.909 
  699500    309.28461   -1535.8698    491.61026    348.75958   -363.42191    37986.909 
  699600    300.39552   -1544.8157    486.35693    294.52388    -671.9237    37986.909 
  699700    303.96834   -1530.9068    484.67394    322.84178    6.6763731    37986.909 
  699800    307.38666   -1536.6179    498.61371    346.46649    47.221448    37986.909 
  699900    304.67822   -1533.0749    510.65955    349.85654    190.35289    37986.909 
  700000    294.73594   -1513.6326    486.98219    300.84145   -77.467742    37986.909 
  700100    301.85244   -1522.2312    510.75922     348.0726   -350.74949    37986.909 
  700200     297.5507   -1500.7132    495.93678    335.39313    243.48194    37986.909 
  700300    302.72047   -1486.8955    485.08174    361.64041    446.29554    37986.909 
  700400    303.24723   -1533.5911     513.7823    346.01795    922.95088    37986.909 
  700500    305.26094      -1515.4    487.04217    346.53863    889.50383    37986.909 
  700600    297.20444   -1523.6117     475.1073    290.10561    97.669783    37986.909 
  700700    306.47689   -1537.2714    517.46317    360.56488    72.972344    37986.909 
  700800     299.6957   -1549.5448    503.87168    304.15749   -237.28852    37986.909 
  700900    302.43844   -1523.5566    498.94845    337.57574    214.92617    37986.909 
  701000    293.66867   -1538.7852    486.48081    270.38049    1.7340732    37986.909 
  701100    299.09775   -1546.8317    489.40943    289.71516    93.981392    37986.909 
  701200    296.96813   -1518.3786    514.03338    333.20044    129.26302    37986.909 
  701300    293.77984   -1543.0037    465.05512    245.23696    261.98261    37986.909 
  701400    295.25869   -1509.8167     511.3805    331.41012    168.39469    37986.909 
  701500    293.32951   -1536.3855    500.43831    285.21004   -201.65042    37986.909 
  701600    299.65887   -1533.1757     502.7462    319.23528    254.50287    37986.909 
  701700    291.08569   -1517.8656    505.66408    298.84954   -86.284173    37986.909 
  701800    305.06579   -1493.6052    506.54643    386.95875    48.280302    37986.909 
  701900    285.00958   -1567.5146     515.5813    231.75093   -111.44082    37986.909 
  702000    300.25891   -1528.0771    486.91555     311.2058    212.41814    37986.909 
  702100    290.95211   -1538.1051    547.24154    319.58587    515.55652    37986.909 
  702200    292.67296   -1509.3979    500.76182    309.56407    133.23007    37986.909 
  702300    287.01348   -1530.2283     499.3268    261.80833    491.82239    37986.909 
  702400    308.52199   -1514.8374    514.38384    389.13077    643.62656    37986.909 
  702500    300.89772   -1547.6904    489.54484    297.09897    417.40977    37986.909 
  702600    288.81484   -1508.9059    507.10442    299.02171    502.05957    37986.909 
  702700    306.03634   -1519.2656    512.65583    371.77909    220.47415    37986.909 
  702800    306.12417   -1559.6737    500.64304     319.7538   -23.150213    37986.909 
  702900    301.91097   -1548.8694     496.8747    307.81355    356.62743    37986.909 
  703000    305.24991   -1500.8743    504.13691    378.10948    272.42644    37986.909 
  703100    292.49987   -1495.6472    514.61981    336.39318   -39.142757    37986.909 
  703200    311.79588   -1475.2981    486.17381    415.20557   -124.96883    37986.909 
  703300    302.04781   -1472.0241    500.57733    388.97777   -141.47238    37986.909 
  703400    285.40909   -1503.9813    486.37862    267.88103   -251.94521    37986.909 
  703500    298.92241   -1424.6888    536.00112    457.66008   -142.67915    37986.909 
  703600    295.80257   -1458.4289    502.82939    376.69643    60.535207    37986.909 
  703700    285.84171   -1491.1395    510.70348    306.99617   -839.05835    37986.909 
  703800    297.17495   -1465.9154    515.79631    388.35808   -580.44248    37986.909 
  703900    294.00106   -1480.1381    481.43021    325.47402   -304.76523    37986.909 
  704000    296.97974   -1479.0127    467.60839     326.1936   -758.81651    37986.909 
  704100    296.38667   -1432.8532    482.79262    384.86615   -501.10781    37986.909 
  704200    292.65361   -1448.6558     488.8573    358.31453   -404.33694    37986.909 
  704300    304.01232   -1445.3781    483.66493    407.55949   -47.119188    37986.909 
  704400    302.87485   -1479.6789    523.80899     408.2796    436.61928    37986.909 
  704500    300.92177   -1473.6885    507.16428    388.82866      122.522    37986.909 
  704600    298.56876   -1475.8397    490.48243    359.39767   -348.48717    37986.909 
  704700    298.08712   -1457.5104     508.8041    393.87924    -495.1484    37986.909 
  704800    296.50134   -1436.8847    495.66839    394.22691   -520.69137    37986.909 
  704900     292.2088   -1455.3805    487.67289    348.40205   -487.29188    37986.909 
  705000    303.85244   -1485.5123    470.04379    353.08408   -1093.2021    37986.909 
  705100    301.00492   -1491.1313    520.50007    385.09616   -682.09851    37986.909 
  705200    298.08587   -1470.9834     505.9394    377.53596   -308.50786    37986.909 
  705300     299.9162   -1505.0679    494.91096    340.66686    250.26163    37986.909 
  705400     303.6965   -1476.6448    508.87012    400.07559    280.07987    37986.909 
  705500    292.33057   -1464.0894    506.54713    359.11578    531.87974    37986.909 
  705600    303.45263   -1498.9122    506.94231    374.78201    407.21716    37986.909 
  705700    300.19829   -1487.7072    502.90774    367.29487    304.88976    37986.909 
  705800    301.12054   -1509.1174    486.38208    333.51284   -266.98417    37986.909 
  705900    297.81555   -1522.8054    532.72102    351.27809   -8.3595949    37986.909 
  706000    306.53355   -1524.8977    501.94359    357.67421    10.858033    37986.909 
  706100    292.27525   -1485.4147     491.1353    322.12949    503.39793    37986.909 
  706200    308.10211   -1535.0272     501.5256    354.19155    120.41252    37986.909 
  706300     297.3449   -1487.1402    528.41632    380.51875    293.10658    37986.909 
  706400    308.74872     -1501.22    515.65492    405.04033     268.3463    37986.909 
  706500    288.25004   -1501.3118    505.08929    302.05681   -430.58781    37986.909 
  706600    303.08216   -1494.2282    486.35201    357.20709    104.99161    37986.909 
  706700    298.84348   -1525.3449    502.07342    322.72079    262.29502    37986.909 
  706800    307.94704   -1519.7825    480.40002    347.61215      114.294    37986.909 
  706900    303.25991   -1498.1605    500.17703    367.90039    470.60285    37986.909 
  707000    310.74582   -1463.5716    523.10124    459.13002    338.95939    37986.909 
  707100    292.00702   -1456.7014    503.88629     362.3857    21.528527    37986.909 
  707200    307.45344   -1449.2378    503.03942    438.57314   -479.28337    37986.909 
  707300    296.53558   -1410.8487    474.42377    399.17251   -944.54357    37986.909 
  707400    303.89509    -1413.793    485.61746    440.56909   -200.16186    37986.909 
  707500    301.74626   -1443.5191    519.96129     435.5085    150.71117    37986.909 
  707600    306.91973   -1425.5518    524.08654    480.90244    355.06213    37986.909 
  707700    299.07251   -1446.9028    494.39596    394.51694    494.94723    37986.909 
  707800    307.58403   -1431.5373    508.44894    462.27129    365.55398    37986.909 
  707900     290.6799   -1409.0848    514.32024    414.45886   -3.9987885    37986.909 
  708000    300.97673   -1461.0145     502.0485     396.6344   -279.84069    37986.909 
  708100    294.12972   -1494.4042    501.06353     331.4208   -84.514266    37986.909 
  708200    310.50788    -1473.798    487.93407    412.66486   -144.34491    37986.909 
  708300    296.37079   -1482.8896    489.67134    341.63692   -407.26246    37986.909 
  708400    292.02536    -1508.921    494.18906    300.55147   -181.96847    37986.909 
  708500    295.27545   -1525.3755    524.59663    329.14295   -280.49997    37986.909 
  708600    298.15321   -1472.9801    497.51924    367.42234    443.67401    37986.909 
  708700    307.37097   -1482.0946     498.7093    401.01475    241.01846    37986.909 
  708800    300.33162   -1489.9753    496.65334     359.3729    139.89216    37986.909 
  708900    302.69286   -1512.3817    505.71285    356.66096    173.12031    37986.909 
  709000    299.25534   -1525.2447    519.51767    342.12024    669.87804    37986.909 
  709100    298.75299     -1499.11    503.11417    349.58884    567.34474    37986.909 
  709200    295.59173   -1504.7387    526.22114    352.82873    37.684361    37986.909 
  709300    300.72891   -1496.1585    506.66386    364.98955   -30.019431    37986.909 
  709400    294.60794   -1534.4493    514.26845    306.73449    298.17736    37986.909 
  709500    287.07142    -1525.658    499.45721    266.77009   -28.008258    37986.909 
  709600    292.36922   -1532.7674     478.2689    262.33359    -727.6243    37986.909 
  709700     299.4582   -1517.4391    502.48741    333.80921   -119.48874    37986.909 
  709800    294.69048   -1526.6638    493.16887     293.7922   -527.36622    37986.909 
  709900    296.37464   -1535.2763    490.57693    290.17319   -624.69243    37986.909 
  710000    305.69771   -1514.4258    518.91347    381.35135   -451.59106    37986.909 
  710100    307.29573   -1515.4041    479.66607    348.32317   -1155.3002    37986.909 
  710200    304.80503   -1536.3311    475.13008    311.64206   -930.78092    37986.909 
  710300    308.64046   -1485.2235    470.36973    375.26409   -564.38884    37986.909 
  710400     296.9213   -1478.3412    499.24179    358.23526   -527.79877    37986.909 
  710500    295.91114   -1512.0967    532.51012    353.19842   -479.25224    37986.909 
  710600    294.87266   -1495.7752    500.58343     332.9159    -255.9397    37986.909 
  710700    305.83066   -1548.5777    512.08556    340.97037    14.709724    37986.909 
  710800    303.46524    -1521.646    503.58873    348.75141   -88.544556    37986.909 
  710900    302.39594   -1536.0378    512.19165    338.14632    363.54591    37986.909 
  711000    300.02156   -1556.1088    515.71826    310.90772    471.36972    37986.909 
  711100    310.18868   -1547.4847    487.50668    337.11306    697.51052    37986.909 
  711200    294.78252   -1512.9019    486.04267     300.8424    300.29862    37986.909 
  711300    296.63273   -1509.2089    491.62028    318.44642    -165.1997    37986.909 
  711400    307.57473   -1509.8631    516.09815     391.5529   -1.8745695    37986.909 
  711500    303.45255   -1493.4945    525.23829    398.49524    510.00985    37986.909 
  711600    295.01662   -1543.9401    479.70417    264.52013    259.15067    37986.909 
  711700    306.10592   -1531.4698    501.71507    348.94753   -209.06435    37986.909 
  711800    298.15351   -1524.4558    496.51264    314.94145    527.41375    37986.909 
  711900     299.2403     -1538.04    485.99589    295.73533    155.16258    37986.909 
  712000    308.58434   -1496.5646    488.10035    381.40085    970.68387    37986.909 
  712100    295.18891   -1465.7348    510.26933    374.06655    519.78108    37986.909 
  712200    284.63871    -1492.546    472.00296     261.4708    82.728311    37986.909 
  712300    304.71564   -1530.8085    516.78455    358.41645    118.72442    37986.909 
  712400    288.10533    -1537.413    490.46591    250.68046    202.18386    37986.909 
  712500    303.42341   -1491.3282     519.8016    395.09367    319.25165    37986.909 
  712600    297.94721   -1516.1602    463.60592    289.40109    82.738315    37986.909 
  712700    303.47648   -1509.8086     509.2341    366.28477    238.54326    37986.909 
  712800    302.85594   -1478.3598    519.73972     405.4443    305.11259    37986.909 
  712900    310.05392    -1500.755    516.20184    411.93095   -5.3981382    37986.909 
  713000    303.21036   -1507.9677     516.5473    374.24025   -572.29841    37986.909 
  713100    290.51393   -1523.9844    489.26911    273.76059    -278.7354    37986.909 
  713200    304.36811   -1515.4059     504.8658    360.33506   -105.96905    37986.909 
  713300    307.04193   -1495.0356    502.09371    389.97618    68.883366    37986.909 
  713400    305.13474   -1523.6283    493.91756    344.61734     168.5579    37986.909 
  713500    299.19298   -1504.6966    515.96026    358.83007    567.74767    37986.909 
  713600    303.89572   -1528.7821    477.89028    317.85573    653.47771    37986.909 
  713700    302.70807   -1496.0416    497.80684    365.16358    632.87645    37986.909 
  713800    293.76753   -1494.3474    529.51953    358.30222    280.55163    37986.909 
  713900    300.25507   -1504.7587    499.09358    346.68495    297.87229    37986.909 
  714000     295.2373   -1468.2975    484.57499    346.02751    25.492242    37986.909 
  714100    305.24081   -1478.7118    483.87887    379.97296   -143.33237    37986.909 
  714200    301.70698   -1499.9613    502.90787    361.83599   -24.431653    37986.909 
  714300    308.53609   -1507.1104    490.28231    372.81965    430.80315    37986.909 
  714400    297.32233   -1524.7992    501.17654    315.51834    69.984081    37986.909 
  714500    299.71177   -1523.4222    493.78296    320.26377   -94.099163    37986.909 
  714600    301.96902    -1525.885     479.2722     313.4568     440.3801    37986.909 
  714700    305.73739    -1491.776    512.49256    397.75894    393.61012    37986.909 
  714800    305.50541   -1473.7646    498.03297    400.26599   -439.76184    37986.909 
  714900    294.96697   -1486.0087    505.65066    348.17432   -293.03732    37986.909 
  715000    302.05569   -1487.8832    484.07503    356.65185    225.93057    37986.909 
  715100    300.70451   -1491.9893    488.76529    351.15034   -404.83475    37986.909 
  715200    305.28564   -1492.5919    512.48872    394.90458   -105.18019    37986.909 
  715300    292.22487    -1465.461    529.51834    380.23934   -238.65076    37986.909 
  715400    302.79761   -1488.4456     491.3248    366.68086    -213.4017    37986.909 
  715500    305.36674   -1509.2477    492.09023    358.21555   -77.512414    37986.909 
  715600    292.94974   -1539.5169    496.00125    275.93116   -437.57849    37986.909 
  715700    298.04237   -1485.8748     482.7335    339.24274   -480.09712    37986.909 
  715800    291.17197   -1473.2428    499.26862    337.46555   -618.87924    37986.909 
  715900    287.00541   -1467.4825    497.52715     322.7182   -271.70667    37986.909 
  716000    294.57248   -1504.8336    489.49082    311.41289    111.94077    37986.909 
  716100    304.82915    -1498.189    513.14481     387.9075   -631.02153    37986.909 
  716200      296.689   -1487.6067    481.90049    330.58227   -365.14454    37986.909 
  716300    291.19035   -1484.5607    499.96336    326.92515   -688.05624    37986.909 
  716400    299.58251   -1476.1106    499.82146    373.03167   -503.13164    37986.909 
  716500    291.56971   -1454.6994    520.10962    378.64132    109.63394    37986.909 
  716600    294.09112   -1475.0028    497.10432    346.68904   -228.16513    37986.909 
  716700    305.51049   -1479.4009    495.22036    391.83989   -575.42831    37986.909 
  716800    297.43167   -1489.6522    500.44226    350.42348   -353.96719    37986.909 
  716900    298.25607    -1525.528    508.14572     325.9643     243.1018    37986.909 
  717000    293.99956    -1486.426     501.2218    338.97103    338.71171    37986.909 
  717100    296.24316   -1495.1187     503.9181    343.07981    70.625139    37986.909 
  717200    297.09146   -1480.6722    493.40831    350.83726    112.67095    37986.909 
  717300    305.35409   -1486.9002    489.35989    377.77578   0.83656161    37986.909 
  717400    295.59379   -1471.8948    506.52529    365.98611   -13.327301    37986.909 
  717500    309.34001   -1440.3459    498.64798    451.57073    672.87346    37986.909 
  717600    289.02264   -1491.6157    509.33128    319.47475    11.714899    37986.909 
  717700    298.59361   -1458.5329    478.24927    364.58316    536.86296    37986.909 
  717800    304.05274   -1483.9564    506.44295    391.94125    459.56584    37986.909 
  717900    301.67455   -1496.8419    527.27787    389.17937    747.25272    37986.909 
  718000     298.2377   -1489.8954    503.12716    356.49557    263.24838    37986.909 
  718100    297.94536   -1442.9674    500.43476    399.41445   -371.77083    37986.909 
  718200    301.68942   -1462.2392    487.42693    383.99811   -56.069338    37986.909 
  718300    310.30292   -1415.9108    484.46809    466.16286   -277.74064    37986.909 
  718400    300.14788   -1478.6105    492.34367    365.60043   -396.73556    37986.909 
  718500    306.62671   -1477.6119    506.91005    410.34604   -499.78562    37986.909 
  718600    303.09401    -1471.405    487.72774    381.45934    277.19683    37986.909 
  718700    306.05944    -1498.063    501.71793    382.14785    504.35514    37986.909 
  718800    310.05902   -1466.3665    521.37863    451.51915    591.57746    37986.909 
  718900    288.60872   -1495.6436     516.8141    321.06529   -42.460899    37986.909 
  719000    315.34885   -1506.1142    479.87854    394.09685    347.10302    37986.909 
  719100    291.29299   -1478.3503    495.97748    329.61199   -123.96898    37986.909 
  719200    298.33819   -1466.4191     506.8987    384.19598    591.89647    37986.909 
  719300    311.90411   -1432.5267    500.80907     473.0997   -182.84487    37986.909 
  719400    300.46497   -1450.5086    507.93882    410.72564   -26.359577    37986.909 
  719500    293.55329    -1471.774    486.18316    336.57432    -346.5249    37986.909 
  719600    287.76169   -1487.2975    498.00655    306.78892    256.87055    37986.909 
  719700      304.321   -1466.3752    514.69528    418.98311 -0.050259628    37986.909 
  719800     311.8602   -1511.3275    502.14779    395.43991    219.34907    37986.909 
  719900     292.0721   -1463.1292    490.87228    343.23694   -223.34782    37986.909 
  720000    307.08903   -1463.3381    500.18242     419.9746    161.98468    37986.909 
  720100    304.27477   -1526.8072    465.91563     309.5632    -443.7694    37986.909 
  720200    300.78689   -1520.0055    483.37098    318.11085   -362.11693    37986.909 
  720300    296.12435   -1519.9951    491.06008    304.81028   -298.21193    37986.909 
  720400     302.0405   -1515.1821    478.70878    323.91829   -97.780803    37986.909 
  720500    301.92419   -1488.4875    524.42744     395.8077    338.48099    37986.909 
  720600    280.36139   -1512.1976    481.26086     231.8121   -79.348931    37986.909 
  720700    289.73195   -1486.3205    512.04303    330.67642     -14.2298    37986.909 
  720800    312.50453   -1518.9302     495.2314    383.82282   -158.59525    37986.909 
  720900    291.49806   -1458.8736    509.86749    363.90229    185.67798    37986.909 
  721000    296.92813   -1438.4163     529.3913    428.34048    -25.15429    37986.909 
  721100    300.77063   -1507.1654    504.33606    351.84278    -109.5311    37986.909 
  721200    294.51025    -1474.757     481.2469    332.96529   -403.87045    37986.909 
  721300    298.50065   -1473.1654    497.12378    368.40655    378.81397    37986.909 
  721400     309.2164   -1490.5765    506.86176    408.99715    713.57662    37986.909 
  721500    296.07014   -1482.4759    525.30794    376.33307    2.8724812    37986.909 
  721600    294.28404   -1471.9055    493.42709    346.97804   -449.60207    37986.909 
  721700    306.39538   -1474.5851    492.01937    397.44025   -393.20662    37986.909 
  721800    295.45724   -1472.5267    497.03398    355.24788   -1144.0296    37986.909 
  721900    301.56538   -1460.1083    483.57635     381.7197   -520.70206    37986.909 
  722000    300.53527   -1479.3442    503.70034    377.96817   -224.26579    37986.909 
  722100    294.28559    -1476.857    514.35862    362.96505    756.73361    37986.909 
  722200    305.72856   -1502.9623    495.27234    369.31272    395.45505    37986.909 
  722300    299.08504    -1452.141    503.23365    398.17283    320.80532    37986.909 
  722400    298.28773    -1464.557    526.90639    405.83851    442.28304    37986.909 
  722500    305.37891   -1420.1731    508.24585    463.50055    653.91821    37986.909 
  722600    301.38097   -1388.8859    502.14486    470.68008    916.35915    37986.909 
  722700    292.74426   -1463.4549    516.38176    371.44814    108.71877    37986.909 
  722800     306.2019   -1451.2439    488.52811    416.41876   -255.67193    37986.909 
  722900    300.77551   -1458.0743    512.02733    408.64716    320.51685    37986.909 
  723000    303.44773   -1442.6201    509.45742    433.56713    1.8597141    37986.909 
  723100    307.62046   -1486.0781    503.62284     403.0685    423.79217    37986.909 
  723200    298.97329   -1482.7512    485.13727    348.96291    289.02622    37986.909 
  723300    295.01972   -1480.9383    504.45202    352.28372   -94.236599    37986.909 
  723400    306.79978   -1470.4038     516.7562    428.17981     483.1152    37986.909 
  723500    289.99181   -1478.3475    497.62457    325.40138     420.8889    37986.909 
  723600     300.5951   -1484.7678    491.20004     360.3138    203.20738    37986.909 
  723700    298.80604    -1501.242    503.71295    348.29453    323.69896    37986.909 
  723800    305.02971   -1506.1993    499.13151    366.78723     633.6939    37986.909 
  723900    297.06964   -1500.6025    502.45815    339.85847    388.05717    37986.909 
  724000    302.60636    -1460.121    499.81861    402.63786    108.42132    37986.909 
  724100    303.60877   -1480.4026    475.03713    362.08963    -288.4332    37986.909 
  724200    286.32411   -1541.7954    483.95073    231.76029   -6.2771681    37986.909 
  724300    304.95766   -1455.1987     470.1224    388.45421   -55.906184    37986.909 
  724400    306.56466   -1481.9437    487.57579    386.40057   -534.67359    37986.909 
  724500    306.36792    -1458.797    513.60406    434.68944   -121.09902    37986.909 
  724600     304.8633    -1464.926    483.67003    391.84959   -475.08488    37986.909 
  724700    303.38194   -1460.5881    499.34765    405.19298   -207.64931    37986.909 
  724800    295.82044   -1456.7262    492.92538    368.57566   -220.36759    37986.909 
  724900    303.24251   -1459.3738    518.73633    425.16798    419.37931    37986.909 
  725000    300.03499   -1451.4866    514.58013    414.45233    24.433306    37986.909 
  725100    294.30107   -1484.6957    507.38987    348.22738     147.8981    37986.909 
  725200    298.07246   -1450.5176     493.3776    385.37952    348.14968    37986.909 
  725300     307.5688   -1459.9584    483.72622    409.05888    149.52217    37986.909 
  725400    296.78207   -1466.9627    527.32348    397.06843   -482.61895    37986.909 
  725500    303.24302    -1433.202    484.63368    417.23945   -233.35592    37986.909 
  725600    308.61199   -1460.2704     477.8745    407.59376   -170.47258    37986.909 
  725700    296.31939   -1504.6605    483.58776    313.55098   -395.28715    37986.909 
  725800    309.17903   -1441.3687    478.13353    429.30837   -222.25899    37986.909 
  725900    303.02411   -1497.6564     495.7968    362.96225   -253.20728    37986.909 
  726000    306.35694   -1498.0475    476.86465    358.64997   -220.79074    37986.909 
  726100    296.72921   -1490.9296    487.91517    333.45507   -190.15977    37986.909 
  726200    301.84016   -1480.7012    489.37686    368.16495   -750.97571    37986.909 
  726300    300.26215   -1400.7253    505.70244    457.35906   -374.75964    37986.909 
  726400    298.17614   -1458.2574    501.15849    385.88759    -136.4294    37986.909 
  726500    297.96159   -1443.4134    512.72567    411.33246   -146.93599    37986.909 
  726600    287.35457    -1514.205     468.6189    248.66003   -247.75312    37986.909 
  726700    294.39502   -1486.0039    509.48064    349.43303   -193.75925    37986.909 
  726800    291.12029   -1428.8383    512.08637    394.45498   -160.10044    37986.909 
  726900     293.2795   -1481.9984    492.50245    331.43612   -261.65296    37986.909 
  727000    302.37141   -1488.0191    485.80418    359.66705    514.89867    37986.909 
  727100    298.30356   -1440.9533    496.70905    399.31615    61.686002    37986.909 
  727200    300.82408   -1478.4557    480.27264    356.72977    445.37535    37986.909 
  727300    296.38902   -1490.5064    500.68477    345.11572     441.9712    37986.909 
  727400     291.5792   -1457.1288    487.14129    343.28638    185.33282    37986.909 
  727500    300.98414   -1474.8768    504.90276     385.6597    469.16187    37986.909 
  727600    300.78972   -1458.7748    528.79662    424.77998   -5.0399451    37986.909 
  727700    309.78592   -1432.9534    500.20797     462.5316   -169.45327    37986.909 
  727800    304.52373   -1435.4418    509.43882    445.57308    187.25728    37986.909 
  727900    293.16223   -1440.6785     518.4866    398.21191   -1.1110071    37986.909 
  728000    296.99163   -1421.0517    502.81866     419.4184   -220.09393    37986.909 
  728100    301.49108   -1416.8543    499.92373    440.98647    37.402283    37986.909 
  728200    293.18048   -1427.5268    497.58751    390.54681     216.7406    37986.909 
  728300    299.72845   -1419.8758    517.78483    447.88714    531.21459    37986.909 
  728400    293.84201   -1396.3054    511.41236    438.57256    964.61749    37986.909 
  728500    305.87661   -1403.6686    497.52593    471.52678    686.04205    37986.909 
  728600    288.97564   -1465.0502    507.26732     343.7646   -46.589006    37986.909 
  728700    295.36066   -1414.1019    464.33895    380.54265   -58.495975    37986.909 
  728800    303.99198   -1410.9284    499.28701    457.53974    107.56169    37986.909 
  728900    299.40239   -1434.5995    484.74602    398.65606   -556.61578    37986.909 
  729000    293.38425   -1437.8339    499.57822     383.1482    -17.25504    37986.909 
  729100    312.09577   -1427.2015    514.97149    493.45062     90.76699    37986.909 
  729200    292.19565   -1418.9504    500.81487    397.91479    43.375598    37986.909 
  729300    305.39788   -1432.7451    489.20931    431.97751    209.10387    37986.909 
  729400    294.72506   -1434.5486    469.70515    362.59939   -88.545107    37986.909 
  729500    292.00502   -1473.9376     482.6464    323.90064   -248.48676    37986.909 
  729600    297.01706   -1470.7802    484.61785    351.60363    278.43469    37986.909 
  729700    291.49558   -1459.8054    492.42113      345.513    550.39749    37986.909 
  729800    308.51873   -1477.4362    487.41555    399.54896    927.12595    37986.909 
  729900    299.51396   -1454.9227    508.16847    402.25787    791.67872    37986.909 
  730000    313.57835   -1483.4759    492.27332    421.15561    581.64511    37986.909 
  730100     299.6828   -1475.2896     473.4893    347.97225    676.15992    37986.909 
  730200    309.02065   -1489.2829    507.83819    410.38553    501.07835    37986.909 
  730300    286.43721   -1490.3177    474.87843    274.67512    201.43805    37986.909 
  730400    287.73881   -1461.4288    482.32702    316.87493   -170.67774    37986.909 
  730500    292.50242   -1475.7126    478.03838     319.7578   -329.83325    37986.909 
  730600     307.9429   -1481.1733    471.73256    377.53529    102.26045    37986.909 
  730700    304.59003   -1493.0876    469.91433    348.70144    503.63383    37986.909 
  730800    303.27046   -1512.3657    483.45121    337.01684   -198.89679    37986.909 
  730900    298.48856   -1449.0035    474.43226    369.82246    226.63956    37986.909 
  731000    307.50773   -1469.4603    450.34852    365.90424   -524.51551    37986.909 
  731100    300.74929     -1477.03    505.08831     382.6343    -649.1642    37986.909 
  731200    305.37031   -1470.3865    470.56406    375.56668   -95.316727    37986.909 
  731300    303.17309   -1474.5732    471.42403    362.34365   -324.45049    37986.909 
  731400    299.64143   -1457.2368     490.7795    383.12893   -940.60818    37986.909 
  731500    291.49944   -1430.7279    455.70334    337.89014   -74.730761    37986.909 
  731600    299.49903   -1503.0366    478.16791     324.0761   -544.20192    37986.909 
  731700    295.07327   -1482.4891    480.28796    326.81008   -146.77017    37986.909 
  731800    303.04484   -1464.3026    499.40175    400.01434   -334.63239    37986.909 
  731900    296.88717    -1475.053     480.8039    342.93193   -246.55078    37986.909 
  732000    306.75253    -1510.924     488.0928    358.78344   -216.02117    37986.909 
  732100    304.43292   -1547.9355    498.55605    321.78762    736.44281    37986.909 
  732200    293.94957   -1496.9648    471.83285    298.81804     433.1745    37986.909 
  732300    317.13104   -1470.7977    496.70533    454.26715   -70.908374    37986.909 
  732400    304.68023   -1478.3222    486.98041    380.93914    363.99651    37986.909 
  732500    296.88554   -1449.2755    482.63305    370.53123    496.39368    37986.909 
  732600    292.67265   -1496.3226     515.3429    337.21907    361.00576    37986.909 
  732700    299.64047   -1531.9668     474.7386    292.35368       280.52    37986.909 
  732800    291.90697   -1560.9387    467.27149    221.08294    105.85571    37986.909 
  732900    305.44872   -1532.9473    468.43826    311.23321    856.38801    37986.909 
  733000    301.62582   -1551.9754    463.41387    269.96234    440.55665    37986.909 
  733100    305.42247   -1506.5169    476.18689      345.294    238.84711    37986.909 
  733200    305.92616   -1515.7246    481.98415    344.15222    537.35171    37986.909 
  733300    297.14018   -1482.2979    455.35353    311.37616    76.674577    37986.909 
  733400    314.67077   -1460.2426     492.0888    449.12456    581.50328    37986.909 
  733500    295.89068     -1460.53    509.65894    381.82176   -401.59547    37986.909 
  733600    294.90566   -1467.1919    486.00635    347.07075   -165.56659    37986.909 
  733700    302.04329   -1455.7804    494.97085    399.59461     206.8804    37986.909 
  733800    303.86564   -1462.5026    484.06024    390.16975    284.02936    37986.909 
  733900      299.458   -1465.6791    479.36629    362.44723    -229.3655    37986.909 
  734000    291.77887   -1487.4676    506.18679    332.89238    -168.6432    37986.909 
  734100    296.70883   -1424.6405    490.24849    401.98572    6.3549243    37986.909 
  734200    303.62006   -1449.3777    495.74297    413.87121   -210.53267    37986.909 
  734300    293.30871   -1417.8271    477.38244    380.61896   -193.48229    37986.909 
  734400     301.3328   -1461.2405    492.80608    388.76976    -39.27564    37986.909 
  734500    300.49942   -1443.5856    493.15461    403.01961   -196.48468    37986.909 
  734600    301.77058   -1473.2631    484.32907    370.24183    277.59632    37986.909 
  734700    293.83812   -1447.4272    494.17541    370.19628    355.97877    37986.909 
  734800    310.77591   -1454.8755    490.58199     435.4424    357.53952    37986.909 
  734900    309.02428   -1427.2515    502.29474    466.88985    478.88279    37986.909 
  735000    307.06533    -1432.545    510.53403    461.01247    206.43027    37986.909 
  735100    298.92678   -1380.9631    511.18145     476.5858    153.88678    37986.909 
  735200    292.85136   -1410.7011    517.18327    425.48581   -44.408904    37986.909 
  735300    307.61103   -1392.1295    497.80464    491.15642    359.34793    37986.909 
  735400    297.94544    -1407.503    499.43462    433.87902   -168.11269    37986.909 
  735500    291.73175   -1407.7361    511.04737    417.27219    572.46278    37986.909 
  735600    302.11957   -1419.3234    515.25434    456.67871   -669.51615    37986.909 
  735700    304.82019   -1434.6874    493.32804    431.55198   -41.812191    37986.909 
  735800    289.32683   -1421.1212    489.56825    371.57619    256.30791    37986.909 
  735900     308.9194   -1425.1326    487.94207    454.18369    692.72406    37986.909 
  736000    298.48806   -1415.1155    507.05554    436.33138    920.75784    37986.909 
  736100    309.58309   -1421.1655    501.67605    474.87405    387.77979    37986.909 
  736200    291.77625   -1440.5099    500.85316    374.50466    155.54522    37986.909 
  736300    298.38716   -1453.4882    519.82899    410.27781    276.64698    37986.909 
  736400    300.48204   -1449.7733     490.1196    393.71859   -592.45223    37986.909 
  736500    298.87237   -1441.3327    501.43261    406.22221   -227.21455    37986.909 
  736600     299.3239   -1462.4155    481.07083    366.81133    63.220656    37986.909 
  736700    306.16226    -1440.563    489.95077    428.34375    226.25806    37986.909 
  736800    299.21155   -1444.6324    513.65022    416.66787    261.15189    37986.909 
  736900    306.01838   -1460.5999    489.95732    407.66541    240.65261    37986.909 
  737000    293.41977   -1473.6557    471.72463    319.63273    508.43024    37986.909 
  737100    297.98921   -1477.7983    502.79635    367.14267    202.71423    37986.909 
  737200    295.29674   -1453.4392    497.88116    374.45969    397.49225    37986.909 
  737300    301.35373   -1506.5921    500.50509    351.21145    64.086841    37986.909 
  737400    298.33219   -1475.0372    509.63199    378.28413   -579.61968    37986.909 
  737500    309.41336   -1439.9482    508.08453    461.73538   -86.681752    37986.909 
  737600    309.67512   -1453.5414    508.00322    449.23984   -263.57026    37986.909 
  737700    304.53356   -1399.9441    501.04302    472.71931    -579.8694    37986.909 
  737800    304.84054   -1411.6885    528.00526    489.31975   -346.05367    37986.909 
  737900    317.41591   -1423.9143    512.19072     517.9189   -160.91695    37986.909 
  738000     308.3677   -1420.5479    503.24884    471.59028   -120.75259    37986.909 
  738100    302.22494     -1445.81    491.37497    406.78727     -325.726    37986.909 
  738200    306.58807   -1440.1139    478.45167    419.21168    461.30933    37986.909 
  738300    295.33737   -1457.3786    513.53689    386.35894    204.65942    37986.909 
  738400    299.31243   -1454.2859     494.6649     388.4834    825.60027    37986.909 
  738500     308.8133   -1466.1524    511.16334    435.90727    514.03685    37986.909 
  738600    306.84642   -1479.8447    489.57991     391.7727    427.24283    37986.909 
  738700    300.82197   -1502.0881    493.10846     345.9237    408.94731    37986.909 
  738800    298.92746   -1532.9102     493.5275    306.98782    458.37269    37986.909 
  738900    307.46238   -1509.5266    491.12238    366.40756    408.70453    37986.909 
  739000    291.43834   -1494.7879    526.85183    344.70337   -403.58363    37986.909 
  739100    297.31368   -1482.6223    493.69229    350.17198   -79.238585    37986.909 
  739200     298.3049   -1460.5873    503.21333    386.19246    111.43706    37986.909 
  739300    302.95395   -1479.3634    522.13698    407.27939    215.21137    37986.909 
  739400    315.14288   -1419.6157    496.67007    496.45914    -445.7371    37986.909 
  739500    302.58444    -1408.757    513.35948    467.44397   -586.15767    37986.909 
  739600    291.06991   -1467.8748    514.04856    357.15378   -757.94088    37986.909 
  739700    314.49626   -1474.3079     503.1126    445.29707    -486.0088    37986.909 
  739800     305.7893   -1475.8689    539.62077    441.02812   -248.95373    37986.909 
  739900    295.18293   -1479.6169    505.52826    355.41644   -224.45985    37986.909 
  740000    298.95253   -1483.4329    506.69288    369.74334   -368.82664    37986.909 
  740100    303.21002   -1491.8268    505.82392    379.65631    289.49362    37986.909 
  740200    297.55081   -1511.3057    503.11738    331.98175   -617.57195    37986.909 
  740300    292.16183   -1520.7193    506.82071    301.99948   -233.42684    37986.909 
  740400    304.51592   -1491.1288    500.39064    380.80272   -150.82823    37986.909 
  740500    306.35384    -1514.458     527.3331    392.69401   -556.11796    37986.909 
  740600    297.44758   -1458.5289    502.74388    383.92003   -130.72139    37986.909 
  740700    303.96603   -1506.9363    517.61539    379.74335   -325.78165    37986.909 
  740800    296.66966   -1471.8699    529.02556    393.35702     122.6543    37986.909 
  740900      289.675   -1465.3698    498.36117    337.68877     647.1953    37986.909 
  741000    307.16113   -1474.5076    513.35167    422.29901    895.61112    37986.909 
  741100    302.24605   -1433.3816    501.06648    429.00226    585.48725    37986.909 
  741200    297.85393   -1423.7252    523.41586    441.22594    202.25486    37986.909 
  741300    294.23225   -1447.2787    513.88092    391.82547    285.19064    37986.909 
  741400    295.20997   -1431.7414    505.94239    403.82786   -434.24379    37986.909 
  741500    310.17988   -1436.6906    527.46901    487.82988    381.39857    37986.909 
  741600    304.14562   -1400.6582    506.15019    475.36513    984.62736    37986.909 
  741700     300.6426   -1458.1563    495.60277    391.54191    786.13004    37986.909 
  741800    296.08612   -1464.7747    544.51565    413.31403    920.67162    37986.909 
  741900     296.8748   -1425.1919    528.87988    440.81327   -58.058077    37986.909 
  742000    293.19883   -1444.0264     519.9498    396.49208   -562.23478    37986.909 
  742100    298.89074   -1435.7813    517.26647    427.69025   -283.78459    37986.909 
  742200    300.18758   -1433.3835    527.70419    446.36675   -629.71167    37986.909 
  742300    310.67278   -1469.2878    482.50828    412.49195   -594.63623    37986.909 
  742400    299.69692   -1479.6743    487.36145    357.52327    -1140.989    37986.909 
  742500     296.9303   -1514.5122    490.95678    313.81985     -506.813    37986.909 
  742600     306.6431   -1470.0048    516.25724    427.37414   -253.87511    37986.909 
  742700    304.07814   -1460.5252    515.99846    425.04239   -624.24012    37986.909 
  742800    295.33982   -1433.9465    509.74343    406.00863    -511.7212    37986.909 
  742900    300.32011   -1437.7263    537.31845    452.23512   -201.97593    37986.909 
  743000    297.86885   -1465.5221    511.99824     388.0786   -845.14755    37986.909 
  743100    304.03839   -1430.8618    512.39307    450.92135   -125.14478    37986.909 
  743200    295.35153   -1431.4383    521.51394    420.34015   -428.53842    37986.909 
  743300     302.4744   -1429.0734    489.09132    422.36379   -52.392444    37986.909 
  743400    302.21389   -1434.8774    518.46197    444.75711    111.06768    37986.909 
  743500    304.52064   -1422.9123    505.04621    453.69614    111.28939    37986.909 
  743600    295.44292   -1444.1376    481.98041    368.51889   -9.9290127    37986.909 
  743700    297.65781   -1467.2381    531.11925     404.5331   -483.28359    37986.909 
  743800    294.98167   -1449.8375    501.28802    380.04919   -454.09965    37986.909 
  743900    293.41431   -1474.2785    515.66292    362.92362   -685.73591    37986.909 
  744000    299.38959   -1445.8148      499.957    402.59411   -644.58013    37986.909 
  744100    291.23246     -1470.94    501.55958    342.33175   -474.69933    37986.909 
  744200    300.10884   -1473.8885    502.76438    380.56735    115.34566    37986.909 
  744300     300.5505   -1435.7838      466.961    384.85786    324.47264    37986.909 
  744400    296.65823   -1429.4851    524.02052    430.68528    347.21462    37986.909 
  744500    301.08517    -1473.497    498.55761    381.14947    665.22675    37986.909 
  744600    303.39576   -1465.2315     499.1656     400.4298    282.99116    37986.909 
  744700    293.64314    -1437.141    510.40091    395.82974   -108.30255    37986.909 
  744800    299.37452   -1441.9708    491.87152     398.2848   -271.37042    37986.909 
  744900    296.28458   -1444.7253    522.91551    412.65714    -138.6283    37986.909 
  745000    295.55409   -1489.8705    502.22595    343.53222   -115.71529    37986.909 
  745100    304.05151   -1491.8797    523.75474    401.32426   -46.072063    37986.909 
  745200    290.94803   -1496.5712     501.0076    314.86747    138.06219    37986.909 
  745300    296.42603   -1455.8326    514.38322    393.65464     184.9933    37986.909 
  745400    302.82056   -1473.0121    482.64441    373.53731   -38.785567    37986.909 
  745500    288.60399   -1463.6426    512.41813    348.64905    344.01259    37986.909 
  745600    302.50246   -1457.0086    504.43398    409.89771    303.72399    37986.909 
  745700    297.04658   -1483.6413    513.82377    368.08148    399.64789    37986.909 
  745800    299.44651   -1475.9976    516.71768    389.42833    -529.3336    37986.909 
  745900    301.83516   -1419.8451    522.58464    462.20627   -310.62526    37986.909 
  746000    301.46113   -1400.5679    480.44909    437.66331    295.40524    37986.909 
  746100     300.9052   -1435.9497    511.72286    431.05135    105.26211    37986.909 
  746200    294.97715   -1410.3259    464.46151    382.71389    82.809043    37986.909 
  746300    298.68753   -1454.0042    505.41975    396.70533   -73.528284    37986.909 
  746400     300.1907   -1440.1316    489.75587    401.68434    672.79398    37986.909 
  746500    302.09719   -1424.0244    505.69488    442.31744    981.73878    37986.909 
  746600    289.10275   -1493.1082    525.47257    334.48433   -489.04932    37986.909 
  746700    294.01755   -1486.9858    488.39759    325.66806   -333.68868    37986.909 
  746800    306.00013   -1453.7688    499.89954     424.3566    -423.6042    37986.909 
  746900    300.75624   -1479.9129    486.34809    361.04248   -423.63158    37986.909 
  747000    285.63795   -1490.3312    543.01367    339.19695    23.342168    37986.909 
  747100    299.36591   -1482.2309    490.25076    356.36512    279.53057    37986.909 
  747200    302.31134   -1470.6646    516.92709    407.87402   -75.155575    37986.909 
  747300    290.91287   -1490.1353    491.21815    311.35558    346.94792    37986.909 
  747400    297.02063   -1467.3914    479.08321    349.47387    413.40904    37986.909 
  747500    307.80432   -1514.9503    471.82527    343.22681   -99.839827    37986.909 
  747600    310.87272   -1464.9993    503.57266    438.74535     -77.7236    37986.909 
  747700    299.95666   -1427.2376    502.73356    426.50197   -156.30535    37986.909 
  747800    301.23945     -1457.06    495.34157    395.06532   -791.58385    37986.909 
  747900    308.48762   -1462.9381    493.23298    419.72432   -749.65026    37986.909 
  748000    301.87515   -1438.0651    493.04328     414.6251   -1284.0526    37986.909 
  748100    295.57426   -1437.5674    541.82785    435.52816   -376.59915    37986.909 
  748200    304.20596   -1468.6519    506.71954    408.21245   -305.42636    37986.909 
  748300    306.20952   -1465.4822    495.86658    409.55325   -135.38196    37986.909 
  748400    296.08711   -1452.1719    484.25073    365.65636    349.39979    37986.909 
  748500    302.86921   -1472.7869    529.80254    421.13984   -214.86654    37986.909 
  748600    292.59274   -1513.5809    494.75562    299.01359    189.64873    37986.909 
  748700    295.97417   -1537.5823    476.97996    272.46647    395.51302    37986.909 
  748800    312.75803   -1528.0772    510.45924    391.04548    152.03124    37986.909 
  748900    298.67462   -1505.5117    471.81175    311.53173      316.087    37986.909 
  749000    288.27563   -1500.6384    501.49334    299.24949   -166.84332    37986.909 
  749100    305.12863   -1537.6605    493.93094    330.57104   -107.87901    37986.909 
  749200    294.81177   -1543.9394    485.36737    269.26134    62.421195    37986.909 
  749300    298.76051   -1519.3648    503.86048    330.11419    182.63772    37986.909 
  749400    300.08744   -1489.8208    497.73113    359.50537   -192.60965    37986.909 
  749500    296.99442   -1474.9034    504.70776    367.46844   -141.26982    37986.909 
  749600    302.30079   -1468.7878    486.24615    379.02235    167.77902    37986.909 
  749700    295.50702   -1429.8993    486.25984    387.32537   -294.25701    37986.909 
  749800    290.16852   -1516.1819    503.26074    293.99902   -672.09869    37986.909 
  749900    301.62683   -1473.2808    483.58634    368.83394    -236.2176    37986.909 
  750000    300.03096    -1464.909    510.05636    396.48799   -282.89013    37986.909 
  750100    311.17222   -1480.4347    493.47836    414.56456   -148.31902    37986.909 
  750200    314.57092   -1493.2052    490.39527    414.01874   -785.49054    37986.909 
  750300    299.62063   -1506.6439    485.60268    328.45128    -190.3677    37986.909 
  750400    304.75127   -1493.4822    487.59632    366.71507      285.024    37986.909 
  750500    304.53457   -1473.0615    509.51789    408.08132   -107.12585    37986.909 
  750600    301.36633   -1487.3588    486.06248    356.05882   -108.30137    37986.909 
  750700     291.4053   -1457.3544    496.16738    351.30361   -432.88287    37986.909 
  750800     296.4308   -1496.1403    479.62764    318.61287    18.793196    37986.909 
  750900    297.73897   -1455.8446     497.4946    382.66753    117.48773    37986.909 
  751000     300.6848   -1478.0561    497.97084    374.20032   -48.976838    37986.909 
  751100    289.65904   -1457.0525    484.30455    331.87749   -181.78338    37986.909 
  751200    308.50366   -1499.2722    486.80007     377.0296   -531.89173    37986.909 
  751300    296.09486   -1486.9283     463.3066    309.99078   -202.55125    37986.909 
  751400    307.97899   -1526.7324    485.27653    345.68269   -108.60002    37986.909 
  751500     298.9642   -1470.1132    489.36114     365.7839   -480.84463    37986.909 
  751600    281.08112   -1488.6292    512.77465    290.13592    223.31232    37986.909 
  751700    303.16307   -1485.8043    528.92429    408.56768   -195.52636    37986.909 
  751800    295.71709   -1501.3401    489.00645    319.57732   -448.28843    37986.909 
  751900    301.77763   -1508.7056     502.8482    353.35025   -876.09934    37986.909 
  752000    292.18364   -1493.4874    499.88912      322.398   -514.60451    37986.909 
  752100    300.85847   -1527.2168    495.88598    323.73695   -430.92327    37986.909 
  752200    306.13951   -1531.8667    488.71696    335.70384   -350.06381    37986.909 
  752300    310.45132   -1565.0161    493.86837    327.12626   -212.97036    37986.909 
  752400    300.28088   -1543.9219    482.73156    291.27593   -415.42509    37986.909 
  752500    304.25587   -1535.9596    489.56213    323.97217   -42.395548    37986.909 
  752600    308.89818   -1576.0128    479.00054    294.26633    138.98132    37986.909 
  752700    309.13939   -1570.4747    483.90805    305.79839    211.11665    37986.909 
  752800    295.20824   -1527.8491    476.51837    278.28834    489.00567    37986.909 
  752900    298.79914   -1522.8921    497.55731     320.4577   -109.70143    37986.909 
  753000    299.61576    -1577.367    465.11809    237.22166   -112.15632    37986.909 
  753100    300.37505    -1512.537    496.24156    336.59496   -158.24832    37986.909 
  753200    292.48259   -1539.1079    476.03981     254.2747   -421.12647    37986.909 
  753300    297.98837   -1534.3798    500.72903    308.48999    152.65026    37986.909 
  753400    300.15995   -1492.2552    477.13772    336.80407    491.00763    37986.909 
  753500    309.98387   -1494.7528    489.78605    391.20185     56.34946    37986.909 
  753600    304.08005   -1529.6626    498.03029    337.94545   -233.92751    37986.909 
  753700    298.56265   -1476.6597    496.44846    364.51619    486.28793    37986.909 
  753800    296.63604    -1495.459    503.83801    344.42886    596.82258    37986.909 
  753900    304.31626   -1498.1613    498.32054    370.80087    330.80631    37986.909 
  754000    304.51428   -1484.2676     494.7304    381.99627      691.597    37986.909 
  754100    301.39106   -1513.6499    446.66342    290.48003   -94.581549    37986.909 
  754200    299.98946   -1500.2519    478.99959    329.90143    307.59995    37986.909 
  754300    308.97967   -1532.4067    477.88767    337.12669    165.47722    37986.909 
  754400    290.93628   -1568.8346    500.35134    241.89486   -373.69655    37986.909 
  754500    302.65069   -1534.4826    450.78224    279.43958    586.73816    37986.909 
  754600    297.32686   -1484.0049    471.05139    326.20791    222.17444    37986.909 
  754700    304.25659    -1501.681     495.5713    364.26321    242.00347    37986.909 
  754800    295.19287   -1492.1454    468.35777    305.76221    20.095793    37986.909 
  754900    305.96547   -1492.5528    492.53888    378.05575    234.35936    37986.909 
  755000    304.40389    -1503.391    489.38192     357.0272    196.04248    37986.909 
  755100    293.66628   -1476.4917    487.02178    333.20416   -286.79619    37986.909 
  755200    291.61946   -1542.0834    461.96657    233.33833   -61.322768    37986.909 
  755300    299.35563   -1509.3863    494.66036    333.57298   -294.94214    37986.909 
  755400    304.94173   -1466.9181    498.63169    405.17233   -602.25576    37986.909 
  755500    292.58936   -1442.7054    482.10954    357.22774    404.02463    37986.909 
  755600    307.11074    -1481.475    507.46377    409.21678   -196.10281    37986.909 
  755700    300.90652   -1430.0402    454.32536    379.56937    68.213088    37986.909 
  755800    309.49192      -1483.6    483.94522     394.2981    306.54172    37986.909 
  755900    297.45436   -1495.6879    469.65794    313.70569    292.64134    37986.909 
  756000    295.52491   -1436.9254    500.48367    394.60362    678.25236    37986.909 
  756100    296.02127   -1473.6686    482.89212    342.50447    615.48847    37986.909 
  756200    297.06633   -1448.5905    486.25116     375.6486    377.65108    37986.909 
  756300    305.64735   -1502.0872    506.04355     380.5932    274.12047    37986.909 
  756400    302.93828   -1498.7697    465.96518    331.63075     189.6639    37986.909 
  756500    309.27534   -1508.5915    457.70375    342.08965    87.668537    37986.909 
  756600    298.81972   -1516.0038    483.93515    313.81658   -243.09213    37986.909 
  756700    304.81835   -1497.3633    468.02952    343.56929    514.62832    37986.909 
  756800    300.55906   -1492.6757    491.80513    352.84863    402.81613    37986.909 
  756900    288.26798   -1468.9683    502.80327     332.1951    104.51902    37986.909 
  757000    298.14793   -1472.9521    504.81504    374.72238    289.61436    37986.909 
  757100    299.17767   -1448.8101    506.71758    405.40484     713.6062    37986.909 
  757200    298.56741   -1466.3259    464.68671    343.10965    720.34515    37986.909 
  757300    294.34187   -1430.0902    506.36188    401.98859     205.6479    37986.909 
  757400    304.31853   -1433.6695    488.98129    425.96367    264.76839    37986.909 
  757500    285.57002   -1406.0479    500.09699    380.25761    83.670429    37986.909 
  757600    302.48452   -1402.3417    481.64517    441.69499   -169.40769    37986.909 
  757700    305.59581   -1400.9887    491.74537    467.16141    56.533626    37986.909 
  757800    296.01193    -1444.907    472.18198    360.51392      -108.13    37986.909 
  757900    295.93653   -1418.5356     481.6048    395.96853    179.83198    37986.909 
  758000    289.48883   -1436.5256    462.37558    329.70886    109.61988    37986.909 
  758100    299.26904   -1451.7226    512.34367       408.53   -85.450636    37986.909 
  758200    290.08627    -1424.522    494.29175    376.31947    380.03546    37986.909 
  758300     309.8475   -1437.8303    489.93804     447.6621    640.57955    37986.909 
  758400    297.74779   -1421.8535    473.57563    392.77934    987.15314    37986.909 
  758500    296.09033   -1413.9488    498.98005    418.62332    219.96227    37986.909 
  758600    296.38752   -1413.4633    486.09631    407.56353    413.92131    37986.909 
  758700    294.30471   -1435.7227    508.75365    398.58055    768.26725    37986.909 
  758800    295.94259   -1440.0566    489.42612    382.29613    641.42292    37986.909 
  758900    307.03175    -1433.891     507.9627    456.94397    752.33611    37986.909 
  759000    304.79157   -1457.8266    511.30336    426.25916    336.37585    37986.909 
  759100    300.35416   -1432.1385    497.63259    418.29038    274.56387    37986.909 
  759200    292.40979   -1427.6898    478.77819    368.10327   -4.0485928    37986.909 
  759300    291.96902   -1419.4243    481.78286    377.38816   -481.68434    37986.909 
  759400    302.66964   -1447.3454    482.58268    398.46259   -56.756691    37986.909 
  759500    297.52725   -1420.7457     494.3142     413.6324    190.63612    37986.909 
  759600    302.95412   -1442.2325    451.85445    374.12852      828.059    37986.909 
  759700    309.07989   -1495.5879     476.4974    373.00656    591.00674    37986.909 
  759800    300.05009   -1458.2078    491.66199    384.88101    669.74222    37986.909 
  759900    300.99708   -1441.3204    511.95019     426.3218    535.79066    37986.909 
  760000    296.32626   -1437.9928    495.80017    392.46206   -55.993738    37986.909 
  760100    302.65207   -1394.5962    483.27577    451.82573    531.73119    37986.909 
  760200    294.94834   -1400.3338    474.85152    402.96617     -60.7923    37986.909 
  760300    302.85209   -1423.6818    514.51771    454.88294   -100.99343    37986.909 
  760400    300.58534   -1454.1524    464.93996    364.62512     450.4143    37986.909 
  760500     307.0806   -1439.7473    501.59537    444.94027   -119.51442    37986.909 
  760600    300.82936    -1458.069    484.27843    381.14609    45.827088    37986.909 
  760700     304.9501   -1453.9192    484.26124    403.83849    242.88623    37986.909 
  760800     288.9643   -1466.0229    465.99564    301.46909    124.94837    37986.909 
  760900    296.24827   -1421.4464    475.02322    387.88022   -159.90114    37986.909 
  761000    302.06031   -1430.5905    502.51885    432.40921   -437.44439    37986.909 
  761100    304.21424   -1445.5691     480.1323    404.74537   -572.65966    37986.909 
  761200    306.79458   -1452.4224    483.19013    412.57173   -288.85585    37986.909 
  761300    300.44302   -1424.1669    497.26322    426.29286   -219.05418    37986.909 
  761400    291.91253   -1419.0406    471.30699    367.04158    198.76702    37986.909 
  761500    308.61977   -1431.7195    500.39896    458.70415    673.98504    37986.909 
  761600    301.25116   -1442.1508     475.7971    390.48277    999.34364    37986.909 
  761700    309.44936   -1447.9107     486.9222    432.77266    508.11588    37986.909 
  761800    288.40352   -1425.3544    512.97328    386.58954    532.78726    37986.909 
  761900    295.84367   -1434.3407    508.48771    406.62811     575.6696    37986.909 
  762000    290.71801   -1448.6167    479.13972     339.9181   -180.03957    37986.909 
  762100    299.06229   -1440.3789     491.6981    398.29694   -213.48153    37986.909 
  762200    295.86973   -1453.6465    480.50173    359.45364   -148.66744    37986.909 
  762300    293.43389   -1459.6425    478.48124     340.4662   -541.28878    37986.909 
  762400    294.74693    -1460.453    501.64399    368.73235   -619.67183    37986.909 
  762500    296.31572   -1425.4114    515.62467     424.8205   -284.65791    37986.909 
  762600     305.5233   -1468.9873    487.51514      394.606   -153.32347    37986.909 
  762700    301.37756   -1489.8934    516.63419    384.14655    516.85485    37986.909 
  762800    298.30855   -1490.9767    497.31768    349.92389    573.93908    37986.909 
  762900     302.5882   -1442.3148    492.68688    413.23051    154.34433    37986.909 
  763000    309.71141   -1453.0009    484.73589    426.67639   -436.54231    37986.909 
  763100    304.79959   -1468.5811    493.29028    397.52774   -35.903499    37986.909 
  763200    291.41697   -1515.6885    505.06695    301.92164   -1104.1043    37986.909 
  763300    298.20366   -1461.4593    492.61687    374.26802   -837.30532    37986.909 
  763400    299.58223    -1478.858    481.08784    351.54942   -910.68794    37986.909 
  763500    311.79126    -1507.167    504.76145    401.90349   -683.69893    37986.909 
  763600    292.35626   -1457.1889    502.12626    361.71111   -479.63855    37986.909 
  763700    298.86474   -1446.8943    497.86293    397.05663   -505.91006    37986.909 
  763800    295.22094   -1429.1776    510.46126    410.95993   -399.26343    37986.909 
  763900    302.17157   -1450.1573    515.45434      426.279   -747.82351    37986.909 
  764000    296.74334   -1465.9076    486.31246    356.93808   -604.40121    37986.909 
  764100    299.32363    -1470.511    513.35687    391.00071   -714.84747    37986.909 
  764200    301.46593   -1486.1232    486.87104     358.5516   -554.95564    37986.909 
  764300    295.24031    -1443.124    509.06477    395.70433    296.68427    37986.909 
  764400    301.57839   -1474.6417    505.72145    389.38999   -440.12574    37986.909 
  764500    306.78715   -1486.5453    515.38363    410.60888    411.53094    37986.909 
  764600    291.20099    -1470.426    472.58551    313.72994   -37.601265    37986.909 
  764700    301.72771   -1473.9775    493.46216    378.46742     89.85637    37986.909 
  764800    309.85635     -1443.95    487.00754    438.65184    727.01475    37986.909 
  764900    309.11046   -1461.3989    498.62272    429.45858    306.15952    37986.909 
  765000    303.32103   -1486.2476    501.33924    381.25071    202.01247    37986.909 
  765100    293.05441   -1450.8427    492.47611    361.55161    68.425853    37986.909 
  765200    301.46175    -1443.463    508.97461    423.29651   -416.59412    37986.909 
  765300    297.06381   -1445.6258    480.12646    372.47721   -46.169771    37986.909 
  765400    291.88935   -1479.1208    461.34795    296.89798   -81.442737    37986.909 
  765500    303.93098   -1482.5335    513.55627    399.92914   -194.52958    37986.909 
  765600    298.41476    -1447.851    457.95477    354.16502    249.22666    37986.909 
  765700    298.06178   -1455.2259    508.77618    396.02179   -71.742691    37986.909 
  765800    297.24996   -1438.7773     483.9175    383.95521    102.73229    37986.909 
  765900    296.76292   -1466.2278    489.51484    359.90837    231.66687    37986.909 
  766000    307.11147   -1448.9772    483.95202    418.20613   -148.10107    37986.909 
  766100    303.85941   -1464.0956    496.56971    401.05814    396.94746    37986.909 
  766200    291.65848   -1480.5086    482.04649    315.16879   -28.956294    37986.909 
  766300    303.27114   -1456.6933    517.40698    426.64812    427.27423    37986.909 
  766400    300.89459   -1491.7267    508.05591    371.55962   -249.21177    37986.909 
  766500    304.08349    -1469.684    493.31821    393.22746    286.14042    37986.909 
  766600    297.10216   -1437.9336    486.82573    387.04138    338.13378    37986.909 
  766700    302.06259   -1470.9126    488.21226    377.79081   -305.03391    37986.909 
  766800    307.18209   -1513.4585    475.99698    346.08789    44.489738    37986.909 
  766900    303.52335   -1530.5062    516.88609    353.45025     256.7952    37986.909 
  767000    312.40355    -1480.949    471.46231    397.58014    447.68903    37986.909 
  767100    297.16516   -1484.1014    480.96342    335.29512   -175.50383    37986.909 
  767200    298.93455   -1525.5262    494.13029    315.00648   -265.76358    37986.909 
  767300    304.34512   -1504.0526    470.74802    337.46699    898.05709    37986.909 
  767400    300.48704   -1512.3797    491.92325    332.93834     596.1776    37986.909 
  767500    304.38865   -1490.2851    484.83321     365.5158    205.74289    37986.909 
  767600      297.518   -1475.2202    500.07067    364.87274    510.69405    37986.909 
  767700    300.62871   -1488.6734    475.06198    340.42144    447.62896    37986.909 
  767800    306.07189   -1443.6527    498.04888    432.94515    392.28447    37986.909 
  767900    299.85384   -1458.5516     493.4465    385.43781   -122.57702    37986.909 
  768000    294.24649    -1504.791     501.8061    322.30244    491.68653    37986.909 
  768100    307.19696   -1441.7563    490.30572    432.16568   -308.02608    37986.909 
  768200    300.24356   -1495.5026    481.76548    338.56107   -137.33291    37986.909 
  768300    288.48228   -1512.6585    462.22197    248.88884    136.30003    37986.909 
  768400    297.59134   -1477.6583    501.80326    364.49755   -1.7868132    37986.909 
  768500    291.64459   -1483.9762    478.70277      308.295    54.604101    37986.909 
  768600    302.64116   -1491.8661    471.46909    342.70002    284.92379    37986.909 
  768700    295.84512   -1520.0496    489.99101    302.42902    -274.4508    37986.909 
  768800    297.95889    -1470.626    480.49583    351.87781   -101.38968    37986.909 
  768900    307.46745   -1471.8569    476.03421    389.01198    617.34539    37986.909 
  769000    307.00183   -1491.2913    494.83186    386.27799    107.09695    37986.909 
  769100     294.5596   -1436.7247    502.65928    392.63214    245.73849    37986.909 
  769200    307.57426   -1430.8428    473.88701    428.35992    184.36031    37986.909 
  769300    290.06626   -1463.5243    469.25215    312.18745   -23.521451    37986.909 
  769400    295.21368     -1463.38     475.0941    341.35767    35.572893    37986.909 
  769500    306.81727   -1489.5428    466.40924    358.77263    -57.24543    37986.909 
  769600    298.56773   -1450.7558    492.19981    386.19419     71.45389    37986.909 
  769700    292.30632   -1464.1453    495.39131    347.79483    306.87498    37986.909 
  769800    305.88389   -1508.4293    486.05811    355.33103    201.49805    37986.909 
  769900     305.0065   -1451.7348    471.25931    393.27499    92.208107    37986.909 
  770000    302.35072   -1461.4719     491.0337    391.35062    238.75544    37986.909 
  770100    293.88417   -1481.8686    502.82711    344.61402     43.37922    37986.909 
  770200    306.88995   -1419.7829      477.089    439.53965    276.50456    37986.909 
  770300    304.77062   -1445.4723    497.96789    425.18368     96.29297    37986.909 
  770400    294.63661   -1433.4978    480.06693    373.61359    226.92344    37986.909 
  770500    291.24592    -1432.932    509.77959    388.62036   -83.238226    37986.909 
  770600    300.29671   -1440.9953    502.51507    414.05737    531.40786    37986.909 
  770700    304.12861   -1407.4151    461.92223    424.30362    602.39192    37986.909 
  770800     294.3722   -1464.7716    497.61828    358.70028    134.49731    37986.909 
  770900    301.27568   -1477.1401    479.17862     358.9854   -157.83815    37986.909 
  771000    296.57852   -1422.8907     455.3195    368.21961   -27.513483    37986.909 
  771100    293.99175   -1421.1075    502.29554    405.32808    642.74619    37986.909 
  771200    297.01362   -1419.3125    466.39885    384.83687    218.32864    37986.909 
  771300    304.40077   -1444.8063    487.97745    414.19347   -22.727748    37986.909 
  771400    293.52509   -1448.6014    519.98621    393.42298    315.15308    37986.909 
  771500     295.6626    -1432.477    483.13867    382.32723    76.835286    37986.909 
  771600    309.29315   -1414.9247    513.84552    491.97846    121.33891    37986.909 
  771700     311.4467    -1425.296    475.54241    453.00356    149.07997    37986.909 
  771800    303.04504   -1428.0434     502.3208    439.19347    758.33599    37986.909 
  771900    308.17188   -1434.9848    508.85515    461.87777    1056.9009    37986.909 
  772000    308.12176   -1459.6064    481.12963    409.30484    608.53564    37986.909 
  772100    292.07503   -1413.2806    466.12417    368.35067    405.78586    37986.909 
  772200    306.18691   -1466.1139    465.67681       378.63    246.48684    37986.909 
  772300    290.74837    -1476.026    477.84878    311.35463   -90.969202    37986.909 
  772400    309.01031   -1485.9097    452.14794    358.02193    37.394244    37986.909 
  772500    301.27725   -1440.4016    512.67858    429.23096   -98.763221    37986.909 
  772600     296.0283   -1462.9305    479.83818    350.22028   -4.4796148    37986.909 
  772700    303.86711   -1448.1662     496.8385    417.29102   -37.475158    37986.909 
  772800    291.23649   -1447.0528    504.21229    368.88979   -201.98272    37986.909 
  772900    304.67774   -1449.5042    484.99334    407.75886    120.29672    37986.909 
  773000    302.07839   -1427.0296    500.44972    433.98243    120.39428    37986.909 
  773100    293.27053   -1418.1072    489.01557    391.80001    353.10721    37986.909 
  773200    305.90586   -1432.8063    494.83623    439.83109    197.12845    37986.909 
  773300    305.28557   -1411.2888    514.90517    478.62379  -0.40856221    37986.909 
  773400    314.81572    -1417.253    519.85342    520.53169   -519.15237    37986.909 
  773500    294.73703   -1397.6169    489.83324    419.71307   -307.00949    37986.909 
  773600    306.83116   -1467.8985    480.04486    394.11516   -189.48218    37986.909 
  773700     298.1931   -1508.7228    470.73898     305.0791   -285.24362    37986.909 
  773800    300.34938   -1466.9011    494.50628    380.37997    310.62862    37986.909 
  773900    292.94811   -1465.8927    493.05956     346.6063   -162.33107    37986.909 
  774000    294.92069   -1438.4174    506.68536    396.59195    48.375021    37986.909 
  774100    301.82346    -1438.993    518.06691    438.48802    113.93622    37986.909 
  774200    307.28445   -1447.5152    480.42197     416.9171   -128.96804    37986.909 
  774300    302.19502    -1453.215    475.37401    383.24657    406.94058    37986.909 
  774400    297.29254   -1454.8209    489.65034     373.8362    515.68099    37986.909 
  774500    301.27049   -1451.8184    504.02647    409.13152    141.38969    37986.909 
  774600    291.13752   -1467.7144    499.29885    342.86901     97.46686    37986.909 
  774700    296.46811   -1488.6257    499.94535    346.61317   -62.822801    37986.909 
  774800    306.45944   -1492.2437     498.6087     386.6595   -286.79964    37986.909 
  774900     305.7737   -1513.3823    499.25151    363.07517   -107.95596    37986.909 
  775000    299.18151   -1468.5405    484.74891    363.72308   -831.67505    37986.909 
  775100    315.19825   -1497.1539    495.21513    417.71538     135.7306    37986.909 
  775200    300.76601   -1472.3346    469.53203    351.84876   -111.85445    37986.909 
  775300    294.86469   -1482.8153    490.10235    335.35879    200.11223    37986.909 
  775400    303.05935   -1456.5864    511.63867     420.0328    409.49169    37986.909 
  775500    309.79332   -1455.4331    512.95548    452.83268    98.304302    37986.909 
  775600    293.65405    -1454.011    498.97944    367.58745    194.09648    37986.909 
  775700     313.5246   -1460.7481    500.64817    452.01614    -41.01103    37986.909 
  775800    299.14737   -1449.3845    509.52139    407.49782   -4.6574864    37986.909 
  775900    294.48842   -1477.0716    480.23599    329.54138    61.697922    37986.909 
  776000    299.62038    -1430.178    497.30871    416.62212   -107.94827    37986.909 
  776100    295.73498   -1433.6182    490.38224    388.75562    351.45439    37986.909 
  776200     304.8124   -1430.5654    502.37733    444.68824    892.05829    37986.909 
  776300    298.75634   -1444.0461    468.80825     370.3619    1037.9343    37986.909 
  776400    289.96723   -1438.9807     493.1898    360.22266    91.694059    37986.909 
  776500    313.23219   -1438.9395    472.75476    444.61432     185.8861    37986.909 
  776600    298.57229    -1458.977    495.10167     380.8954    60.218977    37986.909 
  776700    296.79449   -1450.4127    516.35562    402.70647   -216.56871    37986.909 
  776800    300.71675   -1453.0046    480.48179    381.90665    129.71568    37986.909 
  776900    307.81795   -1502.0684    482.11425    366.45907    281.18961    37986.909 
  777000    304.12834   -1498.1569    482.21384    353.85217   -306.24458    37986.909 
  777100    299.72008   -1488.0642    474.28729    336.16354   -250.74889    37986.909 
  777200    298.82053   -1509.7144    496.34125    332.51569   -486.81794    37986.909 
  777300    298.10257   -1474.6504    483.44056    351.44532   -346.89469    37986.909 
  777400    294.09039    -1512.486    476.59431     288.6926   -331.98121    37986.909 
  777500    291.65585   -1496.7704    502.43646    319.28515    138.63482    37986.909 
  777600     305.7428   -1539.0808    511.46859    349.45451    781.22053    37986.909 
  777700    301.19578   -1503.2026    488.11117    341.49561    793.43174    37986.909 
  777800     292.9802   -1508.2375    505.26885    316.61532    821.96352    37986.909 
  777900    290.91035   -1535.5268    497.84838     272.5829    580.94959    37986.909 
  778000     297.8409   -1529.5874      477.063    288.95217    969.33586    37986.909 
  778100     305.8218   -1481.7673    491.93788    387.59315    600.44312    37986.909 
  778200    305.76665   -1492.0327    457.26715    342.40863    402.77769    37986.909 
  778300    294.99267   -1502.0035    470.24792    296.89258   -185.73895    37986.909 
  778400    300.36151   -1522.4829    470.77022    301.11675    417.63385    37986.909 
  778500    304.17316   -1489.1106    490.39162    371.27813    627.51798    37986.909 
  778600    305.21061   -1503.6695    467.69807    338.69832    323.47348    37986.909 
  778700    313.80084   -1499.4757    491.83508    405.71959    546.02569    37986.909 
  778800    299.29496   -1467.7087    489.35878    369.67581    605.48624    37986.909 
  778900    307.30495   -1503.1882    527.32895    408.24347     722.2832    37986.909 
  779000    298.52704    -1513.227    482.62096    313.96095    164.27001    37986.909 
  779100    298.47689   -1477.8459    507.47132    373.96655   -175.63874    37986.909 
  779200    295.11435    -1481.598    479.29649    326.89467    152.72091    37986.909 
  779300    299.65356   -1519.9334    487.36735    317.07476   -354.16351    37986.909 
  779400    291.01434   -1492.1442    495.98087    314.56641   -81.875179    37986.909 
  779500    299.60136   -1518.7565     490.5552    321.20448   -389.28918    37986.909 
  779600    295.72539   -1498.0035    512.25822    346.20301   -140.59951    37986.909 
  779700    301.09247   -1485.2884     499.6081    370.44137    413.17865    37986.909 
  779800     290.3478   -1475.4069    523.95918    356.27993   -138.42074    37986.909 
  779900    294.44689   -1455.5811    509.77021     380.3791    179.56647    37986.909 
  780000      291.354   -1466.5436    509.43019    355.14616    76.979171    37986.909 
  780100    304.94477   -1469.3963    501.09761    405.17378    681.39639    37986.909 
  780200    301.10932   -1515.4146    514.06913    354.85207    991.78445    37986.909 
  780300    305.26204   -1525.9917    480.60592    329.51561    451.39844    37986.909 
  780400    310.60457   -1482.8105    502.03013    418.18382    586.93924    37986.909 
  780500    294.84889   -1512.2404    487.75242    303.51263   -12.473995    37986.909 
  780600    298.35392   -1501.0414    485.88119    328.62704    -271.0409    37986.909 
  780700     296.5103   -1526.8352    463.83972    272.48814   -153.59983    37986.909 
  780800    297.42361   -1504.8629    493.88863     328.6229    203.46922    37986.909 
  780900    305.45364   -1540.3718    506.09535    341.48791    256.76652    37986.909 
  781000    299.62689   -1508.7173    506.84876    347.65213    576.70356    37986.909 
  781100    311.01039   -1508.9808    504.44029     396.2515    250.57196    37986.909 
  781200    301.25477   -1489.4236    477.75777    345.18684    614.30116    37986.909 
  781300    298.11061   -1536.0792    493.06974    299.68194    279.61017    37986.909 
  781400    286.37368   -1489.3483    502.41128     302.8912    296.20549    37986.909 
  781500     299.5005   -1533.6498    483.06823    298.36987     -122.777    37986.909 
  781600    301.60262   -1510.3715    503.89922    351.94713    121.09674    37986.909 
  781700       291.09   -1489.4486    500.62856    322.25045    155.81175    37986.909 
  781800    299.26247   -1497.3242    496.82908    347.38422    247.61527    37986.909 
  781900    309.09032   -1510.3539    500.33013    382.12029     403.3202    37986.909 
  782000    293.16185    -1492.438    515.08801    343.05212    478.10978    37986.909 
  782100    313.59364   -1521.3615    490.61616    381.68167     270.2018    37986.909 
  782200     308.0165   -1513.1451    475.94115    350.10354    659.06571    37986.909 
  782300    301.38371   -1503.1559    504.81279    359.09028    442.90417    37986.909 
  782400    304.37418   -1469.7424    507.66348    408.82364    533.52987    37986.909 
  782500    296.22306   -1446.0747    519.78639    407.90158    455.97865    37986.909 
  782600    295.75297   -1416.4102    484.08192     399.7443    623.20474    37986.909 
  782700     303.2049   -1438.7909    508.29908    435.14425    174.83964    37986.909 
  782800    304.48348   -1475.0232     517.9045    414.27611    391.59005    37986.909 
  782900    289.93927   -1469.4594    493.75446    330.18263    385.95723    37986.909 
  783000    295.39542   -1493.5254    509.95667    346.89343   -444.70936    37986.909 
  783100    286.75015   -1465.9766      475.756    301.30324    24.013708    37986.909 
  783200    297.79376   -1495.8891    519.28111    364.65625   -378.16464    37986.909 
  783300     293.4581   -1502.8748    482.07959     300.9412   -73.271743    37986.909 
  783400    299.20661   -1448.6592    467.99502    366.96357   -473.49647    37986.909 
  783500    296.55683   -1451.4726     505.0116    389.23212   -528.10657    37986.909 
  783600    312.24708   -1477.9874    491.45533    419.83002    315.09349    37986.909 
  783700    294.64681   -1443.6677    515.83359    399.25633    7.7762681    37986.909 
  783800    302.56768   -1482.4251    478.54392     358.8848     439.7515    37986.909 
  783900    308.46546   -1447.5821    494.62847    436.37605    478.90315    37986.909 
  784000    294.77781   -1508.7711    491.11268    310.02204     331.4805    37986.909 
  784100    306.44111   -1461.9035    488.57376    406.88225    332.84449    37986.909 
  784200    302.75222    -1495.944    501.44739    369.10063   -408.98621    37986.909 
  784300    294.61739   -1482.2708    491.54985    336.23698   -312.67504    37986.909 
  784400    310.47974   -1513.7428    482.35137    367.01054   -20.735872    37986.909 
  784500    297.92937   -1512.0135    486.61462     316.4762   -58.118084    37986.909 
  784600    302.48084   -1481.9272    481.89418    362.34188   -81.238817    37986.909 
  784700      318.929   -1524.5294    487.15247    399.08051   -57.463088    37986.909 
  784800    293.71058   -1507.7056    462.42795    277.59602    443.93055    37986.909 
  784900    298.51717   -1524.5395    524.68767    344.67063    164.79413    37986.909 
  785000    293.27448     -1439.38    489.68103    371.21043    464.97204    37986.909 
  785100    303.29103   -1485.5148    483.20358    363.71281    604.36063    37986.909 
  785200    285.76395   -1455.1665    530.51103    362.42651   -155.76976    37986.909 
  785300    294.30588   -1496.3542    486.33865    315.53934    488.57846    37986.909 
  785400    301.32578   -1507.5355    471.76775    321.40483   -67.588722    37986.909 
  785500    303.13347   -1443.2056    501.70018    423.80896    -103.1407    37986.909 
  785600    297.67317   -1464.6336     500.8804    376.96801   -163.99469    37986.909 
  785700      297.225   -1484.7172    463.93115    317.91654   -388.11488    37986.909 
  785800    306.66229   -1458.9108    520.74906    443.04644   -534.99078    37986.909 
  785900     305.2091    -1490.735    518.97507    402.90302    310.36444    37986.909 
  786000     299.3102   -1455.4571     476.7807    369.41787    680.32579    37986.909 
  786100    304.78294   -1477.3753    519.56455    414.93286    452.75618    37986.909 
  786200    291.50902   -1457.6027    470.84049    326.19559     167.1334    37986.909 
  786300    306.35368   -1496.7838    480.20982    363.24419    408.87085    37986.909 
  786400    297.96555   -1511.1481    494.69063    325.58053   -445.70524    37986.909 
  786500    299.00303   -1509.4241     488.0195    325.30628    103.46496    37986.909 
  786600    302.71102   -1507.0717    474.51014     330.8501    289.69269    37986.909 
  786700    298.37693   -1524.5929     491.2461    310.54412    513.85991    37986.909 
  786800    294.37342   -1516.5447    486.74892    296.06324    402.25016    37986.909 
  786900    288.57548   -1520.6584    459.88124    238.96801   -200.24076    37986.909 
  787000    300.65078   -1513.2901    493.17135    334.01354     185.7097    37986.909 
  787100     291.1512   -1497.3987    500.82687    314.77437    668.29484    37986.909 
  787200    297.90265    -1488.881    479.34621    332.21998    885.31105    37986.909 
  787300     310.4918   -1505.4807    509.34762     402.3232    619.60867    37986.909 
  787400    299.40936   -1486.2148    500.69656     363.0227    569.05471    37986.909 
  787500    289.61061   -1506.6601    458.09459    255.84186    369.43961    37986.909 
  787600    298.77429   -1485.4368    528.89188    389.13571    501.42708    37986.909 
  787700    295.11506   -1518.8714    458.57902    268.90701    743.86325    37986.909 
  787800    308.40719   -1525.2878    473.47332    337.25272    402.67349    37986.909 
  787900    306.00287   -1527.2823    472.45564     323.4115    210.15099    37986.909 
  788000    292.40864   -1475.3177    480.72897    322.42097   -70.080336    37986.909 
  788100    302.34278   -1460.3111    484.24513    385.68709   -46.622415    37986.909 
  788200    295.15652   -1470.7247    489.61309    348.27449    45.308114    37986.909 
  788300    298.78116   -1490.6664     482.5955     337.6406     308.0589    37986.909 
  788400    297.89992   -1565.7638    475.74243    251.72112    2.1749408    37986.909 
  788500    312.59313    -1516.919    497.49786    388.49954    321.95332    37986.909 
  788600    287.71466   -1495.1998    482.41219    283.08033    547.84461    37986.909 
  788700    302.72011   -1456.7141    500.66439    407.40285    626.39894    37986.909 
  788800    308.00214   -1526.7915    499.36998    359.82135    172.10773    37986.909 
  788900    304.87935   -1511.6938    488.11906    349.60303    828.20058    37986.909 
  789000    301.25141   -1533.2349    479.28704    302.88973    112.68737    37986.909 
  789100    291.39179   -1505.5775    488.71092    295.56324   -74.744988    37986.909 
  789200     297.4504   -1519.4671    456.30872    276.55938    840.30201    37986.909 
  789300    305.23629   -1516.1707    480.88312    339.49788    70.557802    37986.909 
  789400     291.7313   -1488.7507     503.6252    328.83342   -200.98858    37986.909 
  789500    301.97736   -1501.3091    462.49709    321.29521   -87.326147    37986.909 
  789600    303.39965   -1515.2071     504.1376    355.44375    510.31428    37986.909 
  789700    302.28436   -1555.6914    481.44315    287.24173    33.652987    37986.909 
  789800    300.10142   -1525.5072    497.23841    323.38916    450.41192    37986.909 
  789900    298.11228   -1546.2329    481.18112    277.64712    944.07186    37986.909 
  790000    297.70466   -1575.2409    504.58568    270.20775    697.10369    37986.909 
  790100    309.08075   -1553.9692    482.65141    320.78319    287.18631    37986.909 
  790200    291.40136   -1495.8451    476.43226    293.06003    -126.0727    37986.909 
  790300    293.94815   -1513.3066    500.57103     311.2081    173.58161    37986.909 
  790400     301.5118   -1495.8901    486.62714    348.74741    331.04361    37986.909 
  790500    302.13792   -1545.9172    477.36367    292.27684    68.816228    37986.909 
  790600    302.36865   -1503.7335    467.96735    326.10343    574.01868    37986.909 
  790700    296.50345   -1517.8907    491.92749    309.48951     -169.467    37986.909 
  790800    290.11259   -1457.6308     462.6253    311.66274   -267.18632    37986.909 
  790900    300.16482   -1487.0206     477.4569    342.37981    234.79969    37986.909 
  791000    301.49544    -1457.998    524.64792    424.58664   -636.52839    37986.909 
  791100    299.50374   -1496.0355    490.30462    343.23511   -481.61038    37986.909 
  791200    295.97549   -1451.0352    512.08839    394.12793    122.14029    37986.909 
  791300    308.02688   -1446.5649    487.39884    428.18821   -210.31358    37986.909 
  791400    306.48686   -1441.4687    478.36525    417.31465   -399.06286    37986.909 
  791500    304.72077   -1454.5206    511.72487    429.66782    336.13126    37986.909 
  791600    291.18519   -1471.3293    473.29636    313.46635   -209.20878    37986.909 
  791700    296.62609   -1478.5797    506.72041    364.14581   -299.81949    37986.909 
  791800    307.67582   -1476.0139    486.06676    395.82598    313.52733    37986.909 
  791900    303.43066   -1507.2453    475.94807    335.35561     644.8094    37986.909 
  792000    299.39106   -1514.3825    479.62162    313.69765   -82.639515    37986.909 
  792100     309.9736    -1459.128    460.12264    397.11699    222.31018    37986.909 
  792200    295.18902   -1485.9395    486.31227    329.90526   -107.59858    37986.909 
  792300     291.9041   -1492.4087    493.59374    315.92231    765.02623    37986.909 
  792400    292.66494   -1495.6906    503.96339    326.43684    304.81208    37986.909 
  792500    306.63954   -1531.9495     466.5585    315.71476   -293.94362    37986.909 
  792600    304.97557   -1530.2906    454.74617    298.06681   -97.175074    37986.909 
  792700    298.78928   -1494.6105    475.68244     326.8201   -94.565025    37986.909 
  792800    299.27283   -1482.5863    476.23047    341.57021   -142.10295    37986.909 
  792900     291.7923   -1517.6321    494.27156    290.87312     -579.554    37986.909 
  793000    305.97837   -1511.6095    480.43172    346.95001    -1067.124    37986.909 
  793100    296.03494   -1484.3445    487.17664    336.17473   -1092.9163    37986.909 
  793200    309.22617        -1465    495.24165    422.99751    -419.6917    37986.909 
  793300    309.36135   -1466.1595    489.64852     416.8538    575.11887    37986.909 
  793400    300.58505   -1498.2867    499.23978    354.78937    231.34891    37986.909 
  793500     290.0202   -1456.8418    504.31005    353.72037    432.66841    37986.909 
  793600    293.11063   -1426.0868    495.49423    389.57886   -140.48226    37986.909 
  793700    303.45506   -1464.2741    487.68041    390.16907    233.06431    37986.909 
  793800    305.83298   -1435.1899    470.04484    412.32793    509.09607    37986.909 
  793900    303.65836   -1461.6179    499.41753    405.47809   -464.44934    37986.909 
  794000    304.96034   -1431.8922     500.3702    442.02061   -440.52412    37986.909 
  794100    288.12189   -1420.9042    485.11099    361.90894     179.2533    37986.909 
  794200    300.78622   -1415.7607    511.65952    450.64111   -522.15648    37986.909 
  794300     296.4228   -1384.6144    487.85798      438.333    662.24416    37986.909 
  794400    303.18235   -1438.9206    518.13867    444.75261    231.70517    37986.909 
  794500    306.11122    -1425.306    479.62486    433.04505    433.34811    37986.909 
  794600    308.93784   -1426.0955    523.23843    488.60025    418.47019    37986.909 
  794700    295.53074   -1418.2664    497.64016    410.44537    485.08889    37986.909 
  794800    298.10975    -1395.005     503.0531    450.73559    47.718496    37986.909 
  794900    303.83777   -1443.0762    488.27379    413.68414   -366.17576    37986.909 
  795000    294.24889   -1478.2323    499.86326    346.92915   -88.266019    37986.909 
  795100    299.55765   -1492.7369    474.77478    331.24672   -408.37991    37986.909 
  795200    312.87315   -1464.8557    492.05018    436.37645   -557.30279    37986.909 
  795300    308.53723   -1453.0096    493.88746    430.53076   -505.35276    37986.909 
  795400     291.2126   -1485.0498    492.25191     318.8248   -622.21792    37986.909 
  795500    311.97566     -1421.61    506.92127    490.45091   -466.91553    37986.909 
  795600    293.39966   -1450.1221     497.8139    369.16504   -216.23652    37986.909 
  795700    306.34968   -1444.1595    489.13147    424.77216    -374.9849    37986.909 
  795800    295.81097   -1471.9297    487.98331     348.3874   -143.86153    37986.909 
  795900    294.66058   -1451.5501    497.61772    373.22007   -51.875906    37986.909 
  796000    302.59718   -1460.9436    472.05221    374.00754    84.154391    37986.909 
  796100    288.31303   -1435.8826    495.18499    357.86541    307.50278    37986.909 
  796200    291.96412   -1441.5932    501.19096    374.60531    738.42302    37986.909 
  796300    300.27327   -1428.6907    498.16437    421.90567    855.32908    37986.909 
  796400    289.79176   -1443.4924     511.5936    373.32442    290.61404    37986.909 
  796500    294.42736    -1442.194    506.49085    390.39888    374.61566    37986.909 
  796600    305.04274   -1458.9043    494.63501    409.64439    583.17339    37986.909 
  796700    304.27655   -1461.5591    482.25164    391.15534    83.217316    37986.909 
  796800    301.95997   -1452.5057    497.94801    405.47124   -84.361978    37986.909 
  796900    301.90257   -1454.5226     507.1346    412.38243   -126.58579    37986.909 
  797000    301.72847   -1438.9122    479.35942    399.43344    197.04641    37986.909 
  797100    303.84619   -1420.9576    516.72951    464.29635    41.040478    37986.909 
  797200    303.61892   -1411.5086    528.71578    484.70799    769.19917    37986.909 
  797300    296.11997   -1394.9877    463.10713    401.84492    792.75415    37986.909 
  797400    297.64027   -1427.0106     504.4594    418.02178    856.39409    37986.909 
  797500    307.60416    -1421.072    502.09422    466.47257    775.40105    37986.909 
  797600    303.04088   -1465.7736    492.56249    391.68621    567.95022    37986.909 
  797700    297.67387   -1454.4167    506.49861    392.80627     123.3605    37986.909 
  797800    298.83138    -1429.903     520.7937    436.82843   -162.74387    37986.909 
  797900    294.45937   -1433.9505    485.75515    378.05086   -197.39893    37986.909 
  798000    304.48958   -1436.3509     492.9776    428.04898    381.34257    37986.909 
  798100    294.97221   -1410.6547    494.28393    412.18522   -149.74553    37986.909 
  798200    308.80238   -1430.2679    501.64689    462.22615    187.76842    37986.909 
  798300    296.28316   -1422.5509    481.83246    393.74206    312.09049    37986.909 
  798400    303.09031   -1409.2609    507.61232    463.47136    259.84546    37986.909 
  798500    292.91061   -1412.3156    502.17883    409.13376    84.389689    37986.909 
  798600    308.08643   -1494.8573    473.78021    366.54536    326.94327    37986.909 
  798700    294.17673   -1457.5509    489.11553    356.53774    673.10238    37986.909 
  798800    297.96566   -1498.0477    501.81207    345.80284    398.68199    37986.909 
  798900    298.10746   -1471.9533    501.12814    371.85206    502.38979    37986.909 
  799000    302.35003   -1451.8149    472.64925    382.62006    486.74766    37986.909 
  799100    302.45669   -1476.2324    506.12301    392.15675   -42.129121    37986.909 
  799200    307.54337   -1502.3153    487.50588    370.36718    157.41642    37986.909 
  799300    298.33497   -1463.0328    489.91168    370.58083     44.75581    37986.909 
  799400    289.68236   -1496.7532    491.72813    299.70543   -286.34718    37986.909 
  799500    303.43716    -1477.384    490.38853    379.68678   -70.805579    37986.909 
  799600    308.88015   -1502.7154    471.27523    359.75725   -451.44555    37986.909 
  799700    302.70652   -1481.7925    495.31791    376.91673    45.313452    37986.909 
  799800    287.20593   -1508.7956    487.78131    272.56234    97.026069    37986.909 
  799900    296.13079   -1541.8454    498.00275    289.93161    567.17341    37986.909 
  800000    305.52149   -1566.4602    488.47166    298.08144   -158.53457    37986.909 
  800100    312.94812   -1531.6343    467.85162    345.73695    -460.7184    37986.909 
  800200    309.22225   -1513.7208    468.85853    347.87599   -488.38967    37986.909 
  800300    300.72863   -1477.1783    493.30249    370.60714    -684.3595    37986.909 
  800400    298.51618   -1456.9614     492.0279    379.58454   -595.14826    37986.909 
  800500    300.09331   -1479.0103    473.96121    346.57234   -263.20284    37986.909 
  800600    296.89313   -1475.7491    504.23825    365.69703   -542.15951    37986.909 
  800700    288.84031   -1468.9135    488.70906    320.73343   -94.056427    37986.909 
  800800    300.17205   -1515.3725    508.99727    345.60084    -159.4472    37986.909 
  800900    294.24184   -1493.3378     479.9061    311.83468   -176.41089    37986.909 
  801000    299.50306   -1487.2024    480.78167    342.54225    408.49039    37986.909 
  801100    297.85989   -1478.0537     493.7219    357.23035   -253.52511    37986.909 
  801200    299.84145   -1493.6549    478.63162    335.46377   -502.97338    37986.909 
  801300     290.6979   -1459.0268    478.00562    328.28327    -44.52281    37986.909 
  801400    297.34825   -1472.3355    505.83605    372.75823   -910.51074    37986.909 
  801500    286.67474   -1509.7731    472.99303    254.40408   -537.97881    37986.909 
  801600     297.3645   -1454.1579    485.80015    370.97311   -488.84128    37986.909 
  801700    302.88653   -1453.7411    501.15912    411.62014   -103.91097    37986.909 
  801800    297.20271    -1473.018    497.28787      362.872   -370.27359    37986.909 
  801900    308.04793   -1463.2168    504.65965    428.89192    49.408977    37986.909 
  802000    301.06537   -1479.4287    487.73598    364.30698    16.067961    37986.909 
  802100    302.44263   -1521.5092    479.78216    320.47573     2.908919    37986.909 
  802200    311.46547   -1501.9323    495.25096    396.16041    390.88485    37986.909 
  802300    306.21054   -1496.1176      488.923    371.97894    245.41681    37986.909 
  802400    307.95822   -1489.8312    491.91768    389.13157    147.99127    37986.909 
  802500     311.9815   -1478.7444     489.1752    415.59667    595.39007    37986.909 
  802600    306.52828   -1474.4603    491.44954    397.59385    727.11044    37986.909 
  802700    294.67237   -1428.9674    485.16577    383.40385    601.23966    37986.909 
  802800    285.95618   -1468.3472    503.76452    323.36509    58.496378    37986.909 
  802900    312.85227   -1427.2861    511.88731    493.68909   -255.04259    37986.909 
  803000    297.02925   -1466.7948    522.38635    393.41252   -617.71644    37986.909 
  803100    292.85019   -1446.4618    500.63921    373.17587     -715.186    37986.909 
  803200    309.96304   -1435.9456      492.069    452.19815   -662.47175    37986.909 
  803300    294.59498   -1427.8637    491.32865    390.32191   -1053.7295    37986.909 
  803400     302.5574   -1458.1333    495.02649    399.61294   -622.19731    37986.909 
  803500    299.34116   -1461.5253     492.0462    378.75464   -288.64417    37986.909 
  803600    301.23195   -1434.5216    511.94686    434.17511    115.78461    37986.909 
  803700    299.03443   -1440.0141    460.63987    367.47807     -78.5923    37986.909 
  803800     310.0142   -1450.1617    516.28787    462.43133   -73.803554    37986.909 
  803900    304.42002   -1439.5478    499.19124    430.75246    152.06874    37986.909 
  804000     304.6729   -1447.4036    495.05782    419.90213   -130.65625    37986.909 
  804100     296.2021   -1459.9302    483.41039    357.57567   -276.36518    37986.909 
  804200    309.47908   -1420.7047    483.57494    456.76523    475.93772    37986.909 
  804300    304.61937   -1470.8232    511.40551    412.58917     77.13851    37986.909 
  804400    303.75399   -1451.1991    518.52723    435.43729    78.408077    37986.909 
  804500     298.6302   -1439.7593    484.84814    390.12047   -70.937048    37986.909 
  804600    296.34532   -1462.8583    484.91604    356.79827   -440.62157    37986.909 
  804700    307.55618   -1459.7693    503.35754    428.82248   -273.52483    37986.909 
  804800    297.18379   -1460.0275    500.25456    378.74406   -297.41008    37986.909 
  804900    302.95793   -1443.7405    509.75227    430.53546   -321.51751    37986.909 
  805000    294.97981   -1450.3251    487.08595    365.35112    517.19254    37986.909 
  805100    300.03836   -1480.2173    510.11586    381.27253    38.725045    37986.909 
  805200    308.07508   -1419.8076    469.32776    437.09158    452.38503    37986.909 
  805300    296.88888   -1444.1062    504.21448    397.29693    426.32652    37986.909 
  805400    291.03566   -1445.1768    506.72385    372.37285    416.67516    37986.909 
  805500    298.24655   -1503.6344    505.91342    345.58271   -48.879527    37986.909 
  805600    289.84146   -1484.1117    507.41993    328.75531    79.046585    37986.909 
  805700    298.74397   -1464.9543    491.53634     372.1261     492.4025    37986.909 
  805800     305.3907   -1503.8925    463.69734    335.28579   -133.68689    37986.909 
  805900    296.62057   -1485.3361    489.41686    340.06101   -353.08041    37986.909 
  806000     304.8236   -1455.0719    484.68994    402.54474    389.36163    37986.909 
  806100    307.90966   -1441.3451    524.69088    470.17208   -91.848967    37986.909 
  806200    292.67279   -1437.3898    496.45441    377.26402     52.00754    37986.909 
  806300    296.83915    -1439.543    504.45556    401.87725    99.659839    37986.909 
  806400    312.00771   -1477.6757    493.99319     421.6015    591.91221    37986.909 
  806500    305.77809   -1467.4214    491.07974    400.88404    309.70228    37986.909 
  806600    290.31643   -1476.8451    462.66603    293.40733    24.200706    37986.909 
  806700    298.91976    -1462.446    493.23221    377.12195    74.395375    37986.909 
  806800    304.42835   -1474.2485    498.36229    395.26029    153.48806    37986.909 
  806900    289.81591   -1449.9271    488.48928    343.89421     75.94011    37986.909 
  807000    306.20472   -1487.3683    499.84195    391.62094    -15.52033    37986.909 
  807100    289.66708   -1442.8316    521.88792    383.71794    542.91595    37986.909 
  807200    299.84046   -1458.2929       484.49    376.67973    182.03624    37986.909 
  807300    307.53395   -1455.3836    498.74585    428.49636   -272.60268    37986.909 
  807400    297.27348   -1454.7173    513.70223    397.90589   -473.29061    37986.909 
  807500    296.38026   -1441.1905    499.69588    393.40326   -1003.2864    37986.909 
  807600     299.1762   -1428.3104    513.04813    432.22856   -652.82248    37986.909 
  807700    293.07577   -1415.0614    486.22317    391.17625   -108.49938    37986.909 
  807800    302.32528   -1456.7118    479.05978    384.02223   -316.13064    37986.909 
  807900    302.12098   -1482.2684    494.62471    373.11035   -59.072939    37986.909 
  808000    309.12012   -1454.6246    486.12227    423.77588   -300.45335    37986.909 
  808100    297.79678   -1465.2812    507.63337       383.63   -185.22693    37986.909 
  808200    305.24601   -1463.7435    495.22581    406.31159    198.80735    37986.909 
  808300    303.86506   -1448.8443    508.77657    428.54168    773.60576    37986.909 
  808400    295.48745   -1471.0968    500.45189    360.23178   -2.1903462    37986.909 
  808500    296.69966    -1419.699    468.58424    385.22167   -697.97136    37986.909 
  808600    302.15161   -1434.3098    539.86341    466.44566   -511.62732    37986.909 
  808700    300.78322   -1437.3215    480.85867    398.26598   -279.11841    37986.909 
  808800    304.53747   -1449.8946    487.09927     408.8426   -320.98735    37986.909 
  808900    303.75078   -1482.5026    500.70237    386.29446   -393.94605    37986.909 
  809000    293.41614   -1465.2517    479.20665    335.50239   -222.86809    37986.909 
  809100    300.68043   -1465.1375    511.42242    400.55073    -213.2854    37986.909 
  809200     290.5885   -1448.2065     481.8021    342.40738   -167.77777    37986.909 
  809300    305.42652   -1482.9024    497.45887    390.19874     25.34124    37986.909 
  809400    291.10571   -1451.1827    485.38434    345.34299    -439.1077    37986.909 
  809500    294.15396   -1451.6474    485.88714    359.11032   -94.940331    37986.909 
  809600    288.94448   -1484.1012    502.28272    319.58859  -0.60245018    37986.909 
  809700    298.59495   -1484.3858    477.48096    337.96804    255.04973    37986.909 
  809800    291.94639   -1477.5429    506.88665    344.27146    361.21636    37986.909 
  809900    295.59407   -1429.6794    502.67694    404.35439    271.82725    37986.909 
  810000    304.10349   -1458.2058    481.41181    392.88931    622.48022    37986.909 
  810100    296.67418   -1475.4272    506.01442     366.8089    232.66769    37986.909 
  810200       307.74    -1461.433    504.60772    429.23695    537.31237    37986.909 
  810300    295.40302   -1441.2241    489.51832    378.79056    415.27826    37986.909 
  810400    294.51514   -1458.2825    493.90069    362.11553   -282.04142    37986.909 
  810500     292.3832   -1492.4696    500.66085    325.08636    57.374324    37986.909 
  810600    294.89649   -1491.5766     504.7637    341.40206    529.55943    37986.909 
  810700    303.51954   -1486.9094    518.87675    399.02062   -385.72956    37986.909 
  810800    292.78767   -1482.3507    485.97444     322.3406   -445.95797    37986.909 
  810900     298.1547   -1481.4587    495.00564    356.43689   -631.45103    37986.909 
  811000    296.31448   -1426.4642    492.82304    400.96046   -87.600226    37986.909 
  811100    297.00905   -1463.9289    517.07454    390.87561    -587.3667    37986.909 
  811200    300.76988   -1435.2977    487.23168    406.60266   -436.45373    37986.909 
  811300    305.27789   -1470.4479    506.27265    410.79761   -667.05193    37986.909 
  811400    292.13335   -1491.9245    485.20745    309.05274     355.1358    37986.909 
  811500    308.65056   -1495.6316    485.92669    380.45846    335.35619    37986.909 
  811600    292.96471   -1497.8175    523.82246    345.51914   -348.24121    37986.909 
  811700    299.48542    -1500.874    503.52351    351.53304   -117.33691    37986.909 
  811800    293.45992   -1446.7929    484.18106    359.13278   -46.487833    37986.909 
  811900    299.41585   -1493.9319    517.49878    372.13709   -316.42305    37986.909 
  812000    298.71076   -1477.8247    478.12784    345.69759    90.805864    37986.909 
  812100    312.84585   -1506.6966    502.59548    404.95787    566.78717    37986.909 
  812200    291.64801   -1523.9682    504.95728    294.57294    499.33995    37986.909 
  812300    286.50169   -1520.5379    485.67054    255.53735    103.08445    37986.909 
  812400    312.02842   -1546.3294    490.05529    349.10318   -24.152223    37986.909 
  812500    297.16832   -1522.9187    502.88024    318.40888    525.19874    37986.909 
  812600    300.01854   -1505.7725     511.6992    357.21142    244.62972    37986.909 
  812700    303.27509   -1461.1028     473.5468    378.39624    683.77398    37986.909 
  812800    304.72361   -1490.8423    523.43336    405.06745    209.13208    37986.909 
  812900    300.48177   -1481.7966    469.73863    341.31309   -342.91147    37986.909 
  813000    308.68597   -1468.7061    508.48718    430.10394    388.13791    37986.909 
  813100    291.94995   -1485.4384    520.44247    349.94779   -172.14349    37986.909 
  813200    300.27341   -1482.0625    482.94001    353.31015   -335.96622    37986.909 
  813300     294.4014   -1440.3662    516.02116    401.64002   -271.22323    37986.909 
  813400    296.97049   -1463.3304    522.39348    396.61941   -1125.2534    37986.909 
  813500    294.15404     -1471.27    457.14475     310.7457   -617.42126    37986.909 
  813600    292.89863   -1486.4195    526.05587    358.85296   -400.47524    37986.909 
  813700    298.39486   -1484.5566    479.61005    339.02509    558.15912    37986.909 
  813800    290.49369   -1457.7411    508.28998     358.9336    144.56576    37986.909 
  813900    313.25106   -1479.8087    473.00406    404.07935    816.22134    37986.909 
  814000     299.5301   -1492.6105    522.48676    378.96102    744.89045    37986.909 
  814100    307.29341   -1502.6469    485.78885    367.19271    168.97005    37986.909 
  814200    305.43702   -1504.8874     499.9472     370.7494    148.28759    37986.909 
  814300    303.15743   -1508.7845    508.10347    364.74123    448.87757    37986.909 
  814400    302.28521   -1496.9607    489.65846    354.19153    488.88816    37986.909 
  814500    297.86951     -1537.75    473.71315    277.56856    436.60619    37986.909 
  814600    303.79287   -1517.4031     495.9635    346.84473     175.8656    37986.909 
  814700    308.97157   -1508.9944    502.35066    384.96549    204.89931    37986.909 
  814800    312.51068   -1523.0006    485.01575    369.56445   -3.1795997    37986.909 
  814900    313.41601   -1479.9638    470.50816    402.17132    165.01526    37986.909 
  815000    305.04397   -1462.3891     501.0141    412.54427    70.761455    37986.909 
  815100    284.59772   -1488.3056    492.38572    285.90933   -225.76098    37986.909 
  815200    302.03756   -1519.8456    505.63048     346.1633    581.68826    37986.909 
  815300    303.86319   -1535.4583     492.5507    325.69341    579.35046    37986.909 
  815400    301.40619   -1478.1366    514.63837    394.03647    329.09702    37986.909 
  815500    304.03136   -1508.8454    502.98816    363.50126    386.44887    37986.909 
  815600    300.77266   -1497.9116    486.84001    343.60967    179.80522    37986.909 
  815700    298.07855   -1488.0476    489.79122    344.29057    590.53697    37986.909 
  815800    304.87488   -1532.1112    512.17032    353.21676    177.58304    37986.909 
  815900    293.96453   -1492.8313    482.29944     313.4856    -478.8706    37986.909 
  816000    281.78269   -1471.6982    500.46439    297.91655    173.38945    37986.909 
  816100    299.34559   -1486.0917    524.26257    386.42458   -50.307711    37986.909 
  816200    296.64757   -1526.9982    464.47395    273.57762    838.01394    37986.909 
  816300    313.51033   -1533.0855    534.10715    413.07338    836.47493    37986.909 
  816400    306.48136   -1525.2596    507.70619    362.83982    842.95617    37986.909 
  816500    297.95228   -1477.8383    501.26526    365.40521    920.97383    37986.909 
  816600     312.8036   -1514.5564     508.6636    402.97589    226.85236    37986.909 
  816700    299.38477   -1451.7524     502.4491    399.12686    75.905766    37986.909 
  816800    299.15806     -1489.11    486.71123    345.01034    251.82302    37986.909 
  816900    306.32745   -1499.3822    489.73898    370.05682    285.40317    37986.909 
  817000    299.26336   -1545.5605     497.8534    300.17631    473.00732    37986.909 
  817100    306.05966   -1549.5499    513.63519    342.57921     188.8247    37986.909 
  817200    300.43514   -1483.3061    487.86818    357.72315    494.98981    37986.909 
  817300    297.66371   -1513.5427    491.95085    319.08666    349.57771    37986.909 
  817400    309.05835   -1522.1103    514.92249    384.81217    1107.6336    37986.909 
  817500    309.76907   -1458.8777    522.34112    458.66455    1060.7833    37986.909 
  817600    300.72742   -1477.9302    497.46218    374.00947    377.59496    37986.909 
  817700     302.6095   -1469.4996    497.95944    391.41423    700.37384    37986.909 
  817800    292.79151   -1446.9642    488.46728    360.23726    475.96422    37986.909 
  817900    306.17134    -1481.936    489.27168    386.33264   -363.75036    37986.909 
  818000    299.93983   -1439.4876    499.67438    411.11693    388.67646    37986.909 
  818100    302.36052   -1501.8731    514.53265    374.49252    588.61055    37986.909 
  818200    296.53486   -1472.5187    511.31797     374.3935    781.32659    37986.909 
  818300    301.52472   -1514.2007    520.18379     364.0517     231.7854    37986.909 
  818400    309.07969   -1526.0681    492.22636    358.25446    652.47736    37986.909 
  818500    293.42353   -1470.9731    499.03447    349.64208    928.48216    37986.909 
  818600    296.47338   -1488.5907    534.14134     380.8679    212.50977    37986.909 
  818700     298.5608   -1444.0235    518.01917    418.71469    546.68069    37986.909 
  818800    300.96837    -1464.436     503.0766    394.20336    198.02504    37986.909 
  818900    305.44348   -1488.1719     492.5971    380.14388     296.3516    37986.909 
  819000    291.86545   -1473.1348    485.84322    327.27156    206.74477    37986.909 
  819100    294.08596   -1511.9595    521.01861    333.62345    99.806218    37986.909 
  819200    313.48191    -1496.333    486.27459    401.86537    485.04154    37986.909 
  819300    305.43795   -1531.1764    505.71036    350.22772     514.0666    37986.909 
  819400    296.76515   -1512.5649    498.82488    322.89139    396.73988    37986.909 
  819500    302.74398   -1485.7864     504.3421     382.1158     219.7751    37986.909 
  819600    301.95584   -1473.7987    534.90503     421.1166   -710.29677    37986.909 
  819700     291.6588   -1533.6456    467.67903    247.66584    54.545039    37986.909 
  819800    306.78053   -1526.8124    510.13806    365.06641   -258.00017    37986.909 
  819900    287.83662   -1515.9627    523.97544    304.43008    -64.13639    37986.909 
  820000    297.37634   -1485.1876    487.94739    342.14397   -416.92925    37986.909 
  820100    297.82611   -1504.3984    489.22756    326.23914   -807.01803    37986.909 
  820200    307.26761   -1479.1182    515.80721    420.62357   -131.85287    37986.909 
  820300    302.54067   -1471.8548    519.28593    410.07548   -33.687565    37986.909 
  820400    300.97101   -1499.0072     487.4887    344.05614    435.15501    37986.909 
  820500    293.52937   -1461.7348    496.28991    356.61253    216.52953    37986.909 
  820600     311.0894   -1486.3557    510.66354    425.45571   -298.99794    37986.909 
  820700     299.1385   -1454.3642    495.60365    388.56048   -208.50501    37986.909 
  820800    308.31713   -1498.4328    499.06986    389.29861   -1098.4675    37986.909 
  820900    296.77102   -1522.8897    502.13867    315.90676   -668.66225    37986.909 
  821000      304.034   -1448.8799    511.26862    431.75903   -503.57314    37986.909 
  821100     306.3789   -1494.6249    514.26981    399.57669   -143.11573    37986.909 
  821200    290.88643   -1463.8984    510.69454    356.94975   -7.7998849    37986.909 
  821300     309.0268   -1513.6953    499.28543    377.44808   -60.680773    37986.909 
  821400    294.45427   -1450.4978    510.82661      386.552   -275.53595    37986.909 
  821500    312.95372   -1482.0932    496.35463    423.80621    674.02729    37986.909 
  821600    299.35474   -1494.2235    539.13467    393.20616    425.35405    37986.909 
  821700    296.79962   -1507.3319    514.37506    343.82977    806.07326    37986.909 
  821800    295.46758   -1463.9499    506.56224    373.39945     238.0766    37986.909 
  821900    309.97828    -1500.424    516.67893    412.39831   -58.154531    37986.909 
  822000     295.2998   -1467.9773    519.81576    381.86996    127.78253    37986.909 
  822100    301.76999   -1504.8656    501.17869    355.48638   -404.91551    37986.909 
  822200    293.19036   -1475.0977    547.97641    393.40929   -708.08948    37986.909 
  822300    297.98679   -1542.5692     486.6689    286.23339   -511.23459    37986.909 
  822400      296.113   -1505.2459    494.51274    322.96094    -373.7366    37986.909 
  822500    310.50574   -1491.5063    487.87968    394.89252    174.63523    37986.909 
  822600     293.7886   -1507.3766    507.90314    323.75156   -333.88199    37986.909 
  822700    302.39946   -1461.7539    505.20863    405.46311    -161.7792    37986.909 
  822800    296.91765   -1515.6763    489.55192    311.19392   -350.45573    37986.909 
  822900    302.96193   -1460.6282    507.65369    411.56725   -800.36545    37986.909 
  823000    295.75148   -1435.6402    516.82743    413.25312   -252.69566    37986.909 
  823100    315.47342   -1463.1929     534.6815    492.38211   -392.38272    37986.909 
  823200    294.77918   -1471.5399     518.8198    374.96648   -639.14857    37986.909 
  823300    308.11373   -1507.5849    498.23901    378.39951   -595.00155    37986.909 
  823400     290.2136   -1493.9133    532.10164    345.31152   -562.65466    37986.909 
  823500    292.14331   -1514.9067     479.1157     280.0236    346.58887    37986.909 
  823600    306.88409   -1511.4987    515.51097    386.21948    2.3842303    37986.909 
  823700    303.13459   -1513.8778    497.91488    349.35651    710.46122    37986.909 
  823800    298.01537   -1505.7536    504.45635    340.96517    412.49885    37986.909 
  823900    312.85749   -1552.9528    504.79312    360.95175    519.45332    37986.909 
  824000    289.44471   -1504.3694    512.41172    311.70245    896.36188    37986.909 
  824100    311.42972   -1534.2229    476.82082    345.27863    839.26913    37986.909 
  824200    297.33313   -1500.3609    520.59815    359.42685    461.38494    37986.909 
  824300    297.16818   -1481.7849    486.11063    342.77238    584.47095    37986.909 
  824400     300.0554   -1520.4628    472.73139    303.71926   -326.50503    37986.909 
  824500     306.9879   -1470.6903    493.18376    405.16821    -188.5915    37986.909 
  824600    294.57902    -1436.253    510.53479    401.06682   -600.60353    37986.909 
  824700    311.27609   -1509.7451    493.42051    385.66416   -46.086703    37986.909 
  824800    301.18561   -1502.6858    474.81918    328.67455   -31.974319    37986.909 
  824900    302.36567   -1501.8011    486.70424    346.75929    192.47235    37986.909 
  825000    302.61034   -1504.0523    474.94518    333.85106     260.0806    37986.909 
  825100    309.03925   -1462.5726     539.2624    468.60384    371.25237    37986.909 
  825200    298.48877   -1482.2409    493.57674    355.73047    195.89297    37986.909 
  825300    290.83251   -1476.7698    514.24668    347.38769   -29.312932    37986.909 
  825400    293.62239   -1504.8923    498.28689    315.87103   -54.289458    37986.909 
  825500    301.86682   -1457.5658    496.19085    398.23434   -474.84068    37986.909 
  825600    297.91783   -1486.9079    498.82953    353.74469   -708.22256    37986.909 
  825700    299.93534   -1468.4748    509.71812    392.15324   -575.64089    37986.909 
  825800    293.57464    -1476.378    508.26849    354.15185   -436.45192    37986.909 
  825900    310.80023   -1452.5346    492.82645     440.1373   -662.72299    37986.909 
  826000    294.78461   -1471.1155    514.72308    371.31864   -127.51215    37986.909 
  826100     311.8116   -1454.2348    536.59401    486.75988     166.8945    37986.909 
  826200    299.53344   -1447.7865    485.39452    386.70782   -195.04378    37986.909 
  826300    291.60764   -1433.2987    544.66306    424.76633   -168.19921    37986.909 
  826400    290.98532   -1467.1555     505.8476    349.29119   -154.49424    37986.909 
  826500    304.80248    -1459.444    510.02955    423.41716    75.808469    37986.909 
  826600    307.06336   -1479.1231     486.3234    390.21487    516.14148    37986.909 
  826700     311.5599   -1513.7099    493.44443    383.00152   -174.41569    37986.909 
  826800    304.92182   -1498.5832    515.63029    390.41622   -216.06821    37986.909 
  826900    295.74954   -1513.6975    487.59365    305.95328   -125.60497    37986.909 
  827000    294.80108   -1483.3722    497.92508    342.33809    -117.9045    37986.909 
  827100    295.66802   -1493.1977    509.25497    347.74727   -59.246693    37986.909 
  827200    307.86442    -1483.908    489.24694    391.96145    467.84865    37986.909 
  827300    299.74234   -1494.6199    491.65778    347.07861    391.49202    37986.909 
  827400     302.8594   -1496.6363    487.79983     355.2435    477.51291    37986.909 
  827500    302.18344   -1505.9074    486.46778    341.59583    716.36526    37986.909 
  827600    301.42103   -1476.4178    488.91884    370.10257    33.098671    37986.909 
  827700    298.37882   -1507.7636    501.71069    337.84645   -151.11061    37986.909 
  827800    293.06391   -1490.7693    489.48446    318.67616    436.11268    37986.909 
  827900    295.09191   -1499.6055    506.22352    335.71318    346.00543    37986.909 
  828000    299.80876   -1477.4781     502.0796    374.94139    461.49053    37986.909 
  828100    293.94475   -1497.3409    507.56108    334.14847    131.83102    37986.909 
  828200    300.28093   -1514.3942    475.41499    313.48733   -189.67144    37986.909 
  828300    294.63849   -1491.8353    474.55957    309.77721   -223.41453    37986.909 
  828400    297.03996   -1493.5538    510.53613    354.85147   -341.46967    37986.909 
  828500    306.90816   -1452.1442    512.21809    442.38946   -219.82126    37986.909 
  828600    305.69437   -1496.3067    484.39355    364.93549   -75.748543    37986.909 
  828700     292.8203   -1499.8945    514.98211    333.95143    273.44291    37986.909 
  828800    308.12067   -1499.0672     484.1732    372.88272     124.3124    37986.909 
  828900    306.24741   -1475.3183    492.09549     396.1168    485.53892    37986.909 
  829000    304.40585   -1465.7591    485.71212    390.99821    726.00431    37986.909 
  829100    294.04434   -1486.7678     488.9019      326.511    330.33556    37986.909 
  829200     307.2081   -1479.4704    498.59138    402.78747    291.68711    37986.909 
  829300     294.1459   -1487.0421    489.74072    327.53292    167.00372    37986.909 
  829400    307.22871   -1473.2411    491.66363    402.18184    -445.5186    37986.909 
  829500    291.19667   -1430.3036     505.7253    386.97267    104.62203    37986.909 
  829600    303.58588   -1462.5398    500.98244     405.7946    -231.4698    37986.909 
  829700    294.80849   -1471.9222    492.56854    348.46498   -734.33202    37986.909 
  829800    308.25918   -1454.1766    501.05685    435.28086    28.597587    37986.909 
  829900    311.58335   -1471.6787    495.21074    426.90472   -347.09432    37986.909 
  830000    302.20605   -1458.9134    492.82371    395.04757    248.86195    37986.909 
  830100    306.74002   -1450.2811     499.2689    430.54606    542.49918    37986.909 
  830200    302.16353   -1453.6365    525.15253    432.46172    725.65919    37986.909 
  830300    310.84343   -1497.4825    507.29863    409.85615    603.87955    37986.909 
  830400     288.5369   -1488.3756    514.49215    325.68787    90.233641    37986.909 
  830500    287.70693    -1437.561    490.33526    348.60746    269.56138    37986.909 
  830600     302.1419   -1419.7683    501.21731    442.29736   -236.66055    37986.909 
  830700    305.06382   -1435.7763    519.57434    457.80676    91.961556    37986.909 
  830800    304.13914   -1466.9335    499.33626    402.24664    39.378401    37986.909 
  830900    309.82674   -1467.0495    523.78221    452.19353    -139.7796    37986.909 
  831000    304.68336   -1453.9562    513.51251    431.85137   -596.20748    37986.909 
  831100    317.88488   -1481.5086    482.31004    432.55626     146.7212    37986.909 
  831200    296.85461   -1488.3167    491.93756    340.65523    88.512929    37986.909 
  831300    295.07407   -1468.9345    490.54097    350.62128    158.51625    37986.909 
  831400    296.68944   -1447.1641    517.53779    406.66409      -2.8041    37986.909 
  831500     310.6863   -1458.7622    510.22977    450.79993   -140.17297    37986.909 
  831600    304.29468   -1480.0709    507.14192    397.61553   -387.86304    37986.909 
  831700     294.8471   -1438.2375    466.98362    356.73869   -92.677035    37986.909 
  831800    305.02639   -1419.9601    503.28904    457.16905    287.38011    37986.909 
  831900    295.90066    -1387.166    491.07696    436.64871    539.65419    37986.909 
  832000    292.20643   -1417.4048    537.57078    436.26488   -12.404581    37986.909 
  832100     291.2897   -1476.9554    481.14741      316.162   -8.4128698    37986.909 
  832200    312.65245   -1482.3471    492.70654    418.54732   -234.40145    37986.909 
  832300    300.80345   -1426.7113    497.80525    425.91388    697.75634    37986.909 
  832400    310.18178   -1451.0013    511.69413    457.75278     391.0041    37986.909 
  832500    304.95445    -1388.954    509.60325     494.1653    650.77907    37986.909 
  832600    299.61566    -1422.068    485.72092    413.12306   -84.214243    37986.909 
  832700    303.43287    -1417.903    517.40887     466.1687   -58.420443    37986.909 
  832800     313.2556    -1432.363    503.45157    481.99307   -595.41394    37986.909 
  832900    303.03808   -1447.2068    506.27817    423.95602   -439.60344    37986.909 
  833000    299.62795   -1395.8623    528.16333    481.82648   -538.91826    37986.909 
  833100    303.21189   -1429.5873    462.18246    398.26273    142.22378    37986.909 
  833200     293.5797   -1440.0026    477.81356    360.09507   -139.11956    37986.909 
  833300    302.66598   -1477.0923    498.07779    384.19423    -324.2273    37986.909 
  833400     301.0606   -1474.1944    476.01771    357.80143   -83.605141    37986.909 
  833500    308.02011   -1456.0986    477.21017    408.43539    151.12822    37986.909 
  833600     307.1151   -1479.0519    475.43511    379.63086    143.10144    37986.909 
  833700    297.27118   -1467.2161    494.16925    365.86369   -286.38003    37986.909 
  833800    298.96755   -1494.3451    467.37302    319.57891   -299.57603    37986.909 
  833900     310.5209   -1466.9187    474.30226    405.97094   -359.01341    37986.909 
  834000    314.11911   -1471.3501    501.70475    445.14835    48.293886    37986.909 
  834100    290.21793   -1479.6093    502.74511    330.27848   -105.57918    37986.909 
  834200    294.98757   -1512.0689     486.2656     302.8219    260.86913    37986.909 
  834300    295.71983   -1473.3479     494.9089    353.48429    75.177898    37986.909 
  834400    283.98759   -1454.6806    506.26661    330.66721    37.698532    37986.909 
  834500    310.34921   -1458.9084    500.08219    438.98789     91.95525    37986.909 
  834600    298.39302   -1482.2051    483.55566    345.31394   -206.70492    37986.909 
  834700    297.52845   -1532.1787    451.43911    259.32971   -291.81859    37986.909 
  834800     306.2462   -1487.8304    495.04475     386.5485    138.37328    37986.909 
  834900     305.5764   -1509.1154     503.9902    371.19209    219.78487    37986.909 
  835000    297.94345   -1496.5141    487.38829    332.81263    581.29222    37986.909 
  835100    300.75301   -1494.2772    491.06409    351.37965    194.13525    37986.909 
  835200    297.49455   -1485.5449    542.04658    396.41834   -332.32534    37986.909 
  835300    294.80225   -1468.3456    504.95952    364.40438     228.8484    37986.909 
  835400    291.02684   -1458.0085    515.06216    367.83968    -350.0034    37986.909 
  835500    293.11519   -1519.9942    510.06341    310.26118   -601.07971    37986.909 
  835600    293.05846   -1496.3716    506.30247    329.86736   -270.28172    37986.909 
  835700    300.54114    -1504.485    500.65922     349.8127   -206.07824    37986.909 
  835800    291.99154   -1511.6266    485.13684    288.64134    117.71261    37986.909 
  835900    291.67358   -1489.4479    479.78715    304.03823   -210.09912    37986.909 
  836000     298.7759   -1481.1215    514.24964      378.816    219.54767    37986.909 
  836100    294.19387   -1479.9857    500.30972    345.37439    554.60479    37986.909 
  836200    310.06151   -1499.3307    483.76654    380.95409    574.67238    37986.909 
  836300    291.16434   -1505.3896    508.16343    314.17922    752.92822    37986.909 
  836400    298.29386   -1496.3977    489.69286    336.81186    1368.3214    37986.909 
  836500    298.22234   -1496.1101     509.8015    356.88601    1088.5853    37986.909 
  836600     311.2593   -1545.0021     487.5921    344.50311    1004.5263    37986.909 
  836700    287.22934   -1535.7666     499.3346    257.25006    488.72718    37986.909 
  836800    290.03931    -1501.518    483.34545    288.16569    652.40438    37986.909 
  836900    299.50936   -1485.8882    505.66115    368.76431    95.403223    37986.909 
  837000    296.63001   -1499.7244    463.35401    299.65239    88.336755    37986.909 
  837100    296.89539   -1502.1332     483.1763    318.26118    -72.02898    37986.909 
  837200     305.6857   -1487.2418    505.52052    395.08833    2.4102395    37986.909 
  837300    302.77133   -1537.9424    479.95048    305.69139    -176.2588    37986.909 
  837400    297.72532   -1542.8342    493.28353     291.4053   -93.143924    37986.909 
  837500    294.14877   -1509.3997    486.47333    301.92091   -208.93536    37986.909 
  837600    285.34297    -1486.738     480.9703    279.41814     32.83392    37986.909 
  837700    297.53444   -1495.8394     481.5461    325.80297    127.23741    37986.909 
  837800    299.02119   -1534.4572    469.44254    281.77804    603.67953    37986.909 
  837900    301.53868   -1496.0391    487.87739    349.96974    368.74233    37986.909 
  838000    304.96983   -1485.3318    515.12234    403.37588    285.26073    37986.909 
  838100    297.15581    -1506.242    480.97091    313.11982    171.29802    37986.909 
  838200     301.5543   -1491.8557    515.13395    381.48007    212.27745    37986.909 
  838300    290.26057   -1501.6372    492.90389     298.6014    177.20955    37986.909 
  838400    290.73909   -1500.1319    493.69572    303.05378    -34.78052    37986.909 
  838500    286.02878   -1514.8618    494.73803    268.15094    140.74788    37986.909 
  838600    300.07969   -1496.9791      490.585    345.16599    99.832813    37986.909 
  838700    300.70656   -1507.4198    473.64831    320.61209    154.53045    37986.909 
  838800    294.74517   -1493.1114    501.91296      336.335   -356.94577    37986.909 
  838900    296.09747   -1476.3137    491.76389    349.07431    312.15144    37986.909 
  839000    288.55228   -1541.6938    484.35048     242.2973   -113.88788    37986.909 
  839100    295.33291   -1540.5883    479.34269    268.93501     27.37234    37986.909 
  839200    303.34421   -1509.0111    490.04453    347.29693    112.21625    37986.909 
  839300    303.36386   -1479.9168    513.85625    400.29147    3.9645686    37986.909 
  839400    296.75366    -1482.204    494.65986    349.03554   -93.629841    37986.909 
  839500    298.46551   -1477.8639    523.05996    389.48594    -340.3574    37986.909 
  839600    300.66107   -1477.7236    511.48226     387.9373    377.45013    37986.909 
  839700    316.96352   -1496.3681     486.8837    418.12059   -95.808195    37986.909 
  839800    300.97716   -1482.1573    495.95381     369.3988     283.0056    37986.909 
  839900    305.57818   -1492.0701    526.83674    411.09196    368.73482    37986.909 
  840000    290.51158   -1491.8012    505.59602    322.26012    194.96199    37986.909 
  840100    312.23553   -1455.0039    508.11766    459.42379    702.70031    37986.909 
  840200     299.6931   -1451.7688    507.63978    405.68988    139.17065    37986.909 
  840300    300.94373   -1484.1871    470.93562    342.20031    138.38049    37986.909 
  840400    295.37935   -1471.2378    499.44696    358.59895    210.47796    37986.909 
  840500    299.09684   -1473.5586    509.46254    383.03727    457.81305    37986.909 
  840600    305.35392   -1475.5866    525.86183    425.59053   -82.596162    37986.909 
  840700    299.24644   -1494.6363    498.82581    351.99663   -46.349148    37986.909 
  840800    307.60974   -1466.7714    498.38336    417.08742    155.24533    37986.909 
  840900    296.33313   -1516.8252    488.67609    306.53649   -61.998134    37986.909 
  841000    289.44674   -1520.7597     485.6454    268.55498   -100.14197    37986.909 
  841100    293.81384     -1484.65    486.64796    325.33672   -438.81271    37986.909 
  841200    304.51159   -1439.6845    491.80226    423.63919    390.39588    37986.909 
  841300    300.00321   -1497.0633    494.79338    348.94571     315.8009    37986.909 
  841400    299.09799   -1503.4712    500.90773    344.57507   -376.77014    37986.909 
  841500    289.94664   -1499.4447    474.20253    280.67861   -67.521042    37986.909 
  841600    307.97479   -1488.7488    497.21674    395.58766    235.63877    37986.909 
  841700    298.99622   -1498.9692    492.44268    340.15369    -485.4789    37986.909 
  841800    305.04786   -1495.9982    502.78029    380.71889   -782.00226    37986.909 
  841900    297.18335   -1485.4977    503.85453    356.87175   -339.95045    37986.909 
  842000    306.41255   -1464.6615    518.10891    433.53079   -529.84049    37986.909 
  842100    292.47558   -1462.7491    494.83322    349.39528   -557.94378    37986.909 
  842200    310.16078   -1476.8035    491.36553     411.5274   -87.177528    37986.909 
  842300    305.83576   -1462.9774    486.15993      400.668   -181.50842    37986.909 
  842400    298.64592   -1434.5752    514.03382      424.561   -543.31539    37986.909 
  842500    297.85157   -1464.0947    506.56117    383.99115   -365.15843    37986.909 
  842600    290.83353   -1455.3879    504.05449    358.58199   -7.5789643    37986.909 
  842700    293.04491   -1458.9996     515.4831    376.35892    437.97636    37986.909 
  842800     301.1142   -1498.0134    521.30801    379.51415    469.62618    37986.909 
  842900    295.93294   -1505.1228    458.91082    286.67118    373.07841    37986.909 
  843000    305.74482   -1486.1878    485.97377    376.86187     360.4593    37986.909 
  843100    300.38987   -1495.2908    495.19043    352.85679    283.16076    37986.909 
  843200    306.19841   -1478.0397    481.96906    383.04821    383.93606    37986.909 
  843300    307.38544   -1514.2435    495.06401    365.28576    906.15154    37986.909 
  843400    306.22294    -1500.266    475.03032    353.99366    105.77997    37986.909 
  843500    292.50669   -1459.9875    500.29091     357.7547   -332.96334    37986.909 
  843600    306.91577   -1475.9885    504.03293     410.3943    581.72482    37986.909 
  843700    302.60791   -1445.1857     492.2031    409.96466       32.918    37986.909 
  843800     289.8377   -1527.8594     508.4502    286.02093    473.06186    37986.909 
  843900    294.86774   -1480.4304    511.03196    358.68706    4.7148969    37986.909 
  844000    303.53007   -1445.2595    515.08523     436.9264   -78.027244    37986.909 
  844100    291.91533   -1454.1661    504.00281    364.62451   -257.80529    37986.909 
  844200    307.70334   -1468.3772    489.16303    406.68289    153.91324    37986.909 
  844300    299.08003   -1464.7239    500.61932    382.95305   -149.53421    37986.909 
  844400    288.28032   -1469.3085    511.16647     340.2737   -46.888019    37986.909 
  844500    283.19373   -1428.9026     509.9257    356.52879    576.32542    37986.909 
  844600     295.4989   -1439.9096    510.10932    401.12798    37.723411    37986.909 
  844700    293.21544   -1475.3848    502.48354    347.74229    245.29394    37986.909 
  844800    293.87994   -1448.4469    487.30751    362.49701     439.0233    37986.909 
  844900    292.55182   -1451.5059    490.75543     356.9041   -96.685972    37986.909 
  845000    299.84223   -1481.0031    520.21237    389.69987   -498.67374    37986.909 
  845100    293.24355   -1483.4533    486.35853    323.67529   -527.21097    37986.909 
  845200    295.09348   -1486.2244    501.79893     344.6767   -515.75702    37986.909 
  845300    299.94766   -1466.4331    517.44963    401.98199    7.1235647    37986.909 
  845400    297.15836   -1483.2857    497.75489    352.87163    172.13086    37986.909 
  845500    291.44871   -1516.7718    505.24037    301.15473    326.62383    37986.909 
  845600    308.49046   -1476.7682    499.13129    411.80531    849.40528    37986.909 
  845700    310.11374   -1454.4474    521.18646    463.49261    554.63446    37986.909 
  845800    299.77392   -1470.0941    506.24963    386.33846    621.64057    37986.909 
  845900    308.22046    -1481.281    502.15177    409.09689    142.54273    37986.909 
  846000    299.01986   -1463.0643    494.67195    378.39427    614.41892    37986.909 
  846100    304.38993   -1462.9699    499.94663    407.95022    409.13574    37986.909 
  846200    295.90566   -1483.3135    495.93362    345.38042    401.69878    37986.909 
  846300    295.84964   -1459.7608    499.54348    372.29066    225.91296    37986.909 
  846400    296.98067   -1459.8814    518.49488    396.21559    220.21916    37986.909 
  846500    293.51012   -1459.6556    473.79135    336.10646    101.23999    37986.909 
  846600    302.17591   -1466.8621    522.87258    417.01193    257.09722    37986.909 
  846700    295.64899   -1513.4651    494.72271    312.86188   -126.47884    37986.909 
  846800    300.45923   -1453.3712    509.54858    409.44696    676.36041    37986.909 
  846900    306.76034   -1452.1347    508.97509    438.49016    751.58731    37986.909 
  847000    293.13513   -1470.6017    494.99377    344.67386    284.39476    37986.909 
  847100    292.60939   -1487.7127    501.22625    331.42738   -236.18077    37986.909 
  847200    292.97515   -1498.1872    468.88203    290.25606   -572.41793    37986.909 
  847300    296.50262   -1491.2667    502.07411    346.25638    -1210.981    37986.909 
  847400    308.17373   -1487.5634    484.53423    384.98651    461.73323    37986.909 
  847500    303.21376   -1500.2757    517.29477    382.69511    72.154507    37986.909 
  847600    307.31949   -1508.7096    481.35866    356.81728    17.900605    37986.909 
  847700    297.69125   -1491.2309     503.6891    353.26078    68.011868    37986.909 
  847800    303.10172   -1502.7291    493.20501    355.64729    320.10786    37986.909 
  847900    301.40166   -1515.4811    510.80185    352.83507    594.25074    37986.909 
  848000    296.14061   -1491.7566    485.85196    327.91381    607.03745    37986.909 
  848100    294.73297    -1497.416    489.56582    319.62829    799.50971    37986.909 
  848200    301.96455   -1507.7904    523.74902    376.00813    822.31267    37986.909 
  848300    303.67049   -1512.1934    458.81219    314.35183    1081.9481    37986.909 
  848400     311.4929   -1559.0912    478.61925    322.49329    1035.7121    37986.909 
  848500     305.2773   -1517.9817    509.78239    366.77084    553.96304    37986.909 
  848600    297.82711   -1536.7729    466.10334    270.74494    287.84098    37986.909 
  848700    293.36429   -1579.6154    495.31311    237.01158    502.22774    37986.909 
  848800     294.9013   -1552.1277    510.05148    286.16046    284.23684    37986.909 
  848900     309.3597   -1515.4032     493.4946     371.4487    172.91317    37986.909 
  849000    307.05609   -1486.2906    494.88259     391.5739   -1002.0425    37986.909 
  849100    299.91445   -1509.0666     481.2116    322.96092   -857.39953    37986.909 
  849200    296.77307   -1493.7652    512.63687    355.53872   -13.246926    37986.909 
  849300    281.54638   -1525.4969    500.45847    243.04758   -635.47497    37986.909 
  849400    296.87242   -1522.8353    498.08307    312.36231   -135.84291    37986.909 
  849500    302.70601   -1532.9833    502.52012    332.92587   -256.52351    37986.909 
  849600    290.88055   -1533.1904    488.92474    265.86156   -408.06556    37986.909 
  849700    305.05717    -1531.672    471.74861    314.05534   -102.56345    37986.909 
  849800    298.75918   -1556.6987     482.8696    271.78346   -535.70767    37986.909 
  849900    299.41021   -1506.3899    509.88352    352.03842   -270.50146    37986.909 
  850000     305.4035    -1491.453    475.37826    359.46384    111.27516    37986.909 
  850100    305.14129   -1503.4901    509.31062    380.17812   -412.50401    37986.909 
  850200    299.49552   -1524.8087    485.06305    309.18341   -154.88136    37986.909 
  850300    299.55495   -1483.8571    503.41532    368.75487    136.57865    37986.909 
  850400    286.75431   -1464.9025    512.17686    338.81693   -259.69402    37986.909 
  850500    292.66334   -1462.3873     522.9685    378.73802     245.4252    37986.909 
  850600      304.054   -1465.1068    524.99727    429.35094    158.02244    37986.909 
  850700     294.9753   -1477.4626    507.01452    358.12183    872.77613    37986.909 
  850800    301.79751   -1477.3719    537.02734    418.95261    63.973253    37986.909 
  850900    301.13271   -1465.8583    510.73028    401.17495    669.32723    37986.909 
  851000    299.80448   -1476.6415    503.55483    377.23393    375.09022    37986.909 
  851100    310.37567   -1448.5028    501.55078    450.98127     394.3238    37986.909 
  851200    311.96532   -1465.2502    505.18134    445.02421    409.79462    37986.909 
  851300    294.52343   -1439.6958    521.85582    408.69479   -196.57934    37986.909 
  851400    302.95674   -1473.5369    504.15229    395.13375    88.878362    37986.909 
  851500    303.10832   -1452.7136    504.06356    416.55105   -246.87877    37986.909 
  851600    298.68282   -1482.0822    505.67707    368.86351   -183.94557    37986.909 
  851700    276.38037    -1506.261    540.41501    278.97224     24.09732    37986.909 
  851800     296.1797    -1516.661    520.73023    338.06378    210.33028    37986.909 
  851900    318.95587   -1497.1703    507.50051    446.90871    388.23803    37986.909 
  852000    294.01302   -1500.4179    496.19823     320.0161    41.574562    37986.909 
  852100    296.64918   -1469.9125     521.4681    387.66472     21.62522    37986.909 
  852200    309.75795   -1463.1253    498.63571    430.66148    255.42868    37986.909 
  852300    303.46732   -1445.5155    511.67223    432.97472      18.1903    37986.909 
  852400     301.2223   -1461.0327    496.86937    392.54307   -289.03229    37986.909 
  852500    297.27183   -1476.9261    528.82618    390.81354   -215.41264    37986.909 
  852600    295.02563   -1509.2438     496.0584    315.61121   -747.95928    37986.909 
  852700    303.74144   -1495.5722    483.29823    355.77872    -341.8417    37986.909 
  852800    306.20284   -1507.6261    505.28335    376.79607    129.34872    37986.909 
  852900    298.82619   -1489.1102    522.63831    379.44248    617.07517    37986.909 
  853000    307.65935    -1517.357    524.16573    392.50764    304.22787    37986.909 
  853100    302.91769   -1511.7404    498.48837    351.09043   -433.67484    37986.909 
  853200    295.98027    -1485.363    505.82132    353.55466    117.15744    37986.909 
  853300    297.80843   -1504.3318    497.62023    334.61882   -259.31103    37986.909 
  853400    306.66826   -1509.6357    493.42816    365.02747    145.50608    37986.909 
  853500    309.41933   -1524.2889    516.55501    385.89204    606.57255    37986.909 
  853600    297.10849   -1491.1158    543.94895    391.01095     473.9091    37986.909 
  853700    305.60584   -1470.3301    494.54295    400.66277     599.1965    37986.909 
  853800    295.60492   -1496.5847    489.49927     324.3203    82.658916    37986.909 
  853900    303.80134   -1491.2917    513.12748    390.15816   -144.81622    37986.909 
  854000     292.7341   -1509.8476    491.57332    300.20128    46.018587    37986.909 
  854100    303.51621   -1514.6275    474.30966    326.72038   -187.65066    37986.909 
  854200    297.84382   -1538.7421     491.5413    294.28899     384.0235    37986.909 
  854300    319.12675   -1505.9759    512.41803    443.79032   -37.723701    37986.909 
  854400    293.89804   -1463.7524    505.20386    365.16939   -115.92024    37986.909 
  854500    289.31036   -1460.3493    511.64474    354.35048   -475.18635    37986.909 
  854600     302.1487   -1436.0317    493.85924    418.70651    80.988131    37986.909 
  854700    304.33983   -1443.9637    495.51786    422.30197    147.27611    37986.909 
  854800    299.74105   -1492.4359    502.41297    360.01194    86.566445    37986.909 
  854900    292.91742   -1488.9225    498.31043    328.68911    194.49634    37986.909 
  855000    295.56036   -1473.7743     519.4992    376.92995   -586.57236    37986.909 
  855100    292.03336   -1484.8367    503.22644    333.70921   -740.68988    37986.909 
  855200    291.98799   -1509.7503    517.35444    322.71921   -1390.6884    37986.909 
  855300    296.72913   -1492.4594    501.21761    345.22743   -660.81033    37986.909 
  855400    294.61996   -1477.7661    506.29551    355.49894   -255.10812    37986.909 
  855500    304.32324    -1493.817    504.09175    380.94783    44.910137    37986.909 
  855600    303.36077   -1513.4298    520.07828     372.9866    341.10503    37986.909 
  855700    294.41189   -1497.6488    501.43283    329.81636     47.46318    37986.909 
  855800    292.06852   -1515.6817    482.59046    282.38652   -57.964489    37986.909 
  855900    294.06536   -1503.7499    532.51898    353.24068    65.911722    37986.909 
  856000    301.53584   -1496.3758    508.93334    370.67613   -24.722594    37986.909 
  856100    303.18179   -1455.3098    504.02264    414.24486    445.02576    37986.909 
  856200    290.08883    -1503.491    515.62304    318.69327    167.35233    37986.909 
  856300    290.52137   -1498.1939    501.07307    311.38862    159.00342    37986.909 
  856400    305.13364   -1472.0391    493.39372    395.67778    202.38709    37986.909 
  856500      305.548   -1500.6385      525.741    401.29197   -20.166121    37986.909 
  856600    295.47361   -1462.7436    492.62849    360.69918    318.86231    37986.909 
  856700    298.00282   -1446.3534    516.75218    412.60468    498.90697    37986.909 
  856800     299.7804   -1466.1599    503.88289    387.93516    388.95552    37986.909 
  856900    303.18793   -1463.8464    499.95648    401.66972    787.65306    37986.909 
  857000    297.92003   -1490.0291     499.0123    350.81616    150.71874    37986.909 
  857100    290.02493   -1574.2105    487.16733    219.23028    757.00634    37986.909 
  857200    303.72925   -1493.9157    497.00098    371.08309    737.67611    37986.909 
  857300      293.552    -1502.167    489.49893    309.49132    451.78478    37986.909 
  857400    301.77492   -1481.2495    497.02782    374.97378    489.92116    37986.909 
  857500    309.10754   -1497.1155    492.68702    387.79309   -25.304876    37986.909 
  857600    298.98133   -1504.5621    505.77463     347.8256    77.119611    37986.909 
  857700    300.76412   -1529.8741    482.38367    307.15235   -326.66236    37986.909 
  857800    303.02858   -1510.3621    471.80222    326.28209   -503.35223    37986.909 
  857900    297.23422   -1564.5732     476.4073    250.57817   -128.95389    37986.909 
  858000    295.20746   -1553.1891    512.67887    289.10532   0.23748471    37986.909 
  858100    290.22765   -1538.1957    476.95739    245.94816   -360.17575    37986.909 
  858200    308.57593   -1531.0312    486.09071     344.8867   -1.7672754    37986.909 
  858300    293.17053   -1524.2066    492.51564    288.75028   -126.35472    37986.909 
  858400    300.68553   -1507.0538    507.47894    354.71397    22.969403    37986.909 
  858500    296.44475   -1513.7736    525.92407    347.33881    274.77288    37986.909 
  858600    302.99035   -1550.1936    467.73793     282.2141    320.83571    37986.909 
  858700    294.88473   -1486.2862    511.00627    352.88211    148.87199    37986.909 
  858800    303.79564   -1472.5101    489.21004    384.99669    526.64301    37986.909 
  858900    302.18952   -1517.1065     476.2668    320.22306    134.03157    37986.909 
  859000    297.44602   -1465.9459    487.40212    361.15427    447.51042    37986.909 
  859100     310.2804   -1468.1652    524.32836    453.66736     560.8481    37986.909 
  859200    288.25115   -1427.0786    506.66297    377.86864    837.76879    37986.909 
  859300    302.32756   -1464.0519    509.97127    407.60387    843.95373    37986.909 
  859400    304.05589   -1487.7998     516.4218    398.09091    538.21661    37986.909 
  859500    298.49833   -1446.2411    535.69726    433.89384     338.5456    37986.909 
  859600     301.1845   -1480.2574    500.10274    376.38155    491.94707    37986.909 
  859700     298.8711   -1476.6136    510.12844    379.63148    285.53332    37986.909 
  859800    314.02455   -1498.4526    491.47923    407.39446   -42.932465    37986.909 
  859900    306.86322   -1492.7025     455.9827    345.39335   -167.10379    37986.909 
  860000    301.64623   -1495.1094    497.58857    361.09498   -685.08016    37986.909 
  860100    313.01761   -1467.6979    498.45511    440.58974    51.596649    37986.909 
  860200    304.57524   -1478.0146      499.949    393.74249    -769.8938    37986.909 
  860300    298.84942   -1483.2428    499.86703    362.64324   -773.34969    37986.909 
  860400    296.15064   -1491.0907    503.86996    346.64291   -253.29302    37986.909 
  860500    293.10458   -1493.9226    512.15486    338.37652    242.08227    37986.909 
  860600    293.69398   -1465.6676    539.61682    396.74805    100.61773    37986.909 
  860700    305.98464   -1461.9848    497.33558    413.50677    537.51444    37986.909 
  860800    292.08053   -1452.2154    508.31712    371.63363     346.8501    37986.909 
  860900    302.31116   -1471.1331    514.29509    404.77262     490.6252    37986.909 
  861000     297.0491   -1479.5592    524.08091    382.43204    657.78016    37986.909 
  861100     302.1902   -1443.5648    517.07674    434.57786   -88.557145    37986.909 
  861200    293.26594   -1438.3484    508.63319    391.15577   -965.30068    37986.909 
  861300    297.93802   -1443.9431    480.02519    377.99613    -1045.922    37986.909 
  861400    302.71326   -1444.1627    501.69867    420.95768    -427.2229    37986.909 
  861500    295.49058   -1452.4799    504.44283    382.85371   -362.80083    37986.909 
  861600    294.11564   -1478.1594    487.68335    334.22201   -171.47956    37986.909 
  861700    302.24065   -1496.5087    492.35925    357.14361   -484.35078    37986.909 
  861800     303.9425   -1464.0711    504.11894    409.00609    44.399901    37986.909 
  861900    298.35058    -1512.799    495.90802    326.88126    35.342226    37986.909 
  862000    303.70736    -1494.367    488.47466     362.0068    192.94424    37986.909 
  862100    286.49156    -1510.988    484.27446    263.64564   -37.247011    37986.909 
  862200    293.82787   -1534.7117    488.03364    276.72385   -53.357205    37986.909 
  862300    312.83722    -1479.499    485.66992    415.19102     231.5577    37986.909 
  862400    295.10911   -1462.7047    492.16887     358.6368   -148.97402    37986.909 
  862500    299.79606   -1507.6994    517.47745    360.06073    21.092354    37986.909 
  862600    301.99338    -1496.598    491.09997    354.68139    232.79789    37986.909 
  862700    294.73633    -1517.643    499.08542    308.93605    283.22903    37986.909 
  862800    295.32383   -1461.2983    511.93743    380.77885   -744.15565    37986.909 
  862900    300.65812   -1423.0324    488.10929    419.24231   -48.290184    37986.909 
  863000    304.05639   -1446.5611    499.31113    422.22121    14.374155    37986.909 
  863100    302.86673   -1499.7621     494.3754    358.72625   -9.0708777    37986.909 
  863200    299.16728   -1495.9934    491.39911     342.8563   -490.10205    37986.909 
  863300    298.06453    -1507.903    483.38363    317.96452   -394.20285    37986.909 
  863400    308.51791   -1477.2527    491.82472    404.13784   -416.11684    37986.909 
  863500    301.89879   -1483.9874    497.23857    373.00455   -236.51408    37986.909 
  863600    292.25298   -1493.6149    517.36941     340.0631    -543.6662    37986.909 
  863700    300.98343   -1498.9713    465.78686     322.4461     -1036.92    37986.909 
  863800     301.2754   -1529.8162     501.2545     328.3839   -722.32207    37986.909 
  863900    300.79624   -1501.3489    493.07032    346.50883   -115.52416    37986.909 
  864000    297.04509   -1524.6155    495.28387     308.5607   -488.52796    37986.909 
  864100    297.39182   -1545.1433    497.36849    291.67917    78.013028    37986.909 
  864200    306.31994   -1515.4381    483.91142    348.13953   -278.25772    37986.909 
  864300    311.20965   -1522.7085     498.4174    377.39844   -236.67498    37986.909 
  864400    298.13575   -1508.3352    491.50285    325.97226    203.39138    37986.909 
  864500    312.40736   -1519.3951     485.1292    372.81814    613.63867    37986.909 
  864600    312.39626   -1522.9958    497.44117    381.47938   -557.44375    37986.909 
  864700    314.48842   -1510.9192    485.21946    390.75735   -128.52504    37986.909 
  864800    300.13733    -1530.635    485.92693    307.11166   -376.07735    37986.909 
  864900     291.1123   -1532.0647    505.15972    284.26596     401.0685    37986.909 
  865000    301.82728   -1546.5008    496.10025    309.03065    165.53077    37986.909 
  865100    303.69717   -1501.3038    484.12184    350.67133    635.50642    37986.909 
  865200    306.65667   -1527.5363    499.02427    352.67081     676.0253    37986.909 
  865300    298.42706   -1532.8254    471.32608    282.61732   -183.82003    37986.909 
  865400    304.63171    -1528.898    488.69715    331.86157    -170.2321    37986.909 
  865500    294.23588   -1527.1828    498.16316    296.21994    87.242554    37986.909 
  865600    300.19575   -1482.5251    496.54104    366.09883    162.89472    37986.909 
  865700    301.49081   -1535.2635     471.4433    294.09565    275.47104    37986.909 
  865800    298.77979   -1529.3522    502.75187    319.10506    265.80447    37986.909 
  865900    302.77436   -1463.8592     506.4877    406.32544    1027.5872    37986.909 
  866000    297.74373   -1487.9608    460.30555    313.38374    202.67726    37986.909 
  866100    305.35165   -1475.4175     507.6708    407.55832    -92.75067    37986.909 
  866200    293.58725   -1463.2858    495.60256     354.6349   -167.34007    37986.909 
  866300    285.45119   -1473.8007    496.28699    308.15964   -75.756391    37986.909 
  866400    307.45374     -1509.28    492.00633     367.4992    13.562606    37986.909 
  866500    308.58353   -1498.9389    480.91519    371.83772   -135.32346    37986.909 
  866600    291.99116   -1517.3184    483.99714    281.80812    702.07841    37986.909 
  866700    306.25313    -1509.036    501.71187    372.04123    433.11402    37986.909 
  866800    304.69181   -1544.0466    468.94118    297.22776    387.32185    37986.909 
  866900    308.56103   -1509.0304    488.20476    368.93446    35.794967    37986.909 
  867000    305.33812   -1502.1479    462.54737    335.64359    234.16218    37986.909 
  867100    292.15109   -1485.9396    481.55691    311.46701   -108.92231    37986.909 
  867200    303.14535   -1490.6396    503.83545    378.56376    41.468498    37986.909 
  867300    303.57148   -1458.8434    488.18924      396.633    290.30215    37986.909 
  867400    298.05692   -1467.0995    472.12411    347.47417   -95.428385    37986.909 
  867500    306.03726   -1448.2596    479.43807    409.57156   -30.379908    37986.909 
  867600    310.08344   -1496.8077    486.36312    386.17248    344.04794    37986.909 
  867700    298.92865   -1497.3477     478.8568    327.88491   -259.23133    37986.909 
  867800     291.5129   -1512.5174    495.04683    295.50469   -297.97197    37986.909 
  867900    302.99319   -1460.4186    493.51898    397.78288   -191.60435    37986.909 
  868000    292.78411   -1458.7122    481.68822    341.67682   -1033.2003    37986.909 
  868100    299.60851   -1463.6014    474.81407    360.65063   -911.90312    37986.909 
  868200    292.80422   -1461.4059    471.23863    328.62412   -687.88527    37986.909 
  868300    300.48052    -1454.198    500.94699    400.11443   -453.48365    37986.909 
  868400     309.6009   -1473.8093     479.9604    400.59475   -297.50911    37986.909 
  868500    298.10613   -1487.4316    494.63311    349.87271   -447.32577    37986.909 
  868600    298.51139   -1475.1935    476.09109    345.39404   -105.99176    37986.909 
  868700    293.91223   -1501.0495    476.92015    299.65252     457.3998    37986.909 
  868800      309.881   -1463.8485    504.08328    435.94007    470.24064    37986.909 
  868900    295.65508   -1428.2133     506.9002    410.31855    613.18731    37986.909 
  869000    298.29392   -1466.3278    475.46341    352.65259    417.14818    37986.909 
  869100    301.74139   -1480.2263     498.0652    376.88335   -170.53845    37986.909 
  869200    285.75579    -1439.103    474.28012    322.22236   -538.12977    37986.909 
  869300    308.22467   -1462.1734    469.69295    395.76469   -32.990289    37986.909 
  869400    310.88535   -1474.6796    469.16219    394.71141   -434.67836    37986.909 
  869500    313.28755   -1508.7048    482.17993    384.52356   -542.45391    37986.909 
  869600    312.21803    -1499.502    516.54357    423.27279   -116.66811    37986.909 
  869700    299.42161   -1471.3831    481.90718    359.12018   -92.103126    37986.909 
  869800    304.86224   -1413.2597    508.37911     468.2202    -807.0832    37986.909 
  869900    311.73874   -1463.3645    483.86713    424.57516   -406.90989    37986.909 
  870000    300.99611   -1489.8516    472.15254    337.98861   -611.45195    37986.909 
  870100    288.61036    -1464.302     496.3174    331.91766   -507.74385    37986.909 
  870200    306.88757   -1445.7507    487.03806    423.51019   -301.05401    37986.909 
  870300    300.88424   -1455.1613    495.50963    395.53215    62.874764    37986.909 
  870400     315.4832   -1428.7428    497.54181    489.73655    342.69662    37986.909 
  870500    288.15588   -1465.1634    520.85842    353.55023    327.86148    37986.909 
  870600    309.60153   -1455.6766    512.02453    450.79441   -180.96554    37986.909 
  870700    303.00098   -1454.1813    469.87478    380.41106   -101.17432    37986.909 
  870800     306.9642   -1426.4144    538.54157    494.69517   -47.745724    37986.909 
  870900    291.59154   -1462.9561    471.81602    322.18937   -164.80852    37986.909 
  871000    306.58312   -1464.8317    507.73581    423.75572   -494.66595    37986.909 
  871100    297.41567   -1457.6957    469.03366    350.89929   -398.71227    37986.909 
  871200    298.79842   -1449.9299    492.48406    388.34349   -370.50563    37986.909 
  871300    297.03042   -1483.4538    496.92032     351.2927    372.47273    37986.909 
  871400    298.14618   -1477.2671    513.44482    379.02934    303.75406    37986.909 
  871500    308.28069   -1505.2542    510.83975    394.08304    242.83298    37986.909 
  871600    292.44724   -1498.2986    473.48719    292.37217    280.96018    37986.909 
  871700    295.79875   -1472.7478    482.20401      341.735    208.04768    37986.909 
  871800    303.88507   -1482.7657    503.46899    389.40282    449.36786    37986.909 
  871900    297.25667   -1545.0468    444.86551    238.66395   -149.96662    37986.909 
  872000    312.89574   -1494.9541    502.99773    417.32729    725.83438    37986.909 
  872100    295.04724   -1486.6359    481.64518    323.90324    775.47001    37986.909 
  872200    299.90292   -1464.0541     510.7739    397.48379      478.421    37986.909 
  872300    297.54684   -1501.8606     476.1284    314.41996    1105.4238    37986.909 
  872400    305.24223   -1505.8251    456.27543    325.26256    595.43988    37986.909 
  872500    302.16496   -1494.2338    495.84834    362.56679    506.28445    37986.909 
  872600    293.24887   -1553.8861     493.4927    260.40069    -392.2339    37986.909 
  872700    293.06874   -1472.7681    496.33834    343.55303    153.96816    37986.909 
  872800    293.06197   -1508.2362    488.48764    300.20373   -354.96147    37986.909 
  872900    293.64071   -1481.0467    497.89155    339.40378    -97.04318    37986.909 
  873000     303.3574   -1500.2823    473.58081    339.62139    61.515703    37986.909 
  873100    308.79248   -1473.2737    502.96492    420.49372   -183.63753    37986.909 
  873200    302.40076   -1460.3421     486.0528    387.72494   -618.98304    37986.909 
  873300    291.87688   -1482.1257    480.91824    313.40716   -353.83873    37986.909 
  873400    301.35897   -1512.0102     476.4172    321.72896   -145.78421    37986.909 
  873500    298.69364   -1513.6988      491.308    322.92649    218.89428    37986.909 
  873600    296.78807   -1522.1539    495.58409    310.16483   -81.968946    37986.909 
  873700    299.35733   -1463.7479    502.19374    386.75246   -286.52686    37986.909 
  873800    300.60077   -1478.0179    487.02127    362.91042   -149.40095    37986.909 
  873900    310.56352   -1514.7784    483.04419    367.04515   -235.83604    37986.909 
  874000    311.90932   -1506.9456     485.7863     383.6815   -97.299407    37986.909 
  874100    298.69737   -1490.9058    505.25525    359.68364    -181.6833    37986.909 
  874200    306.92463   -1500.5569    513.22061    395.05347   -58.394935    37986.909 
  874300    301.65777   -1497.9125    480.58053    341.33582   -104.96032    37986.909 
  874400    296.29246   -1486.9712    488.72697    336.25813   -274.08612    37986.909 
  874500    312.39149   -1463.0193    471.80512    415.79838    -185.1832    37986.909 
  874600    309.70246   -1471.5414    466.57291     389.9326    532.96043    37986.909 
  874700    293.29967   -1485.8199    476.69929    311.90229    328.32634    37986.909 
  874800    301.86139   -1519.5956    482.83478    322.82413    907.43099    37986.909 
  874900    301.69784   -1498.6517     497.8801    358.07668     253.2789    37986.909 
  875000    311.69293   -1546.0587    479.30146    337.10899    382.31876    37986.909 
  875100    295.66427   -1491.1359    475.14048    315.67763   -81.079579    37986.909 
  875200    302.25695   -1489.4482     505.4802     377.3985   -165.68172    37986.909 
  875300    310.67598   -1465.4295    470.98655    404.84294    -348.0384    37986.909 
  875400    304.14483   -1454.9055    497.96066    412.92473   -746.77202    37986.909 
  875500    306.19034   -1463.4805     492.4943    408.09627   -277.06372    37986.909 
  875600    297.19656   -1453.5657    499.04555    384.05436    157.60763    37986.909 
  875700    304.27362   -1441.1889    469.47471    398.73541    223.01548    37986.909 
  875800    296.94234   -1429.0699    489.07766     397.4373    269.13836    37986.909 
  875900     293.5965   -1452.5005    521.85492    391.71421    269.35537    37986.909 
  876000    291.71386   -1423.7112    509.17816    399.34735   -86.775479    37986.909 
  876100    298.88198   -1455.3191    499.14291    389.98942    503.63691    37986.909 
  876200     312.2121   -1425.6339    479.54881    460.11945    356.49073    37986.909 
  876300    294.42836   -1414.6489    511.99184    423.44947    360.39434    37986.909 
  876400    306.10137   -1409.2962    476.01336    445.39894   -103.70901    37986.909 
  876500    301.30607     -1424.36    500.71987    433.44358    229.14868    37986.909 
  876600    309.48584   -1420.5835    502.47708    475.81902    299.37943    37986.909 
  876700     299.6202   -1448.4777    517.89777     418.9106   -378.70325    37986.909 
  876800    304.59598   -1421.6065    493.95681    444.25181   -30.448492    37986.909 
  876900    301.70925   -1420.0568    503.68885    442.53168   -494.38238    37986.909 
  877000    295.00156   -1381.7087    509.75959    456.73906   -709.22833    37986.909 
  877100    299.32752     -1395.79    486.89368    439.27598   -489.90765    37986.909 
  877200    300.26855   -1387.5342    467.71465     432.5912   -689.13688    37986.909 
  877300     305.9235   -1427.4617    493.87786    444.29683   -99.686759    37986.909 
  877400    302.89069   -1442.7105    489.34681    410.85721    7.9320441    37986.909 
  877500    308.35006   -1463.6996    483.90832    409.01858    74.100623    37986.909 
  877600    303.55695   -1456.1937    490.60475    401.63275    101.45259    37986.909 
  877700    293.71635   -1404.9426    504.34277    422.29973    443.54049    37986.909 
  877800     294.2595    -1444.044    504.06621    385.36816    526.25944    37986.909 
  877900    290.96881   -1442.2276    499.11424    367.41127    69.856538    37986.909 
  878000    289.95943   -1467.6206    496.25341    334.61127    130.28609    37986.909 
  878100    304.08838   -1438.9331    479.76979    410.45193   -193.94618    37986.909 
  878200    296.04104   -1448.8737    459.30091    343.79724   -211.43795    37986.909 
  878300    294.97661   -1481.4717    498.06491      345.169    45.358677    37986.909 
  878400     305.8728   -1446.7641     510.5397    441.42791     198.2746    37986.909 
  878500    299.00115   -1472.1736    505.24659    379.77531   -185.97456    37986.909 
  878600    298.85239    -1444.907    469.20411    370.32947    152.59927    37986.909 
  878700    298.45736   -1427.5402    452.92221    369.63517    449.04219    37986.909 
  878800    301.23892   -1469.8771    527.03096    413.93518    368.16985    37986.909 
  878900    305.85683   -1491.9818     519.3175    404.91607    824.94395    37986.909 
  879000    301.81537   -1488.1017     473.5674    344.84333    651.71046    37986.909 
  879100    296.75191   -1498.8674    500.31375    338.01812    36.513106    37986.909 
  879200    290.91268   -1494.3439    486.75308    302.68103   -145.08853    37986.909 
  879300    294.02519   -1456.2045    477.53172    345.61786    60.583747    37986.909 
  879400    294.23573   -1452.8572     483.2268    355.60854    28.905707    37986.909 
  879500    291.37359   -1526.5316    484.47655    270.29275    165.94946    37986.909 
  879600    303.10437    -1461.222    463.55387    367.51512    185.59586    37986.909 
  879700     298.4415   -1474.7287     484.4796    353.93263    271.94921    37986.909 
  879800     301.6371    -1515.638     511.4465    354.38319    458.51329    37986.909 
  879900    293.61398     -1485.58    467.45484    304.31336    120.38392    37986.909 
  880000     304.5441    -1489.999    496.85283    378.52166    798.72149    37986.909 
  880100    287.72567   -1498.0252    510.23407    308.12639    165.83103    37986.909 
  880200    296.33078    -1465.486    483.80152    352.99054    277.84845    37986.909 
  880300    292.56771   -1483.3648    484.43677    318.79815    245.80272    37986.909 
  880400    298.22192   -1483.8371    487.50872     346.8643    647.05182    37986.909 
  880500    304.66069   -1478.2323    491.36059    385.32124    489.51256    37986.909 
  880600    286.73324   -1474.8546    495.93926    312.53227    586.98144    37986.909 
  880700    301.45737   -1471.0149     506.1764    392.92667    274.02653    37986.909 
  880800    299.67282   -1505.4052     458.5521     302.8745   -27.855687    37986.909 
  880900    301.97785   -1473.0112     513.6646    400.76282   -19.742019    37986.909 
  881000    294.35212   -1500.3831    501.14745    326.52748    426.94368    37986.909 
  881100     293.3765   -1498.0171    491.14821    314.50009    363.01843    37986.909 
  881200    301.19263   -1512.2351    499.21972     343.5574     892.9267    37986.909 
  881300    295.40648   -1529.1639    487.53064    288.87872    111.85576    37986.909 
  881400    286.26695   -1515.9264    501.93405    275.35515    117.54393    37986.909 
  881500    306.09859   -1507.0459    495.80348    367.42687   -83.288714    37986.909 
  881600    300.84615   -1513.7258    463.45619    304.74269   -135.31964    37986.909 
  881700    289.75361   -1502.8809    524.05135    326.22183    -368.5061    37986.909 
  881800    308.93138   -1484.7003    472.44997    379.17786   -273.22625    37986.909 
  881900    305.17936    -1493.524    451.53697    332.54198   -319.43255    37986.909 
  882000    306.65254   -1469.8659    531.42076    442.71913   -294.25986    37986.909 
  882100    304.61678   -1496.7331    486.59276     361.8548   -319.28781    37986.909 
  882200    299.55263   -1492.2301    496.00931    352.96548    234.33849    37986.909 
  882300    298.16765   -1503.0199    512.30453     352.2329     1080.694    37986.909 
  882400     293.6345   -1490.6826    499.16575    331.01411    560.91264    37986.909 
  882500    282.95611   -1451.1667    489.34351    312.61224    500.72035    37986.909 
  882600    297.08851   -1487.6834    509.39661    359.80101    196.65487    37986.909 
  882700    308.25345   -1460.9783    506.00998    433.40644    262.69434    37986.909 
  882800     310.1111   -1491.9187    486.70581    391.52877    77.420475    37986.909 
  882900    307.48099   -1494.2936    493.85332    384.45533    219.99664    37986.909 
  883000    296.87782   -1477.7672    495.39133    354.76296    96.352337    37986.909 
  883100    301.97914   -1513.8503    471.43676    317.70171   -6.5232157    37986.909 
  883200    290.03664   -1506.1326    494.22892    294.42254   -643.82682    37986.909 
  883300    308.24178   -1483.2998    494.43219    399.45457    109.76906    37986.909 
  883400    305.59444   -1464.7246    493.75193    405.42586   -601.92076    37986.909 
  883500    294.38272   -1440.4537    514.79975    400.24702   -93.470457    37986.909 
  883600    296.82425   -1465.8564    492.64352    363.68474   -193.32376    37986.909 
  883700    301.72157   -1463.9869    484.77606    379.74431    263.69551    37986.909 
  883800    298.34491   -1475.7431    506.54719    374.55076    406.82729    37986.909 
  883900    301.54824   -1438.9812    484.39976    403.59298    168.95877    37986.909 
  884000    302.58771   -1452.5901    490.72533    400.99151    297.71491    37986.909 
  884100    304.04277   -1465.6115    486.63488    390.43321    573.67571    37986.909 
  884200    302.07471   -1450.6737     508.8804    418.75237    923.92173    37986.909 
  884300    303.56824   -1492.3788    481.10376     355.9975     241.7092    37986.909 
  884400    303.01789   -1484.3047    500.75603     381.2451    783.42455    37986.909 
  884500    286.86073   -1444.2522    488.93344    336.70308    260.85017    37986.909 
  884600    294.16236   -1437.1755    512.45971    400.19263    201.66047    37986.909 
  884700    308.70128   -1445.4172     511.6133    456.58785    312.03655    37986.909 
  884800    299.09664   -1469.2613    499.45072    377.32193     209.9264    37986.909 
  884900    295.76374   -1491.5393    485.42307    326.00485   -403.00627    37986.909 
  885000    305.74648   -1464.8608    507.08501    419.30756   -872.83687    37986.909 
  885100    301.32951   -1443.7454    486.82649    400.27037   -785.88155    37986.909 
  885200    299.19988   -1461.3671    494.83705    381.06742   -571.36107    37986.909 
  885300    289.39346   -1459.1901    495.56777    339.80693   -311.36167    37986.909 
  885400    295.28192   -1500.1626     510.2283    340.01667   -287.41549    37986.909 
  885500    295.52861    -1497.948    491.69569    324.80976    244.72648    37986.909 
  885600     307.9073   -1513.1524    503.96498    377.62833    346.05061    37986.909 
  885700    293.79143    -1502.367    513.54489    334.41567   -255.15892    37986.909 
  885800    299.13084   -1468.4734     495.3684    374.18149   -167.26441    37986.909 
  885900    300.95144   -1497.2642    492.73543    350.95767    -175.0992    37986.909 
  886000    305.41663   -1474.5483    486.27106    387.32054   -213.51972    37986.909 
  886100    296.53471   -1489.9108    520.62258    366.30528    91.643354    37986.909 
  886200    300.41705   -1448.4855    500.76936    405.36344    375.10767    37986.909 
  886300    292.19998   -1445.1644      503.249    374.15446    920.75999    37986.909 
  886400    308.23393   -1460.8431    500.08953    427.53327      850.168    37986.909 
  886500    294.30305   -1473.3615    499.53007    351.71074     538.6818    37986.909 
  886600    304.93112    -1472.663    488.95796    389.70595    601.22275    37986.909 
  886700    304.95431   -1485.0404    507.60088    396.07587   -47.334193    37986.909 
  886800    292.88353   -1457.5011    511.28461    372.93209   -53.055294    37986.909 
  886900    303.01514   -1442.4399    493.16239    415.50389   -57.884049    37986.909 
  887000    293.68614   -1485.0747    482.43687    320.12569   -471.82973    37986.909 
  887100     298.4058   -1484.9881      511.965    370.99784   -63.191969    37986.909 
  887200    301.93109   -1487.7627    492.96394    365.10008    37.452708    37986.909 
  887300    310.57389   -1488.4517    499.68312    410.05751    569.76824    37986.909 
  887400    301.64655   -1488.6321    499.84431    369.82946    702.00965    37986.909 
  887500    304.96227    -1491.576    481.34092    363.31623    42.816826    37986.909 
  887600    292.70178   -1496.9849    503.03904    324.38417   -127.73214    37986.909 
  887700    300.99295   -1468.8898    487.62734    374.41097   -250.92145    37986.909 
  887800     310.1133    -1525.846    486.85566    357.76115    589.22079    37986.909 
  887900    302.30094   -1511.5321    470.68558    320.71809    503.09677    37986.909 
  888000    303.58928   -1536.1953    458.42149    289.59352   -144.02478    37986.909 
  888100    289.16354    -1472.921     503.3095     332.7822     179.6302    37986.909 
  888200    310.03087    -1544.579    483.83803    335.63928   -125.30229    37986.909 
  888300    296.36262   -1476.9723    507.59938    365.44548    630.17754    37986.909 
  888400    303.88012   -1475.8014    508.07146    400.94729    322.65942    37986.909 
  888500     301.9896   -1514.4472    489.72964     335.4448   -262.75455    37986.909 
  888600    299.01649   -1527.7407    465.97519     285.0059   -176.45173    37986.909 
  888700    296.24849   -1519.5782    489.78444    304.51059    5.4788578    37986.909 
  888800    303.59514    -1494.719    456.27152    328.94623   -130.14752    37986.909 
  888900    308.94505   -1488.5783    507.36763    410.27903    295.14554    37986.909 
  889000    293.24078   -1479.1463    487.64835    329.25967   -213.31727    37986.909 
  889100    294.94629    -1476.214    496.77821    349.00349   -707.02421    37986.909 
  889200    301.19577   -1489.1936     492.7839    360.17729   -796.51043    37986.909 
  889300    300.08331   -1498.8323    514.37902    367.12308   -766.17296    37986.909 
  889400     293.8226   -1455.0234    513.50199    381.85671   -562.70703    37986.909 
  889500    306.59841   -1477.4034    475.07444    378.59149   -496.79012    37986.909 
  889600    302.43476   -1469.6194    480.95282    373.50077   -642.91239    37986.909 
  889700    298.04371   -1446.9561    485.60955    381.04349   -218.08495    37986.909 
  889800    313.16183   -1453.3684    474.65435     431.7681   -460.26045    37986.909 
  889900    299.41897   -1429.6329    497.05398    416.00534   -682.31759    37986.909 
  890000    289.98155   -1439.5804    520.82635    387.32403   -373.66547    37986.909 
  890100    296.16113   -1445.0368    486.02783    374.90189    177.46065    37986.909 
  890200    299.76017   -1432.3814    493.92599     411.6656   -604.14777    37986.909 
  890300    293.60223   -1418.1539    510.47448    414.70618   -728.55634    37986.909 
  890400    311.53197   -1403.5611    502.84055    502.42067   -669.54275    37986.909 
  890500    293.52667    -1440.374    501.94914    383.62043   -429.95172    37986.909 
  890600    302.16938   -1476.9336    509.15523    393.19368   -353.06736    37986.909 
  890700    298.81748   -1478.5966     470.2403    337.51878    -265.9851    37986.909 
  890800    307.64049    -1476.508    517.15007    426.25606     229.6729    37986.909 
  890900    303.78726   -1443.0148    478.59969    403.84396     697.8504    37986.909 
  891000    302.97739   -1466.4363    508.39757     406.5727    6.3689561    37986.909 
  891100    301.20285   -1492.4582    480.11471    344.27532     469.2648    37986.909 
  891200    292.75093   -1506.6242    496.06466     307.9918    427.04352    37986.909 
  891300    298.69392   -1507.6926    492.32011    329.94617    467.70882    37986.909 
  891400    297.85271   -1467.6926    488.64254    362.47972    701.81805    37986.909 
  891500    307.70867    -1539.144     511.1199    357.89694   -97.297847    37986.909 
  891600    301.99866    -1468.424    484.86711    376.64622    279.87689    37986.909 
  891700    305.64689   -1471.2083    482.55303    387.97955    553.15855    37986.909 
  891800    290.71029    -1476.967    503.43839    335.83175    301.51073    37986.909 
  891900    299.21675   -1448.5324    493.02452    392.16555     328.8138    37986.909 
  892000    308.10813    -1466.256    479.37138    400.83566    212.81832    37986.909 
  892100    311.08204   -1480.5042    476.72586    397.33637     582.0145    37986.909 
  892200    295.79484   -1532.4001    483.54564    283.40668    331.39872    37986.909 
  892300    314.53051   -1466.7733    460.49803    410.37144    876.53496    37986.909 
  892400      288.709   -1414.9921    488.36773    373.72209    586.67297    37986.909 
  892500    308.16608   -1453.1453    497.88197    432.71798    786.79339    37986.909 
  892600    298.13669   -1448.3257    488.13381     382.6169    1207.8008    37986.909 
  892700    289.98728     -1449.65    474.20972    330.66363    431.53194    37986.909 
  892800     304.7384    -1453.105     503.6134    423.05135    110.24963    37986.909 
  892900    298.51773   -1484.9428    462.63928    322.22147   -177.46287    37986.909 
  893000    308.45446   -1469.4508    475.17551    395.00488   -266.60755    37986.909 
  893100    290.41855   -1472.0424    494.82011    330.82406   -65.879588    37986.909 
  893200    308.01656    -1458.675    511.80469    440.43749   -89.408473    37986.909 
  893300     290.9181   -1468.0778    457.71336    299.93187    69.725579    37986.909 
  893400    301.33915   -1461.3487    511.79821    407.68226     281.1677    37986.909 
  893500    291.91654   -1472.3526    467.07729    309.51792   -218.57899    37986.909 
  893600    296.25791   -1458.0685    490.46444    366.74273   -364.92461    37986.909 
  893700     301.1225    -1487.376    468.38031    337.26129   -710.22471    37986.909 
  893800    302.13639    -1512.024    461.47018    310.26972   -404.70381    37986.909 
  893900    292.55468   -1466.7826    500.25319    351.13802   -838.86417    37986.909 
  894000    307.73333   -1449.5641    500.93518    437.40321   -513.27522    37986.909 
  894100    297.33846   -1457.4192     457.6537     339.4481   -713.57592    37986.909 
  894200    300.51656   -1465.1181    543.08248    431.49219   -378.49908    37986.909 
  894300     306.9959   -1489.0008    481.39455    375.10448    235.46201    37986.909 
  894400    312.28775   -1498.4657    505.95529    414.03488    859.01563    37986.909 
  894500     287.8307   -1505.8131     507.3353    297.91281    489.40354    37986.909 
  894600    304.53013   -1523.1824    473.08923    321.51174    418.38889    37986.909 
  894700     305.2492   -1516.4348    475.69296    334.10178   -41.578314    37986.909 
  894800    322.80652   -1513.0945    493.82363      434.651   -112.12876    37986.909 
  894900    293.91698   -1458.8019    489.24724    354.24859    172.79675    37986.909 
  895000    303.39329   -1476.4874     503.8262    393.82335    -81.94406    37986.909 
  895100    303.96601   -1496.9465    446.25337    318.37097    34.505764    37986.909 
  895200    294.00789   -1465.5102    495.96072    354.66322   -572.45756    37986.909 
  895300    307.54827   -1417.0194    477.93488     446.1141   -612.58214    37986.909 
  895400    306.77793   -1478.3769    468.68527     372.0374   -43.046554    37986.909 
  895500    299.40021   -1483.7551    498.99757    363.74225    31.972631    37986.909 
  895600     298.7788   -1488.0164    490.67636    348.36089     426.0005    37986.909 
  895700    297.01925   -1488.8781    489.07718    337.97496     413.1158    37986.909 
  895800    310.07126   -1451.7146    516.26007    461.10767     189.9158    37986.909 
  895900    297.83169   -1465.2844    487.16101    363.31176    356.45874    37986.909 
  896000    297.05307   -1457.1861    506.11369    386.85583   -161.77859    37986.909 
  896100    289.11252    -1477.894    470.40179    294.67175   -1.2896904    37986.909 
  896200    301.19933   -1476.0991    511.00556    391.50939   -319.84348    37986.909 
  896300    312.96818   -1445.9947    483.31784    446.93304   -614.53767    37986.909 
  896400    290.11992   -1446.1241    512.63658    373.21377   -831.81634    37986.909 
  896500    305.87987    -1494.356    479.05415    362.38227   -311.28489    37986.909 
  896600    301.56087   -1488.8563    496.70309    366.07812   -428.83064    37986.909 
  896700    299.20099   -1481.7397    498.64526    364.50807   -694.89269    37986.909 
  896800    310.15066    -1469.392    514.28557     441.8134   -540.15764    37986.909 
  896900    302.39364   -1471.0698    532.48928    423.40166   -228.10401    37986.909 
  897000    310.85669   -1457.0336    477.21922    420.28538    238.48891    37986.909 
  897100    299.60937   -1454.5131    510.16613    405.09484    249.31061    37986.909 
  897200     304.8166   -1469.6744     475.9741    379.19484   -144.21071    37986.909 
  897300    296.05838   -1447.5923    519.18352    405.03938   -227.61346    37986.909 
  897400    295.43396    -1454.414    475.19109    351.41279   -482.20453    37986.909 
  897500    293.12434    -1464.531    497.70469    353.40693   -582.48835    37986.909 
  897600    306.14629   -1473.3966    473.78391    379.27144   -538.95558    37986.909 
  897700    299.85752   -1468.7886    476.95962    358.73049   -167.33549    37986.909 
  897800     302.7699   -1435.4949    504.73821    432.92011    279.30661    37986.909 
  897900    296.47833   -1473.3653    487.48196    349.45623    679.56117    37986.909 
  898000    289.24378   -1439.9288    522.13316    384.95948    238.96186    37986.909 
  898100    289.83993   -1469.6004    470.94982    306.78968    311.31963    37986.909 
  898200    300.02972   -1458.2098    504.45216    397.57742    426.00509    37986.909 
  898300    302.23279   -1438.3978    470.04049    392.90035    89.520177    37986.909 
  898400    295.36182   -1442.7726    524.42739    411.96565   -256.65042    37986.909 
  898500    307.45585   -1449.5923    514.99437    450.18442   -29.594087    37986.909 
  898600    301.80633   -1465.0257    494.55018    388.86144   -70.511776    37986.909 
  898700    307.18104   -1446.6656     534.3896    471.26863   -483.10245    37986.909 
  898800      305.295   -1496.8003    465.05691    343.30648    87.260296    37986.909 
  898900    300.40898   -1504.9211    511.74804    359.87014    167.79496    37986.909 
  899000    307.98804   -1453.1729     512.4357     446.4422    342.10738    37986.909 
  899100     294.1491   -1472.5934    500.55469    352.81002   -368.44265    37986.909 
  899200    298.16874   -1471.4466    509.49309    380.99967    205.15199    37986.909 
  899300    298.98557   -1442.6179    504.59753    408.61182   -244.04533    37986.909 
  899400    302.32226   -1459.9427    501.80849    403.52642   -153.86851    37986.909 
  899500    297.69145   -1442.6065    519.76511    417.96203   -244.77586    37986.909 
  899600    301.67328   -1454.9852    495.67724     399.4297   -530.58018    37986.909 
  899700    298.96526   -1478.0685    495.84558    364.31784   -223.62325    37986.909 
  899800     292.9246   -1480.3584    487.84504     326.8202    183.04867    37986.909 
  899900    287.98824   -1498.5453     496.0126     294.5675   -142.29047    37986.909 
  900000    296.39718   -1530.8252    505.13548    309.28442   -346.37048    37986.909 
  900100    301.99605   -1483.4779     516.3994    393.11289    55.888932    37986.909 
  900200    301.37989   -1502.3064      487.579    342.68887   -822.12125    37986.909 
  900300    298.63878   -1484.5805    483.74058    344.23038   -681.21681    37986.909 
  900400    309.61238   -1483.4978    472.39833    383.39596   -421.50734    37986.909 
  900500    303.62063   -1509.5454    516.78475    374.74788   -508.29699    37986.909 
  900600    301.43613   -1480.4874    477.45107    354.63325     304.2302    37986.909 
  900700    300.08886   -1529.4595    488.93591    311.07782    356.61534    37986.909 
  900800    300.61464   -1519.7561     506.3628    340.57623    292.22556    37986.909 
  900900    304.31838   -1481.5792    477.81836    366.89041   -33.554204    37986.909 
  901000     298.3073   -1460.0364    504.96246    388.50336    115.31213    37986.909 
  901100     311.0339   -1439.4062    523.32467    484.81636   -231.59292    37986.909 
  901200    294.94566   -1458.6435    513.34946    383.14236    451.54251    37986.909 
  901300    298.33889   -1476.5712    497.32918    364.47752    -480.9741    37986.909 
  901400    300.83759   -1501.6162    517.85603    371.21354   -296.62112    37986.909 
  901500      304.003   -1504.8189    497.52393     361.9357    414.87484    37986.909 
  901600    293.03921   -1523.8115     500.0464    296.08473    892.42935    37986.909 
  901700    309.52744   -1527.7094    494.37626    360.77965    899.09819    37986.909 
  901800    300.68354   -1519.5589    494.88065    329.60157    731.80984    37986.909 
  901900    296.32322    -1498.839      487.656    323.45796    555.33907    37986.909 
  902000    295.33251   -1538.4456     482.6958    274.42897   -50.937717    37986.909 
  902100    290.23646   -1545.8735    500.41446    261.76715    327.11819    37986.909 
  902200    300.57148   -1528.8075    518.97906     343.9467     332.2858    37986.909 
  902300    307.81427   -1519.4795    501.57453    368.49171    -23.41456    37986.909 
  902400    310.76733   -1507.7624     512.3709    404.30583    206.74178    37986.909 
  902500    292.93085   -1519.9962    525.38894    324.75441   -241.99654    37986.909 
  902600    298.53269   -1514.4529    490.89165    321.03117   -400.75184    37986.909 
  902700    299.87948   -1566.3614    460.41932    244.71628   -1042.6873    37986.909 
  902800    289.24154   -1524.3817    488.83694    267.20033   -1247.1606    37986.909 
  902900    301.19254   -1537.3908    484.88864    304.07028   -178.85315    37986.909 
  903000    311.60889    -1551.992    488.76066     340.2563    530.41855    37986.909 
  903100    297.72026   -1545.6756    493.79782    289.05549   -384.12182    37986.909 
  903200    297.87796   -1553.6118     510.9535    298.98524    248.74865    37986.909 
  903300    301.49169   -1551.5883    497.81109    304.14256    576.45429    37986.909 
  903400     299.3012   -1551.9401    472.40087     268.5146    324.41968    37986.909 
  903500    304.25651   -1519.7452    533.22013    383.84749    771.36315    37986.909 
  903600    307.07472   -1556.0504    507.77625    334.79164     638.2038    37986.909 
  903700    294.51034   -1551.9796    487.61823    262.11443    209.57793    37986.909 
  903800    301.88069   -1553.3504    486.85413    293.17551    98.495847    37986.909 
  903900    299.68814    -1518.334    493.13063    324.59324   -127.02115    37986.909 
  904000    298.12631   -1543.3334    503.89945     303.3281   -779.25036    37986.909 
  904100    291.62843   -1515.8401    515.74005    313.39558   -859.10136    37986.909 
  904200    294.11379   -1528.4484     482.2474    278.48867   -727.90674    37986.909 
  904300    306.81687   -1547.9334    489.91607    323.88704   -665.52347    37986.909 
  904400    292.54466   -1502.6815    523.05455    337.99539   -697.50884    37986.909 
  904500    295.06166   -1525.2182    501.19895    304.93969   -299.67723    37986.909 
  904600    311.05747   -1498.3999    504.91206    407.51627   -83.009676    37986.909 
  904700      306.078   -1480.2866    540.06549    438.35549    40.242476    37986.909 
  904800    305.75506   -1478.8447    499.19297    397.47027    186.41808    37986.909 
  904900     303.7126   -1497.4869    489.51129    359.94713    179.41855    37986.909 
  905000     292.9793   -1486.3973    528.89048    362.07307    515.12104    37986.909 
  905100     310.4253   -1469.8716    515.31113    443.59633    672.19625    37986.909 
  905200     299.9124   -1498.5191    497.61105    349.89858    375.08198    37986.909 
  905300    278.87858   -1467.5113    527.11053    315.66944    238.29017    37986.909 
  905400    301.46518   -1520.9158    508.39486    345.27947    308.97083    37986.909 
  905500     311.9453   -1509.5048    527.24145    422.73954     407.2145    37986.909 
  905600    306.60888   -1494.2796    501.50699    388.19501    219.75103    37986.909 
  905700    305.02844   -1496.9954    495.29637    372.15032    336.18656    37986.909 
  905800     301.1812   -1476.8783     506.3862    386.02922    42.601099    37986.909 
  905900    292.78137   -1528.2443    499.15492    289.59909    270.18859    37986.909 
  906000    303.21355   -1556.5177    508.11168    317.26898   -30.654401    37986.909 
  906100    306.74483   -1538.2552    521.29675    364.62152     435.8392    37986.909 
  906200    304.14173   -1522.2685     533.8616    381.44863    -30.62926    37986.909 
  906300    308.80902   -1507.7614    499.03057    382.14618   -337.43512    37986.909 
  906400    301.91015   -1522.1486    507.24332    344.89919    155.45182    37986.909 
  906500     294.3431   -1502.3154    497.37548     320.7826     463.2689    37986.909 
  906600    305.49909   -1535.5659    502.45396    342.85718    188.77777    37986.909 
  906700    302.36819   -1517.5936    511.53264    355.80663   -122.58377    37986.909 
  906800     289.2779   -1563.0258    488.32636    228.20933   -221.04511    37986.909 
  906900     305.1512   -1511.1319    504.29872    367.56905   -260.02866    37986.909 
  907000    298.29351   -1515.7513    501.06298    328.82681    74.070702    37986.909 
  907100    313.25462   -1542.5203    493.51025    361.89001   -133.38664    37986.909 
  907200    307.71223   -1505.9719    475.11713    355.08236   -533.19216    37986.909 
  907300    302.08636   -1532.4652     507.3436    335.47659   -378.76253    37986.909 
  907400    299.30319   -1517.2404    500.71694    331.53934    240.85758    37986.909 
  907500    290.70951   -1547.6569    505.02376    266.72364   -462.20376    37986.909 
  907600    304.59108   -1553.4992    484.82695    303.20722    31.327553    37986.909 
  907700    293.20943   -1577.2243    491.89926    235.29142    128.73042    37986.909 
  907800    286.58091   -1574.0058    501.09796    217.85377    223.65601    37986.909 
  907900    296.94503   -1568.6466    510.18236    278.97737    464.87409    37986.909 
  908000    306.68475   -1542.4239    502.60683    341.49225   -321.44109    37986.909 
  908100    296.60497   -1546.6315    472.34671    261.62513   -406.78284    37986.909 
  908200     297.3728    -1540.819    481.84089    280.39014   -248.57456    37986.909 
  908300    290.32068   -1526.5194    507.21988    288.30598    210.03165    37986.909 
  908400    286.75632   -1553.0875    483.33966    221.80376    453.47392    37986.909 
  908500    294.50944   -1571.5281    479.94389    234.88747    32.386851    37986.909 
  908600    299.93678   -1544.3423    486.36013    292.93431   -1.3671909    37986.909 
  908700    293.06086   -1614.3924    498.02211    203.57695    442.30913    37986.909 
  908800    307.42435   -1581.1145    465.65935    269.18537    745.27893    37986.909 
  908900    298.04959   -1550.3638    490.52503    282.57776    709.55698    37986.909 
  909000    297.66672   -1551.4331    506.69186    295.95084    480.17005    37986.909 
  909100    307.63134    -1555.609    504.64453     334.6083    687.21687    37986.909 
  909200     300.4802   -1567.0547     507.3132    293.62252    411.99787    37986.909 
  909300    307.49259   -1570.7733    470.80336    284.97788    752.96881    37986.909 
  909400    306.41678   -1551.1389    501.47635    330.43987    159.42861    37986.909 
  909500    299.60806   -1520.4929     506.5137    335.45672    18.028841    37986.909 
  909600    302.10737   -1527.7524    494.62257    327.56299   -300.45446    37986.909 
  909700    290.24933   -1539.8092    473.39138    240.86629   -578.41437    37986.909 
  909800    284.44558   -1501.9613    497.04196    276.22462   -32.670945    37986.909 
  909900    302.88586   -1491.2077    494.01496    367.00637     15.48176    37986.909 
  910000    309.04021   -1515.2462    510.36006    387.03221   -310.56941    37986.909 
  910100    304.32443   -1570.7645    476.68378    276.59768   -567.65952    37986.909 
  910200    304.95844   -1522.2005    501.55597    352.88953    -64.24704    37986.909 
  910300    301.92487   -1568.9104    490.96687    281.92729   -346.97952    37986.909 
  910400    307.31743    -1520.302    516.29174    380.14867   -344.32131    37986.909 
  910500    301.80404   -1564.0139    497.23548    292.54811   -659.16804    37986.909 
  910600    299.94368   -1516.3074     483.2032    317.84336   -159.14337    37986.909 
  910700    305.54233   -1552.9457    486.82274    310.04094   -200.93367    37986.909 
  910800    305.26387   -1524.1252    491.84548    342.62998    310.69612    37986.909 
  910900    296.30445   -1513.3499    505.36553    326.57203     432.4732    37986.909 
  911000    299.22526   -1486.3407    523.60669    384.97775     600.8915    37986.909 
  911100    305.08761    -1491.809    507.84413    390.15091    380.49946    37986.909 
  911200    307.30813    -1495.425    542.40551    431.09761    464.53187    37986.909 
  911300    304.84172   -1449.6183    503.53606    426.92605    607.74912    37986.909 
  911400    291.84681   -1501.9144     488.2299     300.7947    311.30913    37986.909 
  911500    295.29141   -1533.6727    496.87623    293.19721    -158.2465    37986.909 
  911600    296.46318   -1488.6264    478.81769    325.46264    335.52706    37986.909 
  911700    294.60365   -1524.4381    481.37532     283.8332    438.00109    37986.909 
  911800    307.77141   -1505.2821     496.1946    377.11618    194.95665    37986.909 
  911900    301.82037   -1484.9429    517.32299    391.78025    503.84096    37986.909 
  912000    295.40321   -1460.2142    516.21017    386.49322     68.84852    37986.909 
  912100    300.32971   -1449.7387     493.6098    396.55728   -62.269661    37986.909 
  912200    303.42107   -1465.4078    499.17226    400.37416   -265.17179    37986.909 
  912300    299.25468   -1473.9954    504.86238    378.71128    29.153339    37986.909 
  912400    304.10453   -1469.2871    527.00877    427.40965    262.48309    37986.909 
  912500    288.73633   -1461.2357    508.84889    348.08275   -284.59417    37986.909 
  912600    290.51644    -1465.231    500.01195    343.26816   -229.93621    37986.909 
  912700     291.1134   -1503.8204    491.93057    299.28609    -45.83744    37986.909 
  912800    295.32698   -1488.1766    511.35183    353.32913   -16.698282    37986.909 
  912900    290.49498   -1468.7945      491.698    331.29402    15.647402    37986.909 
  913000    304.67369   -1491.0826    511.80722    392.97611    317.32989    37986.909 
  913100    300.46999   -1506.9718    497.48612    343.83239    112.14865    37986.909 
  913200    299.15594   -1496.2747    498.27342    349.39832   -186.12778    37986.909 
  913300    298.88641   -1484.4367    490.80163    352.55049   -110.67566    37986.909 
  913400    298.02889   -1480.0399    507.02812    369.31153    216.56302    37986.909 
  913500    300.25006   -1478.8828    499.50486    372.94954   -267.60604    37986.909 
  913600    300.30316   -1479.0506    505.34757    378.86365    234.75275    37986.909 
  913700      315.058   -1470.6736     522.7647    471.11356    292.38377    37986.909 
  913800    288.52061   -1501.4914    487.28995    285.29651    727.85237    37986.909 
  913900    310.01436   -1480.2113     509.8318    425.92642    130.91365    37986.909 
  914000    303.64145   -1450.4246     541.4585    458.63615   -475.45195    37986.909 
  914100    292.44417   -1427.3917    488.53633    378.31439   -30.751656    37986.909 
  914200     303.4996   -1477.4049    500.49949    390.05801   -106.62665    37986.909 
  914300    310.80547   -1500.6663    511.00543    410.20822    7.7417352    37986.909 
  914400    283.11587   -1509.8546    499.73603    265.03644   -689.89651    37986.909 
  914500    300.52287   -1522.7417    484.86694    315.68145    323.57734    37986.909 
  914600    302.82143   -1474.1973    490.37139    380.08303    204.03385    37986.909 
  914700    296.50433   -1470.4415    494.56538    359.58054    460.53835    37986.909 
  914800    299.25784   -1500.9756    530.03828    376.92123    -71.05176    37986.909 
  914900      298.972   -1478.8979    490.81826    358.49145   -212.37023    37986.909 
  915000    289.41913   -1530.3565    495.91037    269.09874   -366.40239    37986.909 
  915100    284.78932   -1533.4138    504.69707    253.97553    226.83344    37986.909 
  915200    299.38885   -1503.9039    505.00641    349.55106   -9.1456174    37986.909 
  915300     301.8017   -1484.9204    498.30328    372.69888   -423.36836    37986.909 
  915400    302.76953   -1505.1829    512.01785    370.51013    -290.0631    37986.909 
  915500    296.34267   -1496.0141    493.37808    332.09255   -364.29307    37986.909 
  915600    299.39837   -1474.5974    500.19559    374.08962   -185.05255    37986.909 
  915700    303.63912   -1506.3145    518.30973    379.58705    330.83393    37986.909 
  915800    300.86421   -1488.8193    505.73915    372.01342   -258.51054    37986.909 
  915900    296.91815   -1464.1892    514.38148    387.51283    274.42567    37986.909 
  916000    298.57626   -1482.9835    501.45605     363.2612   -201.72217    37986.909 
  916100    285.30565   -1472.8125    506.06165    318.26688    145.94282    37986.909 
  916200    301.38685   -1474.6128    504.36479    387.19961    304.15525    37986.909 
  916300    294.22136   -1458.9518    517.26813     383.4905    817.56855    37986.909 
  916400    295.68476   -1457.1146    504.36456    379.01525    159.63244    37986.909 
  916500     307.7546   -1456.2891    498.03795    427.87684    272.22862    37986.909 
  916600    293.25362   -1468.1225    510.77393    363.46691   -141.94693    37986.909 
  916700    297.19738    -1471.439    515.91371    383.05288   -341.16105    37986.909 
  916800    314.16529   -1472.5859    476.54605    418.96181   -999.41598    37986.909 
  916900    300.78319   -1480.9934    494.34155    368.07681   -627.21006    37986.909 
  917000    302.31988   -1474.1409    501.43091    388.93998   -666.04965    37986.909 
  917100    289.32334    -1464.768    517.99409     356.3396   -237.45848    37986.909 
  917200    293.17318   -1504.2495    489.79792    306.00161    65.141758    37986.909 
  917300    306.87912   -1489.2075     485.9243    378.90158       429.93    37986.909 
  917400    302.92327   -1447.4189    515.95781    432.90656   -80.246659    37986.909 
  917500    295.31023    -1472.062     503.7402     361.7566   -416.97922    37986.909 
  917600    292.85067   -1468.7166     490.0412    340.32517   -45.978299    37986.909 
  917700    304.16076   -1459.4747    522.94492    433.41144    98.164164    37986.909 
  917800    307.04026   -1482.4221    500.91258    401.40102   -185.84789    37986.909 
  917900    309.25167   -1454.5102    499.67983    438.04037    269.36551    37986.909 
  918000    299.59522   -1496.7793    503.86375    356.46248     284.7865    37986.909 
  918100     297.1572   -1484.2471    491.19339    345.34347    -11.17984    37986.909 
  918200    301.42447   -1502.3541    517.19235     372.4553    151.61804    37986.909 
  918300     301.1022   -1504.8076    506.49634    357.85429     562.8757    37986.909 
  918400    306.92653   -1450.0638    519.66129    451.99576     662.0724    37986.909 
  918500    299.83855   -1500.4362    509.73463    359.77244    498.89145    37986.909 
  918600    297.02232   -1491.1651    520.11919    366.74381    162.00066    37986.909 
  918700    305.30317   -1494.2423    514.64107    395.48546    55.780189    37986.909 
  918800    292.73272   -1494.2758    518.42299    342.61649   0.26219551    37986.909 
  918900    291.48112    -1474.447    469.44706    307.83225   -244.26879    37986.909 
  919000    310.04127   -1494.4324    498.61551    400.61029    146.21393    37986.909 
  919100     297.4291   -1522.5273    500.69126    317.78581   -224.31847    37986.909 
  919200    302.79369   -1524.2525     493.4801    333.01162    432.32021    37986.909 
  919300    292.01595   -1477.3135    535.96048    373.88801   -83.296786    37986.909 
  919400    299.49975   -1494.8966    503.01034    357.06184   -199.83895    37986.909 
  919500    297.55679   -1471.9761    516.10056    384.32142   -166.06301    37986.909 
  919600    303.06139   -1493.6451    499.43351     370.7781   -22.809233    37986.909 
  919700    300.25445   -1504.0357    502.84932    351.16085    574.00306    37986.909 
  919800    303.38253    -1507.908    493.28644    351.81452    533.49319    37986.909 
  919900    306.90598   -1514.3114    501.02541    369.01981    206.41857    37986.909 
  920000    293.53403   -1481.7942    512.48822    352.77249     555.8221    37986.909 
  920100    305.18993    -1487.905    490.68082    377.35251   -83.288372    37986.909 
  920200    301.30431   -1505.2668    486.09873     337.9077   -35.785462    37986.909 
  920300    292.27485   -1529.9087    483.95575    270.45413   -198.10757    37986.909 
  920400    302.05452   -1499.7876    486.74751    347.41466   -285.78495    37986.909 
  920500    304.21772   -1484.8953    481.68106    366.98363   -323.11742    37986.909 
  920600    293.88678   -1484.5458    491.94756    331.06901   -397.53877    37986.909 
  920700    305.18883   -1504.9437    481.71834    351.34639   -345.17488    37986.909 
  920800    300.57014   -1505.8484    490.42076    338.34147    -33.55478    37986.909 
  920900    293.10995   -1461.1064    507.51161    366.57357    242.76658    37986.909 
  921000    311.32951   -1492.8731    471.88706    381.24334    399.67061    37986.909 
  921100    300.55622   -1473.4272    511.68456    391.96382    228.68215    37986.909 
  921200     297.3824   -1465.9427    484.36554    357.83431    43.860945    37986.909 
  921300    301.79055   -1464.8583    508.98236    403.38987   -115.05605    37986.909 
  921400    299.48933   -1483.8258    484.86138    349.93677    177.26728    37986.909 
  921500    299.62028   -1464.8878    516.11065    400.71382     834.8443    37986.909 
  921600    295.05476   -1474.1549    511.96715    366.74008   -439.96479    37986.909 
  921700    302.62841    -1471.011     510.9132    402.94175    68.928793    37986.909 
  921800    300.47019   -1473.8792    489.44847    368.88818    130.24409    37986.909 
  921900    303.13144   -1485.3739    509.32407    389.25539   -505.23258    37986.909 
  922000    303.16736   -1478.1504    482.39202    369.70866   -28.615674    37986.909 
  922100    295.47012   -1478.5591    520.79429    373.03378   -260.24321    37986.909 
  922200    307.04513   -1503.9888    519.33088    398.27452    272.13923    37986.909 
  922300    302.73631   -1476.2576    491.01391     378.2819   -44.912412    37986.909 
  922400    290.83701    -1474.891    508.31498    343.35502   -117.26283    37986.909 
  922500    302.15469   -1489.6589    480.36775    351.61483    70.259822    37986.909 
  922600    298.23477   -1486.3043     500.1952    357.14153   -39.108439    37986.909 
  922700    292.69037    -1482.465    492.54066     328.3543    -251.2856    37986.909 
  922800    292.24877   -1459.7473    490.98063      347.523    455.92816    37986.909 
  922900    293.07752   -1441.8766    514.83221    392.97791    117.07844    37986.909 
  923000    295.32498    -1460.835     519.5833     388.8932    302.16828    37986.909 
  923100    296.02157   -1457.1579    496.30503    372.42944   -67.770695    37986.909 
  923200    290.61345   -1524.8421    498.09609    282.17813   -273.87072    37986.909 
  923300    300.69179   -1458.8033    481.52992    377.04364    -396.0695    37986.909 
  923400    302.51354   -1472.4659     486.0176    376.07393   -149.73765    37986.909 
  923500    302.49646   -1526.9046    489.57447    325.11509   -722.61436    37986.909 
  923600    293.98013   -1496.2103    488.68236    316.55968   -445.19391    37986.909 
  923700    319.28966   -1518.2843     478.2938    398.09143    61.832902    37986.909 
  923800    303.70199   -1508.2058    500.08525    359.75445   -681.45747    37986.909 
  923900    300.30894   -1491.9751    496.36446    356.98208    79.791715    37986.909 
  924000      293.882   -1500.5382    488.38656    311.49409    913.71672    37986.909 
  924100     308.6829    -1513.203    482.27195    359.37796    196.84806    37986.909 
  924200    296.38359     -1486.53    520.79235     369.1752    216.46684    37986.909 
  924300     304.0715   -1455.9091    503.72858    417.35875    3.5991576    37986.909 
  924400    300.56073   -1441.2798    493.15525    405.60216   -64.197005    37986.909 
  924500    289.02874   -1445.2669    499.72834    356.24807    46.202785    37986.909 
  924600    306.01037    -1500.337    522.47921    400.41414   -167.02127    37986.909 
  924700    299.51827   -1467.1582    474.02278      355.896   -108.86994    37986.909 
  924800    301.49131   -1495.2703    532.81152    395.45929    61.215524    37986.909 
  924900    296.32385   -1486.6996     491.5116    339.45577   -33.305813    37986.909 
  925000     297.2226   -1504.4016    495.74538    330.03553    368.77265    37986.909 
  925100    295.14623   -1474.3952    516.99313    371.93776   -151.10921    37986.909 
  925200    300.42826   -1493.5773    499.48978    359.04258    322.48921    37986.909 
  925300    306.68053    -1492.901    520.91531    409.30461   -19.220381    37986.909 
  925400    302.15932   -1456.5893    515.51232    419.84986    41.063363    37986.909 
  925500    305.38157   -1425.4613    522.26687    472.24538    158.19994    37986.909 
  925600    297.64068   -1437.5367     497.4397    400.47781   -146.71482    37986.909 
  925700    298.85175   -1457.7971    490.91118    379.14352    326.73687    37986.909 
  925800    294.31152   -1418.2008    543.46907    450.84851    426.37183    37986.909 
  925900    301.67819   -1470.3194    501.25352    389.69389   -87.596331    37986.909 
  926000    307.43922   -1476.8213    480.86127    388.74745     239.2099    37986.909 
  926100    309.08367   -1485.4515    488.56426     395.2268   -303.89327    37986.909 
  926200    294.69685   -1463.6788    489.88848    353.52548   -521.99627    37986.909 
  926300    303.95054   -1453.8963    509.67771    424.77589   -201.41872    37986.909 
  926400    298.26962   -1487.7216    496.66647    352.35241    -755.1309    37986.909 
  926500    301.33409   -1510.9773    494.91424    341.14686    -487.8184    37986.909 
  926600    293.28328   -1472.8432    508.64527     356.7511   -217.53812    37986.909 
  926700    303.49646   -1473.0253    494.70908    388.63304    289.43417    37986.909 
  926800    293.34136   -1465.2519    492.08062    348.03933   -228.11431    37986.909 
  926900    302.03284   -1467.4435    499.31398    392.22759    139.45947    37986.909 
  927000     307.3167    -1439.579    508.06569    452.64229   -438.94302    37986.909 
  927100    292.16781    -1447.909    483.50122    351.51719   -122.32439    37986.909 
  927200    300.31597   -1470.1224    480.29921    362.80116    -527.1525    37986.909 
  927300    303.83561   -1525.2485     471.7735    315.00179   -210.12608    37986.909 
  927400    305.76989   -1468.1101    503.11882    412.19755    425.62851    37986.909 
  927500    296.58836   -1493.4494    498.72325    341.10903   -32.523566    37986.909 
  927600    301.11542   -1481.5692    487.52593    362.18179    391.53296    37986.909 
  927700    304.50994    -1458.692    497.06767    409.88969     299.7984    37986.909 
  927800    307.77734   -1479.6579    504.74339    411.31585   -206.20516    37986.909 
  927900    296.58267   -1459.4503    493.28019    369.63941   -664.18538    37986.909 
  928000    304.66265    -1447.783    477.20657    401.62535    -197.6946    37986.909 
  928100    314.15132    -1469.514     502.3952    447.82004    141.45785    37986.909 
  928200    297.23933   -1495.1261    479.23137    322.87236    216.63834    37986.909 
  928300    291.20873     -1462.45    514.78159    363.93684    438.16725    37986.909 
  928400    306.02097   -1471.0594    504.44894    411.70918    516.07118    37986.909 
  928500    308.39334    -1449.872    503.95288    443.08569     749.1334    37986.909 
  928600    294.14712   -1477.6524    491.64032    338.82772    455.10673    37986.909 
  928700    295.75211   -1500.8537    495.96786    327.18284    203.34643    37986.909 
  928800    311.64929    -1513.541    478.82344    368.95208    -107.0008    37986.909 
  928900    305.22684   -1515.1395    458.89886    318.50231   -304.37383    37986.909 
  929000     306.8601   -1535.5721    443.07061     289.5976   -632.34757    37986.909 
  929100    303.25889   -1495.3576    499.83811    370.35978   -489.08453    37986.909 
  929200    304.32121   -1480.7333    485.51694     375.4476   -135.27118    37986.909 
  929300    291.58296   -1481.8707    476.52677    307.94692   -311.89455    37986.909 
  929400    307.08751   -1495.1264    492.15801    380.15495    79.454092    37986.909 
  929500    300.04562   -1508.1671    465.50253    308.74208    49.668785    37986.909 
  929600    301.67083   -1478.9749    476.96714    356.71887   -100.41652    37986.909 
  929700    307.13377   -1475.6252    491.56392    399.27043    721.32109    37986.909 
  929800    298.73394   -1507.7656    476.11549    313.84871     535.5626    37986.909 
  929900    296.60777   -1476.4713    493.57884    353.03008   -152.15971    37986.909 
  930000    308.61507   -1511.0941     474.7187    353.62813   -340.06705    37986.909 
  930100    308.00293   -1483.3799    489.68906    393.55555   -389.42264    37986.909 
  930200    284.81216   -1444.7733    496.70688    334.72867   -430.02693    37986.909 
  930300    295.51902   -1495.3839     488.9893    324.62428    19.051107    37986.909 
  930400    292.34639   -1497.0029    479.87361    299.60002    140.88248    37986.909 
  930500    296.90782   -1501.5115    491.00063    326.76315    95.859882    37986.909 
  930600    301.84607   -1502.9046    468.37157    324.98289    151.08973    37986.909 
  930700    302.91813   -1477.2755    499.50541    386.57442   -876.67034    37986.909 
  930800    293.01111   -1523.1444     463.9267    260.50554   -704.63331    37986.909 
  930900    303.70607   -1555.1796    465.75598    278.46972   -177.89365    37986.909 
  931000    306.93866   -1553.4347    487.01088    316.02911   -98.307505    37986.909 
  931100    292.09609   -1521.0906    474.82071    269.33206   -167.42144    37986.909 
  931200    297.77301   -1515.7682    497.52993    322.93259    704.28821    37986.909 
  931300    298.13234   -1502.8889    469.50222    309.40253    292.09756    37986.909 
  931400    300.82992   -1515.4081    485.02748    324.55847    475.19502    37986.909 
  931500    295.95295   -1460.3847    461.18354    333.77211    263.32313    37986.909 
  931600    291.17367   -1465.3476     503.3261    349.42588   -251.27525    37986.909 
  931700    304.01401   -1454.7411    492.07478    406.61403   -365.16979    37986.909 
  931800    304.73513   -1466.6922    487.14367     392.9797   -225.34975    37986.909 
  931900    301.72657   -1474.5397    476.14287    360.58078   -348.14595    37986.909 
  932000    296.50464   -1429.8831    489.04751    394.62248    -103.4576    37986.909 
  932100    310.15634     -1445.05    498.91485     450.8103    306.10593    37986.909 
  932200    300.55817   -1441.0064    477.33488    390.04369   -142.94752    37986.909 
  932300    286.50513   -1429.3705    487.72452    348.77429    39.596045    37986.909 
  932400    300.63522   -1441.3252    493.86849    406.60553    149.53665    37986.909 
  932500    300.08272   -1436.6965    480.16544    395.04271   -379.38236    37986.909 
  932600    300.56352   -1418.8405    489.59568    424.49444   -156.31475    37986.909 
  932700    301.91171   -1456.5306    489.27294    392.55395    126.24738    37986.909 
  932800    297.36843    -1473.831    499.93928    365.45687   -10.896569    37986.909 
  932900    296.03509   -1492.0051    492.40256    333.74068    118.08145    37986.909 
  933000    299.48449   -1476.6938    463.21245    335.39797     235.7594    37986.909 
  933100    305.00163   -1503.1909    489.95654     360.4942     577.0366    37986.909 
  933200      305.635    -1499.417    471.58979    348.75401    308.09316    37986.909 
  933300    295.69029   -1514.6844    456.11709    273.22295    195.89901    37986.909 
  933400    300.88991   -1499.4444    471.13828    326.90319   -415.19079    37986.909 
  933500    296.18776   -1496.2609    462.91174     300.6817    81.492595    37986.909 
  933600    294.66922   -1455.6184    485.49633    357.06926    333.31915    37986.909 
  933700    307.24702   -1505.6662    493.45533    371.63089    -55.14654    37986.909 
  933800     293.8916   -1500.4147    483.21326    306.48749    61.799775    37986.909 
  933900    294.44456   -1488.0819     474.0009    312.09846   -660.73707    37986.909 
  934000    304.46764   -1489.8117     487.5765    369.08829   -418.65473    37986.909 
  934100    302.52037   -1494.7675    464.49975    332.28524    -361.0669    37986.909 
  934200    286.41449   -1492.4825    479.03251    276.56205   -93.110607    37986.909 
  934300    292.58091   -1449.8719    494.89987    362.81359    856.13464    37986.909 
  934400    297.75326   -1473.7407    469.91375    337.25496    767.50209    37986.909 
  934500    299.74708   -1489.2756    469.69224    330.47866   -349.14612    37986.909 
  934600    305.69265   -1466.7394    477.36173    387.46324   -100.30743    37986.909 
  934700     298.8992   -1448.6895    469.43798    366.99169   -921.80137    37986.909 
  934800    292.31319   -1457.2038    481.77371    341.14973   -1189.3504    37986.909 
  934900    305.14082   -1449.0325    482.66148     407.9845   -553.49342    37986.909 
  935000    303.52333   -1479.2131    470.51721    358.37441   -220.03224    37986.909 
  935100    311.06942   -1505.4982    474.06383    369.62361   -756.39585    37986.909 
  935200    300.02373   -1468.7701      454.866      337.404    -389.7203    37986.909 
  935300     295.3882   -1441.0517    494.72803    384.10592    99.715181    37986.909 
  935400    301.42126   -1460.7063     473.7068    370.60307    245.95264    37986.909 
  935500    304.28564   -1489.1709    489.88694     371.2198    157.77232    37986.909 
  935600    294.70163   -1481.3263    474.45306    320.46403   -18.871879    37986.909 
  935700    296.60005   -1491.8152    489.08448    333.15706   -106.12758    37986.909 
  935800    293.17203   -1476.0507    470.82097    315.21825    56.157376    37986.909 
  935900    293.48795   -1469.2415    483.07914    335.70855   -450.59696    37986.909 
  936000    286.84463   -1435.3973    489.59808    346.15017   -261.80458    37986.909 
  936100    309.68646    -1438.857    477.31063    433.28265    236.52168    37986.909 
  936200    308.92757   -1451.6618    481.48884    421.23802    3.5585909    37986.909 
  936300    297.65241   -1435.3489    477.69341    382.97217   -316.68911    37986.909 
  936400    302.59235   -1465.7873    480.31985    377.40974   -477.86344    37986.909 
  936500    295.57336   -1483.8767     492.3465    339.73338    162.01871    37986.909 
  936600    308.34958   -1480.5068    490.25419    398.55518    334.02743    37986.909 
  936700    293.12036   -1481.4744    472.25964    311.00048    586.66611    37986.909 
  936800    294.62526   -1462.2177    503.36996    368.14555    142.19071    37986.909 
  936900    313.68928    -1492.418    494.44043    414.88017    384.31218    37986.909 
  937000    301.10869    -1489.914    460.97675    327.25751    509.56563    37986.909 
  937100    300.04272    -1479.623     466.6774    338.44806    127.50058    37986.909 
  937200    299.06766   -1450.2659    496.78992    393.52597   -40.625068    37986.909 
  937300    310.96581   -1448.2999    489.82731    442.11864    299.38758    37986.909 
  937400    297.60637   -1432.4012     497.3894    405.40847    297.52004    37986.909 
  937500    297.10325   -1450.3155    518.96914    406.80793    675.87757    37986.909 
  937600    298.21946   -1420.1192    489.74524    412.80769    213.54391    37986.909 
  937700    306.23648   -1446.8782    502.76887    435.18096    66.505006    37986.909 
  937800    298.57547   -1465.3633    473.75961    353.18144   -477.28054    37986.909 
  937900    292.00976   -1462.5314    492.79335    345.47508   -422.61796    37986.909 
  938000    297.36602   -1473.3282      466.503    332.51259   -580.99897    37986.909 
  938100    299.92734   -1433.9388    480.88971    397.82488   -819.71648    37986.909 
  938200    295.95243   -1468.4248     468.9777    333.52382   -553.45187    37986.909 
  938300    300.42446   -1451.2669    490.31063    392.15667   -97.877281    37986.909 
  938400    305.90278   -1463.1095    505.59256    420.27038   -113.45532    37986.909 
  938500    288.98459   -1420.7473    512.65248    393.49296   -136.28873    37986.909 
  938600    306.34195   -1460.0446    489.36145    409.08221    645.28326    37986.909 
  938700    306.64536    -1445.677    488.39012    423.84502    499.99866    37986.909 
  938800    300.57225   -1459.2754    478.30165    372.80483    760.88459    37986.909 
  938900    302.31951   -1464.0439    480.15671    377.76109    682.03851    37986.909 
  939000    303.67691    -1478.049    490.18035    379.89331    527.84644    37986.909 
  939100    301.74758   -1489.3912    473.06697    342.74806    365.13531    37986.909 
  939200    295.05786   -1449.1209    486.09353    365.91442    82.866047    37986.909 
  939300    308.37223   -1449.0579    510.37475     450.2266    125.65808    37986.909 
  939400    309.87687   -1428.2619    462.14212    429.56687   -173.72691    37986.909 
  939500    301.10048   -1406.8748    517.43628    466.71926    281.32819    37986.909 
  939600    310.22752   -1410.2336    496.46568    483.49806    181.83704    37986.909 
  939700    302.51046   -1438.4245    474.94248    399.02626    -30.50705    37986.909 
  939800    298.02394   -1454.4862    504.43713    392.25196    255.24637    37986.909 
  939900     301.1963   -1461.2913     514.1543    409.45231   -488.83975    37986.909 
  940000    299.84397   -1438.9077    480.06613    391.65688    87.238025    37986.909 
  940100    302.46162   -1445.4005     493.9442    410.83203    188.54947    37986.909 
  940200    295.81717   -1484.0414    499.12697    347.44727    139.35793    37986.909 
  940300    298.58179   -1462.1072    455.95593    338.66234    118.47238    37986.909 
  940400    303.25416   -1490.5263    466.48845     341.8201   -196.97911    37986.909 
  940500    284.67901   -1470.4714    456.45105    268.17505   -3.9815258    37986.909 
  940600    288.77104   -1443.1812    519.38231    376.82707   -55.896761    37986.909 
  940700    306.23164   -1495.6301    488.08721    371.72563   -132.14327    37986.909 
  940800     300.1806   -1481.4427    490.92403    361.49592   -677.69613    37986.909 
  940900    291.26086   -1480.9878    494.42066    325.27296   -552.83521    37986.909 
  941000    289.28905   -1469.7966    495.30735    328.46978   -335.65999    37986.909 
  941100    299.93032   -1522.9462    468.81877    296.75991    81.648459    37986.909 
  941200    299.51862   -1442.8851    465.96964    372.11755    54.950287    37986.909 
  941300    309.06547   -1485.2213    489.44601    396.25679    201.61474    37986.909 
  941400     302.8818   -1481.9624    483.94077    366.15923   -98.960508    37986.909 
  941500     309.8351   -1463.3368    480.83148    412.99318    77.843001    37986.909 
  941600    299.70741   -1485.0895    467.60858    332.40245   -43.045457    37986.909 
  941700    309.13831   -1475.6994    482.61412    399.27486   -198.79601    37986.909 
  941800    297.42809   -1441.1865    514.73659    413.16739   -384.12256    37986.909 
  941900    298.65612   -1434.7823    523.12519    433.49122    -152.8653    37986.909 
  942000    302.06976   -1483.3273     470.3786    347.57471   -576.65348    37986.909 
  942100    297.56483   -1475.1566    484.25589    349.33243   -253.16975    37986.909 
  942200    302.63771    -1419.673    507.21463    450.62308    146.53865    37986.909 
  942300    301.55212   -1441.8502    472.79459    389.13631    497.78325    37986.909 
  942400    302.41596   -1437.0428    507.33026    432.37011    182.51989    37986.909 
  942500    304.04766   -1481.2988    519.73472    407.86782    231.35807    37986.909 
  942600    292.20748   -1442.7364    505.06156    378.42883    160.60166    37986.909 
  942700    294.08902   -1481.9097    465.94325    308.61169     428.8016    37986.909 
  942800    297.01851   -1524.9062    500.82685    313.69323    285.31355    37986.909 
  942900    289.41751   -1508.2683    485.85477    281.12409    145.29596    37986.909 
  943000    298.00493   -1433.3897    470.01976    378.84547   -100.63315    37986.909 
  943100    295.87427   -1478.8542    490.77929      344.544    143.20483    37986.909 
  943200     306.0684   -1471.0678     484.9734     392.4389    532.20024    37986.909 
  943300     301.4353   -1480.6486     494.6557    371.67291    9.4303935    37986.909 
  943400    298.33562   -1423.4501    487.60799    407.86273    298.00603    37986.909 
  943500    304.34703     -1442.57    493.27443    421.48469    112.70481    37986.909 
  943600    301.24507   -1437.6488    487.97265    407.13284    40.215326    37986.909 
  943700    292.44599   -1453.2679    487.10943     351.0194   -476.14641    37986.909 
  943800    292.79291   -1439.3701    509.50618    388.87657    87.171031    37986.909 
  943900    293.68762   -1450.8346     476.4824    348.41801   -171.57909    37986.909 
  944000    297.51871   -1467.5539    490.07251    362.54403    -291.8497    37986.909 
  944100    291.54389   -1424.6387     501.9213    390.39745   -451.88533    37986.909 
  944200    287.12898   -1425.4801    492.44528    360.19521   -528.35595    37986.909 
  944300    293.00115   -1435.9177    482.75516    366.51584   -547.60833    37986.909 
  944400    300.22701   -1478.5794    465.63018    339.27442   -597.38715    37986.909 
  944500    301.26509   -1432.2632     489.7694    414.40538   -879.07776    37986.909 
  944600    301.18367   -1475.6232    475.96411    356.87337   -1070.4825    37986.909 
  944700    289.41496   -1464.5793    471.93978    310.88665   -838.23614    37986.909 
  944800    300.62798   -1410.5718     489.8318    433.28957   -729.48377    37986.909 
  944900    291.43218   -1417.5821    500.26031    395.28992   -29.908739    37986.909 
  945000    301.17565   -1406.6644     493.5941    443.42603    276.65802    37986.909 
  945100    299.46652   -1415.3209    493.24803    426.72547    709.52974    37986.909 
  945200    302.79016    -1432.862    506.11222    437.01835    143.61282    37986.909 
  945300    298.56016   -1454.2036    491.29968    381.81221     732.7676    37986.909 
  945400    307.64186   -1412.4856    482.21064    455.34521    327.64921    37986.909 
  945500    301.96074    -1405.773    489.98295    444.24229   -331.33168    37986.909 
  945600    296.34557   -1430.1643    483.25961     387.8369   -25.779857    37986.909 
  945700    298.43856   -1437.6635    507.37786    413.88278   -534.70353    37986.909 
  945800    297.64376   -1460.0038    473.75344    354.33832   -225.14223    37986.909 
  945900    299.06276   -1445.5774    485.31822    386.72074    380.85469    37986.909 
  946000    298.85424    -1430.624    494.54974    409.96643    149.31053    37986.909 
  946100    286.86199   -1402.6469    477.12941    366.51002   -253.14642    37986.909 
  946200    311.91132   -1435.5665    491.19823    460.48153    170.17352    37986.909 
  946300    303.91568   -1437.6344    498.37802    429.58107    33.869359    37986.909 
  946400    298.33983   -1405.9613    477.82388    415.58637   -260.85771    37986.909 
  946500    302.73769   -1420.7667    512.16723    454.93231   -971.65871    37986.909 
  946600    298.64846   -1460.4129    487.77749    372.47847   -155.26126    37986.909 
  946700    292.26926   -1448.2711    489.84638    357.95721   -12.331515    37986.909 
  946800    295.48458    -1437.096    512.91368    406.68141     709.8415    37986.909 
  946900    296.62844    -1420.608    498.41487    413.82259   -146.63131    37986.909 
  947000    288.02688   -1451.2035    504.55687    350.62758   -50.849267    37986.909 
  947100    294.72972   -1464.7153    482.43105    345.17956    372.24254    37986.909 
  947200    299.43506   -1459.4412    484.47395    373.68951    225.77405    37986.909 
  947300    300.15273   -1402.4114    489.81481    439.29249    263.09683    37986.909 
  947400    300.17357   -1453.4118    483.83478    382.40599   -536.47032    37986.909 
  947500      300.475   -1454.7156    500.91966    399.54466   -423.72156    37986.909 
  947600    296.07721   -1435.2804    487.29301     385.5456    134.67075    37986.909 
  947700    303.18509   -1453.2356    483.96353    396.27477   -680.87765    37986.909 
  947800    297.32911   -1429.6995    479.28964    388.76161   -433.24813    37986.909 
  947900    301.95279   -1484.5707    482.07449    357.50033   -402.16232    37986.909 
  948000    294.59087   -1475.1672     472.0578    323.72906   -806.51266    37986.909 
  948100     293.9718   -1418.5841    469.36555    374.83164   -862.14922    37986.909 
  948200    295.51428   -1499.2941    479.92846    311.63188   -64.025277    37986.909 
  948300    304.71314   -1467.0326    467.00118    372.39777   -125.71477    37986.909 
  948400     300.0612   -1490.0807    444.23735    305.63352   -465.50819    37986.909 
  948500    292.91895   -1490.5084    465.92183    294.72155   -120.76806    37986.909 
  948600    301.55596   -1499.0634    514.82118    373.96703   -48.209194    37986.909 
  948700    295.03164   -1477.8806    476.00244    326.94546   -393.44097    37986.909 
  948800    316.90494   -1509.8253    469.28379    386.79957    139.24671    37986.909 
  948900    303.81812   -1515.2121    492.00948    345.19544    -294.9209    37986.909 
  949000    288.10746    -1472.888    456.32747    281.07655   -960.57681    37986.909 
  949100    304.65949   -1435.1166    493.58426    430.65519   -692.19739    37986.909 
  949200    297.12446   -1486.1321    481.76992    333.88756    84.778488    37986.909 
  949300    303.85741   -1493.0319    480.73884    356.28187    117.81831    37986.909 
  949400    295.03651   -1485.1041    469.15871    312.90026    507.70131    37986.909 
  949500    304.32036   -1450.6955    485.34588    405.31047    204.15878    37986.909 
  949600    289.40206   -1413.3866    485.09463     375.1761    65.703731    37986.909 
  949700    296.85568   -1454.9748    491.10278    373.16715   -246.83467    37986.909 
  949800    301.63701   -1407.9308    474.32903    424.97254   -331.88989    37986.909 
  949900    292.46484   -1418.7503    507.89485    406.40737   -3.0007931    37986.909 
  950000    296.40111   -1388.2199     473.7609    420.53276    175.95094    37986.909 
  950100     296.1421   -1453.7146    473.94847    354.05908    143.44133    37986.909 
  950200    301.15588   -1439.9424     518.5139    434.97878    119.31866    37986.909 
  950300    306.20634   -1399.7128    507.85277    487.29456   -63.733118    37986.909 
  950400    293.47124   -1395.6755     486.5579    412.67802   -405.44617    37986.909 
  950500    293.53716   -1356.5173    496.83108     462.4063   -713.57199    37986.909 
  950600    284.76054   -1426.0917    474.37144    330.84233   -1037.0705    37986.909 
  950700    293.52722   -1413.3455    476.42507    385.12731   -991.19762    37986.909 
  950800    305.01983   -1445.4232    501.64187    430.02917   -644.19057    37986.909 
  950900    298.84709   -1462.7964    486.12197    369.33408   -174.56306    37986.909 
  951000    299.18648   -1449.5253    486.05546    384.06726    99.840596    37986.909 
  951100    294.35329   -1458.4774     498.5858    365.87676   -596.08774    37986.909 
  951200    298.22575    -1410.421     503.5529    436.34185   -79.291885    37986.909 
  951300    295.24378   -1472.5148      478.442    335.70635   -543.57392    37986.909 
  951400    302.02137   -1457.1232    474.88369    378.06598    82.966486    37986.909 
  951500    291.50203   -1428.5235     496.1905     380.5933    99.672437    37986.909 
  951600    305.76478   -1462.1517    489.37267    404.38678    124.07002    37986.909 
  951700    301.39081   -1461.1362    506.27611     402.6053    395.48139    37986.909 
  951800    302.65476   -1467.1422    488.74064    384.75669    205.81097    37986.909 
  951900    302.89359   -1481.4738    462.25542    345.01559    157.71201    37986.909 
  952000    295.28911   -1505.7148    487.48824    311.75681   -98.415273    37986.909 
  952100    297.98885   -1461.5856    477.40984    357.96727   -625.67427    37986.909 
  952200    289.38675   -1484.3005    476.70389    295.80244   -666.68261    37986.909 
  952300    298.84992   -1445.1195    492.41442    393.31618   -817.63525    37986.909 
  952400    307.07558   -1442.7763    460.36704    400.66037   -101.79202    37986.909 
  952500    301.04677   -1461.3089    485.93556    380.54248   -207.90145    37986.909 
  952600    305.84384   -1438.0644    491.61735    431.07489   -253.38591    37986.909 
  952700    295.37416   -1474.2128     500.3125     356.4661   -591.50117    37986.909 
  952800    298.63013   -1469.1542    479.59333    355.47038   -69.165247    37986.909 
  952900    298.02298   -1491.2312    479.97014    331.03564   -50.483658    37986.909 
  953000     300.2511   -1428.0969    500.08596    424.32122    308.96886    37986.909 
  953100    293.79613   -1454.0693     493.6512    362.84082    68.162446    37986.909 
  953200    305.18178   -1443.1519    478.59648    409.98452    801.79436    37986.909 
  953300    299.87621   -1455.4403    500.48908    395.69243    851.48606    37986.909 
  953400    300.86175   -1470.3774     491.1532    375.85831      271.688    37986.909 
  953500    298.26568   -1459.0442    476.98902    361.33463   -36.954006    37986.909 
  953600    299.69118    -1487.538    476.27186    338.54409   -145.83755    37986.909 
  953700    304.83415   -1519.2684    481.66957    335.37542    -175.5407    37986.909 
  953800    316.47396     -1474.33    486.88843    437.95838    169.79637    37986.909 
  953900    299.77617   -1463.7461     486.6085    373.05545    297.53545    37986.909 
  954000    302.99901   -1485.3243    520.95809    400.34254    204.50279    37986.909 
  954100     300.5049   -1470.7623    510.84402    393.55697     360.2835    37986.909 
  954200    298.10293   -1495.6191    469.43055    316.46824   -105.83333    37986.909 
  954300    304.57277   -1515.4869    511.41688    367.72697     182.2948    37986.909 
  954400    304.43795   -1459.9661    489.98024    401.20383    168.12259    37986.909 
  954500    304.56607   -1489.0359    489.10463     371.8355    458.49481    37986.909 
  954600    309.56459   -1510.2538    471.35653    355.38287    181.44084    37986.909 
  954700    297.33669   -1511.7615    478.99493     306.4391    -156.3366    37986.909 
  954800    311.40931   -1503.7613     471.8627     370.6902    108.57219    37986.909 
  954900    291.10727   -1472.7879    491.21525    329.57566   -99.591564    37986.909 
  955000    307.30295   -1481.8238    479.53821    381.80816    111.00251    37986.909 
  955100    308.56495   -1461.1805    480.65173    409.24903   -411.10979    37986.909 
  955200    303.32726   -1448.4697    473.98783    391.70535    -353.7633    37986.909 
  955300    296.27636   -1459.5583    475.23672    350.10832   -942.79203    37986.909 
  955400    305.60581   -1456.3744    501.19804    421.27339   -589.06787    37986.909 
  955500    304.69126    -1442.322    503.20757    433.21619   -548.96527    37986.909 
  955600    296.98526   -1433.6474     486.9948    390.97018   -49.310432    37986.909 
  955700    288.92717    -1452.137    506.96561    356.15768   -52.150745    37986.909 
  955800    299.68027   -1440.3186    497.90734    407.34986   -263.55008    37986.909 
  955900    297.99767   -1453.7336    509.01854    397.46764    45.158774    37986.909 
  956000    306.53166   -1483.4873    496.70807     393.8406     649.4075    37986.909 
  956100    297.59452   -1504.9156    497.50069    332.95201    567.60026    37986.909 
  956200    295.68065   -1532.6389    498.00434    297.11223    711.23762    37986.909 
  956300    299.37035   -1557.2966    490.36457    281.43324    903.69596    37986.909 
  956400    289.76828    -1523.358    481.50337    263.26282    756.72996    37986.909 
  956500    292.85246   -1491.5541    489.70591    317.16052    704.22372    37986.909 
  956600    299.07919   -1474.6734    494.83336    367.21385    306.81636    37986.909 
  956700    295.47674   -1452.3239    512.64029    391.14485    303.96804    37986.909 
  956800    309.79786   -1479.5703    486.80643    402.56688    207.23158    37986.909 
  956900    298.20698   -1435.6456    506.05256    413.53233   -404.50763    37986.909 
  957000    300.04758   -1469.9186    495.77748     377.2744   -1029.3554    37986.909 
  957100    295.36258   -1488.8757    454.04332    295.48184   -759.19725    37986.909 
  957200    299.35698   -1461.3794    496.57211    383.49776   -627.76014    37986.909 
  957300    291.90783   -1451.3777    478.14113    341.51746    96.167253    37986.909 
  957400     305.5468   -1480.3146    477.62771    373.49709   -200.02465    37986.909 
  957500     292.9952   -1468.9813    460.48231    311.15259   -30.688619    37986.909 
  957600     294.6904   -1503.2641    513.65264    337.67528   -214.76999    37986.909 
  957700    303.51247    -1521.706    484.51502    329.83046    135.34251    37986.909 
  957800    292.22058   -1504.4991    490.97912    302.64265    163.99975    37986.909 
  957900    305.43722    -1510.721      495.375    360.34451    458.08018    37986.909 
  958000    296.91021    -1492.783    486.70465    331.20639    698.60128    37986.909 
  958100    304.77392    -1496.008    515.00583    391.70082    322.09397    37986.909 
  958200    300.48832   -1506.9787    485.77323    332.19514    1012.7824    37986.909 
  958300    295.85126   -1508.7424     509.3002    333.07303    1213.7502    37986.909 
  958400     303.2666   -1505.3214    492.58605    353.17869    1006.9071    37986.909 
  958500    298.44628   -1517.5533    487.71635     314.3663    310.52504    37986.909 
  958600    292.16726   -1523.6465    492.68599    284.96197   -246.51062    37986.909 
  958700    292.99613   -1495.3193    499.04225    323.37867   -153.56659    37986.909 
  958800    310.47282   -1491.4572    500.26645    407.18009    167.20896    37986.909 
  958900    289.87471   -1529.2436     510.5469    286.90015   -302.30328    37986.909 
  959000    298.59167   -1473.9342    479.72739     350.6512   -553.36685    37986.909 
  959100    304.88743   -1488.6715    488.16962    372.71231   -108.56825    37986.909 
  959200    304.72119   -1483.3895    499.12281    388.19879   -570.94664    37986.909 
  959300    295.22937   -1500.5101     482.3999    311.60401   -610.32329    37986.909 
  959400     303.9973   -1529.5266    511.46792    351.14643   -209.36348    37986.909 
  959500    290.96567   -1563.6315    506.68538    253.56439   -347.27589    37986.909 
  959600    305.90553   -1565.9611    493.14428    304.98285    29.851018    37986.909 
  959700    296.90929   -1532.8695    471.88571    276.29687   -167.99364    37986.909 
  959800    303.17385   -1514.7713    493.82333    344.54828   -446.71941    37986.909 
  959900    304.58248    -1501.994    518.08685    387.93356     49.10346    37986.909 
  960000    304.45344   -1516.0432    455.43188    310.64822    241.19385    37986.909 
  960100     300.3961   -1540.1953    517.54758    330.33752   -326.11749    37986.909 
  960200    299.07863   -1489.6068    509.95741    367.40199   -216.57721    37986.909 
  960300    304.39497   -1516.5011     498.8726    353.36764   -635.16862    37986.909 
  960400    307.66446   -1477.0375    494.67247    403.35686   -437.39065    37986.909 
  960500     298.7418   -1510.5612    505.29292    340.26597   -547.71026    37986.909 
  960600    289.67653   -1509.3484      501.285    296.64082    178.54641    37986.909 
  960700    300.55648   -1530.5924    505.24292    328.35812    319.21458    37986.909 
  960800     287.2323   -1559.1913    513.99069    248.49479     113.6556    37986.909 
  960900    296.15452   -1526.8177    496.82554    303.88902    869.53153    37986.909 
  961000    289.17068   -1550.3239    488.38322     240.4852    411.17171    37986.909 
  961100    306.89708   -1522.8037    497.95318    357.41514    380.87976    37986.909 
  961200    303.05303   -1529.0639    471.61709    307.50527    291.45358    37986.909 
  961300    309.30705   -1554.2827    481.31466    320.15216   -57.136848    37986.909 
  961400    293.46151   -1533.4076    508.50968    296.85388    -265.5269    37986.909 
  961500     298.2732   -1546.4251     508.0844    305.08298   -261.47977    37986.909 
  961600    294.80452   -1543.1288    472.28468    256.95661   -533.95849    37986.909 
  961700    303.22627   -1527.4523    500.25262    338.53258   -35.287354    37986.909 
  961800    298.56874   -1553.4757    520.56831    311.84739    149.47658    37986.909 
  961900    297.18866   -1525.6264    500.36793    313.28047   -93.516059    37986.909 
  962000    318.87901   -1559.1535    497.69251    374.77137    565.10818    37986.909 
  962100    297.73956   -1506.9646    503.65577    337.71133    437.98416    37986.909 
  962200    290.58543   -1530.0544    465.97532    244.71889   -217.26044    37986.909 
  962300    300.64095   -1525.6028    514.82403    343.30925   -221.46773    37986.909 
  962400    302.68591   -1533.4278    478.51046    308.38127    514.03785    37986.909 
  962500    299.84823     -1535.47    481.00741    296.05502    337.02986    37986.909 
  962600    298.98841   -1535.8537    513.00541    323.79669    136.10202    37986.909 
  962700    300.56559   -1561.1334    478.24879    270.86394    330.92287    37986.909 
  962800    303.92432   -1582.0178    489.92459    276.78318    507.46709    37986.909 
  962900    292.41444   -1558.7749    512.46563    270.72656    442.71287    37986.909 
  963000    311.09719   -1538.2385    521.03115    383.97568    192.06619    37986.909 
  963100    296.53954   -1548.0797    479.74637    267.28197    84.342099    37986.909 
  963200    292.87195   -1533.4517    498.49719    284.14198   -432.99719    37986.909 
  963300    301.08741   -1538.4819    501.71584    319.33286   -304.41065    37986.909 
  963400    304.94555   -1517.1711    490.95496    347.25978    196.31863    37986.909 
  963500    299.82504   -1506.5592     502.2299    346.08389    46.204405    37986.909 
  963600    308.89517   -1489.1618    510.55635    412.65959    431.64873    37986.909 
  963700    301.42044   -1506.5098    498.64076    349.72976    431.80749    37986.909 
  963800    299.78631   -1505.7177    475.33326    319.85434    390.10958    37986.909 
  963900    299.46201   -1511.5952    494.92479    332.10765    860.19299    37986.909 
  964000    293.48942   -1542.9672    489.94202    268.85238    350.01511    37986.909 
  964100    297.39748   -1515.3882    480.22489    304.31613    70.250637    37986.909 
  964200    307.54531   -1527.0734    507.50725    365.61917    528.19742    37986.909 
  964300    296.79518   -1543.8074    491.00702    283.96627    122.38672    37986.909 
  964400    302.78911   -1544.4753    467.25097    286.53902     181.1822    37986.909 
  964500     308.4085   -1556.5589    481.16262     313.6768    185.09451    37986.909 
  964600    292.77229   -1566.1306    463.31587    215.83283   -294.98061    37986.909 
  964700    292.45239   -1577.8229    470.81914    210.20293   -532.56773    37986.909 
  964800     303.1227    -1594.303     515.4234    286.38627    -79.89793    37986.909 
  964900    301.52405   -1526.9361    464.84091    295.97039   -460.74118    37986.909 
  965000    301.75382   -1515.5532    489.20325    332.75041    -499.1539    37986.909 
  965100    311.41721    -1522.395    468.65894    348.88834   -388.28722    37986.909 
  965200    307.55914   -1512.5604    499.93997    372.62716   -172.69438    37986.909 
  965300    296.25099   -1525.2203    501.74767    310.84303   -242.02348    37986.909 
  965400    294.08154   -1505.8965    484.96222    303.61017   -250.22979    37986.909 
  965500    311.04021   -1562.8907    486.33988    324.37554   -57.147538    37986.909 
  965600    304.59791   -1546.9873    490.45618    315.37908   -218.20516    37986.909 
  965700     309.4207   -1540.0883    514.39847     367.9422   -103.97765    37986.909 
  965800    298.01131   -1558.0138    474.48465      258.715   -926.58342    37986.909 
  965900     299.4949   -1526.7932    478.94937    301.08239   -650.77633    37986.909 
  966000    297.12205   -1519.0076    487.45595    306.68719   -873.72726    37986.909 
  966100    309.93867   -1482.3402     483.8244    397.44916   -537.57065    37986.909 
  966200    291.49158   -1518.0942    498.10745    292.89253   -486.04443    37986.909 
  966300    289.85606   -1513.4526    498.41529    290.47559    57.126368    37986.909 
  966400    304.71699   -1496.9652    491.10525     366.5866    642.74208    37986.909 
  966500      291.048   -1512.9705    500.91612    298.82695    294.27773    37986.909 
  966600    309.74285   -1538.6591    484.16669    340.59061    613.85415    37986.909 
  966700    307.49501    -1512.681    485.83015    358.10791    355.16994    37986.909 
  966800    295.40783   -1511.2384    474.64863    293.92823    214.85077    37986.909 
  966900    304.49093   -1555.5109    497.13506    313.05249    126.19012    37986.909 
  967000    304.33122    -1531.847    462.63568    301.49769    75.816923    37986.909 
  967100    299.50555    -1518.152    512.95225    343.77447    463.13695    37986.909 
  967200    301.12724   -1516.6687    474.90671    314.51627     -76.6018    37986.909 
  967300    296.34218   -1522.2166    522.22292    334.73272    37.570689    37986.909 
  967400    304.42831   -1508.5726    487.26758    349.84132    182.29304    37986.909 
  967500     304.7237   -1515.7608    482.99033    339.70628    178.09931    37986.909 
  967600    308.82029   -1526.9334    493.24976    357.24417     308.6678    37986.909 
  967700    291.96015   -1568.2493    504.13643    250.87675     118.0631    37986.909 
  967800    287.40696   -1537.5144    489.22019    246.18793   -288.72003    37986.909 
  967900    310.90785   -1549.6977     478.6252     329.2577   -420.00972    37986.909 
  968000    296.77519   -1548.9064    490.48339    278.25368   -14.083499    37986.909 
  968100    291.95906    -1548.079    494.45098     261.3567   -251.24879    37986.909 
  968200    299.92578   -1599.7166     470.4595    221.60983    331.18585    37986.909 
  968300    303.21588    -1559.279    481.50115    287.90764    -90.34079    37986.909 
  968400    294.45158   -1526.4235     520.5534    320.34095   -55.694165    37986.909 
  968500    304.71396   -1541.0623    508.76149    340.13206    114.79351    37986.909 
  968600    292.94529   -1539.0524    489.59767    269.97198    -683.8838    37986.909 
  968700    297.25713   -1492.3159    506.17279    352.70418   -275.32655    37986.909 
  968800    294.25558   -1544.4902    492.72536    273.56344    268.10461    37986.909 
  968900    301.73659   -1487.8081    521.07838    392.29312    74.806685    37986.909 
  969000     302.2627   -1519.1033    487.20173    329.49083   -1.7976991    37986.909 
  969100    297.16905   -1529.9507    498.44204    306.94194   -93.710813    37986.909 
  969200    299.30254   -1543.1471    490.43861    295.35134    -364.4236    37986.909 
  969300    303.48006   -1508.9886    487.46074    345.34752   -545.46655    37986.909 
  969400    304.99444   -1516.0892    487.27068    344.87768   -1296.5032    37986.909 
  969500    300.70668   -1514.0708    502.39382    342.70705   -980.12811    37986.909 
  969600    305.98547   -1503.1153    504.69508    379.73951   -213.57291    37986.909 
  969700    286.52362   -1504.4059    506.02081    292.11847   -464.89684    37986.909 
  969800    295.51786   -1506.0564      484.061    309.01823    660.92105    37986.909 
  969900    308.19731   -1540.7399    504.46951    351.85155    225.80894    37986.909 
  970000    303.63403   -1526.6817    479.11541    320.00263    402.01024    37986.909 
  970100     293.8926   -1518.6448    468.07066    273.11931    -305.7089    37986.909 
  970200    290.39554   -1500.9032    487.90829    294.94772   -1096.0749    37986.909 
  970300    296.03943   -1518.2737    476.19948    291.28859   -122.39907    37986.909 
  970400    297.38017   -1481.9272    494.08909    351.56335    23.327347    37986.909 
  970500    298.50272   -1504.1849    487.60522    327.87777   -16.880252    37986.909 
  970600    298.90175   -1518.2031    507.47986    335.53138   -495.29361    37986.909 
  970700    294.42921   -1527.4019    492.71692    291.42537    42.686435    37986.909 
  970800     306.7645   -1527.1739    470.60034      325.095    212.06509    37986.909 
  970900    309.03175   -1480.0437    507.92726    419.76381    410.99208    37986.909 
  971000    289.71413   -1472.6001    502.34826    334.62176   -114.54074    37986.909 
  971100     302.1888   -1488.4686    516.37599    388.96692   -236.27258    37986.909 
  971200     306.0932   -1472.1159    488.62391    395.15306   -473.29177    37986.909 
  971300      301.802   -1486.4575    500.39388    373.25379    182.99945    37986.909 
  971400    300.44341   -1544.0136     504.0246    313.20933   -39.796244    37986.909 
  971500    291.71353    -1519.043    487.59502    282.43094    299.76042    37986.909 
  971600    285.93953   -1494.9318     514.7944    307.73533    390.39368    37986.909 
  971700    287.90608   -1508.3231     487.9756     276.3826    256.00012    37986.909 
  971800     301.9758   -1525.1896    484.14293    319.05359    684.38943    37986.909 
  971900    290.22459   -1522.6731    513.18781    297.68738    595.72341    37986.909 
  972000    294.48687   -1507.9161    516.85567    335.30965    465.61534    37986.909 
  972100     301.7258   -1491.5653    501.31369    368.72262   -85.456414    37986.909 
  972200    293.46658   -1480.5882    510.26869    351.45515    464.66974    37986.909 
  972300    295.58544   -1525.5244    484.69763    290.49123   -13.517325    37986.909 
  972400     297.1828   -1550.8226    468.55711      256.247    31.236279    37986.909 
  972500    290.07452   -1518.6966    489.74008    277.54023   -148.97019    37986.909 
  972600    300.99402   -1514.7583    498.40554    339.32552   -798.56526    37986.909 
  972700    306.60193   -1517.5652    482.92975     346.3009   -13.514706    37986.909 
  972800    294.67413   -1538.5521    497.53261    286.19398   -543.23757    37986.909 
  972900    303.39238   -1527.1495    502.10064    341.43159   -586.74532    37986.909 
  973000    293.45646   -1516.4706    511.51009    316.76858   -222.77507    37986.909 
  973100    302.63684   -1525.9843    495.24519    332.33845   -737.21222    37986.909 
  973200    292.88024   -1492.0094    481.76039    308.88473   -890.24843    37986.909 
  973300    302.69903   -1503.9963    497.22721    356.58859   -284.43189    37986.909 
  973400    297.89826   -1498.6785    486.09748    329.15394   -318.41331    37986.909 
  973500    302.73693   -1481.3315    501.99481     384.1917    119.84295    37986.909 
  973600    305.34914   -1520.9556    501.48229    355.82047    102.20539    37986.909 
  973700    306.08965   -1502.2729    479.15854    355.51464    144.74074    37986.909 
  973800    302.72471   -1459.1251    512.36269    416.71092   -116.45717    37986.909 
  973900    297.47147   -1486.1333    497.00606     350.6855   -373.71283    37986.909 
  974000    292.25671   -1475.3026    483.03341    324.05623   -209.93791    37986.909 
  974100    307.11662   -1504.5612     491.7032    370.39645   -409.98637    37986.909 
  974200    287.94259   -1506.3653    476.52998    267.05923   -240.97767    37986.909 
  974300    303.23758   -1564.3925    518.01765    319.40844   -198.62295    37986.909 
  974400    294.66503   -1508.6727    486.04092    304.54073    174.16282    37986.909 
  974500    302.83203   -1511.8312    515.32692    367.45235   -51.928991    37986.909 
  974600    296.19841   -1539.4078    476.34317    271.01424    6.8790154    37986.909 
  974700     299.6691   -1541.4755    490.11505    298.35033    409.37044    37986.909 
  974800    298.39261   -1511.7368    506.01114    338.23586    164.14461    37986.909 
  974900    292.41119   -1460.5013    513.05402    369.57388   -58.325516    37986.909 
  975000    295.77082   -1495.9452    506.71793     342.9257    127.69234    37986.909 
  975100    299.53455   -1467.4552    503.17876    384.82835   -365.76856    37986.909 
  975200     295.0323   -1471.9236    490.73018    347.63325   -196.21919    37986.909 
  975300    312.26906   -1457.8617    497.52709     446.1265   -724.21142    37986.909 
  975400    305.16765   -1436.7696    511.59861    449.30529   -503.03322    37986.909 
  975500    301.47185   -1511.8946    518.50422    364.43999   -2.7233074    37986.909 
  975600    309.37372   -1495.5208    477.11459     375.0143     -315.436    37986.909 
  975700    304.57075   -1468.1122    505.17203    408.84773    103.25238    37986.909 
  975800    299.89327   -1501.9859    498.23022     346.9648   -477.49525    37986.909 
  975900    311.10704   -1513.5215    483.91367    371.61952    555.42591    37986.909 
  976000    308.29777   -1485.0337    518.16457    421.70523    681.26383    37986.909 
  976100    308.65482   -1542.3588    500.17792    348.00168    481.89536    37986.909 
  976200    310.32558   -1528.8551    488.69589    357.54843   -92.034585    37986.909 
  976300    288.99146   -1468.7709    538.35326    371.20102   -298.81298    37986.909 
  976400     296.2564   -1434.0646    491.65467    391.93002   -215.64059    37986.909 
  976500    308.77357     -1446.11    502.45783    447.06517   -436.23231    37986.909 
  976600    314.27684   -1470.2297    503.68368    448.95814   -601.42787    37986.909 
  976700    305.68143   -1484.4838    527.60166    419.90826   -415.93589    37986.909 
  976800    301.40174   -1452.1582    508.36319    413.71961   -559.02843    37986.909 
  976900    304.28155   -1486.7517    508.01537    391.74901    328.16768    37986.909 
  977000    305.68728    -1517.903    501.63112    360.54486    576.06522    37986.909 
  977100    300.39069   -1514.7568    499.19157     337.3956    629.18716    37986.909 
  977200    302.94906   -1522.2956    493.76549    335.95368    -371.8664    37986.909 
  977300    301.29218   -1521.7492    500.18277    335.45478    720.63592    37986.909 
  977400    305.86161   -1538.2659    492.25228     331.5883    50.574129    37986.909 
  977500    307.90097   -1512.4648    477.09229    351.41468   -257.89999    37986.909 
  977600    297.39117   -1517.4123    499.01713    321.05581   -356.59791    37986.909 
  977700    289.01222   -1499.2946    504.63559    307.05318   -932.22934    37986.909 
  977800    304.58774   -1499.9754    517.95381    389.84281   -458.85213    37986.909 
  977900    301.57099   -1558.5348    481.09874    280.84087   -411.48432    37986.909 
  978000    312.11447   -1499.3667    519.84068    426.23879    -76.06576    37986.909 
  978100     289.9417   -1532.1443    498.58246    272.33668    251.23441    37986.909 
  978200     292.9735    -1540.053    478.75284    258.25366   -564.82881    37986.909 
  978300    320.35121    -1520.958    498.36796    420.27306    235.40776    37986.909 
  978400    288.61938   -1524.3811    479.92076    255.48252   -144.19878    37986.909 
  978500    298.62552   -1525.8948    512.63469     331.7504   -256.91989    37986.909 
  978600    317.32543   -1524.0449    477.37843    382.56858   -171.06754    37986.909 
  978700    304.20652   -1520.8399    498.56071     347.8682    256.54585    37986.909 
  978800      295.862   -1508.4828    489.09084    313.17165   -233.04669    37986.909 
  978900     301.7458   -1528.5457    508.11747    338.63602    17.797157    37986.909 
  979000    291.67769   -1556.5507     498.5219    255.68869    103.07012    37986.909 
  979100    301.04165   -1541.4286    485.63411    300.09829   -3.2271853    37986.909 
  979200    314.24726   -1531.1558    499.83163    384.04679     528.6912    37986.909 
  979300    307.06769   -1484.4473    509.41818    408.00501    560.16287    37986.909 
  979400    299.47328   -1450.9217    505.92419    403.83136    186.57462    37986.909 
  979500    304.33279   -1512.5451    486.04542    344.21641    327.35233    37986.909 
  979600    296.56157   -1523.9581    500.03644    311.79286    321.21584    37986.909 
  979700    284.18792   -1517.4018    500.91426    263.49598   -119.56458    37986.909 
  979800    296.66571   -1504.8466    512.22657    343.56352    383.62748    37986.909 
  979900     304.2328   -1489.9597    509.12712    389.43315   -253.58188    37986.909 
  980000    292.48343   -1498.4626    495.90799    314.79187    300.26518    37986.909 
  980100    297.95211   -1517.9775    480.74888    304.74887    283.65231    37986.909 
  980200    300.34718   -1541.8054    507.71794    318.67746    274.25882    37986.909 
  980300    291.91831   -1495.7833    482.96673    301.98466    3.0709602    37986.909 
  980400    298.02088   -1494.5688    467.53154    315.25002   -431.49846    37986.909 
  980500    296.99824   -1493.5389    496.21452    340.35687   -537.95868    37986.909 
  980600     294.1693   -1482.9576    495.46489    337.44702   -314.21621    37986.909 
  980700    292.00585   -1473.7832    505.52926    346.94163   -338.43088    37986.909 
  980800     299.1837   -1495.5448    497.44927    349.42905   -262.21157    37986.909 
  980900    297.13931   -1501.7755    492.93285    329.47404    699.73407    37986.909 
  981000    303.42656   -1468.0291    511.85554    410.46088   -8.2902661    37986.909 
  981100    299.82463   -1470.1667    472.35962    352.60423    150.64369    37986.909 
  981200    296.90077   -1494.2327    494.55128    337.56086   -37.757993    37986.909 
  981300     285.8288   -1458.3738    491.48223     320.4825   -78.975609    37986.909 
  981400    308.09063   -1469.5582    491.96702    410.05027    -150.3208    37986.909 
  981500    299.13858   -1450.0406    503.85578     401.1365   -467.30467    37986.909 
  981600    304.63949     -1439.63    488.57448    421.04192   -651.11314    37986.909 
  981700    304.47901   -1425.5551    518.03078    463.85033   -1191.5147    37986.909 
  981800    300.94733    -1402.127    506.94275    460.28376    -523.6084    37986.909 
  981900    296.28144   -1453.7305    512.09766    392.81997   -415.83842    37986.909 
  982000    304.84718   -1454.7865    501.78392    420.03036    129.81515    37986.909 
  982100     299.4659   -1447.8173     511.8498    412.82814    347.65083    37986.909 
  982200    312.61786    -1462.115    523.57186    469.48894    577.72488    37986.909 
  982300    310.22979   -1454.0825    485.08603    428.27977    690.88126    37986.909 
  982400    293.39306   -1455.9208    499.43381    364.95649    741.44301    37986.909 
  982500    296.71228    -1479.097    484.64893    341.94521    103.26613    37986.909 
  982600    305.83816   -1487.4469    477.45233    367.50172    28.986536    37986.909 
  982700    296.93664   -1443.9101    514.99001    408.48375   -304.33241    37986.909 
  982800    301.08657   -1434.6238    515.41062    436.88195   -330.59774    37986.909 
  982900    308.94107   -1470.7509    517.30226    438.02316   -298.41521    37986.909 
  983000    293.34439   -1487.3453    509.96484    343.84386   -27.542895    37986.909 
  983100    300.23228   -1479.2045     519.7676    392.81044   -150.00414    37986.909 
  983200    291.17505   -1462.0004    497.54027    346.99348   -290.87734    37986.909 
  983300    296.47793   -1452.5985    467.59661    350.33591   -513.53902    37986.909 
  983400    295.05346   -1515.7397    489.88093    303.06316   -904.69696    37986.909 
  983500    292.44878   -1500.7985    489.09693    305.48892     138.2055    37986.909 
  983600    300.83987    -1475.284    514.92576    394.62572   -569.66376    37986.909 
  983700    300.94631   -1534.0585    482.75619    304.16103    155.68116    37986.909 
  983800    297.23331   -1493.1174     502.1313    347.75392   -33.225411    37986.909 
  983900    311.66577   -1448.4651    527.80047     483.0792   -54.815554    37986.909 
  984000    307.59114   -1466.9873    499.48329     417.8877    33.610332    37986.909 
  984100    302.60631   -1464.2694    494.41352    393.08413   -171.49867    37986.909 
  984200    306.34333   -1497.9213    503.49045    385.34074   -215.00476    37986.909 
  984300    299.81704   -1488.8925     489.7059    351.19051    761.52267    37986.909 
  984400    303.24961   -1528.9132    531.41062    368.33491    -26.82724    37986.909 
  984500    296.25411   -1532.1567    476.08503    278.25805      312.094    37986.909 
  984600    303.15827   -1465.1164    531.36242    431.67212    292.83243    37986.909 
  984700    296.62846   -1434.0626    505.48998    407.44315   -30.356588    37986.909 
  984800    302.23464    -1470.756    521.27902    411.78907    178.91268    37986.909 
  984900    306.52233   -1466.1687    517.22838     431.6375   -170.76088    37986.909 
  985000    296.05917    -1465.551    487.76897    355.66965    128.34016    37986.909 
  985100    308.70959   -1433.8282    492.06094    448.66194    173.45777    37986.909 
  985200     291.1592   -1418.5542    500.09667    392.92464   -203.41626    37986.909 
  985300    296.58778   -1462.3903    505.33925    378.78145    90.624849    37986.909 
  985400    302.98115   -1459.3908    509.23561    414.47315   -7.1537178    37986.909 
  985500    303.24533   -1453.2997    486.17478     398.6932    112.63137    37986.909 
  985600    294.46145   -1417.6266    500.20161    408.83054    219.77261    37986.909 
  985700    288.26169   -1410.9502    515.34844    402.73001   -49.323608    37986.909 
  985800    309.59435   -1436.8683    513.91081    471.45666    93.872454    37986.909 
  985900    298.58887   -1443.8258    495.31888    396.33853   -232.46252    37986.909 
  986000    298.05424   -1452.5162    499.89859    389.81989   -418.55824    37986.909 
  986100    288.36453   -1439.2835    521.09003    380.60151   -297.28978    37986.909 
  986200    311.82904   -1418.5407    484.47754    470.41603    530.54598    37986.909 
  986300    296.66398   -1453.5367    543.51875    426.15777    573.03054    37986.909 
  986400    293.27446   -1481.0728    476.72646    316.56299    569.52773    37986.909 
  986500    294.70388   -1472.7528    494.93274    349.52744    502.41288    37986.909 
  986600    306.14207   -1479.9673    506.38246    405.28027    78.292659    37986.909 
  986700    295.29509   -1468.6676    494.11956    355.46219   -29.479841    37986.909 
  986800    297.21098   -1445.6347    500.80498     393.8097    16.131898    37986.909 
  986900    294.22027   -1436.1105    500.44476    389.50355   -97.533376    37986.909 
  987000    300.49078   -1432.8096    512.07559    432.67768    264.54605    37986.909 
  987100    297.06315   -1492.1666    486.23071     332.0377    342.59694    37986.909 
  987200    286.52037   -1500.3937    490.10814    280.20327    985.76388    37986.909 
  987300    298.29065   -1504.1057    498.26407    337.66062    900.56049    37986.909 
  987400    304.11231    -1506.599    499.91685    363.04093    1199.1428    37986.909 
  987500    299.65643   -1502.7803    520.40061    367.27411    246.66634    37986.909 
  987600    308.81779      -1468.4     486.4506     408.9671    534.95526    37986.909 
  987700    293.49638   -1466.7827    468.12354    323.24967     635.1908    37986.909 
  987800    296.69987    -1502.194    494.26705    328.41041    317.17644    37986.909 
  987900    304.91345   -1480.4618    503.18771    396.05731    412.63312    37986.909 
  988000    292.52044   -1459.7332    513.11236    370.89234    881.04484    37986.909 
  988100    306.23033   -1463.3054    510.46088    426.41815     355.7935    37986.909 
  988200    300.59139   -1459.0895    492.52221    387.29751   -616.44569    37986.909 
  988300    309.62471   -1495.4189    480.65356    379.78559   -463.68722    37986.909 
  988400     300.4889   -1451.6946    490.94556    392.65415   -657.50255    37986.909 
  988500    305.60961   -1454.7889    494.12404    415.80204   -64.139378    37986.909 
  988600    296.76088   -1496.8919    491.36405    331.08427   -368.60556    37986.909 
  988700    298.77773   -1530.8746    500.88976    315.71122   -177.65773    37986.909 
  988800    300.36331   -1489.0144    497.11864    360.94184    201.97727    37986.909 
  988900    301.94246   -1473.8754    493.44179    379.51647    254.33312    37986.909 
  989000    292.17066   -1465.6942    515.11746    365.36112   -250.82171    37986.909 
  989100    295.49514    -1431.713     514.5383    413.73658   -438.33391    37986.909 
  989200    301.66548   -1439.7154    490.64176    409.62892   -164.80544    37986.909 
  989300    294.21575   -1442.8669    499.35667    381.63867   -259.57518    37986.909 
  989400    287.38823   -1445.2625    499.85199    348.98721    55.406599    37986.909 
  989500     290.6589   -1480.7084    517.16623    345.58671    62.241254    37986.909 
  989600    298.77769   -1463.0441    507.11491    389.76671    284.80583    37986.909 
  989700    292.46618   -1467.0739    493.09281    343.28771    671.99382    37986.909 
  989800    305.06641   -1497.5408    495.41606    371.89558    274.04166    37986.909 
  989900    301.78488   -1499.8703     474.2188    333.58875    174.41235    37986.909 
  990000    309.25768   -1485.8607    495.28784    402.32495    791.41079    37986.909 
  990100    296.88412   -1478.8323    483.73563    342.07064    283.85389    37986.909 
  990200    300.36336   -1496.6874     489.2004    345.35079    210.30953    37986.909 
  990300    294.24685   -1444.9937     482.9118    363.20704   -188.80315    37986.909 
  990400     303.5438   -1477.9828    508.87803    398.05768    425.42901    37986.909 
  990500    290.47425   -1430.0389    487.81146     366.0697    121.68296    37986.909 
  990600    319.09817   -1441.2773    507.73808     503.6802    481.17826    37986.909 
  990700    299.15366   -1446.0874    528.43233    429.73419   -274.49423    37986.909 
  990800    308.41348    -1460.864    500.16879    428.40034   -331.25972    37986.909 
  990900    304.13504   -1410.5261    508.70285    468.00214   -407.20182    37986.909 
  991000     297.0334   -1457.2075    539.50205    420.13417   -14.041205    37986.909 
  991100    312.29328   -1443.5592    478.80994     441.8209    15.281157    37986.909 
  991200     294.7195   -1433.1439      522.894    417.16792   -175.81522    37986.909 
  991300    296.94205   -1480.7468    488.80326    345.48466   -270.75247    37986.909 
  991400    297.27135   -1453.9669    530.06094    415.00536   -388.33933    37986.909 
  991500    304.11436   -1442.2465    488.97438    416.46018    57.420983    37986.909 
  991600    292.17294    -1438.397     510.5598    388.11084   -143.16831    37986.909 
  991700    297.07739   -1432.8607    505.88382    411.06086   -283.02912    37986.909 
  991800    289.67827   -1449.8777    511.14892    365.98331   -100.54624    37986.909 
  991900    294.08248   -1463.0116    514.17711    375.71419   -338.01915    37986.909 
  992000    298.85073   -1478.6905     498.9987     366.3331   -406.51691    37986.909 
  992100    294.32631    -1425.054    533.47763    434.07057   -538.57836    37986.909 
  992200    298.34885   -1426.7288    520.30053    437.33613   -297.09011    37986.909 
  992300    293.23639    -1478.311    513.28564    355.71247   -29.070642    37986.909 
  992400    295.97147   -1520.8481    509.25413    321.46272   -352.39181    37986.909 
  992500    300.53802   -1474.8034    514.37591    393.19693   -518.12548    37986.909 
  992600    295.36357   -1459.2207    487.62653    358.72456    -135.7436    37986.909 
  992700     300.6379   -1472.3596     517.9996    399.71427    548.84175    37986.909 
  992800    308.00938   -1492.0849    514.29605    409.48663    1134.3033    37986.909 
  992900    294.62563   -1507.5174    495.28182    314.75946    784.78294    37986.909 
  993000     300.7819   -1472.9187    514.67592    396.48007    412.88945    37986.909 
  993100    296.09707   -1476.6173    501.89429    358.89943    401.21701    37986.909 
  993200    296.38331   -1461.6875    516.37718    389.60132    66.566849    37986.909 
  993300    292.72191   -1427.7878    507.19975     397.8326    398.43727    37986.909 
  993400    289.17226   -1457.7169    518.60024    363.31636    372.14797    37986.909 
  993500    297.26061   -1472.2504    498.16868    364.78125    418.66238    37986.909 
  993600    297.40013   -1467.8739    473.62845    345.24595    261.41456    37986.909 
  993700    302.49707   -1467.6101    514.29212    409.13008   -14.300978    37986.909 
  993800    294.90783   -1483.0085    515.31421    360.57177   -131.29613    37986.909 
  993900    297.19922   -1528.7413    469.99071    279.83593   -4.2709473    37986.909 
  994000    307.02484   -1466.9629    495.27289    411.15106    573.87024    37986.909 
  994100     299.3138   -1461.2388    483.69828    370.57009    232.35251    37986.909 
  994200    291.67097   -1448.8051    508.14271    373.02481   -779.94943    37986.909 
  994300    291.81142   -1427.4139    500.90954    387.81541   -581.06834    37986.909 
  994400    282.18149   -1449.3713    503.73344    325.30874   -613.11389    37986.909 
  994500    295.91684   -1458.2834    509.90726    384.43444   -858.51392    37986.909 
  994600    295.54897   -1484.4389    522.99044    369.70527   -53.317084    37986.909 
  994700    306.85071   -1461.5648    471.66846    392.16047    66.777041    37986.909 
  994800    301.69045   -1454.6071    486.07592    390.28381   -398.71518    37986.909 
  994900    305.06203   -1475.1092    487.28177    386.17314   -97.949114    37986.909 
  995000    302.42458   -1475.8323    474.47753    360.76671   -342.52805    37986.909 
  995100    298.35809   -1441.8957    540.30363    442.21395   -367.49719    37986.909 
  995200    300.12205   -1475.9494    486.35093    362.15241   -412.72576    37986.909 
  995300    295.34052   -1468.2164    485.62559    347.62406    -323.0578    37986.909 
  995400    293.70438   -1479.7408    525.70444    368.80931   -502.73692    37986.909 
  995500    295.87555   -1475.1018    499.04674     356.5696   -495.21517    37986.909 
  995600    314.65573    -1431.381    499.71776    485.54748   -399.53335    37986.909 
  995700    315.75974   -1507.9819     472.6017    386.80295   -613.85548    37986.909 
  995800    300.59024   -1461.3698    510.29568    402.78555   -48.641563    37986.909 
  995900    307.87281   -1474.1411      514.497     427.0163   -414.11882    37986.909 
  996000    293.16887    -1482.514    476.73831    314.65802   -276.18686    37986.909 
  996100    308.33833   -1468.5031    502.71045    422.96442   -234.13369    37986.909 
  996200    300.34533      -1465.4    512.15657    399.51312   -433.88067    37986.909 
  996300     296.0372   -1464.2489    501.86272    370.96655   -325.87293    37986.909 
  996400    316.74479   -1498.9875    486.94241    414.57468    279.40172    37986.909 
  996500    306.27005   -1439.9223    495.69008    435.20927    -107.7024    37986.909 
  996600     297.3878    -1437.635    492.43993    394.24071   -683.07672    37986.909 
  996700    304.19016   -1448.7075    519.63505    441.00127   -939.19365    37986.909 
  996800    311.07282   -1455.0433    498.71977     444.7497    17.055464    37986.909 
  996900    300.09966    -1500.834    505.31189    356.12792    59.627795    37986.909 
  997000    303.66941     -1543.85    488.14794    312.02615    541.19058    37986.909 
  997100    297.64471   -1471.5998    515.38122    384.37443    81.063648    37986.909 
  997200    293.33343    -1469.785    482.74458    334.13451   -746.18468    37986.909 
  997300    304.73981   -1468.0333    510.11214    414.62814    57.446035    37986.909 
  997400    307.43945   -1444.4503    484.36316    424.62141    -95.57697    37986.909 
  997500    310.96894   -1446.8241    485.28258    439.06382    350.06159    37986.909 
  997600    292.43593   -1460.1093    496.80177    353.82504    304.75156    37986.909 
  997700    299.81618   -1485.3771    509.60154    374.59771    229.84533    37986.909 
  997800    298.21626   -1422.5419    493.59032    414.21568    442.28997    37986.909 
  997900    299.43351   -1425.8497    506.77592    429.57594   -322.05102    37986.909 
  998000    300.31363   -1438.6084    497.72885    411.73425   -88.715607    37986.909 
  998100    295.53534   -1459.1369    496.52492     368.4803   -128.18574    37986.909 
  998200    300.55678   -1456.2464    496.13782    393.60035   -219.26589    37986.909 
  998300    299.41731   -1462.3006    486.51347    372.78961    14.364145    37986.909 
  998400    313.46174   -1469.4368    533.47951    475.87564    -678.8109    37986.909 
  998500    286.60883   -1471.6624    479.93968    299.16459    515.82668    37986.909 
  998600    306.70809   -1477.7286    508.61417        412.3   -24.737309    37986.909 
  998700    291.68258   -1426.5595    504.12467    391.30467     56.61909    37986.909 
  998800    307.14104   -1491.3934    484.15589    376.12692    356.14067    37986.909 
  998900    296.21001   -1484.2871    509.32869    359.17266   -94.208165    37986.909 
  999000       305.53   -1430.9789    516.74843    461.87782   -162.35481    37986.909 
  999100    303.24121   -1441.9235    504.68388    428.56001   -324.81504    37986.909 
  999200    302.33431   -1483.8254    501.05445    378.94396    216.90592    37986.909 
  999300    294.15726   -1494.9577    499.55508    329.48288     128.5714    37986.909 
  999400    302.94546   -1477.3793    513.48853    400.57678   -53.149838    37986.909 
  999500    301.55096   -1483.2871    465.66518    340.56481   -539.29154    37986.909 
  999600    308.41442   -1506.7605    514.36529    396.70456   -147.45782    37986.909 
  999700    309.70126   -1505.4537    486.55942    376.00141    264.62168    37986.909 
  999800     300.5502   -1502.2343    505.67158    357.11655   -188.08005    37986.909 
  999900    291.42946   -1482.0573    498.10899    328.65119   -177.07955    37986.909 
 1000000    300.45186   -1480.5012      519.601    392.33621    115.86146    37986.909 
 1000100    294.80136   -1485.7516    486.89552    328.93043    206.08412    37986.909 
 1000200    315.43781   -1492.9606    498.70639    426.47893    350.19852    37986.909 
 1000300     308.8092   -1505.4403    499.80523    385.24276     317.3975    37986.909 
 1000400    305.68189   -1434.3536    515.45951    457.89831   -118.21423    37986.909 
 1000500    302.74048    -1447.954    508.85695    424.44727      107.049    37986.909 
 1000600    301.01249   -1475.2866    528.56164    409.03647     238.2919    37986.909 
 1000700    297.30774   -1466.3141    505.52272    378.28391    702.01681    37986.909 
 1000800    302.27314   -1458.3652    500.15587     403.2301     259.4791    37986.909 
 1000900    300.53474   -1468.6328    504.44108    389.41795   -108.42467    37986.909 
 1001000     305.7883   -1460.1519    514.65319    431.77297    192.79352    37986.909 
 1001100    307.07528   -1489.4174    515.41991    409.07083    398.53384    37986.909 
 1001200    310.27234   -1444.9846     497.8804    450.36367    660.94569    37986.909 
 1001300    311.63451   -1469.7711    499.26466    433.09663    65.737529    37986.909 
 1001400    301.58879    -1476.175    494.97772    377.15982    274.54562    37986.909 
 1001500    297.48671   -1479.8265    508.59423    368.64905    388.32025    37986.909 
 1001600    302.72566   -1479.6379    497.14092     380.9806    323.30997    37986.909 
 1001700    287.53088   -1452.8705    498.61761    340.78732    377.70983    37986.909 
 1001800    298.35553   -1480.4237    491.06015    354.43097   -211.87998    37986.909 
 1001900    303.73909   -1467.1345    531.02298     431.9305    624.82035    37986.909 
 1002000    307.14003    -1500.021    504.96405    388.30301    461.67066    37986.909 
 1002100    288.82465   -1459.5463     504.6733    345.99438    58.302527    37986.909 
 1002200    301.88958    -1464.124    514.58679    410.17466    504.18553    37986.909 
 1002300    302.17436   -1509.3445    519.80202    371.45208    25.734548    37986.909 
 1002400     291.7447   -1438.6391    501.75892    377.13911    448.39601    37986.909 
 1002500     293.0334    -1491.804    483.84018    311.85978   -214.26296    37986.909 
 1002600    303.12988   -1435.6247    483.98139     413.6549    46.863286    37986.909 
 1002700     302.2363   -1462.9141    492.74517    391.10461    59.132815    37986.909 
 1002800    297.32208   -1456.7387    510.91712    393.31825    103.58391    37986.909 
 1002900     305.0711   -1469.7579    506.38169    410.66527   -292.12831    37986.909 
 1003000    301.52928   -1459.7626    491.52675    389.85326   -445.52784    37986.909 
 1003100    293.40996   -1431.7714    515.58914    405.33738    -373.9841    37986.909 
 1003200    287.02219   -1409.1724    511.39836    394.97503   -283.90374    37986.909 
 1003300    296.33166   -1437.1403    518.19393    415.73254    95.515335    37986.909 
 1003400    306.94248   -1388.2629    502.15438    496.36166    574.56959    37986.909 
 1003500    311.15422   -1435.9895     502.9059    468.35619     584.9744    37986.909 
 1003600    295.79849   -1385.7307    484.07211    430.61903   -61.440717    37986.909 
 1003700    296.68899   -1427.7745    501.58622    410.10012   -365.54578    37986.909 
 1003800    305.14719   -1443.8802    502.89971    433.40371    81.792573    37986.909 
 1003900    299.28202   -1476.1636    492.27944    364.08324   -143.30023    37986.909 
 1004000    301.91024   -1472.9976    514.77694    401.58428   -659.20991    37986.909 
 1004100    289.02199   -1446.8644    506.55093    361.44267   -449.23175    37986.909 
 1004200     304.1573   -1480.9865    479.97405    368.91329   -444.00272    37986.909 
 1004300    297.01921   -1552.5434    505.40495    290.63728   -103.99777    37986.909 
 1004400    306.17337   -1483.5138    436.03738    331.52969     -247.339    37986.909 
 1004500    293.45589   -1511.1322    478.78184    289.37614   -94.271282    37986.909 
 1004600    303.26645   -1513.0489    494.54747    347.41184    122.86177    37986.909 
 1004700    302.71845   -1456.3222    475.71861    382.84152   -4.3351804    37986.909 
 1004800    302.65703   -1444.9668    495.78974    413.99137    -245.6535    37986.909 
 1004900    301.12626   -1501.4003    463.98739    318.86096    181.60504    37986.909 
 1005000    296.75766   -1497.0806    500.82248    340.33961    267.94977    37986.909 
 1005100    306.94128   -1493.7825    473.98263    362.66488    922.20349    37986.909 
 1005200    303.11782   -1511.0768    483.83979     338.0069    575.40027    37986.909 
 1005300    308.39449    -1477.362    493.43993    405.08796    278.32257    37986.909 
 1005400    301.65825   -1502.3052    498.42775    354.79245    131.06121    37986.909 
 1005440    299.54057   -1500.2256    486.87848    335.78477   -627.11642    37986.909 
Loop time of 604.197 on 32 procs for 1000000 steps with 1512 atoms

Performance: 143.000 ns/day, 0.168 hours/ns, 1655.090 timesteps/s
100.0% CPU use with 32 MPI tasks x no OpenMP threads

MPI task timing breakdown:
Section |  min time  |  avg time  |  max time  |%varavg| %total
---------------------------------------------------------------
Pair    | 224.9      | 270.48     | 315.97     | 139.5 | 44.77
Bond    | 1.3956     | 1.5654     | 1.6876     |   5.5 |  0.26
Neigh   | 39.481     | 39.543     | 39.602     |   0.7 |  6.54
Comm    | 235.28     | 281.03     | 326.45     | 136.2 | 46.51
Output  | 0.38899    | 0.40495    | 0.85496    |  12.7 |  0.07
Modify  | 8.0248     | 8.4115     | 8.8306     |   9.4 |  1.39
Other   |            | 2.756      |            |       |  0.46

Nlocal:        47.2500 ave          67 max          13 min
Histogram: 1 0 2 2 2 5 8 5 2 5
Nghost:        1977.75 ave        2090 max        1862 min
Histogram: 1 4 8 2 1 1 3 5 6 1
Neighs:        5139.19 ave        8708 max        1077 min
Histogram: 1 1 5 4 2 7 2 6 3 1

Total # of neighbors = 164454
Ave neighs/atom = 108.76587
Ave special neighs/atom = 2.0238095
Neighbor list builds = 49622
Dangerous builds = 0

# Output the system volume
variable v equal vol
print 'The system volume is $v'
The system volume is 37986.9093703383

# Outputs
variable A equal xhi-xlo
variable B equal yhi-ylo
variable C equal zhi-zlo
variable D equal xy
variable E equal xz
variable F equal yz
print 'Lattice vectors'
Lattice vectors
print '$A 0 0'
33.6158930653875 0 0
print '$D $B 0'
0 33.6158930653875 0
print '$E $F $C'
0 0 33.6158930653875
Total wall time: 0:10:09
