LAMMPS (29 Sep 2021 - Update 1)
# Test LAMMPS input file for single DeFDe

# Initialize simulation

clear

units real
atom_style full
boundary p p p
dielectric 1
special_bonds dreiding

bond_style harmonic
angle_style harmonic
dihedral_style harmonic
improper_style umbrella
pair_style hybrid/overlay hbond/dreiding/lj 4 9.0 11.0 90 lj/cut 8.50000

# Read data file
read_data frag5.dat
Reading data file ...
  triclinic box = (0.0000000 0.0000000 0.0000000) to (15.000000 15.000000 15.000000) with tilt (0.0000000 0.0000000 0.0000000)
  2 by 4 by 4 MPI processor grid
  reading atoms ...
  1515 atoms
  scanning bonds ...
  4 = max bonds/atom
  scanning angles ...
  6 = max angles/atom
  scanning dihedrals ...
  9 = max dihedrals/atom
  scanning impropers ...
  1 = max impropers/atom
  reading bonds ...
  1014 bonds
  reading angles ...
  524 angles
  reading dihedrals ...
  28 dihedrals
  reading impropers ...
  2 impropers
Finding 1-2 1-3 1-4 neighbors ...
  special bond factors lj:    0        0        1       
  special bond factors coul:  0        0        1       
     4 = max # of 1-2 neighbors
     8 = max # of 1-3 neighbors
    12 = max # of special neighbors
  special bonds CPU = 0.002 seconds
  read_data CPU = 0.017 seconds

# Dreiding potential information

bond_coeff 1 350 1.53
bond_coeff 2 350 1.09
bond_coeff 3 700 1.275
bond_coeff 4 350 0.935
bond_coeff 5 700 1.22
bond_coeff 6 350 1.43
bond_coeff 7 350 0.98

angle_coeff 1 50 109.471
angle_coeff 2 50 120
angle_coeff 3 50 120
angle_coeff 4 50 104.51

dihedral_coeff 1 0.111111111111111 -1 3
dihedral_coeff 2 5.625 -1 2
dihedral_coeff 3 0.0833333333333333 -1 6

improper_coeff 1 40 0

pair_coeff 1 1 lj/cut 0.0951 3.8983
pair_coeff 1 2 lj/cut 0.0857947550844456 3.77835472527395
pair_coeff 1 3 lj/cut 0.0951 3.8983
pair_coeff 1 4 lj/cut 0.0953995283007206 3.64309650983885
pair_coeff 1 5 lj/cut 0.0380199947396104 3.52917391183829
pair_coeff 1 6 lj/cut 0.00308382878902186 3.52806914614779
pair_coeff 1 7 lj/cut 0.0953995283007206 3.64309650983885
pair_coeff 2 2 lj/cut 0.0774 3.6621
pair_coeff 2 3 lj/cut 0.0857947550844456 3.77835472527395
pair_coeff 2 4 lj/cut 0.0860649754545948 3.53100349192691
pair_coeff 2 5 lj/cut 0.0342998542270955 3.42058613398347
pair_coeff 2 6 lj/cut 0.00278208554864871 3.41951536039831
pair_coeff 2 7 lj/cut 0.0860649754545948 3.53100349192691
pair_coeff 3 3 lj/cut 0.0951 3.8983
pair_coeff 3 4 lj/cut 0.0953995283007206 3.64309650983885
pair_coeff 3 5 lj/cut 0.0380199947396104 3.52917391183829
pair_coeff 3 6 lj/cut 0.00308382878902186 3.52806914614779
pair_coeff 3 7 lj/cut 0.0953995283007206 3.64309650983885
pair_coeff 4 4 lj/cut 0.0957 3.4046
pair_coeff 4 5 lj/cut 0.0381397430510485 3.29813538230316
pair_coeff 4 6 lj/cut 0.0030935416596516 3.29710294046152
pair_coeff 4 7 lj/cut 0.0957 3.4046
pair_coeff 5 5 lj/cut 0.0152 3.195
pair_coeff 5 6 lj/cut 0.0012328828005938 3.19399984345648
pair_coeff 5 7 lj/cut 0.0381397430510485 3.29813538230316
pair_coeff 6 6 lj/cut 1e-04 3.193
pair_coeff 6 7 lj/cut 0.0030935416596516 3.29710294046152
pair_coeff 7 7 lj/cut 0.0957 3.4046
pair_coeff 2 2 hbond/dreiding/lj 6 j 9.50 2.75 4 9.0 11.0 90
pair_coeff 2 4 hbond/dreiding/lj 6 i 9.50 2.75 4 9.0 11.0 90
pair_coeff 2 7 hbond/dreiding/lj 6 i 9.50 2.75 4 9.0 11.0 90
pair_coeff 2 7 hbond/dreiding/lj 6 j 9.50 2.75 4 9.0 11.0 90
pair_coeff 4 7 hbond/dreiding/lj 6 j 9.50 2.75 4 9.0 11.0 90
pair_coeff 7 7 hbond/dreiding/lj 6 j 9.50 2.75 4 9.0 11.0 90

neighbor 2 bin
neigh_modify every 2 one 10000

# Gemoetric relaxation
fix 1 all box/relax iso 1.0 vmax 0.001
minimize 1.0e-4 1.0e-6 10000 10000
WARNING: Using 'neigh_modify every 1 delay 0 check yes' setting during minimization (../min.cpp:188)
Neighbor list info ...
  update every 1 steps, delay 0 steps, check yes
  max neighbors/atom: 10000, page size: 100000
  master list distance cutoff = 13
  ghost atom cutoff = 13
  binsize = 6.5, bins = 3 3 3
  3 neighbor lists, perpetual/occasional/extra = 3 0 0
  (1) pair hbond/dreiding/lj, perpetual, skip from (3)
      attributes: full, newton on
      pair build: skip
      stencil: none
      bin: none
  (2) pair lj/cut, perpetual, half/full from (3)
      attributes: half, newton on
      pair build: halffull/newton
      stencil: none
      bin: none
  (3) neighbor class addition, perpetual
      attributes: full, newton on
      pair build: full/bin
      stencil: full/bin/3d
      bin: standard
Per MPI rank memory allocation (min/avg/max) = 14.58 | 14.94 | 15.54 Mbytes
Step Temp E_pair E_mol TotEng Press Volume 
       0            0 6.8767129e+16    269.54809 6.8767129e+16 5.588448e+18         3375 
    5195            0   -1125.9955    32.894055   -1093.1014    102.01995    36812.755 
Loop time of 4.5895 on 32 procs for 5195 steps with 1515 atoms

100.0% CPU use with 32 MPI tasks x no OpenMP threads

Minimization stats:
  Stopping criterion = energy tolerance
  Energy initial, next-to-last, final = 
    6.87671288963416e+16  -1092.52492714569  -1092.61375569061
  Force two-norm initial, final = 1.1384313e+19 103.72466
  Force max component initial, final = 5.7098333e+18 73.365930
  Final line search alpha, max atom move = 1.4017941e-05 0.0010284392
  Iterations, force evaluations = 5195 5197

MPI task timing breakdown:
Section |  min time  |  avg time  |  max time  |%varavg| %total
---------------------------------------------------------------
Pair    | 1.2536     | 2.5687     | 3.7056     |  38.1 | 55.97
Bond    | 0.0060448  | 0.010968   | 0.030601   |   3.8 |  0.24
Neigh   | 0.093113   | 0.093443   | 0.093705   |   0.0 |  2.04
Comm    | 0.44105    | 1.5769     | 2.8936     |  48.6 | 34.36
Output  | 0          | 0          | 0          |   0.0 |  0.00
Modify  | 0          | 0          | 0          |   0.0 |  0.00
Other   |            | 0.3395     |            |       |  7.40

Nlocal:        47.3438 ave          67 max          28 min
Histogram: 3 1 1 5 6 5 4 4 2 1
Nghost:        2021.59 ave        2082 max        1955 min
Histogram: 3 4 6 2 1 0 2 4 5 5
Neighs:        5247.38 ave        7516 max        2617 min
Histogram: 4 1 1 5 4 1 5 5 3 3

Total # of neighbors = 167916
Ave neighs/atom = 110.83564
Ave special neighs/atom = 2.0303630
Neighbor list builds = 93
Dangerous builds = 0

# MD simulation
velocity all create 300.0 12345 rot yes dist gaussian
timestep 1.0
fix 2 all nvt temp 300.0 300.0 1

# Compute interaction energy
group WAT molecule <> 2 501
1500 atoms in group WAT
group MOL molecule 1
15 atoms in group MOL

compute w WAT group/group MOL pair yes
fix 3 all ave/time 10 5 100 c_w file outa

# Outputs
thermo 100 # Output thermodynamic data every nth step
#dump mf1 all xyz 10000 mol_*.xyz

# Run
run 1000000
Neighbor list info ...
  update every 2 steps, delay 10 steps, check yes
  max neighbors/atom: 10000, page size: 100000
  master list distance cutoff = 13
  ghost atom cutoff = 13
  binsize = 6.5, bins = 6 6 6
  4 neighbor lists, perpetual/occasional/extra = 3 1 0
  (1) pair hbond/dreiding/lj, perpetual, skip from (4)
      attributes: full, newton on
      pair build: skip
      stencil: none
      bin: none
  (2) pair lj/cut, perpetual, half/full from (4)
      attributes: half, newton on
      pair build: halffull/newton
      stencil: none
      bin: none
  (3) compute group/group, occasional, copy from (2)
      attributes: half, newton on
      pair build: copy
      stencil: none
      bin: none
  (4) neighbor class addition, perpetual
      attributes: full, newton on
      pair build: full/bin
      stencil: full/bin/3d
      bin: standard
Per MPI rank memory allocation (min/avg/max) = 13.43 | 13.48 | 14.00 Mbytes
Step Temp E_pair E_mol TotEng Press Volume 
    5195          300   -1125.9955    32.894055    260.78251    1783.2067    36812.755 
    5200    329.31504   -1092.0672    250.46639    644.58035    50.985959    36812.755 
    5300    300.87534   -1132.2864    215.45505    441.00292   -774.13106    36812.755 
    5400    295.34936   -1168.5599    159.24728    323.58324   -854.07754    36812.755 
    5500    293.75078   -1194.8657     208.5684     339.3842   -304.99162    36812.755 
    5600     306.5021   -1190.8673    194.54604    386.90629    114.77633    36812.755 
    5700    302.17007   -1160.4855    204.11423    407.30609    391.75347    36812.755 
    5800    304.65561    -1154.351    190.87881    411.42226    458.09287    36812.755 
    5900    295.82975   -1136.3828     194.3999    393.08089   -43.374805    36812.755 
    6000    296.25522   -1136.5307    216.53158    416.98475    269.57836    36812.755 
    6100     308.0901   -1131.9339    206.15765    464.61782    668.72289    36812.755 
    6200    293.67373   -1129.7716    215.73245    411.29471    760.43533    36812.755 
    6300    302.23185   -1131.1423    211.99893     444.8128    712.87186    36812.755 
    6400    304.18241   -1145.3431    209.81993    437.23579    119.69662    36812.755 
    6500    300.85467   -1154.5482    210.08017    413.27295    263.86524    36812.755 
    6600    311.11313   -1122.2807    212.14072    493.89694    397.46156    36812.755 
    6700    306.31097   -1092.6765    227.70556    517.39405    107.94601    36812.755 
    6800    300.54945   -1117.4683     223.6559    462.55114   -51.123354    36812.755 
    6900    287.82445    -1160.777    231.63105    369.79039    -145.3666    36812.755 
    7000    293.96798   -1127.0014    216.40955    416.06984   0.63384211    36812.755 
    7100    296.96116   -1148.1283    230.20043    422.24194   -98.354291    36812.755 
    7200    297.28175    -1142.498    227.27209     426.3907   -291.75101    36812.755 
    7300    307.83608   -1142.6957    209.88615     456.4382    21.006024    36812.755 
    7400    313.34585   -1116.3724    234.36943    532.11001    636.84628    36812.755 
    7500    299.26604   -1137.4763    236.19556    449.29093   -28.360548    36812.755 
    7600     298.7294   -1142.0647    240.58463    446.66965   -195.39288    36812.755 
    7700    295.87983   -1113.0504    240.55338    462.79277    417.21331    36812.755 
    7800     291.3344   -1104.7297     230.6208    440.66763    223.77851    36812.755 
    7900    296.28694   -1114.2342    241.54739     464.4403    421.39279    36812.755 
    8000    299.89925   -1159.6428    241.48006     435.2665    742.81403    36812.755 
    8100    297.88087   -1152.6067    232.81919    424.53287    661.66628    36812.755 
    8200    309.00777   -1139.2677    246.97795    502.24581    510.22554    36812.755 
    8300    300.37482   -1115.3691    236.33438     476.5407    900.19022    36812.755 
    8400    303.06663    -1206.789    237.84223    398.77666    739.59847    36812.755 
    8500    297.80456   -1163.0092    234.23338    415.20022    499.24702    36812.755 
    8600    300.84364   -1158.9815    253.30816    452.01793    74.897903    36812.755 
    8700    300.22855     -1135.91    239.64201    458.64733    499.99129    36812.755 
    8800    297.50103   -1169.0823    229.30255    402.82645     397.2944    36812.755 
    8900    294.74478   -1143.4865    245.33932    432.02025    110.31375    36812.755 
    9000    305.36578   -1129.7287    252.02704    500.39777    468.40265    36812.755 
    9100    298.05199   -1152.7559     250.6559    442.99266    281.13363    36812.755 
    9200    304.38279   -1152.4147    251.70566    472.95416    740.24299    36812.755 
    9300    307.27343   -1125.2525    247.65054    509.10654    416.50357    36812.755 
    9400    305.41073   -1166.8246    266.52692    478.00462   -58.635248    36812.755 
    9500    295.19629   -1154.1943    260.94098    438.95176    353.32185    36812.755 
    9600    301.03091   -1126.6033    251.41004    483.34309    147.76007    36812.755 
    9700    299.01972   -1113.6086    251.89755    487.74894    9.3805867    36812.755 
    9800    295.12158   -1139.0112    241.95271    434.80943    534.32858    36812.755 
    9900    300.63225   -1142.6293    261.57673    475.68469    424.90188    36812.755 
   10000    297.74742   -1157.8821    265.30378     451.1398    136.27687    36812.755 
   10100    294.91424   -1178.7884    266.94709    419.09082    133.03218    36812.755 
   10200    290.81035   -1172.9281     241.2021    380.68556     261.8356    36812.755 
   10300    299.15476   -1189.0996    262.60761    423.57738    358.79421    36812.755 
   10400    302.92373   -1149.7888    253.76095    471.05074    673.96117    36812.755 
   10500    309.03314   -1132.6808    263.50988    525.47909    939.16548    36812.755 
   10600    296.67932   -1141.0257    287.36432    485.23649    125.13072    36812.755 
   10700        301.4   -1116.2487    255.67081    499.62418    210.78096    36812.755 
   10800    300.59569   -1134.6947    259.14328    481.02083    719.34588    36812.755 
   10900    302.31303   -1106.0694    276.17301    534.42612    279.66634    36812.755 
   11000    305.78286   -1096.8128    255.45897    538.62783    574.23902    36812.755 
   11100    290.68791   -1112.0842    273.38439    473.15919    550.75904    36812.755 
   11200    294.18304   -1114.8895    286.19965     498.9425   -78.098591    36812.755 
   11300     305.3278   -1125.6947    266.72496    518.95824    446.93251    36812.755 
   11400    307.81034   -1120.1742      284.233    553.19037    722.23776    36812.755 
   11500    304.65045   -1101.6615    274.99568    548.20534    276.01125    36812.755 
   11600    314.42293   -1100.6915    280.01769    598.30002    395.98438    36812.755 
   11700    293.92181   -1097.6573    282.34464    511.14066      365.707    36812.755 
   11800    305.76877   -1144.0421    274.02953    509.90556    128.19218    36812.755 
   11900     306.0051   -1134.4247     285.7775    532.33744    451.13065    36812.755 
   12000    289.41434   -1089.6571    265.77238    482.22671    318.71894    36812.755 
   12100    299.39781   -1178.8064    291.02412    463.38396    126.71623    36812.755 
   12200    304.78794   -1120.9631    280.65311    535.18159    313.91314    36812.755 
   12300    300.51315   -1136.2113    288.73204    508.72047    567.42148    36812.755 
   12400    299.83132   -1191.2218    266.50923    428.41012   -117.30614    36812.755 
   12500    289.51066    -1159.551    264.07526    411.07036    341.18271    36812.755 
   12600    302.02404   -1196.0629    285.30619    452.26156    243.87288    36812.755 
   12700    307.24858   -1205.5034    280.33694    461.42997    238.13745    36812.755 
   12800    301.70532   -1174.1922    283.58604    470.97376   -605.50571    36812.755 
   12900    302.18892   -1127.2705    290.18807    526.68004    -104.6943    36812.755 
   13000    297.89724   -1164.3065    284.32495    464.41275   -357.66859    36812.755 
   13100    302.59349   -1170.9357     304.2569    498.90941    557.76649    36812.755 
   13200     300.1848   -1146.9948    305.26521    512.98827    672.53124    36812.755 
   13300    294.38155     -1168.03    288.04629    448.54443    260.17439    36812.755 
   13400    296.98684   -1150.9644    279.51106    468.83241    433.82671    36812.755 
   13500    290.56429   -1172.7392    315.57725    454.13907    94.928012    36812.755 
   13600    305.58832   -1206.7763    288.65616    460.98361    209.87359    36812.755 
   13700    294.44596   -1168.4633      302.557     462.9126    77.932437    36812.755 
   13800    302.26382   -1140.3623    280.44644    504.18453   -27.189224    36812.755 
   13900    282.17605    -1164.848    286.14778     394.7452   -199.82368    36812.755 
   14000    296.61184   -1167.2169    305.30985     476.6863    143.07379    36812.755 
   14100    283.60435   -1204.7246     299.0031    374.16971    146.81667    36812.755 
   14200    296.10227   -1166.9613    301.17962    470.51198    2.8978409    36812.755 
   14300    299.83725   -1200.8265    301.70431    454.02724    375.38747    36812.755 
   14400    298.74994    -1220.345    294.74851    422.64594    161.80463    36812.755 
   14500    297.90545   -1188.7271    276.24109    431.94536    110.46053    36812.755 
   14600    296.04802   -1179.7766    305.32591    461.59814    17.542564    36812.755 
   14700    306.52342   -1199.9017     307.9987     491.4208    502.68433    36812.755 
   14800    296.77215   -1203.2994    293.25653    429.27394     404.4765    36812.755 
   14900    306.82081   -1212.4862    307.12284    479.30249    182.82386    36812.755 
   15000     306.2707    -1187.304    301.30795    496.18724    56.576298    36812.755 
   15100    297.44322   -1142.8156    294.66038    494.19015     -67.5535    36812.755 
   15200    308.95282   -1136.3469    308.03815    565.97877    73.477617    36812.755 
   15300    298.06189   -1161.7258    317.62009     501.0316    147.72195    36812.755 
   15400    305.69793   -1210.4006    291.12571     460.3235    657.57515    36812.755 
   15500    302.01626   -1175.2359    307.03645    494.78378    280.46592    36812.755 
   15600    303.64818   -1176.6267    318.25769      511.979    102.00955    36812.755 
   15700    295.42194   -1181.6066    287.49942    439.11617    296.09642    36812.755 
   15800    304.33749   -1216.7415    305.67872      462.396    562.62618    36812.755 
   15900    291.49712   -1187.5265    306.57041     434.5548   -37.524261    36812.755 
   16000     288.2091   -1199.0099    301.48131    403.14366    149.48842    36812.755 
   16100    302.84026   -1203.1807    319.98471    483.50586    389.75966    36812.755 
   16200    298.13984   -1241.0932    298.92706    403.32297   -21.003287    36812.755 
   16300    296.88593   -1185.2744    319.49822    474.05409     184.0772    36812.755 
   16400    296.91515   -1223.0705    312.15159    429.04326    61.709512    36812.755 
   16500    308.78948     -1186.95    312.09097    518.69137    109.46122    36812.755 
   16600    293.02499   -1205.4893     310.2137    427.13055     279.9783    36812.755 
   16700    308.26225   -1214.4784    326.59132     503.2839    455.30809    36812.755 
   16800    309.48462   -1169.4791    317.77266    544.98102    591.34927    36812.755 
   16900    293.55411   -1226.2777    319.27314    417.78946    382.32161    36812.755 
   17000    292.47881   -1235.4451    319.40951    403.90557    169.21092    36812.755 
   17100    299.59638   -1191.5471     309.4932    470.00854   -165.73257    36812.755 
   17200    301.91027   -1201.0384    327.72557    489.19207     139.9924    36812.755 
   17300    290.32454   -1221.0452    330.72518    419.89909     25.36574    36812.755 
   17400    307.30523   -1200.0681     306.1214     492.9053    86.848858    36812.755 
   17500    294.65459   -1216.9069      310.493    423.34652    386.22155    36812.755 
   17600      294.658   -1242.4946    316.13598    403.41717     378.3405    36812.755 
   17700    297.66304   -1248.8592    344.84517    439.32334     382.5488    36812.755 
   17800    295.63626   -1250.9504    330.01611    413.25632    375.83712    36812.755 
   17900     304.4234   -1268.5961    300.83201    406.08237    790.10619    36812.755 
   18000    301.73521   -1244.7621    323.11573    440.06846    1061.1097    36812.755 
   18100     304.9563   -1224.3199    321.08128    473.01279    591.46873    36812.755 
   18200     311.5148   -1237.4655    329.62257    498.00672    351.05866    36812.755 
   18300    300.69879   -1241.9299    339.08026     454.1879    211.11295    36812.755 
   18400    302.36073   -1235.7654    326.12764    454.89998     432.8263    36812.755 
   18500     297.7876    -1218.717    303.80004    428.98256   -272.03356    36812.755 
   18600    294.53958   -1247.2934    315.85621    397.80416   -253.51347    36812.755 
   18700    299.17879   -1265.4919     320.4861    405.17203   -208.98869    36812.755 
   18800    313.33339   -1250.9171    297.56097    460.70069    265.98365    36812.755 
   18900    305.78828    -1259.263    316.44717    437.19029    5.5920462    36812.755 
   19000    304.95048   -1244.1518    330.81834    462.89175    20.189705    36812.755 
   19100    292.13583   -1229.4788    310.97594    399.89042   -221.24523    36812.755 
   19200    295.18048   -1234.9135    346.30428    443.52444   -213.53721    36812.755 
   19300     294.5639   -1269.5005    307.89623    367.74677   -337.21508    36812.755 
   19400    300.20712   -1256.5678    319.69363    417.94445     257.3699    36812.755 
   19500    306.16545   -1291.4983    326.48198    416.69195    385.51471    36812.755 
   19600    304.06256   -1258.6338    336.25167    449.83594     726.2146    36812.755 
   19700    301.66704   -1271.2293    349.37919    439.55711    551.70162    36812.755 
   19800    302.11549   -1249.7087    339.05589    452.77819   -82.215103    36812.755 
   19900    301.28107   -1291.7601    313.92316    381.82836    288.00906    36812.755 
   20000    302.20664   -1309.2043    339.78772    394.42581    496.32366    36812.755 
   20100    308.86757   -1298.1234    331.26161    427.04103    372.60802    36812.755 
   20200    301.87909   -1283.7385    324.08848    402.71418    866.88318    36812.755 
   20300    298.28387   -1238.6364     338.1075    445.61025    626.36153    36812.755 
   20400    304.78231   -1297.9829    345.76341    423.24679    73.987387    36812.755 
   20500    290.68128    -1247.875    333.55785     397.5119    367.38684    36812.755 
   20600    298.96953   -1281.1173    319.96552    388.08167    324.17021    36812.755 
   20700    307.55131   -1257.5696     331.3793    461.77228    291.82305    36812.755 
   20800     297.8276   -1301.6476    329.81624    372.24865     304.8409    36812.755 
   20900    311.07466   -1206.6657    338.47643    535.67399    42.274423    36812.755 
   21000    307.61972   -1276.0459    334.60726    446.83264    312.03686    36812.755 
   21100    301.74302   -1257.7345    319.54691    423.56245     66.58717    36812.755 
   21200    304.37306   -1279.1565    327.28455    421.74733    15.898428    36812.755 
   21300    302.03459   -1257.5893    323.60264    429.07928   -87.415326    36812.755 
   21400    296.37916   -1247.0121    344.66454    435.19568   -286.26223    36812.755 
   21500    297.37806   -1298.3669    330.97834    374.66267    295.79041    36812.755 
   21600    287.87044   -1259.8971    351.76898    391.01579    385.47399    36812.755 
   21700    310.28313   -1275.8515    340.04299    464.48258    764.23091    36812.755 
   21800    304.28528   -1281.1739    333.88571      425.935    783.27667    36812.755 
   21900    293.07985   -1252.9156    332.11605    401.85413    511.45885    36812.755 
   22000    294.39962   -1256.1405    322.17468    394.64386    803.02981    36812.755 
   22100    290.82738   -1277.1448     339.6031    374.94671    571.04954    36812.755 
   22200    294.85827   -1288.0222    341.94974    384.60708    517.97846    36812.755 
   22300     300.6551   -1279.5962    321.16586       398.41    59.721908    36812.755 
   22400    318.77284   -1248.3721    323.88315    514.11581    739.39043    36812.755 
   22500    297.22125    -1296.894    329.54075    373.99028    445.12587    36812.755 
   22600    308.09058   -1273.4932     335.4167    452.31978    413.81915    36812.755 
   22700    299.56784   -1270.8165    331.17543     412.2925     720.7452    36812.755 
   22800    307.86658   -1249.9353    332.65258    472.10264    478.89968    36812.755 
   22900    309.68743   -1261.2999    328.05077    464.35365    60.150446    36812.755 
   23000     298.1251   -1246.3039    328.13436    427.25305    903.96218    36812.755 
   23100     299.6112   -1269.3924    333.53873    416.27561    1081.6064    36812.755 
   23200    294.02697   -1265.8568    336.98743    398.05859     52.66407    36812.755 
   23300    304.00506   -1258.5625    342.10589    455.50188     339.0406    36812.755 
   23400    292.07519    -1265.819    335.70219    388.00291    842.82539    36812.755 
   23500    305.86436   -1277.2792    342.33312    445.40339    246.74502    36812.755 
   23600    300.80344    -1331.426    327.96562    354.04946    836.62199    36812.755 
   23700    294.25965   -1310.6026    341.62184    358.99726    672.59302    36812.755 
   23800    303.43572   -1313.6258    327.59785    383.36118    762.79658    36812.755 
   23900    296.89932   -1315.5728    325.26019    349.57817    472.54497    36812.755 
   24000    308.21729   -1258.5098    344.09293    476.55122   -43.684538    36812.755 
   24100    286.64829   -1262.4118    351.55511     382.7717   -63.484714    36812.755 
   24200    294.37041   -1270.5238     365.8766    423.83071   -247.18554    36812.755 
   24300    312.17361   -1215.5488    328.31609    521.59006   -357.76247    36812.755 
   24400    298.24922   -1258.4753    327.88521    415.39271   -382.58213    36812.755 
   24500    302.80186   -1291.9955    337.00172    411.53478   -86.456725    36812.755 
   24600    302.71367   -1281.9728    334.59515    418.75293   -26.456826    36812.755 
   24700    304.59337    -1241.309    354.24614    487.55072    543.59633    36812.755 
   24800    299.33961   -1206.4919    342.52084    486.93252    465.07424    36812.755 
   24900    293.97871   -1251.2978    321.49945    396.91178    353.08931    36812.755 
   25000    293.41294   -1246.9626    363.20663    440.40086    521.36199    36812.755 
   25100    305.26354   -1194.7102    345.18483    528.11265    761.13267    36812.755 
   25200    309.06339   -1214.1255    342.72245    523.38352    401.21777    36812.755 
   25300    314.64281   -1237.6901    366.57994    548.85595    959.11829    36812.755 
   25400    305.28142    -1225.144    369.66456    522.23926    472.93453    36812.755 
   25500    298.43674    -1258.577    344.05985    432.31186    794.71227    36812.755 
   25600    286.92945   -1208.9913    342.74491    428.65077    744.05497    36812.755 
   25700    293.56156   -1241.9378    343.13312    426.02292   -70.498601    36812.755 
   25800    287.95732   -1244.4815    347.12802    402.18245    93.770662    36812.755 
   25900    302.09026   -1247.7217    350.79184    466.38729    636.46812    36812.755 
   26000    300.44407    -1274.899    351.89509    432.88405    830.80305    36812.755 
   26100    294.49254   -1271.9887    355.30313     412.3435      662.139    36812.755 
   26200    301.14179   -1275.4481    364.12556    447.71422    698.40589    36812.755 
   26300    288.05871   -1286.0463    356.86643    370.81364    754.11724    36812.755 
   26400    300.68663   -1273.7425    353.16717    436.40733    557.14151    36812.755 
   26500    294.03716   -1273.3763    345.55606    399.15367    387.94199    36812.755 
   26600    297.32767   -1274.8049    336.84913    403.86812    713.67351    36812.755 
   26700    305.52635   -1269.5403    372.66792    481.95172     104.6978    36812.755 
   26800    300.92503   -1276.7082    335.94539     417.2957   -173.32632    36812.755 
   26900    290.70652   -1234.4946    365.31111    442.75943    306.04597    36812.755 
   27000    301.25081   -1269.5073    368.50542    458.52689    602.10061    36812.755 
   27100    304.64754   -1233.6552    388.23606    529.43887    807.11696    36812.755 
   27200    305.16426   -1274.3613     357.7361     460.5647    475.85017    36812.755 
   27300    298.71361   -1293.4602    345.20135    399.81965    446.43112    36812.755 
   27400    293.01165   -1242.8642    350.48405    429.96567    201.56334    36812.755 
   27500    303.33171   -1226.5727    355.99464    498.34173   -47.011865    36812.755 
   27600    294.00712   -1222.9073    362.38466    466.31572    4.2354944    36812.755 
   27700    298.39115   -1248.6938    372.62268     470.5522   -24.663222    36812.755 
   27800    291.58002   -1277.6392    354.46331    392.70912     180.8972    36812.755 
   27900    301.30164   -1257.8641    343.53589       445.43   -91.259238    36812.755 
   28000    296.71317   -1244.9562    365.49245    459.58683    26.126166    36812.755 
   28100     305.4774   -1225.7736    357.00477    509.83431    880.18874    36812.755 
   28200     300.0706   -1252.1246    371.75795    473.83592     124.2546    36812.755 
   28300    286.63537    -1265.582    349.71119    377.69926    314.57413    36812.755 
   28400    310.46945   -1262.8253    361.17916    499.48585    384.67105    36812.755 
   28500    294.83038   -1269.1138    377.00803    438.44798    325.83356    36812.755 
   28600    290.26313    -1231.086     371.5187     450.3747     77.71048    36812.755 
   28700    307.38587   -1256.2349    352.77376    483.75483   -7.9282847    36812.755 
   28800    300.43126   -1241.7464    353.34906    467.43289    173.22241    36812.755 
   28900    299.67486   -1264.6082    353.42155    441.22993   -117.55538    36812.755 
   29000     297.4532    -1223.901     381.2409    499.73024    86.884011    36812.755 
   29100    306.77318   -1244.2633    353.06899    493.25667    76.773227    36812.755 
   29200    301.50149   -1275.7316    376.49055    461.41896     780.8177    36812.755 
   29300      307.514   -1251.0197    371.87482    508.64933     752.0707    36812.755 
   29400    299.37793   -1263.4188    377.59974    465.25748    654.68706    36812.755 
   29500    308.26064   -1301.6107    360.00345    449.55651    766.04369    36812.755 
   29600    295.33255    -1297.907    357.92017    392.83314    89.431049    36812.755 
   29700    287.04104    -1282.025    369.24136    382.61717    241.52346    36812.755 
   29800    292.86587   -1315.8437    359.93395    365.77828    372.80945    36812.755 
   29900     292.5047   -1321.9977    355.59318    353.65353    543.21742    36812.755 
   30000    292.31721   -1311.6908    370.14339    377.66447    710.61613    36812.755 
   30100    314.56022   -1358.8071    356.24423    417.03051    1145.4422    36812.755 
   30200    296.07094   -1320.5286    376.43089    392.05455    1061.4259    36812.755 
   30300    300.83639   -1345.0893    364.14577    376.71499    683.04467    36812.755 
   30400    306.39229   -1337.1366     363.4713    409.06669    607.00804    36812.755 
   30500    298.12975   -1287.6354    368.76886    426.57704    683.70939    36812.755 
   30600    301.76711   -1281.8839    369.62192    449.59687    411.80239    36812.755 
   30700    291.92749   -1329.1616    366.63239    354.92389    -35.18329    36812.755 
   30800    311.45504   -1280.6831    363.52645    488.42326   -76.279225    36812.755 
   30900    291.79507   -1295.1843    367.22832    388.89952   -145.48543    36812.755 
   31000    306.68556   -1322.6369    372.07811    433.49673    487.57806    36812.755 
   31100    295.78466   -1307.8655    363.60058    390.59546   -138.51413    36812.755 
   31200    306.53751   -1297.9358    362.99574    448.44732   -29.788909    36812.755 
   31300    297.76308   -1298.0729    380.66873    426.38468    169.47603    36812.755 
   31400    299.76216    -1313.502    389.42084    428.72944    95.075163    36812.755 
   31500    295.68697   -1300.2722    379.32025    413.46754    103.89297    36812.755 
   31600    311.39801   -1276.1456    384.29498    513.47193     282.2025    36812.755 
   31700    304.30658   -1279.1243     377.9176    472.11265    233.01147    36812.755 
   31800    301.69298   -1278.1699    379.58013    462.93448    116.86915    36812.755 
   31900    301.65988   -1261.3916    371.96817    471.95141   -92.117259    36812.755 
   32000    303.73778   -1273.0812    379.81782    477.48895   -224.44948    36812.755 
   32100    302.02155   -1280.2547    360.21881    442.97122   -983.02473    36812.755 
   32200    297.56676   -1306.5369    393.73782    430.10373   -502.20777    36812.755 
   32300    294.12797   -1258.0441    392.14135    461.48109   -596.85191    36812.755 
   32400    298.42086   -1280.5361    396.63764    462.85889   -672.03737    36812.755 
   32500        304.6   -1283.7175    389.71093    480.63694    277.54947    36812.755 
   32600    302.84284   -1319.2139    378.83198     426.3316    425.00716    36812.755 
   32700    302.63066   -1280.4051    388.92744    474.27831     232.8124    36812.755 
   32800    293.31574   -1318.6415    361.22866     366.3054    395.02108    36812.755 
   32900    300.17061   -1319.8094    379.80115    414.64567    425.34985    36812.755 
   33000    295.61182   -1278.1002    394.34356    450.32365    563.42059    36812.755 
   33100      308.032   -1324.3952    362.46932    428.20598    1066.4228    36812.755 
   33200    307.68869   -1306.9039    377.05698    458.73564    1154.8031    36812.755 
   33300    305.80288   -1273.3029    378.87495    485.64407    685.82165    36812.755 
   33400    293.24257   -1285.0299    370.48941    408.84757    301.16902    36812.755 
   33500     295.0896   -1291.5803    394.41646    434.55969    440.80093    36812.755 
   33600     292.9558   -1312.2953    396.55049      406.349    239.20374    36812.755 
   33700    304.55702   -1336.4521    393.92618    431.92362    812.24463    36812.755 
   33800     309.4621   -1321.1629    386.43936    461.86233    550.33095    36812.755 
   33900     284.9573   -1320.1098    387.58328    353.47054   -29.589987    36812.755 
   34000    291.52945   -1301.0227    387.82089    402.45493   -219.26479    36812.755 
   34100    296.46277   -1293.0441    401.72814    446.60467   -259.90176    36812.755 
   34200    295.15414   -1295.4146     398.1239    434.72409   -312.41286    36812.755 
   34300    305.46278   -1265.9688    377.53303    490.10135   -166.71314    36812.755 
   34400    299.91009   -1283.4124    390.78306    460.84877   -630.87933    36812.755 
   34500    297.28241   -1283.1923    398.10509    456.53239   -524.32523    36812.755 
   34600    295.52556   -1292.3584    397.45915    438.79178   -432.54999    36812.755 
   34700    302.87333   -1277.0604    397.22287    487.01363    70.646891    36812.755 
   34800    310.00743   -1310.6639     377.7376    466.12061    674.28644    36812.755 
   34900    301.15539   -1286.4206    391.99556    464.67313    300.79732    36812.755 
   35000    300.74767   -1290.5758    382.42799    449.11031    369.57505    36812.755 
   35100    291.57652   -1276.7197    411.44171    450.59127    57.067785    36812.755 
   35200    293.69376   -1269.0199    387.31366    443.71797   -507.35708    36812.755 
   35300    297.25207   -1294.8043    383.01436     429.6927   -131.67049    36812.755 
   35400    305.88666   -1314.0888    396.93229    463.29357   -8.5926198    36812.755 
   35500    295.04096   -1292.0199    384.37765    423.86176   -79.811286    36812.755 
   35600    283.00529   -1310.1254     394.2495    361.31177   -294.75624    36812.755 
   35700    292.73599   -1289.9211    383.48225    414.66294    181.84338    36812.755 
   35800    298.01628   -1294.9115    409.04602      459.066    174.54031    36812.755 
   35900    304.27375   -1304.6366    384.45015     452.9847    276.96922    36812.755 
   36000    295.68466   -1247.9559    377.26782     463.7209   -175.01809    36812.755 
   36100     295.4218   -1305.1563    397.33233    425.39877    129.72067    36812.755 
   36200    290.92574   -1285.1752    406.71358    434.47067    393.70119    36812.755 
   36300    292.18521   -1274.3201    419.93499    464.23109     470.6304    36812.755 
   36400    294.79241   -1302.8944    382.43625    409.92424    521.64555    36812.755 
   36500    301.67892   -1268.5443    397.30917     490.2257    -85.04214    36812.755 
   36600    296.95482   -1256.9175      393.676    476.89967   -205.41283    36812.755 
   36700    292.61615   -1278.5782    405.67619    447.65893    321.80141    36812.755 
   36800    294.36783   -1293.5701    402.36272    437.25884    137.85324    36812.755 
   36900     303.6634   -1297.6102    390.51426    463.32068     204.0021    36812.755 
   37000    293.17213   -1265.4849    409.16369    466.74892    371.02258    36812.755 
   37100    307.86718   -1296.0948    399.77864    493.07186    264.79882    36812.755 
   37200    300.15182   -1325.9933    374.02077    402.59659   -384.94598    36812.755 
   37300    296.31691   -1302.7911    403.20483     437.6761    227.39013    36812.755 
   37400    304.93103   -1263.2998    393.96336    506.80093   -68.534457    36812.755 
   37500    298.01298    -1271.366    392.67217    466.22278    83.729089    36812.755 
   37600    298.48049   -1290.6532    384.62752    441.00079    191.91746    36812.755 
   37700    295.73716   -1296.7798    381.56259    419.42874    89.525912    36812.755 
   37800    293.21916   -1266.5902    406.76079    463.45298    200.85217    36812.755 
   37900    291.89246    -1288.149    397.42798    426.57399    252.75052    36812.755 
   38000    308.28712   -1316.3403    399.96234    474.90526    648.64594    36812.755 
   38100    315.18831   -1290.2598    392.49899    524.66715    448.65445    36812.755 
   38200    291.31362   -1315.1393    389.52275    389.06616    314.07737    36812.755 
   38300    305.87988   -1304.0871    398.58329    474.91573    917.10669    36812.755 
   38400    306.74921   -1331.6375     383.8175    436.52278    323.82933    36812.755 
   38500    296.47365   -1287.7976    407.60887    457.78102    537.22307    36812.755 
   38600    296.89718   -1316.7954    387.51165     410.5973   -86.285526    36812.755 
   38700    295.74494   -1337.3859    406.75579    404.05091    500.22308    36812.755 
   38800    311.32606    -1289.463    400.74015    516.27497    53.863456    36812.755 
   38900    298.01699   -1291.6706    409.27073     462.5348   -224.34644    36812.755 
   39000    307.09601   -1308.7867    396.12137    473.24252   -39.276384    36812.755 
   39100     303.2112   -1339.8777    395.87129    424.36946   -137.49851    36812.755 
   39200    291.68799   -1330.4342    410.63928    396.57729   -384.72977    36812.755 
   39300    298.05922   -1317.3235    385.56815    413.36992   -379.40291    36812.755 
   39400    297.18767   -1313.2908    404.78067    432.68192   -1150.6135    36812.755 
   39500    298.55603    -1347.742    395.80475    395.43007   -532.77431    36812.755 
   39600    300.96515   -1317.1526    388.41348    429.50051   -89.538209    36812.755 
   39700    292.09504   -1315.1336    383.85286    386.92855   -175.65756    36812.755 
   39800    304.65608   -1333.8467    403.53831    444.58812   -34.844336    36812.755 
   39900    304.03399   -1340.9652    412.38217    443.50614   -28.668021    36812.755 
   40000    303.05706   -1343.2898    386.77944    411.16994    200.77654    36812.755 
   40100    303.31069   -1324.1402    404.99023    449.67493    955.06246    36812.755 
   40200    295.45136   -1337.1296    393.16677    389.39327    570.40633    36812.755 
   40300    298.68258   -1323.1062    410.90527    435.73752    140.33694    36812.755 
   40400    306.09539   -1303.2942    412.33795    490.43582    2.4589937    36812.755 
   40500    290.62622   -1362.1835    412.77251    362.16957     55.30954    36812.755 
   40600    310.53898   -1327.5991    402.75828    476.60496    427.66387    36812.755 
   40700    296.65118   -1310.6301       429.44    457.58078    410.80189    36812.755 
   40800    298.10645    -1315.755    393.91003     423.4935   -510.76447    36812.755 
   40900    296.55956   -1334.3232    405.08732    409.12151    7.6268216    36812.755 
   41000    295.94569   -1323.3823     390.8853    403.09006     146.3414    36812.755 
   41100    300.70758   -1330.9389    384.99902    411.13727    56.663226    36812.755 
   41200    290.17983   -1330.3084     393.9283    373.18591    635.61026    36812.755 
   41300    294.24775   -1349.5447    412.57046    390.95007    340.21139    36812.755 
   41400    308.55438   -1360.6151    395.58335    427.45757     526.3018    36812.755 
   41500    290.52994   -1331.5147    407.49399     387.1253   -797.16197    36812.755 
   41600    304.25792   -1357.4783    409.93352    425.55492   -618.46106    36812.755 
   41700    301.48749   -1331.8577    410.90185    439.64103   -384.64453    36812.755 
   41800    298.72524   -1338.4325    414.93839    424.63687   -275.92086    36812.755 
   41900    301.37838   -1344.2865    403.73236    419.55035   -197.65139    36812.755 
   42000    307.74207   -1355.3015     402.7357    436.25767   -517.04915    36812.755 
   42100    309.10085   -1350.2679    404.33086    449.01852    -171.8867    36812.755 
   42200    305.74078   -1372.5475    408.99518    416.23941   -267.72518    36812.755 
   42300    299.24265   -1368.3179    405.47363     387.6218   -283.15523    36812.755 
   42400     299.7246   -1367.7154    403.93925    388.86484   -99.562311    36812.755 
   42500    300.43788   -1314.9315    389.23574    430.16433   -43.294615    36812.755 
   42600    294.61602   -1310.4258    387.92542    407.08591   -490.58903    36812.755 
   42700    301.78664   -1333.9811    410.73055    438.69635   -436.29107    36812.755 
   42800    304.95402     -1361.39    400.66685    415.51798    86.446783    36812.755 
   42900    302.30235   -1309.0639     408.6378    463.84817    120.54516    36812.755 
   43000    291.43688   -1343.0122    409.05272    381.27957   -86.867787    36812.755 
   43100    293.70938   -1353.8023    404.72941    376.42179   -124.98384    36812.755 
   43200    301.33788   -1310.4532    404.76708    454.23557   -315.45554    36812.755 
   43300    303.70942    -1338.592    387.75915    419.79144   -144.21131    36812.755 
   43400    300.49588   -1321.5298    402.18648     436.7785   -499.50147    36812.755 
   43500    295.33705   -1362.5511    393.09242     363.3816    343.66759    36812.755 
   43600    294.02909   -1321.9756    393.18325    398.14523    155.41408    36812.755 
   43700    295.10148   -1353.6604    397.03518    375.15191     484.4005    36812.755 
   43800    304.28652    -1315.549    406.73983    464.41952    437.33379    36812.755 
   43900    302.35653   -1326.4145    431.28823    469.39252     493.4888    36812.755 
   44000    298.58458   -1323.5616    396.79779    420.73244   -306.26051    36812.755 
   44100    289.45979   -1312.8834     422.0895    415.52262    397.02438    36812.755 
   44200    310.92002   -1329.0036    404.56387    478.72566    266.92088    36812.755 
   44300    305.02952   -1294.7356    412.80591    494.65218    702.03458    36812.755 
   44400    297.96791   -1347.5898    435.79434     432.9178     576.4373    36812.755 
   44500     293.2113   -1342.4913    432.04259    412.79821   -20.333241    36812.755 
   44600    305.32662   -1284.8122    416.54259    509.65304   -28.125803    36812.755 
   44700    304.62467   -1303.7431    422.86149    493.87324    834.48869    36812.755 
   44800    300.29414   -1334.9586    412.17046    432.42323    848.52059    36812.755 
   44900    288.47313   -1336.9757    414.97696    379.86501    775.11786    36812.755 
   45000    297.74707   -1321.1527    408.60057    431.16448    190.33204    36812.755 
   45100    299.25743   -1331.8841    403.64938      422.298    306.79602    36812.755 
   45200    293.19716   -1301.3523    405.94751    427.77831    34.984087    36812.755 
   45300    307.03839   -1337.0881    418.79219    467.35188   -106.93445    36812.755 
   45400    283.75856   -1363.9358    399.39581    316.04719   -191.94114    36812.755 
   45500     294.7379   -1299.8154    413.47483    443.79579    56.119492    36812.755 
   45600    301.68028   -1279.7892    399.10699    480.78471    259.26626    36812.755 
   45700    298.32042   -1312.6612    419.43937    453.08228   -288.72645    36812.755 
   45800    293.51966   -1316.9983    426.15378      433.794    165.93228    36812.755 
   45900    300.98502   -1330.5719    402.18348    429.94089    -413.8338    36812.755 
   46000    300.59868   -1350.9737    404.54596    410.15801      327.321    36812.755 
   46100    299.28257   -1368.2288    414.76116    397.17858   -267.68163    36812.755 
   46200    312.85338   -1349.4438    417.10399    479.55071   -19.939254    36812.755 
   46300    289.00425   -1353.6686    408.74926    359.34132   -415.23031    36812.755 
   46400    302.60149   -1356.0196    400.43898    410.04374   -173.90158    36812.755 
   46500    286.44947   -1352.1995    414.60345    355.13508   -580.29183    36812.755 
   46600    287.32555   -1380.8572     399.8999    315.72747   -184.48204    36812.755 
   46700    304.95343   -1314.9566    398.34518    459.62703      44.7552    36812.755 
   46800    309.06455    -1404.996    413.32488    403.12068   -593.82754    36812.755 
   46900    300.20508   -1354.0019    407.66533    408.47284   -613.93265    36812.755 
   47000    295.51428     -1398.17    400.57912    336.04927   -803.25299    36812.755 
   47100    301.54263    -1353.645    407.13035    414.33109    93.873746    36812.755 
   47200    293.81077   -1385.6107     419.0867     359.4283    305.03583    36812.755 
   47300     296.3721   -1341.5864    411.98874    407.91379    764.40661    36812.755 
   47400    306.23093    -1354.661    437.44187    464.78462    1118.6618    36812.755 
   47500    309.98804   -1362.5855    397.39166    433.76557    583.92858    36812.755 
   47600    311.02778    -1360.631    393.81785    436.83862    599.18206    36812.755 
   47700    298.01952   -1343.5064    420.49003     421.9297   -200.79749    36812.755 
   47800     295.3022   -1353.3907    439.75909    419.05145    442.75064    36812.755 
   47900    299.63807   -1367.1915    427.82523    412.88433   -75.496665    36812.755 
   48000    296.95563   -1313.2136    429.20071    456.13194   -209.69899    36812.755 
   48100    296.53614   -1299.4831    432.99525    471.76389   -40.457766    36812.755 
   48200    303.96316   -1381.0216    446.08382    436.83168   -900.06035    36812.755 
   48300    312.80629   -1331.7129    417.63321    497.59838   -417.95938    36812.755 
   48400     303.9137   -1324.6119     443.1823    490.11669    174.49945    36812.755 
   48500    292.94307   -1344.8454    425.62276    402.81377    183.43731    36812.755 
   48600    304.44266   -1388.9318    421.70623    406.70787   -98.880718    36812.755 
   48700    297.36603   -1403.4827    408.20624    346.72053   -418.06001    36812.755 
   48800    292.71635     -1381.99     426.5328    365.55605   -653.57662    36812.755 
   48900    307.41447   -1371.2947    413.69859    429.74884   -404.24648    36812.755 
   49000    298.87768   -1350.8451     436.3631    434.33701    47.047028    36812.755 
   49100    299.25969   -1355.4502    438.75918     433.8519   -209.09154    36812.755 
   49200      293.719   -1318.6296    447.25722    454.16578    20.388394    36812.755 
   49300    301.97227   -1323.6448    429.15176    468.29166    212.11124    36812.755 
   49400    298.96147   -1319.6933    435.56125    465.06506   -105.05168    36812.755 
   49500    298.09131   -1321.4701    411.47304    435.27308    2.2079894    36812.755 
   49600    309.44197   -1319.1327    412.53506    489.89744   -253.07306    36812.755 
   49700    302.89053   -1344.0332    416.90152    439.79701   -656.94514    36812.755 
   49800    296.13038   -1320.0196    419.67528     436.0762   -365.43394    36812.755 
   49900    295.58434   -1316.6182    421.36902    438.70717   -140.47067    36812.755 
   50000     301.7732   -1371.7657    439.34102    429.46158   -76.457751    36812.755 
   50100    292.66987   -1338.3391    439.99467    422.45905     215.6912    36812.755 
   50200    300.59784   -1334.9874    423.63018    445.22469    668.34094    36812.755 
   50300    302.98108   -1323.2446    410.99501    455.08776    173.44502    36812.755 
   50400    307.54674   -1284.7604    413.39304    516.57462    99.293062    36812.755 
   50500    302.88667   -1286.3959     436.5374    517.05277    513.28691    36812.755 
   50600    303.98824   -1346.9363    433.31324    458.25961    171.32678    36812.755 
   50700    287.88588   -1328.1226      442.059    413.14994    184.53737    36812.755 
   50800    304.35279   -1350.6654    409.36288    432.22536    350.16516    36812.755 
   50900    293.04739   -1365.0871    420.54178     377.9619    451.25355    36812.755 
   51000    287.77259   -1349.8783    429.93003    378.75405    384.30494    36812.755 
   51100    314.17096   -1388.0134    419.27909    449.10237    738.30718    36812.755 
   51200    286.47277   -1374.3409    435.77221    354.26762    1377.4941    36812.755 
   51300    307.99853   -1393.9282    422.18972    418.24242     991.8355    36812.755 
   51400    304.14361   -1405.1793    415.26456    382.66908    325.43139    36812.755 
   51500    304.96928   -1328.2601    412.80045    460.85037    690.16435    36812.755 
   51600    302.01565   -1368.7871    415.93716     410.1305    518.20515    36812.755 
   51700    304.74426   -1335.9018    425.20161    464.59431    354.51469    36812.755 
   51800    303.56557   -1349.1412    430.44954    451.28352   -136.70555    36812.755 
   51900    306.64678   -1375.6916    424.09912      432.288    113.75174    36812.755 
   52000    302.65396   -1377.9088    410.87337     398.8257    113.32029    36812.755 
   52100    301.80315   -1315.0797    419.19009    466.13183   -257.54039    36812.755 
   52200    299.98987    -1377.208    407.29531    383.92549    295.37935    36812.755 
   52300     292.4611   -1342.4212     425.2831    402.72317    352.91428    36812.755 
   52400    305.00345   -1304.4526    428.47644     500.4881   -86.674824    36812.755 
   52500    298.93292   -1331.6584    417.67758     435.0874   -59.180239    36812.755 
   52600    294.61548   -1321.4156    434.48531    442.65356   -14.482097    36812.755 
   52700    294.16472   -1344.5283    439.97388    422.99517    147.81288    36812.755 
   52800    305.42213   -1346.1777    430.46835    462.64442    449.40693    36812.755 
   52900    300.27226   -1334.4386     434.4483    455.12234    9.3358612    36812.755 
   53000    290.16003   -1371.6758    435.10077    372.90168    189.56725    36812.755 
   53100    295.80133   -1310.7724    440.21805    464.38124    156.51789    36812.755 
   53200    299.04294   -1321.6214    436.29501    464.23831    -5.832614    36812.755 
   53300    305.43108   -1357.1273    455.07745    476.34425    876.08335    36812.755 
   53400    299.26054    -1296.214    410.66731    465.00014    519.13142    36812.755 
   53500    294.07725   -1296.7347    439.74127    470.16149    863.13009    36812.755 
   53600    292.76589   -1305.8538    465.51103    480.89396    683.22201    36812.755 
   53700    300.50649    -1323.421    453.32212    486.07075    1213.4039    36812.755 
   53800    305.50452   -1316.6402    453.38353    515.46886    666.62487    36812.755 
   53900    296.21294   -1287.4378    454.36688    503.72218    563.39325    36812.755 
   54000    307.75217   -1298.4005     425.7165    516.18501    286.46697    36812.755 
   54100    293.69219   -1314.4077    462.78542     473.7948     183.1996    36812.755 
   54200    308.06673   -1319.7126    425.62081     496.1969    250.38487    36812.755 
   54300    302.65885   -1324.7386    426.06522    467.20976    282.39778    36812.755 
   54400    286.61931   -1315.7799    440.03093    417.74863    -591.7192    36812.755 
   54500     306.3221   -1318.5947    434.32888    498.14935   -350.18498    36812.755 
   54600    301.11899   -1320.3032     424.2688    462.89946   -390.21934    36812.755 
   54700    306.06344   -1303.1044    437.80194     515.9454    62.378621    36812.755 
   54800     299.2202   -1288.1801    423.75322    485.93783    3.3695335    36812.755 
   54900    288.99093   -1340.5073    428.84907    392.54237    204.02365    36812.755 
   55000    304.81283   -1311.2391    432.70967    497.07456   -291.69572    36812.755 
   55100    296.19395    -1334.601    423.12001     425.2264   -118.55305    36812.755 
   55200    297.41496   -1327.5873    445.19148    459.82201   -14.024718    36812.755 
   55300    300.38543   -1353.4492    432.98075    435.15487   -503.22275    36812.755 
   55400    294.15216   -1330.7215    436.55113     433.3226    23.748736    36812.755 
   55500    298.88207   -1279.8396    442.30751    511.30668    189.62183    36812.755 
   55600    299.88225    -1314.596    408.13289    446.88943   -38.773683    36812.755 
   55700     292.7338    -1347.357    415.52126    389.25624   -85.420486    36812.755 
   55800    311.50423    -1362.459    418.01602    461.35894    446.86529    36812.755 
   55900    295.01442   -1360.5848    404.93703     375.7365    666.89295    36812.755 
   56000    305.22398   -1377.5313    445.53637    445.46451    825.99994    36812.755 
   56100    300.05841   -1376.7303    432.18033    409.59757    318.77176    36812.755 
   56200    293.17755   -1354.8687    436.39079    404.61673    195.23067    36812.755 
   56300    306.44349   -1357.5694    433.58603     458.9797     223.6388    36812.755 
   56400    293.43643   -1341.2907    443.02705    425.99923   -432.75779    36812.755 
   56500    294.13422   -1341.7007    441.95466    427.66597    -713.8163    36812.755 
   56600    294.24878   -1341.5222    423.57837    409.98517   -917.78113    36812.755 
   56700    299.74484   -1364.9981    431.50393    419.23821   -1081.2543    36812.755 
   56800    300.22875   -1349.0939    439.44864    445.27097   -721.29885    36812.755 
   56900    308.01941    -1400.274    464.09161    453.89272   -101.40298    36812.755 
   57000    297.03268   -1354.3842    438.31244    424.42083   -187.16216    36812.755 
   57100    297.84434   -1340.4592    456.20527    459.90161   -151.37308    36812.755 
   57200    298.53537    -1342.138    422.46579    427.60195   -217.01754    36812.755 
   57300    313.91441   -1382.9242    426.44408    460.19876    116.67121    36812.755 
   57400    305.26793   -1384.4351    448.82384    442.04653    232.41362    36812.755 
   57500    305.37585   -1357.3177    436.34769     457.1748   -12.815953    36812.755 
   57600    298.69597   -1374.1915    431.40192    405.20929    146.02157    36812.755 
   57700     300.3053   -1383.4315    405.56978    377.39994    -109.3959    36812.755 
   57800    294.50974   -1388.2605    416.65051    357.49669    294.05204    36812.755 
   57900    303.05688    -1379.361      418.526    406.84444    239.77775    36812.755 
   58000    309.41629   -1410.8443    432.89931     418.4341    23.382626    36812.755 
   58100    295.48276   -1367.0102    437.38333    403.87094   -361.52244    36812.755 
   58200    295.04115   -1381.8039    429.64454    379.34557    151.10855    36812.755 
   58300    307.17634   -1365.4697    460.64591     481.4466   -82.978253    36812.755 
   58400    306.72857   -1347.2351    456.51197     493.5265   -286.70309    36812.755 
   58500    304.35737   -1420.2254    425.23752    378.56062    48.548277    36812.755 
   58600    303.17494   -1395.6202    435.41769    408.00976   -210.44714    36812.755 
   58700    313.37641   -1382.3139    414.75406    446.69115    80.818163    36812.755 
   58800    299.79778   -1326.2334    424.86271    451.60063    52.992871    36812.755 
   58900    291.09068   -1323.9654    434.20989    423.92111   -180.00585    36812.755 
   59000    299.02715    -1371.887    425.39653    403.00297   -136.31774    36812.755 
   59100    293.51907    -1383.146    426.46292    367.95278   -209.45865    36812.755 
   59200    308.11487   -1379.3849    440.15041    451.27136   -346.70814    36812.755 
   59300    302.01034   -1406.4459    414.56177    371.07239    67.089347    36812.755 
   59400    298.33124   -1406.9057    452.07475    391.52199   -290.08853    36812.755 
   59500    302.35733   -1412.3199    448.13276    400.33529   -429.97868    36812.755 
   59600    294.51575   -1382.1801    446.87221    393.82591     351.0372    36812.755 
   59700    306.48468   -1365.7479     437.9318    455.33282    394.03268    36812.755 
   59800     300.4471    -1382.118    427.89371    401.67738   -176.57897    36812.755 
   59900    293.03437   -1395.3498    454.47108    381.56966    42.930068    36812.755 
   60000    300.82142   -1374.0709    443.91567    427.43568    322.68427    36812.755 
   60100    300.86297   -1408.6661    415.82301    364.93533    328.55734    36812.755 
   60200    307.21193   -1374.0957    432.44087    444.77615   -92.294058    36812.755 
   60300    304.58612   -1405.4342    430.89662    400.04323    82.964116    36812.755 
   60400    299.06436   -1431.3977    433.86692     352.1307   -131.36985    36812.755 
   60500    303.70369   -1376.6042    433.87919    427.87346     166.1012    36812.755 
   60600    300.26768   -1367.8036    440.67254    427.96094   -21.439668    36812.755 
   60700    289.69096   -1373.2749    435.24301    369.32788   -241.58684    36812.755 
   60800    303.21716   -1382.9592    412.24856    397.69213    114.93611    36812.755 
   60900    297.10148   -1375.3705    420.77382    386.20639    172.57619    36812.755 
   61000    301.33329   -1407.9304    426.35459    378.32515    207.77455    36812.755 
   61100    303.29719   -1378.7511    442.76354    432.77634   -267.50359    36812.755 
   61200    290.18305   -1363.9794    437.95128    383.55239   -178.59977    36812.755 
   61300    303.82432   -1360.8798     453.1334     463.3965    361.90519    36812.755 
   61400    304.07389   -1382.2567    443.48891    433.50141    173.04637    36812.755 
   61500    290.77086   -1438.3719    442.15124    316.01266    362.17198    36812.755 
   61600    299.09641   -1407.1566    437.83511    380.48459    229.27282    36812.755 
   61700    287.11335   -1379.5412    422.89559    339.08155   -141.66132    36812.755 
   61800    287.69949   -1402.7041    453.26397    348.93225   -353.90408    36812.755 
   61900    306.31704   -1377.6413    453.35153    458.10266   -319.60962    36812.755 
   62000    293.47822   -1402.0736    427.43757    349.81545   -103.54545    36812.755 
   62100    297.39909   -1399.7328    447.49903    389.91242    98.604707    36812.755 
   62200    303.79593   -1412.8972    427.62895    385.74654    585.18044    36812.755 
   62300      305.017   -1369.9502    480.36813    486.94325    108.39484    36812.755 
   62400     308.7307   -1376.5908    442.56248    459.25676    168.09301    36812.755 
   62500    309.72807    -1338.987    462.38025    521.17945    590.35462    36812.755 
   62600    305.83061    -1408.423    462.59681    434.37102    672.55926    36812.755 
   62700    294.61204   -1415.3369    449.56049    363.79195    23.206792    36812.755 
   62800    296.54643   -1395.7889     436.6438    379.15301    184.90294    36812.755 
   62900    304.78045   -1382.4388    474.84862    467.86766    301.18444    36812.755 
   63000    304.46449    -1403.188    446.42967    417.27362    368.20878    36812.755 
   63100    297.55871   -1442.0164    441.62178    342.47191     287.2483    36812.755 
   63200    310.99565   -1439.6935    420.17935     383.9925    109.62204    36812.755 
   63300    303.28216   -1405.5718    440.41019    403.53458   -135.57643    36812.755 
   63400    294.14401   -1436.8376    408.57499     299.1936    35.720173    36812.755 
   63500    297.19889   -1428.9624    441.62321    353.90351   -283.16953    36812.755 
   63600    302.83886   -1380.6203      448.846    434.92125   -335.73061    36812.755 
   63700    302.25239     -1382.98    435.73564    416.80444   -155.22516    36812.755 
   63800    291.80044   -1416.7349    466.87871    367.02361   -227.56254    36812.755 
   63900    290.80363   -1457.0393    456.82284    312.16475   -442.47047    36812.755 
   64000    300.67502   -1416.8556    429.75491     369.8296   -370.72992    36812.755 
   64100    301.36434   -1405.8677    443.22531    397.39875   -548.48412    36812.755 
   64200    296.21657   -1393.3285    468.57997    412.06094    -398.5161    36812.755 
   64300    300.67369   -1399.9177    429.89177    386.89834    276.96564    36812.755 
   64400    298.55737   -1404.4631    437.15521     380.0655    -114.3874    36812.755 
   64500    308.69724   -1424.8776    453.90068    422.15713    562.21483    36812.755 
   64600    308.02212   -1413.2048    462.04047    438.92299    626.51731    36812.755 
   64700    305.91552   -1410.9296    460.67891    430.32965    607.23957    36812.755 
   64800    306.22273   -1443.2707    461.45598    400.15208   -34.907555    36812.755 
   64900    284.93221   -1460.2542     445.6373    271.26694    297.31281    36812.755 
   65000    302.52865   -1377.4474    452.06923     439.9174    272.79555    36812.755 
   65100    313.91366   -1389.2529    421.91894    449.34158   -363.55019    36812.755 
   65200    297.39366     -1403.12    459.64647    398.64811    4.5755176    36812.755 
   65300    304.52171   -1366.2301    481.20522    489.26529    618.89977    36812.755 
   65400    300.89681   -1360.4652    464.29901    461.76499    250.16189    36812.755 
   65500     304.8342   -1380.3894    444.25675    439.56773   -110.16495    36812.755 
   65600    297.35972   -1408.6885    458.71089    391.99086   -444.80125    36812.755 
   65700    304.53414   -1441.2814    418.51246    351.57734   -737.52899    36812.755 
   65800    304.87355   -1435.0746    437.73396    378.53738   -265.73341    36812.755 
   65900    295.11384   -1408.4997     436.3547    359.68796   -173.68595    36812.755 
   66000    305.71598   -1389.6627     437.4711    427.48826   -112.72217    36812.755 
   66100    308.66249   -1397.1953     440.6455    436.42746    506.03322    36812.755 
   66200    292.55701   -1435.4092    462.74525    347.63018     206.8992    36812.755 
   66300    289.48985   -1428.2677    427.99736    306.18186    521.83343    36812.755 
   66400    296.11577   -1385.9573    461.39055    411.78782    252.69759    36812.755 
   66500    305.49185   -1396.9031    454.48303    436.24825    212.55526    36812.755 
   66600    298.10798   -1391.4804    451.28204    405.14691    252.69452    36812.755 
   66700    291.78187   -1373.6836    443.45935    386.57167    269.83806    36812.755 
   66800    298.99166   -1356.0017    463.45172    456.78338    865.89836    36812.755 
   66900    303.88888   -1360.0053    451.75866    463.18761   -68.312776    36812.755 
   67000    291.49851   -1413.5718    449.44943     351.3948   -13.574312    36812.755 
   67100    303.44806   -1382.5149    456.94971    443.87967    253.13458    36812.755 
   67200    304.11612   -1392.4698    458.17425    438.16418    198.90327    36812.755 
   67300    300.93456   -1327.3379    474.98919    505.75286    613.47064    36812.755 
   67400    302.69458   -1339.9545    489.52776     515.6177    339.63805    36812.755 
   67500    304.91224   -1374.2901    451.84349    453.60601   -15.841846    36812.755 
   67600    308.34934   -1392.9484    427.88331     426.4989    92.607499    36812.755 
   67700    303.66061    -1372.489    487.64119     485.5562     -221.674    36812.755 
   67800    305.89649   -1343.0704    443.56664    480.99065   -254.02382    36812.755 
   67900    303.42321   -1350.3067    439.39585    458.42184   -415.55965    36812.755 
   68000    290.68999   -1355.8951    445.42733     401.4006   -309.87804    36812.755 
   68100    294.46145   -1359.1351    457.33115    427.08481   -318.87075    36812.755 
   68200    298.19198   -1390.4904    434.08135    389.31537    216.48009    36812.755 
   68300    299.97644   -1411.5703    447.87363    390.08093    360.21785    36812.755 
   68400    296.51277   -1395.7734    447.69826    390.07104    243.07492    36812.755 
   68500    301.91311   -1412.0142    430.73094    381.23442    299.80938    36812.755 
   68600    301.07269   -1436.9065    422.89995    344.71835   -10.901358    36812.755 
   68700    300.70082   -1418.1246    421.74985    360.67197    178.78689    36812.755 
   68800    297.69501   -1431.2228    438.56153    350.82036    247.56077    36812.755 
   68900    298.16176    -1399.295     450.0851    396.37817   -311.50789    36812.755 
   69000    294.05383   -1329.2405    456.85352    454.66221   -58.045668    36812.755 
   69100     295.4728   -1400.3648    446.20368    379.29177    -6.936171    36812.755 
   69200    293.02672   -1416.0477    428.37939    334.74556   -145.89902    36812.755 
   69300     307.0675   -1404.6991    439.82469    420.90477   -821.13369    36812.755 
   69400    297.63859   -1386.9064    449.45969     405.7803    -563.7804    36812.755 
   69500    302.14301   -1402.5456    452.35197    413.36154   -195.03647    36812.755 
   69600    309.26833    -1423.962    424.83561      396.585    226.15117    36812.755 
   69700    294.57967    -1404.565    434.86375    359.72107   -373.09283    36812.755 
   69800    290.39575   -1359.2246    432.77561    384.09141   -26.861396    36812.755 
   69900    300.77825    -1388.332    446.64341     415.7075   -151.01055    36812.755 
   70000    293.12313   -1404.0315    440.11014    358.92758   -77.572368    36812.755 
   70100    297.19642   -1403.4576    425.04932    362.82326   -538.04347    36812.755 
   70200    289.18963   -1381.9055    446.10675    369.29858    107.62163    36812.755 
   70300    298.85062   -1370.0245    433.57971    412.25205    395.99981    36812.755 
   70400    294.56858   -1348.6506    438.93743    419.65905    456.08033    36812.755 
   70500    309.16066   -1365.1302    456.36188    486.45713    714.72482    36812.755 
   70600    293.94826    -1405.003    451.08434    372.65411    400.39508    36812.755 
   70700    297.48108   -1373.1145    461.78211    431.18379    283.61092    36812.755 
   70800    294.41481    -1402.694    434.16762    360.15185   -213.86403    36812.755 
   70900    300.36367   -1365.2109    476.54728    466.86152    199.20514    36812.755 
   71000    300.57952   -1420.9867    449.30459     384.8171    243.03705    36812.755 
   71100    303.84367   -1399.6552    450.45995    422.03494   -99.075881    36812.755 
   71200    298.35288   -1408.7433    445.75228    383.45951   -39.185229    36812.755 
   71300    298.76338   -1428.4589    435.89724    355.74141   -171.89832    36812.755 
   71400    298.26356    -1430.727    430.40537    345.72583    399.38639    36812.755 
   71500    298.14617   -1408.1433    467.43558    404.80997    158.58383    36812.755 
   71600     300.0216   -1389.8901    434.39245    398.48377   -58.737444    36812.755 
   71700    314.82345   -1369.9352    439.75356    490.59979    114.30039    36812.755 
   71800    298.03842   -1394.2928    435.91762    386.65623   -121.42477    36812.755 
   71900    293.60874    -1423.432    430.88164    332.49016    214.26866    36812.755 
   72000    291.92639   -1387.0282    464.07002    394.48996    835.75253    36812.755 
   72100    305.54663   -1353.0881    445.42962    471.25705    128.97453    36812.755 
   72200    293.51293   -1390.3459    463.79871    398.06097    485.83584    36812.755 
   72300    292.55145   -1396.4498    466.01228    389.83151    13.554202    36812.755 
   72400    296.90214   -1419.4221    455.03447    375.51587   -587.75636    36812.755 
   72500    298.87255   -1429.9352    457.78867    376.64933    101.33645    36812.755 
   72600    301.08719   -1367.1249    452.04271    443.70814   -65.016049    36812.755 
   72700     286.5256   -1418.5995    479.05918    353.53438   -737.43067    36812.755 
   72800    302.07144   -1430.2321    440.48292    373.48303   -612.52093    36812.755 
   72900    292.30895   -1487.1018    442.08521    274.15801   -807.82263    36812.755 
   73000    296.56839   -1416.8239    448.43529    370.00866   -777.62934    36812.755 
   73100    293.27538   -1456.7278    449.38282    316.19107   -134.40745    36812.755 
   73200    292.27796   -1414.5308    485.44387    389.94786   -746.37694    36812.755 
   73300    310.02002    -1427.668    446.75387    418.18958   -448.89681    36812.755 
   73400    301.02464   -1463.2289    433.93701    329.21617    196.74526    36812.755 
   73500    289.79906   -1410.0948    463.46374    361.21659    531.99818    36812.755 
   73600    311.80551   -1472.3453    454.26068     389.0769   -569.37204    36812.755 
   73700    293.85156   -1439.3372     455.0487    341.84789    271.74559    36812.755 
   73800     293.2052   -1445.9133    466.21076    343.51684   -82.737622    36812.755 
   73900    286.34171   -1463.1127    468.29201    297.42408   -423.34512    36812.755 
   74000     298.7737   -1471.9943    456.17371    332.52908   -114.99544    36812.755 
   74100    294.37681   -1439.3294    446.82915    336.00649    10.240889    36812.755 
   74200     298.9354    -1447.921    452.57614     353.7346    651.99822    36812.755 
   74300    295.98124   -1460.2903    442.50065    317.95782    255.46864    36812.755 
   74400    297.70769   -1467.6114     441.5267    317.45415     335.7882    36812.755 
   74500    302.88833   -1423.3221    465.73403    409.33074    163.95068    36812.755 
   74600    299.69333   -1467.8271    425.65237    310.32515   -119.69716    36812.755 
   74700    300.36315   -1460.3278    429.61242     324.8074     247.5817    36812.755 
   74800    311.08425   -1456.5033    462.16592    409.56913   -104.10273    36812.755 
   74900     297.1006   -1434.5718    429.09224    335.31958   -407.15293    36812.755 
   75000    300.04702   -1444.3765    440.93251    350.65215    122.72209    36812.755 
   75100    304.98407   -1476.2114    422.52002    322.68539   -312.64074    36812.755 
   75200    304.62483    -1414.978    432.60812    392.38571    12.822099    36812.755 
   75300    290.35152   -1440.4271    427.52949     297.4433   -369.88364    36812.755 
   75400    298.46129   -1450.6267     448.2807    344.59377   -570.78105    36812.755 
   75500    299.11324   -1440.2644      442.851    352.46864    -254.7066    36812.755 
   75600    291.40478   -1415.4781    453.53253    353.14861    45.219703    36812.755 
   75700    297.35576   -1420.0699    449.60251     371.4832    233.98047    36812.755 
   75800    297.91383   -1395.8742    460.90968    409.50465    924.47199    36812.755 
   75900    292.33541   -1424.3307    451.05587    346.01916    616.42826    36812.755 
   76000    301.40856    -1431.381    441.02855    369.88825    666.59325    36812.755 
   76100    295.29539   -1396.6657     453.6452    389.63179    456.33103    36812.755 
   76200    305.36533   -1422.1894    457.88229    413.79031    771.34389    36812.755 
   76300    290.25961   -1414.3062    463.41234    359.03222    350.19601    36812.755 
   76400    300.24535   -1390.6104    446.22745     410.6082    478.88882    36812.755 
   76500    292.40717   -1433.5485    450.96264      337.032    498.71734    36812.755 
   76600    314.87515   -1426.9682    452.85422    446.90073   -258.83483    36812.755 
   76700    302.58647   -1404.5071     455.9631    417.01255   -271.64511    36812.755 
   76800    297.21536   -1433.9302    443.17305    350.55978   -314.08544    36812.755 
   76900    295.54426   -1418.9748    447.50224    362.30283   -634.98016    36812.755 
   77000    294.94398     -1397.27    448.11479    381.91112   -170.23837    36812.755 
   77100    298.91109   -1416.1977    441.17484    373.94686   -378.65521    36812.755 
   77200    295.85123   -1390.8971      472.448    416.71161   -658.97468    36812.755 
   77300    297.34482   -1403.6228    472.00019    410.27857     355.6779    36812.755 
   77400    304.23471   -1413.4361    457.74683    417.30573    121.26064    36812.755 
   77500    297.56393   -1430.3587    447.56942    360.10083    278.04485    36812.755 
   77600    303.65794   -1387.8352     467.9723     450.5291    570.46227    36812.755 
   77700    302.44022   -1410.5792    473.00647    427.32379    384.88556    36812.755 
   77800    292.96984   -1433.7394    452.28066    340.69848    317.95855    36812.755 
   77900      296.181   -1464.8117    451.85887    323.69618    493.36185    36812.755 
   78000     301.3726   -1472.3538    452.40687    340.13146   -133.36932    36812.755 
   78100    298.62178   -1443.0869    454.69105    359.26831     93.10009    36812.755 
   78200    290.12728   -1437.0208    433.72611    306.03421    -84.48182    36812.755 
   78300    307.00991   -1490.0982    460.59066    356.01176   -189.48347    36812.755 
   78400    307.09664   -1461.2795     463.5214    388.15259   -4.9744839    36812.755 
   78500    284.56083   -1478.1172    440.89724     246.9878    410.92445    36812.755 
   78600    306.92709   -1481.7008    484.50904    387.95372    105.78091    36812.755 
   78700    300.86335   -1432.1817    445.47514    371.07359    439.28391    36812.755 
   78800     309.3581   -1432.0276    468.31975    432.40863    428.05303    36812.755 
   78900    302.50736   -1464.9271    476.09954    376.37189   -16.481003    36812.755 
   79000    305.13444    -1418.914    464.77206    422.91342   -73.934285    36812.755 
   79100    302.22973   -1454.3875     455.9804    365.53949   -26.098644    36812.755 
   79200    292.16871   -1430.8638    436.45454    324.13247   -527.72249    36812.755 
   79300     294.3568   -1412.4851    430.69744    346.62882   -230.55942    36812.755 
   79400    300.71094   -1409.4302    477.68258    425.34468   -434.23355    36812.755 
   79500    311.22469   -1413.0911     465.8589    457.30809   -684.97816    36812.755 
   79600    304.14673    -1401.816    450.26534    421.04726   -272.66332    36812.755 
   79700    299.84996   -1405.8192    461.58408    408.97164   -300.04177    36812.755 
   79800    297.17796   -1436.9764    460.36819    364.54003   -483.49764    36812.755 
   79900    304.77924   -1419.0693    480.59618    436.97927    543.07185    36812.755 
   80000    302.06694   -1433.4506      450.007    379.76836    456.25023    36812.755 
   80100    305.17255   -1504.0195    461.80171    335.00954    61.607702    36812.755 
   80200    294.43259   -1494.7293    469.04235    303.07151    681.14589    36812.755 
   80300    297.09711   -1455.1281    470.11497    355.77022   -60.776363    36812.755 
   80400    298.40849   -1435.8129    478.05408    388.94269    -213.8564    36812.755 
   80500    297.15242   -1419.1102    433.32729    355.25008   -155.43578    36812.755 
   80600    294.87296   -1438.0484    452.42432    345.12177    123.63898    36812.755 
   80700    299.30282   -1440.8897    482.91516    392.76306   -733.47957    36812.755 
   80800    299.33287   -1387.9456    455.00762    417.93523   -638.97757    36812.755 
   80900    298.70279   -1433.4492    434.16608     348.7466   -348.10763    36812.755 
   81000    298.54491   -1459.8372    463.96447    351.44443    -69.53565    36812.755 
   81100    301.61129   -1451.0324    452.18545    362.30863   -339.85129    36812.755 
   81200    306.05359   -1463.7689    454.56443    371.99897   -35.903225    36812.755 
   81300    295.53736   -1454.0373    438.51129    318.21824    96.178146    36812.755 
   81400    309.59507   -1480.7642    475.86629    392.28807   -327.74056    36812.755 
   81500    284.69319   -1483.7456    463.11442    264.17399   -572.27998    36812.755 
   81600    302.10949   -1444.4143    463.07267    382.06228   -8.1363255    36812.755 
   81700    307.59031    -1478.456    469.53043    379.21304   -450.54331    36812.755 
   81800    294.16243   -1430.1014    471.61386    369.05176    86.316694    36812.755 
   81900    304.92011   -1470.1152    464.84141     370.8143    65.723154    36812.755 
   82000    309.15011   -1469.1139    462.25246    388.31649    149.75303    36812.755 
   82100    295.37303   -1474.4038     457.1509    315.74977   -22.815215    36812.755 
   82200    292.36537   -1456.5298    462.82717    325.72664    176.66286    36812.755 
   82300    305.34866   -1490.7323     443.2623    330.55219   -486.46756    36812.755 
   82400     290.7748   -1452.3125    450.34087    310.27944    245.27796    36812.755 
   82500    294.25897   -1465.6327    464.26652    326.60875    340.82703    36812.755 
   82600    290.89083   -1489.7872    446.92673    269.91428    15.956749    36812.755 
   82700    305.71651   -1510.6101    448.16096    317.23311    102.13404    36812.755 
   82800    300.14055   -1517.5848    448.17495    285.10838    174.05539    36812.755 
   82900    290.52639   -1488.8022    440.83982     263.1677    292.22024    36812.755 
   83000    300.52947    -1460.958    441.73074    337.04612    213.56128    36812.755 
   83100    303.43565   -1467.1273    458.79192    361.05348   -135.18246    36812.755 
   83200    297.93205   -1460.7286    467.07568    350.89849    -71.38679    36812.755 
   83300    300.20653   -1453.4338    455.50409    356.88629   -104.17101    36812.755 
   83400    303.51524   -1488.8645     455.0454    335.92889    -80.88912    36812.755 
   83500    293.92374   -1487.2333    482.25926    321.48802   -318.93174    36812.755 
   83600    292.62739   -1485.1604    460.65509    296.10638   -234.82225    36812.755 
   83700    309.11573   -1437.9741    468.08793    425.13654   -419.58734    36812.755 
   83800    307.19352   -1427.4151    468.20869    427.14153   -739.92817    36812.755 
   83900    294.19616   -1445.4208    460.27588    342.54655   -802.92116    36812.755 
   84000    319.41667   -1433.8261    464.42024    472.10447   -1231.5876    36812.755 
   84100    312.20209    -1385.117     483.6236    507.45787   -1721.1316    36812.755 
   84200    295.61368   -1428.5166    483.04952    388.62167   -1102.6759    36812.755 
   84300     298.9025   -1437.1643    450.97204     362.7387   -607.71849    36812.755 
   84400    299.61017    -1457.734    475.03629    369.42696     -926.418    36812.755 
   84500    307.19687   -1479.4888    460.59191    367.46611   -226.44797    36812.755 
   84600    293.03162   -1451.8233    461.26078    331.87345    154.70507    36812.755 
   84700     295.3629   -1435.6264    471.81334    369.14385    190.38092    36812.755 
   84800    297.28272   -1435.5742    457.96008     364.0069    1045.1572    36812.755 
   84900    307.70539   -1436.3601    507.63137    459.92919     732.2534    36812.755 
   85000    305.19097   -1483.2417     446.7932      340.862    27.299673    36812.755 
   85100     305.5941   -1458.3776    470.47954    391.23174    847.22104    36812.755 
   85200    299.91509   -1466.0949      456.404    343.80987    493.61599    36812.755 
   85300    307.39016   -1488.0925    456.15479    355.29766     596.6968    36812.755 
   85400    303.82572   -1464.4418    499.34372    406.05113    632.07486    36812.755 
   85500    304.71894   -1462.2922    471.45852    384.34655    607.27655    36812.755 
   85600    300.67058   -1447.2333    486.26469    395.94156    90.487395    36812.755 
   85700    302.92201    -1497.607    446.78264     316.2464    269.47906    36812.755 
   85800     299.4411   -1458.0069    465.24228    358.59701   -59.171294    36812.755 
   85900    307.36825   -1475.8913    441.47411    352.71929   -91.981986    36812.755 
   86000    300.51367   -1455.1198    486.50711    387.58942    601.40402    36812.755 
   86100    297.92414   -1458.6461    463.05558    348.92517    177.49882    36812.755 
   86200    307.87349   -1471.3615    454.62442    372.67951    714.66809    36812.755 
   86300    288.91169    -1458.685    483.48372    328.64171    831.90586    36812.755 
   86400    300.46321   -1443.0994    475.02621    387.90115    83.125874    36812.755 
   86500    305.04386   -1420.2007    465.20182    421.64767     11.20386    36812.755 
   86600    306.70155   -1417.3861    445.51695    412.25852   -742.66446    36812.755 
   86700     295.0919   -1453.8848    455.94711     333.7962   -306.57578    36812.755 
   86800    304.47248   -1451.3612    455.63172     378.3385   -289.44418    36812.755 
   86900    295.74816   -1447.5516    462.52577    349.66974   -817.67116    36812.755 
   87000     302.9677    -1459.093    454.77529     362.9593   -651.33746    36812.755 
   87100    309.41327   -1457.6428    476.48159    415.20432   -722.62398    36812.755 
   87200    299.39363   -1461.9073    466.40508    355.64514   -467.06964    36812.755 
   87300    297.32394   -1461.9094    449.52218    329.41978   -556.34291    36812.755 
   87400    299.74791   -1456.1334    483.04355    379.65641   -646.47417    36812.755 
   87500     300.5984   -1424.5604    493.54803    425.57205   -238.53319    36812.755 
   87600    312.76481   -1459.1453    480.14811    432.49368    123.73094    36812.755 
   87700    294.53909   -1492.0873    482.90026    320.05212    45.230226    36812.755 
   87800    305.36221   -1469.2713    466.93017    375.74216    907.58867    36812.755 
   87900    301.11984   -1503.8796    485.05042    340.10854    329.94989    36812.755 
   88000    304.89568   -1474.4129     457.6002    359.16516   -336.05215    36812.755 
   88100    311.83684   -1430.3243    498.81539    475.79405   -202.25113    36812.755 
   88200    291.59513   -1469.2096     506.1282    352.87177    -359.3275    36812.755 
   88300    293.83913   -1457.0798    501.36534     370.3658    180.14804    36812.755 
   88400    305.57479   -1419.4228    467.97153     427.5914    573.06833    36812.755 
   88500    301.33508   -1453.2225    476.62983    383.31639    410.63445    36812.755 
   88600    300.36179   -1430.7963    511.45584     436.1762    382.21766    36812.755 
   88700     292.9119   -1472.6049    473.41161    322.70242    87.341346    36812.755 
   88800    302.55078    -1465.622    490.41853    390.19198   -31.619045    36812.755 
   88900    288.37119   -1422.4151    466.10719    345.09577    178.70187    36812.755 
   89000     297.2632   -1456.6852    474.45044    359.29812   -530.28899    36812.755 
   89100    302.29533    -1444.534    497.22848    416.93705    169.52551    36812.755 
   89200    298.00278   -1445.5323    475.30188    374.64019    88.948656    36812.755 
   89300    308.18973   -1435.1077    481.61968    437.35573    199.70648    36812.755 
   89400    300.85293    -1472.649    453.50696    338.59106    524.30071    36812.755 
   89500    304.54683   -1442.4154    462.30606    394.29417    433.77459    36812.755 
   89600    308.81005   -1493.0042    436.41687    337.05586    287.47304    36812.755 
   89700    301.43709   -1477.9558    478.58388    360.99749    146.91223    36812.755 
   89800    308.82831   -1471.1814    480.88723    403.43149    293.12872    36812.755 
   89900    299.19047   -1461.0416    491.39745    380.58637   -99.800762    36812.755 
   90000    299.53203   -1499.2219     458.6759    311.22604    101.37532    36812.755 
   90100    306.11505   -1501.4831    476.00182    355.99958    430.31548    36812.755 
   90200    301.03217     -1530.28    464.88497    293.14699    128.59292    36812.755 
   90300    303.66476   -1504.2361    482.60591    348.79261    384.22253    36812.755 
   90400    295.23166    -1498.724    481.78989    315.43053    804.59809    36812.755 
   90500    303.41327   -1521.1876    467.43436    315.53461    885.40827    36812.755 
   90600    296.37233   -1482.1497    488.86277    344.22552    773.34738    36812.755 
   90700    299.13956    -1483.556    473.88054    340.32534    848.34149    36812.755 
   90800     290.0158   -1523.5404    460.46989    245.75525    585.56335    36812.755 
   90900    301.64144    -1537.344    494.44025    318.38792    798.48287    36812.755 
   91000    300.46052   -1503.4184    467.31911    319.86294   -235.62986    36812.755 
   91100    301.34442   -1476.6843    455.92385    339.19073   -685.43329    36812.755 
   91200    299.46897   -1456.8019    491.69747    386.38296   -404.27874    36812.755 
   91300    304.94079   -1515.6054     439.5464    300.12251    637.26954    36812.755 
   91400    306.78779   -1536.5381    479.61292    327.59165    375.11125    36812.755 
   91500    292.69521   -1512.6487    501.50415    309.77327     574.1872    36812.755 
   91600    293.56264   -1531.6418    472.12494    265.31562    183.61664    36812.755 
   91700    302.62814   -1492.0652    491.18708    364.86643   -180.13671    36812.755 
   91800    298.59273   -1484.6495    486.35513    349.23865   -45.643708    36812.755 
   91900    303.31513   -1483.8841    478.42109    363.38195    427.94412    36812.755 
   92000    304.10847   -1467.9225    475.52137    380.02406    790.83488    36812.755 
   92100     296.2942   -1452.8464    474.44545    358.75887     782.9498    36812.755 
   92200    299.70192   -1474.2445    476.84313    355.13727    360.16965    36812.755 
   92300    301.45857   -1496.2072    477.37341    341.63263    191.87928    36812.755 
   92400     285.4939   -1528.6018     452.8609    212.67773    3.1308383    36812.755 
   92500    297.55876   -1456.6842    482.64532    368.82781    194.76711    36812.755 
   92600     300.8239   -1464.2415    489.96216    383.32279   -157.85565    36812.755 
   92700    307.44904   -1470.1018     495.0832    412.48241    920.47603    36812.755 
   92800    286.71793   -1484.5273    469.25893    278.67427    230.39776    36812.755 
   92900     307.9768   -1498.7467    502.04919     393.1853   -142.28646    36812.755 
   93000    294.25615   -1469.7139    456.89944    315.14779   -473.89143    36812.755 
   93100    300.47281    -1471.662    453.07427    337.42994    112.54269    36812.755 
   93200    297.67818   -1512.6913    480.42361    311.13795    165.68777    36812.755 
   93300    295.30012   -1465.2424    476.67369    344.10496    55.425285    36812.755 
   93400    301.06924   -1467.7494    474.02359    364.98349    736.67978    36812.755 
   93500    297.95789   -1472.5677    468.23497    340.33521    617.24309    36812.755 
   93600    302.28281    -1476.336    476.89706    364.74721    216.72835    36812.755 
   93700    301.83553   -1473.2228    504.77249    393.71724    390.29854    36812.755 
   93800    301.24349   -1476.1307    480.41187    363.77685    49.661276    36812.755 
   93900    306.40734   -1465.7043    444.23643    361.33205    428.82416    36812.755 
   94000     304.3898   -1473.4382    492.19176    392.44837    420.45548    36812.755 
   94100    297.16352   -1504.7847     462.9039    299.20226    254.33858    36812.755 
   94200    305.75095   -1492.7599    482.76257    369.84031    699.21204    36812.755 
   94300    309.42386   -1530.0964    462.83487    329.15179    591.37949    36812.755 
   94400    302.23442   -1528.5383    464.55318    299.98258    461.82876    36812.755 
   94500    297.24471   -1484.7458     470.9577    327.66137    797.47228    36812.755 
   94600    286.24015   -1479.7632    468.53831    280.56156    263.19448    36812.755 
   94700    302.37541   -1500.6828    482.95016     346.8714   -163.66995    36812.755 
   94800    293.82179   -1465.9239    471.74622     331.8243     85.60981    36812.755 
   94900     294.3052   -1470.3007    489.16752     347.0504    461.62369    36812.755 
   95000    306.02568   -1500.3022    497.88221    378.65748    400.35001    36812.755 
   95100    295.91561   -1449.4809    463.23208    349.20243   -329.35683    36812.755 
   95200    304.86429   -1497.5659    489.89393    368.16418    -380.2372    36812.755 
   95300    294.12064   -1505.2525    497.45113    319.54928    256.51784    36812.755 
   95400    292.06946   -1459.1843    465.35245      324.262    250.53544    36812.755 
   95500    309.50118   -1455.4458    475.76702    417.08342    181.53655    36812.755 
   95600    298.38861    -1498.953    476.77519    324.43402   -435.69457    36812.755 
   95700    300.35111   -1489.1264    479.00413    345.34625   -57.220089    36812.755 
   95800    299.56904   -1456.0717    465.32895    361.19627   -65.360224    36812.755 
   95900    307.32679   -1465.5654    459.88889    381.27284   -222.42773    36812.755 
   96000    307.36566   -1451.0166     477.4024    413.51053   -219.94301    36812.755 
   96100    296.64175   -1434.5819    495.90992    400.05639     133.0617    36812.755 
   96200    300.35765   -1429.2898    495.73196     421.9402   -154.48051    36812.755 
   96300    298.70945   -1404.0596    459.99745    403.99759    668.42439    36812.755 
   96400     315.2221   -1440.0532    521.85919    504.38642    299.88551    36812.755 
   96500    297.68837   -1459.3878    453.39017    337.45406    6.8365723    36812.755 
   96600    289.16546   -1462.1633    500.13049    342.95541    266.26452    36812.755 
   96700    306.82228   -1414.3966    494.73632     465.0122    11.085569    36812.755 
   96800    293.29616   -1452.3296    476.22457     347.5248   -501.33292    36812.755 
   96900    298.90441   -1456.1837    470.09431    362.85016   -669.68608    36812.755 
   97000    295.21577   -1450.4339    481.32217    363.18121   -554.92808    36812.755 
   97100    298.10707   -1440.8939    484.20177    388.64912   -450.18962    36812.755 
   97200    309.50477   -1443.0532    476.62885    430.35406   -701.42906    36812.755 
   97300    302.69134   -1443.4988     480.2271    402.75814   -86.932691    36812.755 
   97400      301.768   -1433.6381    474.72632     402.9511   -498.96825    36812.755 
   97500    309.08451    -1448.313    471.91589    418.48471   -291.20093    36812.755 
   97600    300.53628   -1458.2567    481.34358    379.39097    -670.7205    36812.755 
   97700    297.94904   -1432.7694    485.67403    397.53269    48.459648    36812.755 
   97800    294.69083   -1454.7177    489.18483    364.39105   -146.10549    36812.755 
   97900    303.98167   -1461.1675    474.00283    384.68827    708.63568    36812.755 
   98000    310.26343   -1478.6275    464.94573    386.52043    79.253161    36812.755 
   98100    296.61735   -1502.1701    468.21539    304.66344    488.54871    36812.755 
   98200    310.42211   -1481.5801    492.31218    411.65039    538.44596    36812.755 
   98300    300.50243   -1476.5059    474.06188    353.70732    691.52074    36812.755 
   98400    300.85306   -1419.0076    505.15025    443.87636     816.5304    36812.755 
   98500    302.31511   -1474.6993    476.56293    366.19548    256.31884    36812.755 
   98600    308.51581   -1474.6002    474.41548    392.13059    522.49389    36812.755 
   98700    304.97873   -1458.0902    481.96631    400.22878    5.9961475    36812.755 
   98800    303.31234   -1467.1022    453.08263    354.81275    60.438003    36812.755 
   98900    315.03875   -1498.4508    521.49437    444.79651    190.69923    36812.755 
   99000     290.2079   -1483.5814    473.50998    299.62131    303.69019    36812.755 
   99100     287.9605   -1512.7647    480.39165    267.17726    570.87889    36812.755 
   99200    301.90724   -1466.4512    493.83507     389.8751    728.51577    36812.755 
   99300    311.17661   -1490.3843    448.92211    362.86116    250.07632    36812.755 
   99400    300.70244   -1487.7379    490.22299    359.53906   -327.55507    36812.755 
   99500    302.06249   -1483.7584    496.96853    376.40193   -107.22676    36812.755 
   99600    307.26014   -1476.4042    482.91011    393.15443   -494.40077    36812.755 
   99700    305.02303   -1458.9881    491.37219    408.93669   -356.25501    36812.755 
   99800    290.45473   -1436.5831    452.56909    326.79267    -452.4349    36812.755 
   99900    305.59187   -1432.2717     505.7368    452.58483    -530.1849    36812.755 
  100000      302.448   -1440.2807    465.58566    390.23657   -976.36215    36812.755 
  100100    300.67055   -1465.7984    478.29108    369.40271   -203.60111    36812.755 
  100200    291.31719   -1459.4445    487.88611    343.14045    237.03705    36812.755 
  100300    301.83883   -1464.0504    505.77707    403.90919   -211.43923    36812.755 
  100400    297.29803   -1437.8558    453.95415    357.78847    -85.94015    36812.755 
  100500    301.48643    -1471.752    491.86283    380.70296   -366.96276    36812.755 
  100600    301.86069   -1454.4494    493.39269    401.22442   -351.89976    36812.755 
  100700    298.84658   -1499.4786    479.41497    328.61496   -356.17392    36812.755 
  100800     299.4552   -1537.9482    475.76596    289.24302    108.63854    36812.755 
  100900    290.09155   -1553.0991    502.87954     258.9481    206.61585    36812.755 
  101000    290.28559   -1498.0837    510.79415    322.75376    395.36184    36812.755 
  101100    296.56408   -1505.9972    488.31594    320.69654    278.45792    36812.755 
  101200    300.20861   -1501.7568    470.51303    323.58156   -67.015487    36812.755 
  101300    293.49469   -1492.5802     497.2654    329.21096     34.64687    36812.755 
  101400     299.1667   -1517.8774      487.105    319.35089   -250.73953    36812.755 
  101500    302.59108   -1488.8725     516.0241    392.72899   -254.75284    36812.755 
  101600    299.19526   -1488.1491    497.77542    359.87849   -644.80614    36812.755 
  101700    294.71454   -1484.9041    474.39354     319.5204    -220.0286    36812.755 
  101800    291.33762   -1477.7626    492.28465    329.31312    211.79764    36812.755 
  101900    306.67855   -1454.2335    498.13313     427.9235    210.19483    36812.755 
  102000    294.05981   -1414.4695    492.65387    405.26049   -67.938405    36812.755 
  102100     302.3957   -1484.1458    498.12132    378.67107    122.65392    36812.755 
  102200    293.73548   -1475.9413    501.80522    351.47645    441.13205    36812.755 
  102300    301.21992   -1461.0336    506.58838    404.94416    166.75903    36812.755 
  102400    311.32478   -1415.4258    505.82039     495.3866     239.9446    36812.755 
  102500    300.61778   -1476.4467    512.70301     392.9282    359.38918    36812.755 
  102600    286.94528   -1507.1911    489.99085    277.76836    91.416012    36812.755 
  102700    311.45321   -1476.9849    469.18454    397.77124   -626.02358    36812.755 
  102800    301.56139   -1487.3565    480.12702    353.70089   -606.03972    36812.755 
  102900    305.61574   -1475.5106    491.10102    394.81791   -266.18258    36812.755 
  103000    283.19331   -1486.6641    496.79809    288.17022   -567.38046    36812.755 
  103100      303.896   -1486.4752    474.17448    359.16567   -158.15426    36812.755 
  103200    303.30347    -1488.129    484.92368    365.58703    307.14232    36812.755 
  103300    302.90821   -1482.4951    512.29343    396.80682    589.16072    36812.755 
  103400    288.76917   -1461.7356    488.16154    329.62571   -118.05889    36812.755 
  103500    296.33723   -1471.0127    462.81303    329.15436   -76.950913    36812.755 
  103600    290.25065   -1455.1722     507.0752    361.78862   -339.51467    36812.755 
  103700    301.09046    -1467.447    479.07366    370.43173   -342.26846    36812.755 
  103800    290.19101   -1467.0493    488.83157    331.39877     203.5549    36812.755 
  103900     298.2838   -1480.8146    485.09012    350.41428    82.677701    36812.755 
  104000    310.50797   -1479.1298     477.4333    399.60931    352.53252    36812.755 
  104100    298.55836   -1485.4644    493.14811    355.06156   -37.432571    36812.755 
  104200    294.89775   -1466.1937    497.99542    362.65947    227.37932    36812.755 
  104300    300.84937   -1518.5979     509.1323    348.25144    581.68287    36812.755 
  104400    299.35694   -1490.8845    498.60505    358.70243   -89.195437    36812.755 
  104500    302.76639   -1501.2822    480.98082    346.06714    546.71438    36812.755 
  104600    289.92287   -1531.1791    490.64287    267.87019   -74.411368    36812.755 
  104700    303.24395   -1504.2252    475.72918    340.02768    158.25678    36812.755 
  104800    308.40912   -1510.8327    513.05723    394.05835    668.03126    36812.755 
  104900    299.50208   -1479.4028    472.83207    345.06615    116.21596    36812.755 
  105000    305.89423    -1452.819    492.95949    420.62477    623.10626    36812.755 
  105100     307.1453   -1514.1773    489.64397    361.59699    908.06695    36812.755 
  105200    309.85979   -1451.9708    486.67768    433.08752    444.01637    36812.755 
  105300    303.53692   -1505.1521     484.5917    349.28549    -72.43155    36812.755 
  105400     294.2325   -1457.2914    485.58122    356.14534     337.9688    36812.755 
  105500    301.83484   -1502.3033    487.00731    346.86844     468.2948    36812.755 
  105600    303.32948    -1543.107    514.05687    339.85953   -501.19687    36812.755 
  105700    291.00767   -1500.5417    465.31283    278.07313   -289.73355    36812.755 
  105800    304.74348   -1515.2097    486.88482    346.96615    96.664636    36812.755 
  105900    299.56667   -1491.4741    492.96554    353.41976   -390.30462    36812.755 
  106000    292.94759   -1444.0717    486.39791    364.38296    37.842457    36812.755 
  106100    286.03492   -1516.6875    500.14381    274.31654   -92.823516    36812.755 
  106200    301.78308   -1517.2709    492.23882    336.89876   -383.97999    36812.755 
  106300    293.39761   -1477.8295      475.672    321.93014   -358.07437    36812.755 
  106400    304.32234   -1489.0302    483.31043    367.67064   -835.07196    36812.755 
  106500    289.23388   -1471.4003    504.54594    338.44265   -700.23759    36812.755 
  106600    298.44776   -1508.5115    501.87732    340.24455   -291.30286    36812.755 
  106700    291.43759   -1547.6497    497.73826    265.33075    36.236418    36812.755 
  106800    300.20307   -1509.1146    495.12024    340.80598    85.405052    36812.755 
  106900    297.71286   -1480.3732      483.675    346.86401    118.96642    36812.755 
  107000    307.47252   -1517.0028    514.94452    385.54871    607.46894    36812.755 
  107100    301.85063   -1516.0722    476.59205    322.75555    1038.9446    36812.755 
  107200    304.15254   -1477.0602    497.53221     393.0961    501.79297    36812.755 
  107300    302.08936   -1514.0389     501.9843    351.25849     332.9231    36812.755 
  107400    302.41841   -1485.6613    492.06501    371.20182    905.07696    36812.755 
  107500    297.61896   -1469.9323    489.53261    362.73873    389.40089    36812.755 
  107600    291.84512   -1439.6091    510.49594     387.9682    426.44899    36812.755 
  107700    292.68271   -1504.2831    497.08568    313.66404    506.44754    36812.755 
  107800    307.05992   -1518.7341    493.44683    360.45769    305.80069    36812.755 
  107900    306.88755   -1525.4233     486.7961    346.33984   -84.127181    36812.755 
  108000    308.16105   -1527.6549    485.17217    348.23157    790.35801    36812.755 
  108100    298.52205    -1503.982    515.24216    358.47421    182.74813    36812.755 
  108200    295.61478   -1510.7078    522.46459     345.8504    483.58823    36812.755 
  108300     325.4185   -1510.6372    487.18532    445.14441     492.3374    36812.755 
  108400    290.36604   -1566.9914    509.62839    253.04337    506.21212    36812.755 
  108500    307.65273   -1531.7909    492.48219    349.11158    97.094012    36812.755 
  108600     298.3138   -1542.4847    479.22998    283.01945   -749.86266    36812.755 
  108700    296.70205   -1526.2427    461.86982    274.62756   -677.54097    36812.755 
  108800    305.23611   -1488.7899    504.64666    393.37095   -71.810337    36812.755 
  108900      286.572   -1496.7451    489.64492    286.18394   -446.12303    36812.755 
  109000    299.42045   -1511.0277    505.95132    346.19206   -318.46132    36812.755 
  109100    309.32499   -1506.0507     482.3134    372.22976   -180.57682    36812.755 
  109200    308.47662   -1472.5576    491.70494     411.2858    185.47688    36812.755 
  109300    293.72904   -1467.3709    532.88035    391.09289   -485.81803    36812.755 
  109400    316.05416   -1484.9375    479.25508    420.65306    -96.09417    36812.755 
  109500    299.97776   -1472.8803    499.44587    380.34912   -238.94473    36812.755 
  109600    291.41754   -1456.1089    510.59521    369.63802   -237.64747    36812.755 
  109700    301.44948    -1455.362    500.21155    405.27495     144.3266    36812.755 
  109800    310.91491   -1497.3763    504.64611    410.41219   -451.99863    36812.755 
  109900    294.45071   -1531.0062    483.04533    280.87942    35.705713    36812.755 
  110000    304.72013   -1489.1797    496.73804    382.74394    301.36034    36812.755 
  110100    292.84514   -1467.0613    499.07799    353.61108    -340.1948    36812.755 
  110200     300.1584   -1452.3771    523.25258     425.4743    312.14521    36812.755 
  110300    305.78692   -1445.0121    490.84355    425.83147    295.08516    36812.755 
  110400    299.80944   -1448.9149    490.48542    394.59449    440.99051    36812.755 
  110500    299.71851   -1426.2363    507.65887    434.03611    420.93492    36812.755 
  110600    301.23129   -1454.0747    492.71221    398.07816   -39.999497    36812.755 
  110700    300.55585   -1474.4334    514.29961    396.25868   -136.43514    36812.755 
  110800    306.15919   -1482.5694      462.312    361.42257    314.42957    36812.755 
  110900    305.47075   -1462.7677    500.22777    416.03321   -38.297907    36812.755 
  111000    291.71949   -1483.9212    502.35748    334.95077    483.75648    36812.755 
  111100    302.71484   -1497.9551    505.37833    373.55905    696.91525    36812.755 
  111200     290.5881    -1508.801    464.91131    267.51884    34.230983    36812.755 
  111300    292.48793   -1470.8428    523.81207    372.95158    628.75689    36812.755 
  111400    289.66497   -1497.3574    490.44404    300.32915    625.27821    36812.755 
  111500    306.94851   -1461.9722    492.06252    415.33246    529.96711    36812.755 
  111600    309.51274   -1487.6422    501.33782       410.51   -701.51028    36812.755 
  111700    290.94222   -1460.3789    500.12405    352.75184   -286.92508    36812.755 
  111800    294.01567      -1480.2    457.77909    304.45603   -101.43402    36812.755 
  111900    295.76247    -1484.584    494.57617    344.75238   -449.29673    36812.755 
  112000    292.04449   -1484.2665    475.07592    308.79059   -229.08615    36812.755 
  112100    301.24243   -1500.6896    492.59361    351.39498     240.9784    36812.755 
  112200    300.21887   -1464.3897    502.64376    393.12573    379.89158    36812.755 
  112300    307.24109   -1526.3318    458.34051     318.5713    394.00783    36812.755 
  112400    295.36484   -1552.8681    463.84555    243.94312    638.47217    36812.755 
  112500    303.28425   -1511.8179    501.40755    358.29518    70.269444    36812.755 
  112600    307.11059   -1555.7464    474.90106    305.12826    662.59146    36812.755 
  112700    305.57481   -1511.4178    492.08809    359.71304    464.16744    36812.755 
  112800    299.00903   -1534.5798    490.10786    304.93975    178.22244    36812.755 
  112900    295.36072   -1521.9282     464.4417    275.46066    802.00097    36812.755 
  113000    292.60819   -1491.3912    486.61068    315.74455    709.61805    36812.755 
  113100    309.87699   -1515.6898    494.83389    377.60236     469.8014    36812.755 
  113200    305.85685   -1479.7983    481.32478    381.84203    444.14797    36812.755 
  113300     296.7555   -1528.7924    479.22867    289.67791    706.31221    36812.755 
  113400     297.4035   -1489.6519    481.08848    333.60265    180.98357    36812.755 
  113500    311.13832   -1524.7348    496.40199    375.81777    442.80201    36812.755 
  113600    303.10586   -1531.7326     479.2292     315.3971    367.24582    36812.755 
  113700    298.91464   -1539.9014    470.12198    279.20636    34.496989    36812.755 
  113800     294.9792   -1519.8391    484.58662     295.9728   -64.486562    36812.755 
  113900    299.29535    -1532.996    483.23338     300.9413     377.8933    36812.755 
  114000    300.39114   -1529.8026    517.12139    342.96788    66.670949    36812.755 
  114100    308.99389   -1513.2881    455.68921    336.87398   -306.73643    36812.755 
  114200    301.53698   -1512.9237    473.74258    321.63915   -864.57879    36812.755 
  114300    307.90972   -1540.2614    492.65388    341.97254   -526.32991    36812.755 
  114400    287.84641   -1528.2012    485.68115    256.51537   -209.65513    36812.755 
  114500    298.37807   -1508.1097    478.81146    317.26605   -48.544855    36812.755 
  114600    300.67751   -1509.5805    515.68077    363.04178    329.94891    36812.755 
  114700    290.45189    -1530.548    473.83509    254.08094     437.7495    36812.755 
  114800    306.38789   -1555.3349    499.22612    326.60337    892.08137    36812.755 
  114900    301.51785   -1522.2877    478.66183    317.10802    150.02143    36812.755 
  115000    303.75791   -1527.0812    498.28508    342.04701    81.044955    36812.755 
  115100    301.36183   -1506.8973    456.44911    309.58158   -18.415569    36812.755 
  115200    298.09398   -1505.0163    489.40086    329.66674   -240.71709    36812.755 
  115300    297.14317   -1524.0168    504.49608    321.47047    338.14065    36812.755 
  115400    300.84401   -1509.6417    487.61257    335.66377    30.118576    36812.755 
  115500     308.9908   -1506.8889    471.93397    359.50396    378.84327    36812.755 
  115600    302.38069   -1510.4249    476.14062    330.34355   -282.82889    36812.755 
  115700    296.21578   -1546.7246    459.64933     249.7307   -481.24229    36812.755 
  115800    291.68911   -1535.0759    478.31251    259.61389   -947.14199    36812.755 
  115900    290.28659   -1565.3603    466.35028    211.03778   -277.20945    36812.755 
  116000    295.56711   -1562.3188    464.69801    236.25768   -266.48879    36812.755 
  116100    305.85596   -1585.6961    488.30714    282.92259    -348.9435    36812.755 
  116200    297.85764    -1530.492    489.24102    302.96457   -534.72498    36812.755 
  116300    302.84738   -1516.0251    481.07179    331.78067   -343.40136    36812.755 
  116400    316.78773   -1512.4885    510.24666    427.40425   -453.83296    36812.755 
  116500    298.56878   -1528.2054    474.60716    293.82669   -37.221714    36812.755 
  116600    296.77093   -1533.3721    497.87179    303.81101   -43.600718    36812.755 
  116700    294.01218   -1518.1375    491.61344     300.3372    80.879819    36812.755 
  116800    305.12148   -1523.4701    486.24309    339.76993    227.60743    36812.755 
  116900    298.86426   -1532.6791    474.53271    290.61202    524.83815    36812.755 
  117000     303.1033   -1555.5626    491.82453    304.15094   -66.171458    36812.755 
  117100    300.99117   -1576.5647    461.51142    243.30371   -254.14485    36812.755 
  117200    300.54432   -1530.6103    449.26055    274.99066   -18.918941    36812.755 
  117300    310.17959   -1515.4829    483.44259    367.78358   -263.52094    36812.755 
  117400    298.95335   -1495.2858    506.92079    360.79545   -651.21947    36812.755 
  117500     295.7067   -1567.3751    453.91678    221.05014   -307.18769    36812.755 
  117600    307.79507   -1520.9796    487.74671     355.8298    -315.6901    36812.755 
  117700    301.64457   -1521.6829    500.80012    340.42296    173.80469    36812.755 
  117800     292.4907   -1546.7754    527.64871    300.86816    177.20893    36812.755 
  117900    301.39922   -1540.8262    481.69862    301.07093     420.1448    36812.755 
  118000    300.90103   -1535.7841     488.4879    310.65407     3.445357    36812.755 
  118100    309.70129   -1501.3365    482.05799    378.38676    87.903963    36812.755 
  118200    294.85926   -1528.1439    512.37181    314.91193   -157.18036    36812.755 
  118300     302.0565   -1535.9487    461.68054    288.89662   -291.45181    36812.755 
  118400    299.22192   -1490.5854    483.38893    343.17598   -418.83806    36812.755 
  118500    302.67268   -1513.1403    473.53887    326.34417   -419.35757    36812.755 
  118600    298.13092   -1525.4486    497.46911    317.46941   -404.95318    36812.755 
  118700    304.16721   -1512.0417     486.2221    346.87078    9.4663002    36812.755 
  118800    298.97195    -1505.756    473.97281    317.46124    270.29683    36812.755 
  118900    315.92058   -1495.1512    485.71631    416.29783    1076.6208    36812.755 
  119000    302.90587   -1541.3849    505.36842    330.98151    600.62575    36812.755 
  119100     291.7379   -1565.1195    477.30994    228.78792    538.65378    36812.755 
  119200    294.50229   -1509.9655      512.903    332.01058    803.83797    36812.755 
  119300    288.49267   -1521.4176    468.89186     249.4262    189.18653    36812.755 
  119400    291.72033   -1544.8175    517.75914    289.45983   -555.65135    36812.755 
  119500    298.44499   -1516.0828    488.66177    319.44525    106.04921    36812.755 
  119600    301.01466   -1550.0359    494.00689    302.43405   -426.41742    36812.755 
  119700    299.54006      -1506.7    497.52835    342.63654   -650.67388    36812.755 
  119800    296.71537   -1485.3537    491.55088    345.25775   -816.96884    36812.755 
  119900    306.23872   -1514.0399    474.70996    342.70897   -411.55736    36812.755 
  120000    299.51428   -1530.9079     490.4589    311.24288   -82.012403    36812.755 
  120100    299.89363   -1493.3051    464.13106    324.22983    100.95705    36812.755 
  120200    296.48567   -1461.7886    511.51533    387.75069    453.99897    36812.755 
  120300    297.12671   -1482.5071    477.26143     335.6713    184.79972    36812.755 
  120400    310.23576   -1474.4583    498.81198    424.43105    781.36284    36812.755 
  120500    301.90001   -1510.3514    492.65859    344.76571    500.37764    36812.755 
  120600    292.53172    -1511.476    494.87255    303.57651    1370.1779    36812.755 
  120700    302.97662   -1534.6041    465.70524    298.41838    485.34664    36812.755 
  120800    306.13934   -1454.6183    519.91568    446.88782     721.2395    36812.755 
  120900    293.65715   -1501.7506    500.99356    324.50196    536.98133    36812.755 
  121000    296.21856   -1488.0508    496.17475    344.94245    385.52353    36812.755 
  121100    291.13027   -1491.8727      481.257    303.23961    56.630752    36812.755 
  121200    307.80799   -1503.6149    484.50995      370.016   -695.57432    36812.755 
  121300    311.27398   -1474.0533    483.34828    414.05775   -787.77054    36812.755 
  121400    307.69304   -1458.9225    490.96785    420.64758    352.07649    36812.755 
  121500    295.23456   -1499.6943    487.22867    319.91213   -413.87553    36812.755 
  121600    295.73222   -1524.8585    478.17106    287.93624   -268.78195    36812.755 
  121700    302.55381   -1503.2309    484.38674      346.565    142.32621    36812.755 
  121800    295.84122   -1509.0048    490.37499    316.48581   -314.04493    36812.755 
  121900    302.86064    -1454.037    477.22519    389.98203   -535.94208    36812.755 
  122000    305.18049   -1515.8695     484.9905    346.38422   -878.00905    36812.755 
  122100    291.39439   -1510.3002    492.58521    297.33231    -660.3619    36812.755 
  122200    296.23681   -1519.1126    479.17534    296.96358    -159.9846    36812.755 
  122300    294.16972   -1514.7934    491.52444     304.3032   -351.81776    36812.755 
  122400    315.65866   -1503.2424    515.57434    436.88256   -472.45172    36812.755 
  122500    298.35225   -1436.2412    479.81795    390.02448   -52.919528    36812.755 
  122600    307.07378   -1467.3934    486.57847    404.99258     436.1958    36812.755 
  122700    294.32252   -1475.6906    472.83303    325.40422    274.25182    36812.755 
  122800    295.15164   -1465.6049    525.90902    392.30762    315.36226    36812.755 
  122900    312.98895    -1458.255    494.16901     448.4164   -13.573962    36812.755 
  123000    307.02409   -1478.7393    491.88541    398.72937   -214.87969    36812.755 
  123100    294.47953   -1527.8017    496.33225    297.50088   -502.95468    36812.755 
  123200    297.39988   -1543.1086    472.10502    271.14611   -358.66288    36812.755 
  123300    299.09055   -1541.6111    481.27469    289.44319   -520.58977    36812.755 
  123400    298.12806   -1561.7882    497.33373    280.98152   -100.55805    36812.755 
  123500    301.33242   -1538.2063    487.47096    309.16176   -53.965696    36812.755 
  123600    307.37885   -1526.9982    466.88813    327.07421     615.4463    36812.755 
  123700    288.73888   -1529.3625    465.24259    238.94317    309.87569    36812.755 
  123800    302.77339   -1507.5916    529.54357    388.35206     156.0665    36812.755 
  123900    286.99777   -1556.6179    500.42368    239.01128   -70.306993    36812.755 
  124000    308.64402   -1548.6727    496.08799    340.30918    224.53279    36812.755 
  124100    302.04571   -1564.8857    494.13965    292.37007    353.41264    36812.755 
  124200    289.09395   -1514.5237    526.26631    316.40809    505.20809    36812.755 
  124300    291.90396     -1524.74    508.21855    300.82544    535.06779    36812.755 
  124400    296.85123    -1504.869    482.93514     317.7399     493.5476    36812.755 
  124500    293.94196   -1565.1562    494.17375    255.56184    132.43588    36812.755 
  124600    291.31819    -1542.023    482.29344    254.97379    525.60261    36812.755 
  124700    297.38564   -1576.2719    492.41513    258.22864    35.779322    36812.755 
  124800    292.69029    -1549.183    480.72534    252.43791   -136.12762    36812.755 
  124900    295.00587    -1516.368    498.03283    313.01053   -375.21352    36812.755 
  125000    298.74432   -1523.4053    480.80751    305.61934    114.15578    36812.755 
  125100    292.25218   -1511.3952     474.6541    282.17736   -380.80016    36812.755 
  125200    301.12795    -1506.611    521.83905    374.20234   -158.36222    36812.755 
  125300    295.26724   -1468.6974     497.0965    360.92434   -6.7901983    36812.755 
  125400     309.2692   -1512.0798    517.85124    401.48679    153.29394    36812.755 
  125500    290.37023    -1502.908    524.62527    332.14256   -73.682116    36812.755 
  125600    299.94575   -1497.0922    493.50773    350.05465    99.685825    36812.755 
  125700    304.50582   -1482.2414    483.52839    375.50541    355.63843    36812.755 
  125800     298.3666   -1539.0671    488.27205    295.71739   -45.710956    36812.755 
  125900    290.25956   -1518.6564    483.47505    274.74445    470.67721    36812.755 
  126000    289.81931   -1548.2941     494.7343    254.37918   -74.419861    36812.755 
  126100    305.60058   -1484.1401    513.08184    408.10074   -94.556782    36812.755 
  126200    285.30761   -1543.5846    505.30452    249.29782   -351.40402    36812.755 
  126300    301.81214   -1499.4794    486.06587    348.64846    349.59184    36812.755 
  126400    306.70935   -1503.1189    494.68055    375.72451    18.594497    36812.755 
  126500    299.96166   -1503.4985     496.3721    346.58451    341.02469    36812.755 
  126600    298.85824   -1515.1328     491.1562     324.7546    595.03597    36812.755 
  126700    285.62262   -1493.8224    496.10754    291.28474    904.70066    36812.755 
  126800    305.44866    -1520.578    522.15615    380.05155    240.51961    36812.755 
  126900    289.61631   -1464.2745    501.92461    344.67299    774.81464    36812.755 
  127000    298.57331   -1513.2536    480.29791    314.48967    430.75041    36812.755 
  127100    298.27452   -1497.8319    498.75908    347.02407   -173.85623    36812.755 
  127200    297.52553   -1479.9938    521.27568    383.99862    440.85329    36812.755 
  127300    295.42082   -1487.4551    494.30819    340.07143   -200.59714    36812.755 
  127400    306.54531   -1508.9746    493.94092    368.38887   -33.813673    36812.755 
  127500    295.86401   -1478.5227    504.95899    361.65468   -800.33586    36812.755 
  127600    303.78215   -1468.0548    517.02618    419.92392   -1121.9775    36812.755 
  127700    295.18468   -1469.0328    490.73923    353.85903   -837.12288    36812.755 
  127800    311.01031   -1463.4812    493.38467    433.47637   -339.97714    36812.755 
  127900    297.55225   -1448.8882     491.5017    385.45091    -227.9403    36812.755 
  128000    304.23124   -1472.2957    506.41375    407.09736   -906.68732    36812.755 
  128100    297.59296   -1456.8009    496.98942     383.2096   -304.61622    36812.755 
  128200    290.18704   -1464.0573    521.53105    367.07232    44.002694    36812.755 
  128300    293.47231   -1460.2473     484.8943     349.0718    74.779914    36812.755 
  128400    297.78951   -1519.6381    487.46816     311.7382    33.186686    36812.755 
  128500    311.13509   -1514.7808    522.88874    412.24388     387.7083    36812.755 
  128600    298.77468   -1510.4568     494.1574    332.05476    138.05821    36812.755 
  128700    291.53467   -1501.8403    470.86943    284.70947   -282.78754    36812.755 
  128800    304.73144    -1471.028     510.5342    414.74291   -587.45931    36812.755 
  128900    294.69584   -1493.4265    503.34088    339.86095   -447.21256    36812.755 
  129000    298.47629   -1473.0087    513.06572    387.06454   -472.33497    36812.755 
  129100    301.56709   -1465.3231    503.33952     398.9725   -466.12264    36812.755 
  129200    294.02841   -1487.1615    499.53573    339.30876   -1057.5943    36812.755 
  129300    305.11325   -1460.6986    493.14321    409.40434    -844.5675    36812.755 
  129400    298.80174   -1446.1833    514.79209      417.085   -628.33708    36812.755 
  129500    292.93196   -1486.3477     493.1917    328.83028   -1101.1508    36812.755 
  129600    296.00116   -1470.7651    505.14928    370.22152   -397.58872    36812.755 
  129700    310.46712   -1491.5519    513.91533    423.48488    329.99134    36812.755 
  129800    300.16525   -1499.7746    499.85749    354.71256    163.25131    36812.755 
  129900    296.13181   -1436.9821    510.87532    410.32028    91.947308    36812.755 
  130000    298.34878   -1467.8294    513.29838    391.90106    -369.6038    36812.755 
  130100     303.5661   -1507.9126    520.21634    382.28132   -175.51327    36812.755 
  130200    301.50533   -1462.5008    475.16676    373.34339   -1069.5876    36812.755 
  130300    302.38415   -1489.1366    494.06126    369.56812   -703.50436    36812.755 
  130400    294.89249   -1435.4841    525.76271    421.11263   -819.65222    36812.755 
  130500    300.48476   -1466.9707     527.5071    416.60801   -784.97801    36812.755 
  130600    302.77979   -1466.6539    503.16795    402.94303    31.454951    36812.755 
  130700    305.42784    -1463.539    513.11382    427.95432   -96.705828    36812.755 
  130800    293.96872   -1501.0236    489.42386    315.06535    168.39309    36812.755 
  130900    310.27209    -1507.418    496.10319     388.9265    370.81714    36812.755 
  131000     302.6653   -1531.1719    496.02703    330.76741   -50.689628    36812.755 
  131100    295.61196   -1442.7135    508.57845     399.9459    258.99541    36812.755 
  131200    300.46484   -1425.9727     516.1365    446.14554   -745.54056    36812.755 
  131300    295.70796   -1469.2459    503.54842    368.81672   -323.31453    36812.755 
  131400    293.99162    -1449.451    521.33002    398.64743   -480.94965    36812.755 
  131500    306.09789   -1458.8996    505.35635    427.86014   -519.56082    36812.755 
  131600    306.01679    -1433.997    520.87953    467.91991   -465.91386    36812.755 
  131700    304.33455   -1462.2696     505.2514     416.4273   -318.89273    36812.755 
  131800      300.616   -1464.2812    485.79014    378.17282    -36.95756    36812.755 
  131900    308.79376   -1463.6274    518.33596    448.27824   -502.02507    36812.755 
  132000    299.33561   -1437.1383    505.80566    419.55291    -693.0455    36812.755 
  132100    301.29634   -1458.6296    508.90601     410.0106   -400.87708    36812.755 
  132200    296.35495    -1465.425    509.85283    381.86179   -147.05797    36812.755 
  132300    293.98573   -1471.7796    506.45454    361.41684    -73.50163    36812.755 
  132400    296.98532    -1478.426    506.60005    368.45289   -308.26644    36812.755 
  132500    297.20244   -1469.5671    498.60771    370.29925    187.30043    36812.755 
  132600     303.3739   -1440.2345    525.98613     454.8618    699.34397    36812.755 
  132700      307.098   -1475.6942    497.72797    407.95063    856.96504    36812.755 
  132800     302.1095   -1466.1893    501.87969    399.09442    129.47684    36812.755 
  132900     303.1869    -1481.671    513.00845    399.60371    -197.3551    36812.755 
  133000    291.95332    -1439.437    541.83424    419.96697    -359.6969    36812.755 
  133100    299.53477   -1499.3149    524.47792    376.94738   -638.60498    36812.755 
  133200    296.83913   -1449.0635     525.8595     416.4151    -489.6153    36812.755 
  133300    297.82657   -1437.7825    523.63134    429.92416    -201.4861    36812.755 
  133400    307.01178   -1525.3563    497.90826    358.07962   -668.79654    36812.755 
  133500    295.83396   -1516.0039    519.10451    338.18341   -141.99458    36812.755 
  133600    307.69573   -1476.3438    489.29372    401.56432    223.40252    36812.755 
  133700    288.59511   -1521.9232    523.65554     304.1466    40.601159    36812.755 
  133800    308.55175   -1532.2546    503.90267    364.12554    573.16998    36812.755 
  133900    293.26086   -1499.8791    488.32817    311.91966    40.688576    36812.755 
  134000    295.49288   -1525.9179    491.97646    299.60212     654.0263    36812.755 
  134100    299.57441    -1485.856    516.14474    382.25197    483.89245    36812.755 
  134200    302.20227   -1493.6115    494.97824    365.18937    235.56938    36812.755 
  134300    290.61364   -1514.9708    508.08324    304.63617   -80.235498    36812.755 
  134400    294.83316    -1514.819    505.15035     320.8976    400.16273    36812.755 
  134500    294.61894   -1543.8694    494.86696    280.59706   -305.95521    36812.755 
  134600    294.60942   -1570.9126    497.25094    255.89484   -72.430842    36812.755 
  134700    306.31553   -1578.0245    478.17776    282.53879    181.74097    36812.755 
  134800    295.40241    -1577.489    472.08111    227.72736   -330.30623    36812.755 
  134900    304.19553   -1591.3272    468.56677    250.05765    -857.4205    36812.755 
  135000    295.70174   -1569.7741    492.30735    257.01935    -404.2219    36812.755 
  135100    295.43255   -1578.5152    476.31915    231.07523   -705.40322    36812.755 
  135200    300.26254   -1574.7405    472.13096    252.45922    -598.7672    36812.755 
  135300    298.72829   -1592.7012    474.00257    229.44618   -279.18581    36812.755 
  135400    291.15115   -1580.5756    496.76692     230.1409   -101.08109    36812.755 
  135500     305.8961   -1573.8429    501.90278    308.55259    161.45888    36812.755 
  135600    296.72482   -1560.3541    487.90136    266.65047    481.30627    36812.755 
  135700    312.01549   -1530.6505    505.90819    383.36682    -355.8379    36812.755 
  135800    303.84509   -1539.1765    515.40036     347.4605   -440.10211    36812.755 
  135900    283.89946   -1536.0864    512.56516     257.7018   -311.18623    36812.755 
  136000    299.92903   -1528.7192    501.50251    326.34696   -680.68414    36812.755 
  136100    288.68483   -1489.3728    502.29982    315.74619   -52.218837    36812.755 
  136200    304.51724   -1527.0667    488.82457    336.02789   -203.15065    36812.755 
  136300    292.75803   -1507.3645    506.98462    320.82136   -29.924426    36812.755 
  136400    302.16426   -1480.5112    507.65858    390.79852    209.41974    36812.755 
  136500    297.11921   -1499.2868    489.57822    331.17446   -249.30748    36812.755 
  136600     299.0303   -1494.5642    526.91807    381.86154   -684.87722    36812.755 
  136700    293.86214   -1495.0359    496.44229    327.59051   -659.44504    36812.755 
  136800    295.83573   -1494.2621      502.273    343.10165   -558.33606    36812.755 
  136900    300.85824   -1532.3305    495.54803    320.97469   -2.5973369    36812.755 
  137000    299.51898   -1517.8561    473.48809    307.34504   -430.82166    36812.755 
  137100    297.30839   -1528.1248    515.75495    329.36702   -483.69492    36812.755 
  137200    305.57136   -1545.5795    502.07437      335.522   -596.56854    36812.755 
  137300    301.47566   -1542.5934     494.4922    312.44235   -394.98713    36812.755 
  137400    295.98569   -1489.4462    513.73597    360.05729   -384.75363    36812.755 
  137500    305.72475   -1564.4578    483.38612    298.64776   -352.24721    36812.755 
  137600    307.33606   -1557.7187    469.07469    298.34711    243.35815    36812.755 
  137700    295.22503   -1567.5338    501.46901    266.26996    79.145804    36812.755 
  137800    292.47443   -1558.7118    508.18285    269.39248    -683.3776    36812.755 
  137900    303.02833   -1561.8991    514.27403    319.92558    27.467742    36812.755 
  138000    289.23578   -1581.6486    500.75623    224.41319   -429.62957    36812.755 
  138100    306.00474   -1568.9101     495.7198    307.79271   -277.10843    36812.755 
  138200    297.18843   -1511.5664    505.06459     334.6937    619.55039    36812.755 
  138300    296.80783   -1540.4373     475.5492    274.58977    145.37316    36812.755 
  138400    292.18879    -1511.867     512.3497     319.1151    13.638588    36812.755 
  138500    301.39855   -1553.5443    515.49224    322.14339    560.61705    36812.755 
  138600    298.53067   -1473.9148    494.55432    367.89242   -233.93492    36812.755 
  138700    300.37616   -1535.4216    522.53962    342.69957   -159.37304    36812.755 
  138800    305.50788   -1564.1711    475.19977    289.76937    179.95938    36812.755 
  138900    292.48987   -1511.0209    504.51097    313.48113    466.56304    36812.755 
  139000    302.42937   -1572.9517    492.76842    284.66432   -262.21556    36812.755 
  139100     301.8007   -1559.8811    499.19831    301.32765    364.35852    36812.755 
  139200    298.36003   -1535.6932    491.42916    302.21882    581.27335    36812.755 
  139300    303.93156   -1573.1728    545.05928    343.51327    157.18077    36812.755 
  139400    292.98244   -1552.5003    485.59895     255.3127    -75.48967    36812.755 
  139500    300.25353   -1536.3135    516.89409    335.60871   -546.06259    36812.755 
  139600    299.07015   -1554.9247    508.51854    303.28136   -260.26007    36812.755 
  139700    304.41518   -1569.1922    524.61158    329.22878    278.17338    36812.755 
  139800    304.54786   -1542.9852    485.19314    316.61617   -466.80847    36812.755 
  139900    303.78512     -1497.28    531.91825    405.60417   -255.07242    36812.755 
  140000    294.01757   -1581.9802    499.84366    244.74901   -588.72648    36812.755 
  140100    310.54742   -1571.2726    492.59309    322.80434    426.10687    36812.755 
  140200    282.54269   -1572.6395    458.84393    161.30447   -122.39385    36812.755 
  140300    309.21454   -1559.1938    512.23678    348.51165    -38.88511    36812.755 
  140400    308.81642   -1525.8425    514.67961    382.50907    14.533707    36812.755 
  140500    295.61405   -1519.2995    515.26035    330.05118   -365.54277    36812.755 
  140600    294.18637   -1504.8927    528.37677    351.13144   -408.44823    36812.755 
  140700    300.16111   -1517.6237    507.89274    344.88007   -74.285174    36812.755 
  140800    298.10841   -1507.2218    514.04904    352.17458   -542.57451    36812.755 
  140900    293.02082   -1483.3311     512.6846    351.74071   -28.697575    36812.755 
  141000    307.14896   -1485.4883    511.36467    412.02313     134.9774    36812.755 
  141100    301.06006   -1533.7736    511.32357    336.21788    329.40903    36812.755 
  141200    286.67558   -1490.3245    499.19255    302.61956   -364.53551    36812.755 
  141300    310.90905   -1496.0917    508.47335    415.49754   -74.409517    36812.755 
  141400    296.20781   -1508.7933    506.10951    334.08615    418.88924    36812.755 
  141500    314.77621   -1526.5632    518.53074    412.53565    34.777648    36812.755 
  141600     308.3543   -1515.7239    496.36965    372.23219    252.59294    36812.755 
  141700    293.66223   -1516.9057    523.70319    332.07939    82.665854    36812.755 
  141800     290.7563   -1523.5799    506.39801    294.98569    306.87754    36812.755 
  141900    307.23056   -1520.5892      507.445    373.37085    9.9600958    36812.755 
  142000    286.57592   -1477.3616    481.98425    297.92446    249.73156    36812.755 
  142100    296.19283   -1537.1122    506.63852    306.22864    -49.50774    36812.755 
  142200    304.14289   -1525.7279    525.01948    371.87214   -283.06658    36812.755 
  142300    313.72884   -1518.0985    522.39929    420.14223    108.96288    36812.755 
  142400    289.27366   -1529.7077    497.07889    272.84775   -283.40241    36812.755 
  142500    291.47983   -1553.5481    530.35638    292.24111   -549.42351    36812.755 
  142600    300.33668   -1541.6062    475.65439    289.45149   -259.19853    36812.755 
  142700    287.87786   -1511.7825    527.89369    315.28858    -26.73483    36812.755 
  142800    301.54781   -1542.5493    485.31601    303.63586   -245.16782    36812.755 
  142900    297.13652   -1547.1927    499.79887    293.56742   -109.02077    36812.755 
  143000     294.3769   -1578.4911    497.62108    247.63716   -103.03853    36812.755 
  143100    296.41574   -1558.0773    492.42827    272.05929    247.58284    36812.755 
  143200     298.5918    -1535.099    519.47759    331.90743   -163.71083    36812.755 
  143300    304.12004   -1572.3187     494.5741    294.73286    56.170952    36812.755 
  143400    306.16966   -1527.5204    510.29579    364.50267    357.55956    36812.755 
  143500    301.59161   -1543.4419    512.72747    330.35236   -69.877894    36812.755 
  143600    290.90193   -1547.0852    488.06063    253.80029    88.688406    36812.755 
  143700     300.8219   -1524.1183    501.89659    335.37142    476.59209    36812.755 
  143800    302.57167    -1488.248    517.54391    394.78562    182.99797    36812.755 
  143900    296.94078   -1531.0034    498.21392    307.28833    189.59664    36812.755 
  144000    294.34855   -1532.9826    531.94256    327.33923    378.61375    36812.755 
  144100    291.25339   -1514.8418    503.16918    302.73837    308.05023    36812.755 
  144200    305.22351    -1515.923    510.77978    372.31414     61.35624    36812.755 
  144300     305.2412   -1518.3919    518.26326    377.40851    -405.7226    36812.755 
  144400    300.87398   -1497.9568    508.58457     368.4559   -299.11221    36812.755 
  144500    293.28824   -1520.7962    513.98945     316.7874   -294.93731    36812.755 
  144600    294.82351   -1492.8173    498.17386    335.87923   -201.50819    36812.755 
  144700    303.85281   -1530.5835    524.92828    365.61623   -306.32259    36812.755 
  144800    297.69627   -1507.2501    526.26617    362.50343   -136.95041    36812.755 
  144900    300.03828   -1500.1461    491.23012    345.14069    380.73537    36812.755 
  145000    295.50834   -1539.9178    535.26859    328.96408   -332.12899    36812.755 
  145100    303.76903   -1552.8438    501.73616    319.78572    -24.47593    36812.755 
  145200    294.93012   -1494.3463    502.38144    339.03895    19.929735    36812.755 
  145300    303.52174   -1489.5891    521.45748    401.64572     714.6349    36812.755 
  145400    307.20524   -1502.6984    504.04354    387.74594    532.00222    36812.755 
  145500    289.40985    -1537.835     523.5969    291.85301    254.79751    36812.755 
  145600    303.74649   -1547.1836    505.18302    328.79108   -178.02748    36812.755 
  145700    298.65478   -1540.6387    514.44544    321.61977   -188.87228    36812.755 
  145800    297.75621   -1482.1863    527.91196    389.48344    348.63728    36812.755 
  145900    297.10559   -1522.3359    506.69194    325.17765   -123.68934    36812.755 
  146000     295.2878   -1494.5023    503.85988    341.97555   -393.48913    36812.755 
  146100    297.21127   -1501.4384    482.89074    322.75092    -508.5307    36812.755 
  146200    299.62243   -1471.8504    509.83243    390.16205   -564.48206    36812.755 
  146300    300.50772   -1519.4365      493.083    329.82175    2.1415573    36812.755 
  146400    301.41937   -1508.4467    522.04792    373.89067    316.01668    36812.755 
  146500    297.71732    -1468.843    512.25201    386.99131    300.69377    36812.755 
  146600    311.21917   -1506.0735    507.41025    405.85222    865.68853    36812.755 
  146700     311.3469   -1524.7921    501.72888    382.02872   -16.369983    36812.755 
  146800    315.01743   -1517.5922    503.48218    407.54673    126.34052    36812.755 
  146900    309.04643   -1512.0195    481.98106    364.67149   -232.68511    36812.755 
  147000    294.27447   -1513.5607    514.37898    328.86324    38.060651    36812.755 
  147100    299.56448   -1492.8218    509.84923    368.94583    899.75719    36812.755 
  147200    294.03199   -1494.9851    498.79361    330.75915    329.60293    36812.755 
  147300    299.08114   -1551.1366    508.59973    307.20027    689.54613    36812.755 
  147400    291.59409    -1531.839    511.98594    296.09547   -462.64846    36812.755 
  147500    305.91743   -1498.4968    478.17124    360.26344   -878.53204    36812.755 
  147600    296.51717   -1503.5146    494.92832    329.57976   -447.90777    36812.755 
  147700    295.41678    -1511.131    526.79395    348.86309    -555.5811    36812.755 
  147800    301.69797   -1502.2552    519.22869    378.52022   -565.84102    36812.755 
  147900    288.05045   -1513.6572    514.84425    301.14333    49.975944    36812.755 
  148000    300.97032   -1518.2164    496.38528    336.43182   -21.137622    36812.755 
  148100    296.26655   -1510.6707    495.75077    322.11515   -96.981846    36812.755 
  148200    299.58053   -1514.1184    516.60648    354.47895   -176.33117    36812.755 
  148300    302.99748   -1525.9292    513.90037    355.38261   -269.50109    36812.755 
  148400     298.8231    -1474.883    517.36609    391.05578    -230.7069    36812.755 
  148500    310.08684   -1491.9139    493.97507    401.46643   -156.23386    36812.755 
  148600    304.68103   -1533.0279    489.79658    331.77781    155.71159    36812.755 
  148700    307.81782   -1491.7443    538.32392    435.74491   -278.82505    36812.755 
  148800    298.19516   -1478.5512    492.95742    360.14498    322.51047    36812.755 
  148900    305.93675   -1473.5793    499.09239    406.18922    424.81607    36812.755 
  149000     310.1423   -1509.8282    508.85442    398.68184    52.608046    36812.755 
  149100    302.64228   -1538.7399    496.31992     323.3884   -419.50245    36812.755 
  149200    311.73898   -1491.5156     491.7618    407.10755   -192.03682    36812.755 
  149300     294.4476   -1530.0117    487.77722    286.59173   -402.23463    36812.755 
  149400    307.07213   -1534.1148     484.0866     335.7719   -194.58029    36812.755 
  149500    299.82813   -1548.6768    492.98434    297.41584    83.000958    36812.755 
  149600    298.89429   -1505.8906     489.9413    332.94461    150.75025    36812.755 
  149700    296.56328   -1508.3946    509.88727    339.86683   -372.65371    36812.755 
  149800    289.60149   -1525.3604    485.98147    267.57705   -317.65571    36812.755 
  149900    315.30738    -1479.912    484.00899    427.06229    124.77231    36812.755 
  150000    309.65691   -1484.4489    495.81922    408.83537    307.31344    36812.755 
  150100    301.17227   -1489.9932    483.38055    352.56164    96.787434    36812.755 
  150200    305.34879   -1491.2496    514.10073    400.87385    379.96338    36812.755 
  150300    291.30658   -1451.0246    519.87902    383.50544    44.360054    36812.755 
  150400    304.14421   -1488.5094    485.52735     369.6045   -374.73669    36812.755 
  150500    296.13789   -1497.4206    495.68795     334.7218   -503.04133    36812.755 
  150600    294.74936    -1517.182    503.77521    316.78131   -209.80493    36812.755 
  150700    303.62464   -1538.2829    486.94572    318.90454   -316.17748    36812.755 
  150800    295.88192   -1509.1008    491.52021    317.71862      23.2149    36812.755 
  150900    296.87105   -1483.5659    525.95336    382.15055    22.773488    36812.755 
  151000    313.13893   -1503.2397    496.66143    406.60099    42.210606    36812.755 
  151100    295.10057    -1507.248    517.84454    342.36962    392.78628    36812.755 
  151200    297.91534   -1504.9489    525.69064    365.21769    892.91927    36812.755 
  151300    304.59018   -1502.1348    516.60027    389.06457    796.37446    36812.755 
  151400    297.06408   -1473.9639    493.25789    359.92826    380.13897    36812.755 
  151500    305.35774   -1471.4892    489.28632    395.86024    150.85903    36812.755 
  151600    290.85723   -1465.4883    522.02415    369.15895    641.35324    36812.755 
  151700    300.65479   -1473.2668    511.32909    394.90127    117.32111    36812.755 
  151800    293.79528   -1493.3444    524.14088    356.67886    19.405039    36812.755 
  151900    290.73302   -1468.7927    514.12558     357.3954   -179.46242    36812.755 
  152000    297.18028   -1521.7332    493.02885    312.45429    190.67415    36812.755 
  152100    294.92361   -1536.4997    505.38137    299.85608    39.048458    36812.755 
  152200     305.9951   -1487.3461    467.35532    360.94874    181.06757    36812.755 
  152300    309.20534   -1465.7854    516.76124    446.40298    -141.9677    36812.755 
  152400    297.85614   -1501.4494    482.76412    325.52358   -347.32942    36812.755 
  152500    303.40219   -1502.0512    494.44981    361.63645   -250.37574    36812.755 
  152600    295.02141   -1475.2658    519.04091    375.19096   -156.95597    36812.755 
  152700    301.96325   -1518.4207    523.00919    367.33242    218.46551    36812.755 
  152800    306.14072   -1487.7358    512.61371    406.47459    389.42946    36812.755 
  152900    298.74819   -1520.8622    537.84143     365.2138   -127.96416    36812.755 
  153000    305.32682   -1537.6622    487.07921    327.34059    474.65295    36812.755 
  153100    309.06735   -1517.2557    482.85046    360.39914    184.65506    36812.755 
  153200    306.31809   -1533.3247    505.16575    354.23818    267.61145    36812.755 
  153300    308.04233   -1519.9002    494.65157    364.92991    258.28857    36812.755 
  153400    306.66374   -1551.7171    485.15452    317.39446    207.15462    36812.755 
  153500    306.75145   -1522.8184    486.51278    348.04722    47.198641    36812.755 
  153600    300.38577   -1520.9243     511.2894    345.98997    770.73626    36812.755 
  153700    304.60025   -1537.2964    508.35406    345.70226    375.14066    36812.755 
  153800    307.33315   -1506.6946    510.20902    390.49242    225.56518    36812.755 
  153900    311.42092    -1486.914    521.68738    440.19934    239.09971    36812.755 
  154000    291.95643   -1506.7141    503.65469    314.52431    9.9637057    36812.755 
  154100    299.07335   -1461.2088    501.68337    390.17658   -262.50523    36812.755 
  154200     309.5129   -1493.1948     519.7687    423.38909   -271.70548    36812.755 
  154300    290.45269    -1512.502    483.77596    282.07139   -149.22578    36812.755 
  154400    297.80657   -1515.9791     498.0222    326.02821   -492.93263    36812.755 
  154500    310.63911   -1500.4736    501.82378    403.24787    87.633481    36812.755 
  154600    295.60835   -1479.6821    505.15162    359.53414    5.4125167    36812.755 
  154700    305.25844   -1472.3137    508.77493    414.07618   -134.43781    36812.755 
  154800    304.22891   -1471.9775    514.80562    415.79687   -643.17495    36812.755 
  154900    308.00356   -1500.1854    513.15922    402.97732    -552.7577    36812.755 
  155000    302.47487   -1487.8044    499.39815    376.64665   -270.00407    36812.755 
  155100    298.94259   -1538.3461    536.25172    347.01749    12.199458    36812.755 
  155200    298.99687   -1514.2558    474.48018    309.58128    346.01413    36812.755 
  155300    303.93383    -1543.301    512.21244    340.54855    419.91484    36812.755 
  155400    301.54247   -1531.1448     519.0497    348.74991    246.12749    36812.755 
  155500    293.58835   -1550.5823    494.30308    268.66925     350.6767    36812.755 
  155600    293.96458   -1521.6379    539.93077     344.9393    -127.6394    36812.755 
  155700    302.88086   -1493.7308    505.61971    378.77401    457.13707    36812.755 
  155800    301.27569    -1518.042    484.92037    326.51938   -20.707153    36812.755 
  155900    293.97377   -1560.8209    521.26327    287.13022   -140.17895    36812.755 
  156000    300.19796   -1569.3618    504.81955    290.23509   -390.88616    36812.755 
  156100    301.70156   -1594.2957    514.97058    282.23788    360.78308    36812.755 
  156200    300.61892   -1542.3078    484.77788    299.14715    232.82909    36812.755 
  156300    301.35196   -1569.5126    514.40939     304.8821    3.8423958    36812.755 
  156400     297.6557   -1564.1405    487.87838    267.04209    314.93309    36812.755 
  156500    293.83373   -1544.1274    506.99865    288.92717    423.35526    36812.755 
  156600    307.38592   -1595.1885    499.76866    291.79636   -21.924601    36812.755 
  156700    302.86801   -1535.5416    497.79304    329.07853    797.92358    36812.755 
  156800    292.45264   -1577.4846    499.31645    241.65493     955.7432    36812.755 
  156900     302.9423   -1565.4738    479.34171    281.03027    702.78393    36812.755 
  157000    304.75998   -1537.1061    484.40127    322.66062    -57.69119    36812.755 
  157100    307.27311   -1534.1361    492.67106    345.24198    140.54273    36812.755 
  157200    296.66206   -1560.4416    491.82567    270.20402   -471.30672    36812.755 
  157300    310.67144    -1539.408    508.20475    370.84032    272.29963    36812.755 
  157400    295.11285    -1527.833    470.37641    274.37187      320.547    36812.755 
  157500     308.9181   -1519.0011      479.495    354.62471   -124.54007    36812.755 
  157600    297.76789   -1485.7949    505.82212     363.8378     -100.106    36812.755 
  157700    293.66527   -1544.6488    460.17119      240.818   -93.909077    36812.755 
  157800    304.05813   -1524.1351     530.1357    378.19869    134.09388    36812.755 
  157900    306.12809   -1532.4667    479.64328     328.7163    117.11773    36812.755 
  158000    293.61372   -1489.2605     524.7447    360.54717    569.70697    36812.755 
  158100    297.86174   -1500.6057    489.23546    332.86378    489.57682    36812.755 
  158200    298.85325   -1543.6818    499.23214    304.25901    144.16177    36812.755 
  158300    299.39488   -1498.1385    496.35911    349.37368    65.758696    36812.755 
  158400    317.02301   -1535.4775     490.2838    385.51416   -584.97183    36812.755 
  158500    295.98797   -1504.9641    473.89633    304.71008    211.70533    36812.755 
  158600    296.46755   -1510.7284    508.12206    335.33576    211.36106    36812.755 
  158700    295.90484   -1539.5646    492.35011    288.18817   -177.89405    36812.755 
  158800    302.32785    -1488.249    486.00638     362.1468   -86.375552    36812.755 
  158900    312.68934   -1495.5586    495.84529    411.43691    313.31711    36812.755 
  159000    290.06629   -1507.7582    503.35456    304.64999    -9.952774    36812.755 
  159100    299.62407   -1540.0074    485.86346     298.0434    263.13248    36812.755 
  159200    297.06502   -1505.4733    520.43217    355.59734    52.264928    36812.755 
  159300    300.36121   -1523.7742    480.63434    312.37415   -162.20442    36812.755 
  159400    301.13038   -1493.4028    483.81071    349.39316   -537.07543    36812.755 
  159500    299.96592   -1504.8039    506.54048     355.4667   -181.98456    36812.755 
  159600    306.54602   -1535.2955     498.4934    346.62366   -625.32392    36812.755 
  159700    304.14331   -1507.5939    467.01105    331.99961   -498.22777    36812.755 
  159800    305.25276   -1461.5917    507.83931    423.83699   -61.844745    36812.755 
  159900    299.02617   -1518.6861    457.65713    288.46013   -295.58278    36812.755 
  160000     305.3872   -1523.9409    502.68821    356.94337   -100.19654    36812.755 
  160100    301.80391   -1498.9321    479.47123    342.56399    26.889582    36812.755 
  160200    300.81397   -1522.5917    499.69888    334.66454   -627.40449    36812.755 
  160300    299.16401   -1501.0194     496.2669    345.35862   -551.20969    36812.755 
  160400    301.05096   -1496.2694    491.88654    354.24393   -559.36583    36812.755 
  160500    291.76396   -1479.1787    506.82987    344.36626     -694.657    36812.755 
  160600    303.01874   -1515.4344     494.4051    346.47798   -642.38051    36812.755 
  160700    306.29156   -1502.9305    498.82559    378.17246   -929.39864    36812.755 
  160800    302.57827   -1506.8393    513.92674    372.60693    -96.66944    36812.755 
  160900    294.81741   -1512.7612    477.98029    295.71425   -10.988098    36812.755 
  161000     310.0491   -1498.1408    490.96678    392.06089   -18.522471    36812.755 
  161100    308.68214   -1478.8986    517.36991    431.53722    353.28832    36812.755 
  161200    289.63509   -1482.2529    504.32442    329.17913   -41.015328    36812.755 
  161300    293.23388   -1516.7586    479.70128    286.29149   -369.99418    36812.755 
  161400    302.78999   -1467.8092    515.65274    414.31851    166.05664    36812.755 
  161500    296.92816   -1476.6837    505.64091    368.97808    436.13578    36812.755 
  161600    305.15618   -1519.9639    482.38211     339.5717   -240.80962    36812.755 
  161700    295.11227   -1517.4071    486.64126    301.06005   -8.5501516    36812.755 
  161800    310.09894   -1547.2766    465.96011     318.1434    146.71511    36812.755 
  161900    304.52772   -1528.7702    514.86845    360.41556    3.4905626    36812.755 
  162000    292.74597   -1507.9429    496.26032    309.46424    8.4934321    36812.755 
  162100    306.73249   -1498.8028    498.53481    383.99933    144.81269    36812.755 
  162200    296.88997    -1500.976    494.36596    333.23846    128.45275    36812.755 
  162300    296.76153   -1506.7481    502.51865    335.03937   -1.5293757    36812.755 
  162400    301.92675   -1527.8493    492.34723     327.0772    402.75017    36812.755 
  162500    304.97936   -1501.9078    484.77862    359.22633   -80.826125    36812.755 
  162600    287.33109   -1506.0795    517.04681    307.67711      130.466    36812.755 
  162700    298.99213   -1493.9951    491.14701    346.48739     632.3192    36812.755 
  162800    313.34265   -1527.6253    500.96054     387.4338    416.52797    36812.755 
  162900    307.76792   -1501.7862    528.40336    415.55725     752.4794    36812.755 
  163000    292.37547    -1494.819    502.41563    327.07148    1051.0191    36812.755 
  163100      303.949   -1499.9201    508.22163    380.00706    369.72846    36812.755 
  163200    287.80947   -1528.2703    516.26974    286.86819    482.06898    36812.755 
  163300    297.39773   -1534.4972    498.94998    306.59274    123.06816    36812.755 
  163400    308.82395   -1521.3373    511.39223    383.76086    382.38424    36812.755 
  163500    306.03305   -1549.0142    497.27228    329.36885    256.66431    36812.755 
  163600     291.3715   -1526.7357    503.44124    291.64945    -161.2815    36812.755 
  163700    298.18577   -1528.1332    502.13643     319.6996   -58.479301    36812.755 
  163800    306.89985   -1531.0009    514.16006    368.18174     -103.533    36812.755 
  163900    302.53131   -1477.2807    486.49839    374.52532    -399.4377    36812.755 
  164000    305.20006   -1515.5319     508.1658    369.98543   -658.25348    36812.755 
  164100    296.30182   -1507.1879    508.89871    338.90501   -951.59666    36812.755 
  164200    287.41069   -1486.5587    516.46533    326.97567   -895.74164    36812.755 
  164300    305.02055   -1547.7039    501.21974    330.05728   -549.34907    36812.755 
  164400    305.10038   -1522.4752    533.39725    387.82373   -912.79662    36812.755 
  164500     299.3801   -1524.6295     510.1896    336.64647   -317.89939    36812.755 
  164600    302.00191   -1509.4635    513.10357    366.55847   -512.78764    36812.755 
  164700     289.7111   -1494.4266    478.87306    291.89714   -182.27026    36812.755 
  164800    305.10814   -1497.8461    530.17672    409.26737   -45.639003    36812.755 
  164900    298.12335   -1534.8963    508.52961    319.04798    37.450791    36812.755 
  165000    315.02126   -1541.4801    504.57642    384.77039    178.62097    36812.755 
  165100    296.94206   -1532.5578    481.20615    288.73193   -117.00757    36812.755 
  165200    304.71072   -1515.5687    530.74127    390.31571   -43.249029    36812.755 
  165300    308.60139   -1506.3095    500.19176    386.58379    42.203501    36812.755 
  165400    300.53566   -1507.2585    516.45411    365.49696    299.92686    36812.755 
  165500    304.21734   -1472.5763     522.1617    422.50194    619.06269    36812.755 
  165600    288.11902    -1476.441    493.36853    317.19326    234.55585    36812.755 
  165700     291.2051   -1509.5244    514.41945    319.08805    64.583482    36812.755 
  165800    288.75733   -1538.5025     484.1714    248.81523   -338.43525    36812.755 
  165900    293.89027   -1546.6858    491.07169    270.69694   -187.31359    36812.755 
  166000    307.60546   -1569.5984    507.14136    325.74996   -178.57768    36812.755 
  166100    300.53653   -1549.1232    485.86756    293.04965    200.19053    36812.755 
  166200      302.129   -1561.5752    507.09399    309.01079    40.243136    36812.755 
  166300    299.39387   -1542.6722    487.83795    296.31429    254.24082    36812.755 
  166400    315.35567   -1512.5791    523.40503    434.00914    7.3208914    36812.755 
  166500    301.30116    -1516.034    484.33583    328.05784    273.23169    36812.755 
  166600    299.75368   -1523.3325    495.63907    325.07883   -214.52217    36812.755 
  166700    308.44943   -1596.8673    496.46182    291.61026    346.13118    36812.755 
  166800    303.57773   -1537.8307    484.48706    316.68639    507.44761    36812.755 
  166900    301.81846   -1505.9976    458.18975    314.28269     -199.651    36812.755 
  167000    295.85707   -1526.4984    503.25487    311.94362   -388.96894    36812.755 
  167100    293.92768   -1573.5312    448.58603    201.53464    45.774679    36812.755 
  167200    300.57019    -1545.809    519.22717    329.87537   -111.23008    36812.755 
  167300    299.24169   -1557.3118    495.91063    289.06051    325.15919    36812.755 
  167400    301.38887   -1584.0618    491.44613    267.53617    230.11497    36812.755 
  167500     300.0618   -1562.0268    463.29843    255.43445    198.60431    36812.755 
  167600    291.90569   -1586.3048    472.58447     203.6344    30.723856    36812.755 
  167700    308.80556    -1589.683    466.98773    270.92767   -489.39832    36812.755 
  167800    301.25159   -1547.4236    491.13861    303.24732    345.01849    36812.755 
  167900    308.36882   -1564.4223    490.50816    317.73784   -24.551528    36812.755 
  168000     298.5573    -1560.157    501.49384    288.70994    276.27762    36812.755 
  168100    306.83576   -1539.3917    492.73134      338.073    197.80716    36812.755 
  168200    293.67972   -1501.2941    521.52445     345.5912    248.28978    36812.755 
  168300    304.72264   -1537.3507    477.46177    315.30797    120.81859    36812.755 
  168400    295.43245   -1520.8015    499.15994    311.62927   -70.458943    36812.755 
  168500    310.56415   -1479.1138    493.52593    415.97148   -211.61371    36812.755 
  168600    314.42184   -1517.3111    468.58627    370.24409    24.753558    36812.755 
  168700     306.6387   -1526.1681    486.79358    344.46954   -219.59385    36812.755 
  168800    298.65445   -1517.1744    507.88238    338.51952    -118.4495    36812.755 
  168900    309.58748   -1523.8552    482.89853    356.19499    180.65265    36812.755 
  169000    306.33198    -1510.271    466.24946    338.43826    22.317939    36812.755 
  169100    291.40751   -1498.5511    498.72347    315.27887   -357.28817    36812.755 
  169200     301.6488   -1459.0882     487.5498    389.78645     37.71535    36812.755 
  169300    302.60225   -1466.6428    508.65417    407.63912    318.46347    36812.755 
  169400    290.55538   -1462.4052    519.71756    368.57323    340.66457    36812.755 
  169500    293.59974   -1477.7046    475.74389    323.03922    -251.2041    36812.755 
  169600     296.9265   -1489.6764    460.39772    310.73467    259.23168    36812.755 
  169700    320.81149    -1499.745    510.24136    458.30142    66.521549    36812.755 
  169800    302.08322   -1503.4395    491.66702    351.51295   -208.19805    36812.755 
  169900    296.53043   -1492.3353    501.32602    347.21661   -138.52568    36812.755 
  170000    314.42717   -1470.5488     509.4263    457.87046   -252.65936    36812.755 
  170100    307.25678   -1490.6028    488.50576     384.5364   -696.42565    36812.755 
  170200    307.35035   -1487.7323    499.77349    399.09688   -467.59373    36812.755 
  170300    315.91053   -1495.1127    473.12436    403.69893    431.10729    36812.755 
  170400    293.76366   -1471.6407     508.8345    362.93353    24.362836    36812.755 
  170500    297.53012   -1484.7415    488.49241     346.4884    438.75837    36812.755 
  170600    301.27083    -1477.891    486.30304    368.03112    544.52632    36812.755 
  170700    295.71139   -1474.6747      495.424    355.27897    578.42295    36812.755 
  170800    298.64012   -1501.2427    492.42096    338.92509    484.38429    36812.755 
  170900    298.44661   -1461.3244    486.82588    372.37503    542.73645    36812.755 
  171000    295.33046   -1543.0786    499.11115    288.84305    287.78623    36812.755 
  171100    294.62571    -1528.648    479.62989    280.61191   -603.34303    36812.755 
  171200    294.99757   -1482.7512    477.93254    326.48959   -477.40154    36812.755 
  171300    302.42392   -1505.3068    501.63246    361.14863   -281.95215    36812.755 
  171400    293.37879   -1530.5332    476.58961    270.05913   -516.18259    36812.755 
  171500    297.36616   -1540.0051    488.93927    290.93167   -311.57432    36812.755 
  171600    295.97473   -1515.5885    493.70116    313.83081    214.78047    36812.755 
  171700    299.63116   -1517.2594    496.10932    331.06928    755.48948    36812.755 
  171800    294.09973   -1501.2948    471.28379    297.24528    709.95213    36812.755 
  171900    310.12138   -1534.1348    482.15828     347.5847    211.55825    36812.755 
  172000    306.12487   -1511.4854    460.93532    330.97508    575.14673    36812.755 
  172100    295.03293   -1508.7316    495.99187    318.72813    390.28757    36812.755 
  172200    308.54629   -1508.2919    478.57435    362.73535    160.92583    36812.755 
  172300    296.45285   -1515.0847    497.38752    320.17862   -144.01516    36812.755 
  172400    295.22022   -1521.3149    482.04596    293.04407    18.560778    36812.755 
  172500    302.10491   -1485.9163    508.68699    386.15393    75.128413    36812.755 
  172600    304.85608   -1452.9785    496.16899    418.98959     33.04545    36812.755 
  172700    292.24555   -1478.4904    516.80234    357.20048   -135.42644    36812.755 
  172800    299.09015   -1511.0258    496.60759    335.35961    159.53194    36812.755 
  172900    298.18876   -1544.0283    500.92169    302.60326   -148.91381    36812.755 
  173000    301.87634    -1508.589     476.9384    330.70117   -522.34355    36812.755 
  173100    303.98689   -1488.3779    505.62387    389.12257   -654.35285    36812.755 
  173200    300.65456   -1440.9751    460.44143     376.3043   -840.96722    36812.755 
  173300    304.40552   -1469.5789    481.90478    386.09172   -533.88152    36812.755 
  173400    293.70375   -1432.7747    497.44023    390.13484   -158.71704    36812.755 
  173500    295.49701   -1536.1652    486.49651    283.89348   -184.48478    36812.755 
  173600    295.59514   -1519.1223    484.20252     299.0853     658.2897    36812.755 
  173700    308.68472    -1484.327    497.02472    405.77536    328.78003    36812.755 
  173800    291.26405   -1467.3455    515.03568    362.14923    419.42467    36812.755 
  173900    291.21124   -1463.3081    504.54329    355.45594    431.41113    36812.755 
  174000    314.93398   -1454.9446    497.70072    464.03625    128.16777    36812.755 
  174100     299.1115   -1468.9795    495.48308    376.37777    34.951005    36812.755 
  174200    305.49928   -1457.5029     485.3317    406.53064    302.45057    36812.755 
  174300    296.20505   -1448.3389    527.66591    416.08447   -129.44961    36812.755 
  174400    292.83154   -1514.3429    473.82132    281.01149   -361.19905    36812.755 
  174500    306.31746   -1461.0169    491.11779    412.49521   -198.15162    36812.755 
  174600     295.8463   -1474.9981     484.4557    344.59608   -355.14749    36812.755 
  174700    308.23334    -1474.252    517.50195    434.29048   -269.14371    36812.755 
  174800    300.70773   -1477.8604    478.80832    358.02577   -24.136261    36812.755 
  174900    302.02084   -1457.0118    483.01562    389.00772   -95.484746    36812.755 
  175000    305.91738   -1492.1572    509.60868    398.04021    606.94285    36812.755 
  175100    303.32435    -1511.898    522.06583    379.05435     1113.036    36812.755 
  175200    296.33517   -1487.2923    475.37843     325.4309    422.20109    36812.755 
  175300    304.91922   -1453.1654    533.43815    456.35685    631.67433    36812.755 
  175400    290.03165   -1488.9443    488.23114    308.18414    563.44967    36812.755 
  175500    299.31045   -1503.4557    482.91289     330.2292    470.97689    36812.755 
  175600     301.6633   -1511.0047    512.06478    362.45037     129.3252    36812.755 
  175700    310.22382   -1516.2787    489.65442    373.39919    207.14781    36812.755 
  175800    302.69719    -1495.393    493.10602    363.76922    573.83713    36812.755 
  175900    296.24041    -1508.938    495.34684    323.32592    811.21761    36812.755 
  176000    296.54441   -1501.3904    485.62641    322.52508    932.55953    36812.755 
  176100    306.63055   -1507.5299    537.02481    413.30215    381.74666    36812.755 
  176200    304.63593    -1516.029     500.3047    359.08136    110.87075    36812.755 
  176300    304.73282   -1580.9869    480.28872    274.54474    109.06917    36812.755 
  176400    299.05506   -1565.8864    468.46749    252.20058   -448.95018    36812.755 
  176500    305.27843   -1560.6066    521.04734    338.14591   -270.30496    36812.755 
  176600    292.36142    -1547.802    489.64702     261.2564     438.0937    36812.755 
  176700     308.3747   -1567.0209    477.10827    301.76583    268.67578    36812.755 
  176800     302.5714   -1580.8825    500.08019    284.68624    35.466652    36812.755 
  176900     291.6482   -1548.7252    482.49719    249.96469   -318.21821    36812.755 
  177000    308.04954   -1536.0908     513.5147    367.63502    62.604647    36812.755 
  177100    310.69657   -1532.0818    491.53529    361.61051    143.95608    36812.755 
  177200    294.16915   -1495.2126    506.42729    338.78434   -415.49182    36812.755 
  177300    292.47068   -1502.0101    497.29453    315.18899   -248.25109    36812.755 
  177400    309.84321   -1510.1302    504.38639    392.56198    172.32447    36812.755 
  177500    300.65676    -1548.286    491.89821    300.46009    325.64701    36812.755 
  177600    298.52107   -1561.9748    495.72198    280.95673    282.45016    36812.755 
  177700    310.52558   -1618.9241    475.74365    258.20481    254.02873    36812.755 
  177800    301.41505   -1579.0807    474.39298    255.58224    292.44358    36812.755 
  177900    305.25925   -1582.4945    492.67301    287.79717   -31.620916    36812.755 
  178000    292.81624   -1547.5358    484.46879    258.39701    443.74588    36812.755 
  178100    290.47824   -1522.3258    487.51218    276.09913    42.514468    36812.755 
  178200    289.60298   -1539.9148    514.03221    281.08019   -207.25597    36812.755 
  178300     293.0695   -1515.5516    501.17914    308.23446   -209.69157    36812.755 
  178400    306.63432    -1519.758    492.23372    356.29993   -62.738477    36812.755 
  178500    305.41892   -1535.8166    492.43645    334.95913   -539.21267    36812.755 
  178600    294.69084   -1535.4761    494.14201    288.58992    114.69342    36812.755 
  178700    302.45506   -1576.7885    509.37322     297.5482    310.65391    36812.755 
  178800     296.1123   -1549.7135    482.20393    268.82934    429.48857    36812.755 
  178900    301.70767   -1507.3064    518.57418    372.85831     471.6587    36812.755 
  179000    299.97558   -1537.5848    504.23567    320.42463    514.24737    36812.755 
  179100    290.96979    -1520.292    505.41959     298.2587   -71.326238    36812.755 
  179200    299.68545   -1555.3723    497.89149    294.98353   -139.83808    36812.755 
  179300    310.34169   -1535.0296      481.271    346.79689     420.4141    36812.755 
  179400    300.28011   -1514.5224    485.20041    325.82608      105.425    36812.755 
  179500    297.67035    -1514.063    501.76059    331.06791    625.86382    36812.755 
  179600    304.46596   -1489.2253    496.90964    381.72294    363.72554    36812.755 
  179700    293.39043   -1509.5568    510.24948      324.748    405.26295    36812.755 
  179800    295.94807   -1564.8764    489.97364    260.69498    832.61187    36812.755 
  179900    298.33989   -1561.8647    493.70228    278.22953    103.30342    36812.755 
  180000    292.68755   -1534.3777    499.29539    285.80098   -474.23741    36812.755 
  180100    300.40633   -1514.8205    474.67602    315.57324   -700.41973    36812.755 
  180200    306.87766   -1488.6786    475.43049    371.67434   -249.89962    36812.755 
  180300    297.13211   -1509.9858    501.27405    332.22958    275.30395    36812.755 
  180400    293.79082   -1473.7902    504.76972     356.8417   -208.25301    36812.755 
  180500     301.9812   -1476.8664    485.19003    371.14864    -910.7652    36812.755 
  180600    294.26617   -1517.0828    472.47994     283.4046   -341.15676    36812.755 
  180700    303.00965   -1522.7773    498.95174    343.64073   -161.08095    36812.755 
  180800     301.6706   -1534.1634    501.24469    328.50453    358.24977    36812.755 
  180900     301.7517   -1505.1524    476.30477    332.94165     421.0335    36812.755 
  181000    297.58207   -1515.4743    490.83774    318.33535   -205.51423    36812.755 
  181100    297.71647   -1506.7736    510.19381    346.99872   -167.85227    36812.755 
  181200    288.03397   -1514.5233     522.8323    308.19082   -298.27275    36812.755 
  181300    308.57531   -1498.6101    513.94092    407.91469   -25.236278    36812.755 
  181400    314.16717    -1530.987    499.23064    386.06327     485.7237    36812.755 
  181500    291.84697   -1481.1075    487.39622    323.37849    355.14754    36812.755 
  181600    296.27515   -1514.1148    512.79747    335.75656     297.8829    36812.755 
  181700    302.68351   -1485.1609     524.7452    405.57881    220.69098    36812.755 
  181800    288.47803   -1480.9894    486.00331    306.89981    261.04459    36812.755 
  181900    302.02638   -1477.5245    500.76303     386.2674     31.73661    36812.755 
  182000    299.49631   -1540.0022    501.33229    312.94095   -131.44574    36812.755 
  182100    297.24891   -1515.9425    472.16803     297.6939    82.155029    36812.755 
  182200    300.55147    -1510.889    519.08049    364.56419    258.69607    36812.755 
  182300    281.54825   -1482.1815    515.03639    303.46701    537.51427    36812.755 
  182400    312.68109   -1540.1706    504.99144    375.93385    1057.4967    36812.755 
  182500    306.21625   -1546.0321    523.19686    359.10229     162.8254    36812.755 
  182600    296.65013   -1544.0257    472.91493    267.65534    202.90555    36812.755 
  182700    295.14016   -1538.6463    496.09171    289.39717    104.92297    36812.755 
  182800    291.82995   -1495.6586    509.02586    330.38022    211.37686    36812.755 
  182900    291.26136   -1524.6091    493.68428    283.52214    167.42246    36812.755 
  183000    307.04697   -1486.9919    485.75493    384.44952    304.34718    36812.755 
  183100    292.93704   -1501.1249    473.96003    294.84424   -236.27991    36812.755 
  183200    309.76789   -1503.5555    495.39428    389.80464    286.24565    36812.755 
  183300    301.72413   -1488.1384     501.8528    375.37924    831.51374    36812.755 
  183400    302.66045   -1525.4456    513.03572    353.48046    1126.3848    36812.755 
  183500    297.94243   -1543.4866    510.00814    311.11974    205.11668    36812.755 
  183600    300.17768   -1514.5466    489.67841    329.81754    89.442917    36812.755 
  183700    292.01689   -1501.1894    486.98277    303.64993   -335.80984    36812.755 
  183800    305.83586   -1528.4945    507.49807     359.2244    139.55495    36812.755 
  183900    293.82773   -1559.5345    492.98004    259.47431    23.439863    36812.755 
  184000    306.31857   -1541.9192    534.05157    374.53168    474.25302    36812.755 
  184100    302.54391   -1559.8367    462.88069    268.40848    675.18315    36812.755 
  184200    295.93531    -1583.303    481.04235     233.2795     501.1245    36812.755 
  184300    292.64646   -1516.2288    506.74223    311.21116   -182.64757    36812.755 
  184400    300.25126   -1490.9291    500.64716    364.73592   -20.849752    36812.755 
  184500    296.11635   -1477.0891    495.43022    354.69832   -128.53693    36812.755 
  184600    312.73472   -1497.8412    501.98363    415.49745   -344.06884    36812.755 
  184700    310.03399   -1560.3161    495.57897    334.42971   -434.93785    36812.755 
  184800    309.79064   -1555.3204    461.73575    304.48386   -170.04482    36812.755 
  184900    295.28341    -1539.393    498.24653    291.45177   -454.68963    36812.755 
  185000    291.19558   -1570.0861    522.63993    266.70385    -191.4809    36812.755 
  185100    308.45187     -1539.32    467.37987    320.08668    263.75509    36812.755 
  185200    304.40263   -1552.6283     494.6245    315.74893    265.63203    36812.755 
  185300    295.67944   -1528.1523    487.09372    293.32691    273.89943    36812.755 
  185400    306.24569   -1516.6252    503.42553    368.87076    455.94208    36812.755 
  185500    304.10205   -1530.3732    483.03305    325.05609    218.50022    36812.755 
  185600     292.1113   -1524.9438    499.50388    292.84266   -435.49569    36812.755 
  185700    308.40356   -1510.3385    497.28369    378.75397   -1.2234092    36812.755 
  185800    306.07175   -1506.6057    515.93591    390.61567   -211.84257    36812.755 
  185900    288.55765   -1465.2428    505.41552    342.41798    391.66181    36812.755 
  186000    304.27215   -1466.8831    514.24169    420.52249    -228.1613    36812.755 
  186100    297.47709   -1456.1112    507.83398      394.221   -65.658967    36812.755 
  186200    296.21583   -1444.0953    484.76714    377.47803   -69.199952    36812.755 
  186300    291.88887   -1482.8865    526.56082     360.9531   -587.35854    36812.755 
  186400    315.94237   -1481.7789    488.75089    432.80299   -428.26218    36812.755 
  186500    291.34622   -1470.1729    467.30787    311.96486   -465.64915    36812.755 
  186600    308.81078    -1492.216    487.67116    389.10166   -367.66722    36812.755 
  186700    300.47172   -1445.2452    503.57858    414.34614   -219.27117    36812.755 
  186800    304.14907   -1457.4807    494.60529    409.73303   -7.5761846    36812.755 
  186900    301.23907   -1438.0013    502.67178    424.14628    334.63999    36812.755 
  187000    295.91938   -1476.2067    505.39172    364.65336    33.163817    36812.755 
  187100    303.45367   -1474.8238    498.10245    392.74875    59.676776    36812.755 
  187200    310.35077   -1507.8284    494.59505      387.363     953.0732    36812.755 
  187300     301.3092   -1458.6927    510.62645    411.72605    877.43204    36812.755 
  187400    301.97053    -1447.159    501.64974    417.26759     724.5483    36812.755 
  187500    290.19724   -1493.5935     486.9229    302.97401    167.90938    36812.755 
  187600    299.10241   -1456.2231    513.92122    407.53129    354.85484    36812.755 
  187700    302.52038   -1442.8453     513.8056    436.21859   -469.61118    36812.755 
  187800    289.29369   -1423.9188    514.83778    396.48587   -316.97344    36812.755 
  187900    304.97645    -1405.944    525.49069     495.8891   -303.16559    36812.755 
  188000    289.85638   -1403.5095    510.34274    414.93955   -254.82598    36812.755 
  188100    297.83344   -1427.6711    527.97352    444.40879   -412.79697    36812.755 
  188200    297.42256   -1444.1007      479.033    377.18435    23.674246    36812.755 
  188300    291.87237   -1476.6842    529.78414    370.30432   -308.98951    36812.755 
  188400    306.24511   -1447.0679    503.99196    438.99183    201.57117    36812.755 
  188500    296.11428   -1430.1018      467.826    374.07201    63.476026    36812.755 
  188600     306.6086   -1428.2416    527.64398    483.11052    47.234142    36812.755 
  188700    292.28251   -1481.6933    499.27514    336.63721    297.36368    36812.755 
  188800    308.16204   -1468.6258     541.1299    463.22292    948.80296    36812.755 
  188900    295.43624   -1490.4461    497.17316    340.01497     595.3814    36812.755 
  189000    296.70265   -1480.7775    499.33851    357.56415     717.2091    36812.755 
  189100    290.57506   -1464.3032     501.6832    348.72966   -304.38188    36812.755 
  189200    299.51419   -1481.4314    489.33987    359.59998     228.9063    36812.755 
  189300    294.19977   -1468.0871    485.10304    344.72374   -343.01488    36812.755 
  189400    298.24367   -1469.7636    486.43392    362.62801   -863.04461    36812.755 
  189500     295.4188   -1442.3089    494.87502    385.77536   -473.17126    36812.755 
  189600    309.68055   -1444.3228    513.25781    466.50675   -258.02611    36812.755 
  189700    288.42802   -1456.1769    496.42886    341.91214   -1269.3236    36812.755 
  189800    297.74198   -1470.5889    498.46315    371.56784   -421.00114    36812.755 
  189900    305.37281   -1486.3647    485.12094    376.88738   -691.76663    36812.755 
  190000    289.17897   -1456.6272    479.84938    328.27135   -668.31967    36812.755 
  190100     296.4752   -1470.9652    505.70189     372.7134   -484.50807    36812.755 
  190200    293.13724   -1458.3217    535.59484    400.18581     95.89625    36812.755 
  190300    295.98906    -1475.779    472.84633    332.85006    602.71697    36812.755 
  190400    292.27211   -1470.1893    502.64349    351.46254    265.29224    36812.755 
  190500    294.65223   -1492.6801    511.76453    348.83418    636.14734    36812.755 
  190600    302.84643    -1513.581    473.62891    326.77761    325.66329    36812.755 
  190700     301.8451   -1502.2555    500.39233     360.3476    442.78255    36812.755 
  190800    300.26218   -1501.0805    495.30924    349.29582   -277.34077    36812.755 
  190900    298.12012   -1449.6813    487.95355    383.67237    211.63919    36812.755 
  191000    299.94539    -1425.249    508.90136    437.28985    414.53818    36812.755 
  191100    309.62497   -1480.1796    509.02325    426.16457    741.82683    36812.755 
  191200     291.4706   -1490.8675      496.435    320.95867    -70.81849    36812.755 
  191300    308.07134   -1482.5169    488.05033    395.84289   -59.584526    36812.755 
  191400    305.70964   -1463.0039    499.31443    415.96172    -169.2403    36812.755 
  191500     292.6636   -1445.3583    497.72701    373.14389   -402.26439    36812.755 
  191600    304.31501    -1431.692    510.26382    451.92917   -124.11877    36812.755 
  191700    305.85816   -1477.4556    504.10347    406.96933   -310.81262    36812.755 
  191800     299.4054   -1495.9942    499.04785    354.25424   -491.19276    36812.755 
  191900    305.93617   -1468.6581    499.83283    411.84821   -145.92737    36812.755 
  192000    304.97802   -1479.9254    493.56041    389.98447   -663.39735    36812.755 
  192100    292.41815   -1505.1658    501.90931    316.41096   -490.38725    36812.755 
  192200    305.98573   -1482.8411    501.60686    399.66296    20.317563    36812.755 
  192300    287.95526   -1493.1241    537.52224    343.92483   -502.76962    36812.755 
  192400    300.62827    -1472.876    503.56847    387.41169     147.0127    36812.755 
  192500    303.33697   -1481.3607    496.31037    383.89313    273.54324    36812.755 
  192600     296.1695   -1476.9866    495.33125    354.94173   -40.951004    36812.755 
  192700    301.81862   -1495.7473    494.73883    361.08274   -782.06107    36812.755 
  192800    301.22777   -1489.6102    479.44195    349.25648   -663.78239    36812.755 
  192900    301.79044     -1471.88     483.8301    373.91424   -979.41375    36812.755 
  193000    295.83707   -1488.8223    521.97584    368.25037   -358.11481    36812.755 
  193100     295.6104   -1487.5837    471.91705    318.40728    97.543668    36812.755 
  193200    302.23712   -1530.4898    507.08206    340.57224    524.22052    36812.755 
  193300     300.6031   -1503.2534    494.64497    347.99724    573.40984    36812.755 
  193400    299.56211   -1491.5532    488.08708     348.4416    759.42082    36812.755 
  193500    299.16015   -1543.9979    521.30481    327.40067    803.53849    36812.755 
  193600    303.08704   -1496.2797    490.82993     362.3658   -128.24585    36812.755 
  193700    306.90187   -1499.7859    507.25747    392.50326    603.04693    36812.755 
  193800    299.44508   -1504.2076    507.53494    354.70692    419.74003    36812.755 
  193900    302.23239   -1491.8531    508.43018    380.53559    711.78553    36812.755 
  194000     299.9177   -1491.0007    492.88405    355.39588    468.02919    36812.755 
  194100    297.08801   -1485.7388    539.92927    394.93279     1044.357    36812.755 
  194200    297.02363   -1490.7286    486.34223    336.06541    258.49777    36812.755 
  194300    310.53429    -1485.454     483.1041    399.07467    360.07842    36812.755 
  194400    290.27356   -1517.1769    486.65302    279.46514     146.6906    36812.755 
  194500    300.56317   -1473.2758    512.58469    395.73436    218.81081    36812.755 
  194600    292.90432   -1502.8005    521.24904    340.31008   -627.17652    36812.755 
  194700    293.59788   -1513.6718    482.00322    293.32295   -597.36832    36812.755 
  194800    300.72155   -1487.9876    500.61139    369.76402   -957.71879    36812.755 
  194900    292.46239   -1531.1827    489.56148    278.24589   -349.26068    36812.755 
  195000    304.85829   -1502.9815    478.98022     351.8078    43.062146    36812.755 
  195100    306.17766   -1508.0369    503.87102    377.59747    311.83138    36812.755 
  195200     309.2627   -1519.0412    495.70507    372.34986    210.89755    36812.755 
  195300    295.26018   -1513.1536    502.04648    321.38621    389.30784    36812.755 
  195400    297.07327   -1511.3212    521.15389    350.50844    870.15566    36812.755 
  195500    303.59146    -1490.629    471.33317     350.7962    950.26459    36812.755 
  195600    295.62593   -1517.1191    496.84255     313.8674    758.46369    36812.755 
  195700     299.7702   -1552.4483     498.2402    298.63877     515.9143    36812.755 
  195800    290.53663    -1548.264    468.19008    231.10237    261.59781    36812.755 
  195900    301.46121   -1521.4558    473.83212    312.85461   -345.08323    36812.755 
  196000    303.42968   -1500.3891    511.16491    380.13763   -443.58089    36812.755 
  196100    302.43465   -1512.0522    497.38555    350.20467   -478.55345    36812.755 
  196200    312.36968   -1498.9102    487.18684    397.98432   -227.07273    36812.755 
  196300    289.77083   -1518.2769    471.53988    260.98327   -724.12865    36812.755 
  196400    300.23574   -1470.3372    511.39899     396.0096   -194.20181    36812.755 
  196500    310.38152    -1538.481    494.81831    357.07252   -113.34029    36812.755 
  196600    293.92756   -1502.3587    482.79183    306.91242   -438.93135    36812.755 
  196700    303.86173   -1560.6889    488.08611    298.70892   -34.005787    36812.755 
  196800    312.86289   -1514.6153    495.65597    392.97416   -9.4436481    36812.755 
  196900    308.80871   -1511.2944    486.62171    368.96446   -305.58696    36812.755 
  197000    304.07223   -1511.2498    488.80415    349.81602   -607.48922    36812.755 
  197100     292.5342   -1475.7173    481.43263    325.90654   -768.43976    36812.755 
  197200    294.69853   -1490.9015    485.58146    324.63862   -599.05331    36812.755 
  197300    288.81563   -1504.2915    503.38614     302.5041   -731.21814    36812.755 
  197400    306.85858   -1512.9844    505.98278    377.83466   -469.81738    36812.755 
  197500    302.62086   -1507.3354    489.07938     347.4557    51.447865    36812.755 
  197600    306.23755   -1517.9073    500.45049    364.57684    652.69925    36812.755 
  197700    308.39611   -1507.9784    505.73813    389.53487    1045.5718    36812.755 
  197800     307.9502    -1482.564    484.27975    391.47846    980.09542    36812.755 
  197900    290.96585   -1520.1157    512.61693    305.61451      497.813    36812.755 
  198000    308.75756   -1529.3256    489.39444     353.4752    859.40859    36812.755 
  198100    304.49184   -1510.3123    503.59441    367.43744    868.53457    36812.755 
  198200    300.29696   -1508.4464    478.56215    325.33985    351.14599    36812.755 
  198300    299.04244   -1467.8079    479.61658    361.37116   -332.73601    36812.755 
  198400    302.92561    -1510.739    517.84365    374.19171   -584.62539    36812.755 
  198500     310.0611   -1510.1993    487.47224    376.56204   -468.16584    36812.755 
  198600    308.36392   -1479.4746    504.03705    416.19228   -230.28505    36812.755 
  198700     297.8354   -1533.0968    499.08496    310.10335   -593.64814    36812.755 
  198800    296.48999   -1508.7566    490.64697    319.93382   -136.14307    36812.755 
  198900    293.64052   -1535.1652    509.17888    299.19757   -130.59231    36812.755 
  199000    303.06765   -1505.1553    485.88671    348.45941    -477.2167    36812.755 
  199100    298.50679   -1458.8601     491.8556    380.14066   -12.476712    36812.755 
  199200    307.61199   -1468.7603    477.82237    397.29855   -354.27151    36812.755 
  199300    300.87747   -1495.7672    498.07788    360.15463    175.91803    36812.755 
  199400    304.44855   -1493.5108    499.99493    380.44418   -167.75439    36812.755 
  199500    287.97473   -1528.7451    450.48762    221.35703   -144.47175    36812.755 
  199600     305.8146   -1568.4988    479.76551    291.39157   -82.062978    36812.755 
  199700    302.44075    -1517.668     504.1854    351.41629  -0.83694358    36812.755 
  199800    294.06547   -1509.2868    467.38136    285.19627    539.99007    36812.755 
  199900    301.27424   -1529.8227    519.67868    349.49046   -668.41371    36812.755 
  200000     300.9179   -1527.3837    465.20063    295.84333   -371.55604    36812.755 
  200100    310.86825      -1525.1    465.93222    343.76403   -413.55908    36812.755 
  200200    293.47263   -1475.5944    476.72451    325.55643   -116.02838    36812.755 
  200300    312.91647    -1498.897    474.72317    388.00143   -493.72405    36812.755 
  200400    295.43218   -1519.0568     483.7214    297.93424    -186.1691    36812.755 
  200500    299.94525    -1526.717    480.51001    307.42988    251.73222    36812.755 
  200600    309.74676   -1519.7345    500.30685    378.44285    812.82636    36812.755 
  200700    296.47028   -1537.5083    474.35734    274.80349    179.94494    36812.755 
  200800    297.58756   -1492.9694    476.81934    326.84666     708.9679    36812.755 
  200900    312.47442   -1517.8185    474.36765    366.72942   -120.88192    36812.755 
  201000     305.6407   -1546.9844    500.95776    333.31342    108.36718    36812.755 
  201100    314.19749   -1504.4087    504.44385    417.99154    143.85787    36812.755 
  201200    287.96591   -1522.4253    495.94322     273.0927    233.68935    36812.755 
  201300    301.21865   -1551.8974    492.70643    300.19267    611.41083    36812.755 
  201400    306.51664   -1503.5691    471.03866    350.76276    494.33632    36812.755 
  201500    306.67286   -1512.3499    490.20259    361.85091    46.454955    36812.755 
  201600    300.39956   -1527.4619     492.4068    320.63208    343.31462    36812.755 
  201700    295.34914   -1455.3288    497.59017    375.15617    179.11829    36812.755 
  201800    298.17463    -1487.296    472.06493    330.41506   -324.76511    36812.755 
  201900     298.6301   -1484.8302     514.3059    377.17731    188.89744    36812.755 
  202000     299.5443   -1456.4894    494.84022     390.1782   -290.58687    36812.755 
  202100    307.71501   -1476.2247    511.82175    424.29837   -482.30462    36812.755 
  202200    304.00358   -1522.2548    494.22641    343.92342   -322.61481    36812.755 
  202300    296.70619    -1485.072    505.96528     359.9124    507.47588    36812.755 
  202400    302.75537   -1513.8987    497.78248    350.20251    467.62398    36812.755 
  202500    297.03266   -1548.4044    476.31766    268.40575   -204.61437    36812.755 
  202600    301.55772    -1515.521    487.53231    332.92512   -290.93072    36812.755 
  202700    309.70236   -1502.6138    492.97849    388.03488   -189.02536    36812.755 
  202800    305.50913   -1475.0874    508.46997    412.12892   -520.94122    36812.755 
  202900    297.95081   -1479.6497    490.68168    355.66798    111.15015    36812.755 
  203000    310.42096   -1545.8994    460.67808    315.69185    259.90197    36812.755 
  203100    305.71603   -1527.4678    490.19009    342.40233    -237.1052    36812.755 
  203200    301.71692   -1542.6281    495.90372    314.90789   -785.90403    36812.755 
  203300    296.13069   -1512.3393    495.03034    319.11292   -652.31249    36812.755 
  203400    313.44826   -1554.6532     494.0056    353.92757     216.8456    36812.755 
  203500    299.15899   -1527.4754    490.35603    312.96912    86.974782    36812.755 
  203600    298.04658   -1494.2424    516.99419    367.81999    244.72062    36812.755 
  203700     304.1718   -1530.0075    499.42395    342.12745    694.09553    36812.755 
  203800    293.63549   -1510.6594    498.60021    313.10204    716.24762    36812.755 
  203900    308.42907   -1528.0322      496.439    360.33062    374.81428    36812.755 
  204000    305.58472   -1520.2745    493.74217    352.55514    133.98923    36812.755 
  204100    296.77365   -1478.4586    519.64005    380.50506    143.67306    36812.755 
  204200    293.54151   -1476.9908    518.54357    366.28992    43.011021    36812.755 
  204300    295.46437   -1497.7646    509.55011     345.2004   -347.93877    36812.755 
  204400    290.57452   -1520.7103     476.1786    266.81555   -866.24574    36812.755 
  204500     297.5953   -1544.6717    497.84441    296.20438   -543.48574    36812.755 
  204600     291.8099   -1528.3868    513.08707     301.6227   -777.15519    36812.755 
  204700     297.1434   -1539.5531    524.40764    325.84676   -513.14782    36812.755 
  204800    297.16967   -1562.1561    502.53486    281.48954   -383.78164    36812.755 
  204900    293.72818    -1552.501    493.12834    266.20691    13.805178    36812.755 
  205000    302.44914   -1558.9157     492.9394     298.9605    223.65528    36812.755 
  205100    296.96483   -1522.5768    494.83934    312.44896   -504.75799    36812.755 
  205200    292.70772   -1533.7419    521.31915     308.5515    227.79595    36812.755 
  205300    297.62228   -1510.3905    552.24414    385.00699    545.23202    36812.755 
  205400    294.71243   -1536.0186    520.34838    314.35123    794.35055    36812.755 
  205500    295.63351   -1507.0319    520.73938    347.88562    1005.1203    36812.755 
  205600    290.67957   -1535.8974     505.6254    281.54927    382.59719    36812.755 
  205700    310.52368   -1522.4865    491.39197    370.28219    490.43827    36812.755 
  205800    293.23642     -1534.14    515.77296    304.99322    41.198769    36812.755 
  205900    297.36554   -1524.8279    499.84784     317.0147   -178.63268    36812.755 
  206000    293.21625   -1521.0704    510.47667     312.6755    38.423449    36812.755 
  206100    287.32108   -1546.1474    518.79367    269.31087   -84.460894    36812.755 
  206200    297.31113   -1526.0053    473.89324    289.63718     166.3912    36812.755 
  206300     295.4526   -1523.9088    532.75531    342.20824    122.60582    36812.755 
  206400    302.74743   -1525.0273    510.05547    351.31103    124.61359    36812.755 
  206500    304.27509   -1561.4005    495.92457    307.70122   -183.29207    36812.755 
  206600    295.66731   -1564.7975    521.99563     291.5289    182.89521    36812.755 
  206700    310.03526   -1526.0886    515.03052     388.1144    336.31982    36812.755 
  206800    292.71066   -1540.7964    510.74444    290.93553   -164.52363    36812.755 
  206900    310.13121   -1563.0746    499.54673    336.07766    525.02845    36812.755 
  207000    299.90689   -1572.2962    509.42824    290.59574    163.12044    36812.755 
  207100    302.49989   -1540.0793    488.96567    314.05215   -311.97398    36812.755 
  207200    294.65545   -1524.4014    490.68285    296.04574   -152.37021    36812.755 
  207300    304.70412   -1508.8091    528.94929     395.2536   -388.28878    36812.755 
  207400    301.05647   -1554.4368    513.97246    318.18736    313.75965    36812.755 
  207500    299.61533   -1552.3152    515.30989    315.14259    481.32325    36812.755 
  207600    301.00934   -1559.3812    540.54996    339.60776    115.79524    36812.755 
  207700    299.15421   -1555.4457    505.62331    300.24455    15.854172    36812.755 
  207800    298.55928   -1530.8911    506.93425    323.42523   -470.95319    36812.755 
  207900    306.31121   -1533.8492    494.76003     343.2769    -765.8022    36812.755 
  208000    290.43087   -1529.5903    506.75253    287.86122   -507.97293    36812.755 
  208100    293.96154   -1567.1157    522.39662     281.9136   -536.76219    36812.755 
  208200    303.57107   -1560.0104    502.12961    312.11918    293.58919    36812.755 
  208300    290.47245   -1503.4319    533.83456    341.28925     57.28354    36812.755 
  208400    304.89637   -1503.5152    495.90247    368.36827    506.71695    36812.755 
  208500    290.00395   -1542.1016    506.33555    273.00623   -69.112794    36812.755 
  208600    304.62313   -1553.6691    496.83984    317.91867    -56.78383    36812.755 
  208700    308.81747   -1523.5235    515.75964    385.91289    474.43166    36812.755 
  208800    293.84523   -1507.3903     518.4443    337.16172   -48.756352    36812.755 
  208900    295.52023   -1558.2948    496.59388    271.96605    -83.95746    36812.755 
  209000    295.13167   -1547.6274    527.29145    311.57749   -59.139895    36812.755 
  209100    318.40688   -1597.5604    501.82593    341.21871    68.921429    36812.755 
  209200    296.67161   -1595.5785    489.89425    233.17886    152.52475    36812.755 
  209300    305.83284   -1604.5261     506.8181    282.49924   -386.50489    36812.755 
  209400    301.31552   -1603.0428    492.95643     249.7344     263.3827    36812.755 
  209500    293.68255   -1607.7366    485.24998    202.88701   -79.955521    36812.755 
  209600    296.50929   -1517.4931    517.03905    337.67652     536.7438    36812.755 
  209700    300.82314   -1595.5474    532.62652    294.67787    428.30587    36812.755 
  209800     298.0829   -1622.6203    486.08646    208.69836    609.28473    36812.755 
  209900    310.36913   -1596.0989    504.52965    309.10999      805.746    36812.755 
  210000    302.34979   -1575.4809    514.19713    303.20458    567.99119    36812.755 
  210100     294.6213   -1583.2004    507.64696    254.05668   -360.40022    36812.755 
  210200    302.97762   -1598.5668    492.17084    260.92579    3.3154635    36812.755 
  210300    296.19441   -1538.5264    523.37237    321.55545   -523.45617    36812.755 
  210400    294.00278   -1552.4097    501.57573    275.98478   -910.66351    36812.755 
  210500    297.49068   -1591.3363    492.08607    243.30929    188.07361    36812.755 
  210600    299.99868   -1621.2252    479.80903     212.4618    336.09728    36812.755 
  210700    300.44669   -1569.8774    520.69688     306.7193    519.16183    36812.755 
  210800    301.99648    -1593.397    480.02784    249.52482    194.41749    36812.755 
  210900    292.83943   -1549.9146    523.12091      294.775    280.44174    36812.755 
  211000    290.70472   -1547.9536     505.9803     269.9615    125.62214    36812.755 
  211100    288.55736   -1523.6601    498.83027    277.41413   -113.60392    36812.755 
  211200    295.09431   -1554.7233    512.59518    289.61674    658.02636    36812.755 
  211300    311.18773   -1605.8559    502.91409    301.43179    -32.73175    36812.755 
  211400    302.29355   -1598.0978    512.74264     278.8794    438.36077    36812.755 
  211500    309.38612   -1578.1292    464.38183    282.49559    505.91926    36812.755 
  211600    295.24835   -1582.7404    502.41918    252.11875    805.09557    36812.755 
  211700    309.71797    -1605.692    530.10739    322.15598    677.77104    36812.755 
  211800    293.55871   -1578.3876    508.52558    254.95272   -73.499443    36812.755 
  211900    306.82546   -1575.9981    470.80833    279.49706   -812.70264    36812.755 
  212000     296.1997   -1583.4894    505.07708    258.32112    -1369.462    36812.755 
  212100    305.77036   -1576.9919    518.90482     321.8382   -888.35218    36812.755 
  212200    301.17678   -1556.9462    508.23796    310.48638   -799.93761    36812.755 
  212300    296.59403   -1550.4517    513.98583    302.04704   -823.60362    36812.755 
  212400    294.66249   -1579.1464    507.88942    258.53901   -282.89622    36812.755 
  212500    304.55945   -1583.5709    501.51452    292.40413    60.045274    36812.755 
  212600    296.02231    -1558.352     507.3369    284.91773    103.06511    36812.755 
  212700    294.08542   -1566.3488    489.25321    250.09611    531.41471    36812.755 
  212800    311.99999   -1633.1742    534.22397    309.08904    398.93715    36812.755 
  212900    286.66694   -1628.1883     500.9923    166.51656     97.13202    36812.755 
  213000    298.02167   -1590.8188    497.37121    251.50827     120.9961    36812.755 
  213100    308.95241   -1581.0819    512.36461    325.56837     43.30643    36812.755 
  213200    300.81691    -1550.815    499.06217    305.81774   -43.107699    36812.755 
  213300    308.90105   -1584.1334    498.75824    308.67875    -12.07367    36812.755 
  213400    290.84559   -1510.3744    506.14031    308.33651    20.551661    36812.755 
  213500    304.94865   -1539.9402    501.36537    337.64212    383.03388    36812.755 
  213600    299.65312   -1528.6342    520.11475      343.799   -130.45392    36812.755 
  213700    294.66429   -1539.4199    505.93218    296.31641    507.74721    36812.755 
  213800    297.38458   -1568.8888    509.30719     282.4991     103.0791    36812.755 
  213900     308.5785   -1556.5434    537.42734    373.48216    935.10565    36812.755 
  214000    292.44283   -1559.1918    498.92099    259.50805    833.09762    36812.755 
  214100    293.22064   -1564.0647    500.99955     260.2239    445.34046    36812.755 
  214200    298.17283   -1568.8334    497.11229    273.91691    312.91736    36812.755 
  214300    304.74452   -1529.6385    516.96367    362.62084    379.79502    36812.755 
  214400    302.68157   -1533.9213    523.09695    355.16133   -497.75845    36812.755 
  214500    298.35297   -1527.2574    492.71795    311.91149    -572.2824    36812.755 
  214600    303.47925   -1569.5233    506.52255    306.58486   -166.53031    36812.755 
  214700    302.12312   -1511.5722    500.79684    352.69012   -301.18065    36812.755 
  214800    299.32205   -1557.1585    514.53534    308.20119   -372.77197    36812.755 
  214900    302.07794   -1596.9779    489.09794    255.38156    -431.1427    36812.755 
  215000    299.28794   -1552.6215    506.49759    304.54655   -434.52747    36812.755 
  215100    296.64673   -1538.5317    498.75343    298.97257   -206.06669    36812.755 
  215200    304.28059   -1539.8362    497.50523      330.871   -182.80989    36812.755 
  215300     297.5197   -1559.8142    528.39264    311.26888    -100.1411    36812.755 
  215400    290.12092   -1563.6036    511.92097    257.61749   -504.85392    36812.755 
  215500    299.26866   -1522.9338    493.26031    320.90998   -387.33253    36812.755 
  215600    299.07662   -1540.0057    516.19378    325.90484   -816.74386    36812.755 
  215700    296.00676    -1546.677     502.3133    291.49899   -1071.7757    36812.755 
  215800    291.59288   -1524.0487    512.56179    304.45609   -599.71913    36812.755 
  215900     296.1655   -1572.6685    495.35408    259.26464   -608.03581    36812.755 
  216000    301.22561   -1565.6817    507.74003    301.47336   -678.05021    36812.755 
  216100    306.18146   -1540.1444     507.4856    349.12175   -318.36961    36812.755 
  216200     299.2503   -1535.7363    498.87878    313.64308   -552.51865    36812.755 
  216300    309.80086   -1557.4872    516.18235     356.8098    292.64871    36812.755 
  216400    296.09957    -1540.401    527.03234    322.91283    750.36155    36812.755 
  216500    306.77372   -1556.1169    521.69268    350.02911    584.70897    36812.755 
  216600    304.19824     -1583.45    511.06388    300.44428    726.23916    36812.755 
  216700    304.02261   -1611.5048     477.4541    237.98705    629.81908    36812.755 
  216800    300.14743   -1578.9497    503.90484     279.5044    767.82859    36812.755 
  216900    298.12074   -1583.8783    518.13912    279.66378    179.74129    36812.755 
  217000    299.30213   -1576.5904    506.80278    280.94691    7.2160157    36812.755 
  217100    301.31022   -1593.9152    494.77114    260.65276    817.72734    36812.755 
  217200    291.39077   -1579.2104    517.37674    253.19728    230.54832    36812.755 
  217300    296.42092   -1536.2265    540.84279      342.348    157.82013    36812.755 
  217400    301.37973   -1546.3042    475.06814    288.87453   -519.42898    36812.755 
  217500    301.80137   -1560.0277    486.48171    288.46742   -330.57571    36812.755 
  217600    297.90847   -1588.2784    493.13445    249.30103   -275.99217    36812.755 
  217700    312.75375   -1558.4064    502.22222    355.25678   -202.68167    36812.755 
  217800    294.94477   -1566.7859    509.06298    273.34699   -4.4296086    36812.755 
  217900    300.82553   -1525.8269    515.39155    347.17411    44.683664    36812.755 
  218000    294.21165   -1528.7496    508.50892    307.52078   -60.994353    36812.755 
  218100    311.04704   -1515.9159     510.2337    398.05644   -135.43704    36812.755 
  218200    299.05521   -1505.7243    514.21484    358.11071   -32.499557    36812.755 
  218300     299.3061   -1554.2496    513.33189     309.8347    43.024264    36812.755 
  218400    293.88011   -1519.2744    507.10941    314.10019    480.76766    36812.755 
  218500    307.58873   -1495.6224    490.86911    383.37821    41.126877    36812.755 
  218600    296.18604   -1499.7392    518.38574    355.31828   -225.33739    36812.755 
  218700    298.87146   -1481.3272    520.34202     387.8057     82.20129    36812.755 
  218800    300.37412   -1485.1364    496.74545    367.18133   -54.711337    36812.755 
  218900    294.12704   -1519.7708    519.16157    326.77033   -48.400806    36812.755 
  219000    297.52854   -1525.3559    516.08878    333.46322    49.287304    36812.755 
  219100    296.18259   -1481.5134    525.02823    380.17094    21.693468    36812.755 
  219200     307.8419   -1517.7643    503.18343    374.69312    601.48282    36812.755 
  219300    297.83814   -1508.4579    496.94948    332.61918    251.03541    36812.755 
  219400    303.33707   -1524.6366    509.99019    354.29751    232.26464    36812.755 
  219500    302.84855   -1552.4167    508.41353    322.73608    17.296488    36812.755 
  219600     295.9143   -1546.4771     518.8528    307.82112   -77.551424    36812.755 
  219700    299.68742   -1528.6243    509.86129    333.71026    150.89714    36812.755 
  219800    293.17967   -1531.9648    505.20324    296.34253   -402.43828    36812.755 
  219900    287.18704   -1520.7001    513.99513    289.35473   -342.36106    36812.755 
  220000    288.90366    -1498.875    547.53993    352.47172    429.59548    36812.755 
  220100    304.18605   -1536.3231    524.95921    361.41147    228.47668    36812.755 
  220200    301.70028    -1538.192    513.66912    337.03437     517.3635    36812.755 
  220300    303.96111    -1534.356    533.39919    370.80338    437.93094    36812.755 
  220400    287.71943   -1544.6256    512.64413    266.48092   -205.86538    36812.755 
  220500    289.06464   -1528.4198    505.04995    281.16335    160.90016    36812.755 
  220600    298.15539   -1558.7976    522.87377    309.63546    552.98279    36812.755 
  220700    296.84051   -1564.0836    510.17765    285.71937     158.7078    36812.755 
  220800    308.41048   -1568.2998    499.84212    323.38225    632.78342    36812.755 
  220900    303.22236   -1530.4103    500.22062    338.23656     840.6392    36812.755 
  221000    296.72893   -1564.5131    506.19385    280.80253    89.577792    36812.755 
  221100    298.54783   -1544.1018    496.69142    299.91993    377.02485    36812.755 
  221200    293.58343   -1518.8502    493.63848    299.71454    107.41767    36812.755 
  221300    298.21665   -1521.4104    498.81192    323.23733    103.32738    36812.755 
  221400    294.09331   -1443.1846    545.64622    429.68895   -55.484737    36812.755 
  221500    303.86671   -1466.4784    514.06381     418.9196   -79.044533    36812.755 
  221600    305.90531   -1482.2993    507.50499    405.73998   -53.665077    36812.755 
  221700    294.68734   -1507.2827    534.87135    357.49679    303.98856    36812.755 
  221800    306.34735   -1511.3944    534.00412    405.13892     321.2399    36812.755 
  221900    288.47469   -1527.0852    485.36866    260.15433    407.06878    36812.755 
  222000    297.67989   -1520.2679    536.08267    359.22816    12.721798    36812.755 
  222100    300.45944    -1522.359    482.28003    315.87836   -505.55181    36812.755 
  222200    296.47082   -1524.2766    519.97683    333.65718   -270.24048    36812.755 
  222300    308.80103   -1507.0336    534.50658     421.0755    -160.3265    36812.755 
  222400     296.5278   -1517.2282    514.47097     335.4569    220.42738    36812.755 
  222500    301.20445   -1525.5825    491.79987    325.53695     492.7044    36812.755 
  222600    298.52125   -1579.8903    526.25396    293.57408    325.24101    36812.755 
  222700    300.83823   -1555.5445    502.76867    304.89097    741.07517    36812.755 
  222800    304.87692   -1497.0527    527.13699    405.97749    170.52141    36812.755 
  222900    298.52567   -1488.0344    506.59463    365.79059    339.42315    36812.755 
  223000    306.20923   -1538.3543    516.48882    360.04036    242.47668    36812.755 
  223100    289.84108   -1569.0101     497.5996    236.62678   -154.96346    36812.755 
  223200    308.97714   -1523.8562    505.86144    376.40256    211.71291    36812.755 
  223300    300.74913    -1477.764    524.87015    404.37091    59.335379    36812.755 
  223400    304.34877   -1524.7181    491.23223    340.02379   -493.50031    36812.755 
  223500    300.01984    -1548.623    507.71736    313.06784    434.16584    36812.755 
  223600    300.26274   -1498.4263    508.52927    365.17266    87.936963    36812.755 
  223700    313.44501   -1490.4399    522.88339    447.00402    87.918847    36812.755 
  223800    297.81141   -1479.6791    508.19275    372.52061    390.19211    36812.755 
  223900    308.06361   -1484.2649    505.47375    411.48339    547.72664    36812.755 
  224000    292.52677   -1492.8873      532.436    359.70627    380.55623    36812.755 
  224100    296.38703   -1512.9069    503.11172    327.78362   -304.36765    36812.755 
  224200    301.02203   -1562.5764    496.75812    292.67797    637.73867    36812.755 
  224300    300.16641   -1577.4591    471.14167    248.31752    540.89723    36812.755 
  224400    295.39088   -1569.6422    489.61231    253.05335   -231.60242    36812.755 
  224500    305.79365   -1525.5399    476.44289    330.93337   -252.58707    36812.755 
  224600    296.32286   -1581.7764    523.14246    278.65528    198.36486    36812.755 
  224700    294.44339    -1544.715     540.9388    325.03098    86.535763    36812.755 
  224800    299.79601   -1550.0923     505.7287    308.59975   -32.514442    36812.755 
  224900    300.50989   -1577.6246    491.21142    269.77189    218.33186    36812.755 
  225000    308.79257   -1553.0536    517.96143    358.47216     -414.183    36812.755 
  225100    302.81598   -1548.4141    509.91715    328.09528    -226.1224    36812.755 
  225200    299.41408   -1509.5513    522.67172    364.36008   -117.05971    36812.755 
  225300    296.34158   -1519.8821     499.1836    316.67516   -336.85664    36812.755 
  225400    307.02523   -1500.4581    483.06401    368.19435   -285.30879    36812.755 
  225500    303.01603   -1550.0929    508.73577    326.13799    36.824415    36812.755 
  225600    300.56637   -1478.3409    516.83077    394.92978      631.323    36812.755 
  225700    289.04039   -1509.6165    498.03155    292.83883    1033.8659    36812.755 
  225800     296.6656   -1492.7222    533.01354    379.12723    1146.1576    36812.755 
  225900    297.11153   -1508.7515     533.8925    365.98946    419.18615    36812.755 
  226000    306.06087   -1491.5056    525.11208    414.84278    523.45335    36812.755 
  226100    316.02554   -1529.2985    527.50275    424.41063    226.05273    36812.755 
  226200    303.08206   -1572.2226    484.38678    279.95734   -148.55684    36812.755 
  226300     291.1843   -1541.2392    486.79251    259.65244    44.925228    36812.755 
  226400    305.13934    -1541.958    499.37178    334.49126    260.19716    36812.755 
  226500    302.94017   -1575.2366     506.6335    298.54959   -380.67193    36812.755 
  226600    297.10417   -1542.2546    523.07043    321.63096   -49.129189    36812.755 
  226700    303.51048   -1589.3692    507.67724    288.03458    355.79013    36812.755 
  226800    298.13611   -1543.7812    518.77027    320.46138   -221.06211    36812.755 
  226900    300.65414    -1534.316     499.4616    321.98161   -354.82743    36812.755 
  227000    293.85124   -1551.3062    498.21515    273.04384   -495.71355    36812.755 
  227100     292.9378   -1521.4504    510.89919    311.46136   -294.31396    36812.755 
  227200     307.0479   -1512.9779    503.51449     376.2273    494.09656    36812.755 
  227300    298.10257    -1515.032    502.53457    332.82353   -119.95007    36812.755 
  227400    303.67705   -1503.5552    522.71204    389.63505    312.34808    36812.755 
  227500     294.8161   -1468.6772    493.16509    354.97718   -6.0198766    36812.755 
  227600    295.91484   -1510.1956    524.52257    349.77477   -217.33982    36812.755 
  227700    299.23094   -1513.0778    500.75143    338.08684    206.81398    36812.755 
  227800    301.21085   -1506.8116    525.82517    378.36201    123.80773    36812.755 
  227900    295.95238   -1500.7133    524.68311    359.58704   -344.86064    36812.755 
  228000     298.1612   -1499.4682    489.60939    335.72675   -300.05246    36812.755 
  228100    303.05073    -1496.786    507.64086    378.50655    141.49042    36812.755 
  228200    290.31359    -1531.174    520.22928    299.22492    353.87225    36812.755 
  228300     308.4013   -1522.7625    531.51215    400.54822    518.24902    36812.755 
  228400    290.54958   -1504.4879    487.76872    294.51552   -160.19784    36812.755 
  228500     306.0879   -1506.8221    521.66531    396.20148   -274.58203    36812.755 
  228600     297.1671   -1493.0393    491.82005    339.87992   -261.44646    36812.755 
  228700    311.10565   -1526.5756     515.2824    392.70992   -434.74527    36812.755 
  228800    296.22819   -1509.0278    511.72122    339.55537   -122.40438    36812.755 
  228900    301.33607   -1519.1128     498.7014    339.50212   -134.30131    36812.755 
  229000     298.4361    -1503.617    514.63131    357.84037   -445.25099    36812.755 
  229100    295.17771   -1507.8437     493.5874    317.86487   -198.16229    36812.755 
  229200    302.72261   -1482.8555     509.7314    393.04675   -957.76828    36812.755 
  229300    298.41975    -1512.667    512.52473    346.61006    -550.7472    36812.755 
  229400    298.81949   -1510.0836    509.18461    347.65738    285.96308    36812.755 
  229500    302.30635   -1545.3688    490.95742    309.88101    482.33024    36812.755 
  229600    291.18988   -1497.9196    522.39025    338.59491   -104.50803    36812.755 
  229700    309.77902   -1514.9471    519.63761    402.70665   -188.90754    36812.755 
  229800    297.59414   -1502.0352    499.12277    340.11402     523.8195    36812.755 
  229900    293.98484   -1499.0246    500.49406    328.20732   -207.50578    36812.755 
  230000    292.38467   -1548.5713     511.9221     282.8671    -590.8393    36812.755 
  230100     290.6619   -1526.8364    507.41077    292.31593   -972.69597    36812.755 
  230200    310.78128   -1552.0506    492.55289    343.04151   -883.17932    36812.755 
  230300    292.84083    -1556.334    509.51598    274.75693     -127.598    36812.755 
  230400    308.67254   -1552.2068    494.42995    335.24579   -148.05324    36812.755 
  230500    307.99123    -1518.515       486.05    357.48291   -312.16218    36812.755 
  230600    306.79084    -1564.398    512.59588    332.72846   -219.07916    36812.755 
  230700    311.95291   -1549.2809    513.01956    371.56548    537.54787    36812.755 
  230800    308.29777   -1566.6128    491.75882    316.47735    655.50179    36812.755 
  230900    309.17345   -1510.5249     507.1828    391.94116     787.2737    36812.755 
  231000     295.7565   -1522.3483    529.45835    341.84335    629.01514    36812.755 
  231100     308.3236   -1535.4745    476.53852     332.5119     275.1816    36812.755 
  231200    291.01291   -1490.4937    529.39035    352.22233    -329.9125    36812.755 
  231300    308.38765    -1546.736    493.00609    338.00701   -302.31053    36812.755 
  231400    288.94506   -1496.7615    503.33554    310.56762    337.88033    36812.755 
  231500    301.42459   -1530.2305    525.23238     355.3149    340.01033    36812.755 
  231600    297.50008    -1502.091    511.77686    352.28781    195.01957    36812.755 
  231700    300.73371   -1499.4938    519.03596    376.73734    92.063706    36812.755 
  231800    302.38818   -1522.9797    496.04164    337.72365    406.09854    36812.755 
  231900    294.34331   -1545.9009    473.16582    255.62053   -15.999169    36812.755 
  232000    304.25016    -1515.907    522.31675    379.47442   -190.99539    36812.755 
  232100    297.44624    -1554.655    501.24989    288.95383     51.96276    36812.755 
  232200    299.68344   -1536.9122    518.13958    333.68271    900.20795    36812.755 
  232300    298.82756    -1537.479    511.88582    322.99961    921.77061    36812.755 
  232400    295.20193   -1517.0722    506.72243    321.88069    1101.5847    36812.755 
  232500    297.13007   -1500.4413    515.72544    356.21622     963.5749    36812.755 
  232600    300.85001   -1485.6639    531.59771    403.65384    1000.7318    36812.755 
  232700    297.88658   -1513.2845    487.51041    318.57206    834.35533    36812.755 
  232800    292.96233   -1541.2452    511.21152    292.08959    272.84939    36812.755 
  232900    299.99223   -1524.1653    485.53069     315.2143   -81.951152    36812.755 
  233000    300.90716   -1540.7737    475.79707    293.00129   -670.11214    36812.755 
  233100    287.08403   -1488.1832    506.09575    313.50742   -755.40914    36812.755 
  233200    302.65127   -1588.7752    479.24231    256.31608   -352.23826    36812.755 
  233300    309.82926   -1586.3184    510.45942    322.38386   -91.514063    36812.755 
  233400    293.22715   -1599.9922     505.0136    228.33982   -554.20988    36812.755 
  233500    296.69392   -1558.3188    493.96214    274.60711   -129.86149    36812.755 
  233600     299.8763   -1516.8867    490.97118    327.41009   -368.38693    36812.755 
  233700    299.65909   -1550.5851    507.82037     309.5807   -49.489314    36812.755 
  233800     308.0734   -1526.7012     495.4844    359.10199   -125.14487    36812.755 
  233900     294.1114   -1533.3209    512.06477    306.05291   -61.451417    36812.755 
  234000    295.43386   -1529.0945    494.17979    298.36242    73.280132    36812.755 
  234100    300.90752   -1554.1502    533.04958     336.8789    43.269593    36812.755 
  234200    292.66315   -1539.8763    503.99813    284.89495    571.35775    36812.755 
  234300    298.79832   -1611.4073     479.9897     217.0432    418.01957    36812.755 
  234400    292.57423   -1564.4309    517.74638    273.68735   -68.170349    36812.755 
  234500     300.3434   -1537.4434    487.59576    305.58603    336.93024    36812.755 
  234600     299.0638   -1543.7649    535.15806    341.05209    33.213389    36812.755 
  234700    303.30277   -1566.1862    509.85097    312.45386    752.42461    36812.755 
  234800    304.40901   -1489.6929    503.09839    387.18709   -172.00557    36812.755 
  234900    298.86411   -1546.5985    503.39948    305.55872   -324.75303    36812.755 
  235000    288.68584   -1492.4501    506.21502    316.58865   -1228.3766    36812.755 
  235100    304.00351   -1494.8143    502.04933    379.18657   -143.20625    36812.755 
  235200    313.03187   -1505.5316    504.49387     411.6583   -188.35768    36812.755 
  235300    306.19846   -1504.9019    511.25562    388.21092   -538.29518    36812.755 
  235400    304.79515    -1510.152     507.7552    373.12745   -70.441247    36812.755 
  235500    294.24756    -1488.011    517.10247     357.0149   -79.077533    36812.755 
  235600    302.28189   -1516.3705    499.25783    347.06928    120.62626    36812.755 
  235700    296.97817   -1497.5617    518.24319    360.92807     239.5603    36812.755 
  235800    308.20395   -1499.1812    486.34729    378.07397    540.97643    36812.755 
  235900    306.51196   -1512.2781    524.91524    395.90924   -25.126646    36812.755 
  236000    299.23985   -1492.4809    486.51879    344.49133   -104.76936    36812.755 
  236100    296.49286   -1501.1325    498.27658    335.20051   -135.91212    36812.755 
  236200    300.61803   -1525.5648    528.51083    359.61909    23.079864    36812.755 
  236300    292.43687   -1489.0218    471.64498    302.37509   -121.69642    36812.755 
  236400    304.98501   -1553.5908    506.56363    329.35385    42.598089    36812.755 
  236500    298.20503    -1538.312    505.92738    313.39875   -433.57945    36812.755 
  236600    291.67891   -1532.5429    475.50664    259.29496   -563.46053    36812.755 
  236700    299.99744   -1512.7014    494.87602    336.04694   -593.15801    36812.755 
  236800    307.00129    -1518.897    486.05973    352.64307   -945.38354    36812.755 
  236900    302.00689    -1484.013    533.03107    411.95895   -812.70063    36812.755 
  237000    296.80675   -1490.5427    501.49884    350.42908   -382.02276    36812.755 
  237100    297.09172   -1463.4798     494.3934    371.67261   -886.16283    36812.755 
  237200    303.39173   -1501.1705    532.05065     400.0708   -337.96796    36812.755 
  237300    291.68617   -1509.2864    478.69268    285.77039   -340.49384    36812.755 
  237400    296.92749   -1469.4051    526.83017    397.44289    423.73223    36812.755 
  237500    294.72395   -1476.8741    538.39118    391.59048    305.80662    36812.755 
  237600    292.48905   -1485.5641    516.17793    350.60119    598.21376    36812.755 
  237700    304.07645   -1484.9945    523.78528    411.07153    187.02594    36812.755 
  237800    302.36249    -1503.215    518.11561    379.44628    532.36325    36812.755 
  237900    292.87983   -1520.3305    518.75722    320.17775   -130.19634    36812.755 
  238000    302.53737   -1519.1976    506.18728    352.32467   -6.3422948    36812.755 
  238100    299.10347   -1488.1617    528.58571    390.26191    231.35544    36812.755 
  238200    307.10657   -1511.8098    514.88425    389.02995    338.70946    36812.755 
  238300    309.06025   -1492.2673    516.36711    418.87213    386.26482    36812.755 
  238400    304.26859    -1503.544    526.57497    396.17887   -35.253218    36812.755 
  238500     290.0449   -1529.0361    514.79539    294.71642    91.783898    36812.755 
  238600    293.86213   -1531.7388    489.58283    284.02809   -440.26929    36812.755 
  238700    302.08709   -1478.8162    503.48945    387.97615   -623.32233    36812.755 
  238800    308.05438   -1516.5799    506.51901    380.17197   -315.20251    36812.755 
  238900     299.1734    -1538.295    479.78162    291.64012   -608.60168    36812.755 
  239000    308.00062   -1475.8746    518.36505    432.48074   -212.45463    36812.755 
  239100    304.91822   -1493.4378    498.53084    381.17264   -146.08673    36812.755 
  239200    299.92647   -1504.2835    495.49949    344.76814    -64.31378    36812.755 
  239300    294.16001   -1488.1799    517.41467    356.76309    908.50702    36812.755 
  239400    304.15194   -1505.7873     509.8246     376.6587    382.85582    36812.755 
  239500    296.84459   -1534.2982    477.67025    283.01575    177.43541    36812.755 
  239600    307.29557    -1476.515    526.28115    436.57455    292.33358    36812.755 
  239700    303.58705    -1518.109    539.81915    391.78218    385.81289    36812.755 
  239800    301.82543   -1534.4125     492.1515    319.86098   -382.20973    36812.755 
  239900    306.55532   -1494.6038    526.04565    414.90954    376.93891    36812.755 
  240000     312.7878   -1533.0015    479.58436    358.17744   -317.64552    36812.755 
  240100    303.13573   -1570.0167    500.92792     298.9465   -600.45128    36812.755 
  240200    297.91472   -1527.0703    493.28869    310.69155    114.87126    36812.755 
  240300    309.37844   -1487.9002    515.80904    424.11718   -171.60578    36812.755 
  240400    300.37125    -1498.044    491.12712    348.64253   -168.91331    36812.755 
  240500    298.53418   -1497.2179    522.62428    372.67514    335.28489    36812.755 
  240600     300.3584   -1493.3936    491.87193     353.9797   -368.43692    36812.755 
  240700    303.69996    -1465.487    497.20948    402.30415    125.24322    36812.755 
  240800    296.31088   -1479.6872    518.34845    375.89635   -62.809982    36812.755 
  240900    299.19907   -1497.3739    508.03446    360.92992   -690.22944    36812.755 
  241000    298.65424   -1506.9245    480.63281    321.51888   -885.12898    36812.755 
  241100    305.74448   -1527.7191    506.47721    358.56655   -297.85199    36812.755 
  241200    290.81802   -1521.3591    503.84146    294.92852    67.423702    36812.755 
  241300    312.16695   -1533.9199    528.27605    403.14885    11.199831    36812.755 
  241400    300.61997   -1537.2757     488.6536    308.05968    49.949629    36812.755 
  241500    306.44037   -1514.6975    509.98325    378.23469    182.98739    36812.755 
  241600    296.21365   -1505.3304    516.30056    347.76649    107.52361    36812.755 
  241700    299.07309   -1510.4418    508.29027    347.54925    649.18963    36812.755 
  241800     305.5864   -1495.4136     493.9752    377.65663    585.15909    36812.755 
  241900    305.91857   -1535.9233    496.31597    340.98682    425.10138    36812.755 
  242000    305.44583   -1494.5675    495.71318    379.60632   -251.64451    36812.755 
  242100    315.89728   -1501.4401    518.50717    442.69459   -406.48119    36812.755 
  242200    312.22928   -1527.4684    507.59017    389.19573   -280.29831    36812.755 
  242300    308.70146   -1540.9591    490.93016    343.12421    -195.7693    36812.755 
  242400    293.01122   -1503.1587    527.77675    346.96194    -56.14179    36812.755 
  242500    302.21804   -1482.1574    493.32642    375.06281   -101.47045    36812.755 
  242600    297.45328   -1532.3423    517.86285    327.91132     162.4029    36812.755 
  242700    301.58589   -1516.3957    518.46294    363.10824    151.40897    36812.755 
  242800    306.31416      -1511.2    495.95314    367.13249     227.8908    36812.755 
  242900    298.88124   -1547.7887    495.25556    296.30193    245.85939    36812.755 
  243000    304.31257   -1568.5044    502.09836     306.9403    205.08254    36812.755 
  243100    307.45655   -1555.1124    484.55883    316.98143    196.19915    36812.755 
  243200    301.52534   -1561.7711    513.67998    312.67657    648.49372    36812.755 
  243300    300.97111    -1526.338    539.59367    371.52213     1153.678    36812.755 
  243400     298.6256   -1502.8076    509.21435    354.08805    909.02568    36812.755 
  243500    297.59417   -1474.8501    524.55562    392.73212    373.56778    36812.755 
  243600    310.28847    -1522.053    501.31352    379.57574    341.02522    36812.755 
  243700    302.21059   -1561.0424    474.58676    277.40458   -38.619404    36812.755 
  243800    298.58288   -1518.0928    522.77415    352.16987   -332.19372    36812.755 
  243900    293.65019   -1480.6393    483.28559     327.8739   -656.05468    36812.755 
  244000    302.36709   -1496.2809     520.4871    388.77265    -843.3397    36812.755 
  244100    286.62365   -1494.9421    515.79991    314.37498   -193.98746    36812.755 
  244200    295.78882   -1513.4829    500.70199    322.09816   -104.82796    36812.755 
  244300    297.21295    -1486.198    523.95272    379.06089   -467.91982    36812.755 
  244400    303.73415   -1478.0539    520.82793    413.50995   -488.40133    36812.755 
  244500    296.15026    -1518.363    506.89992    325.04715    -341.1918    36812.755 
  244600    290.88034   -1512.5106     498.6974    298.91416    88.182531    36812.755 
  244700    289.56695    -1520.777    509.43429    295.45746    212.60922    36812.755 
  244800     294.5373   -1505.2392    482.21752     306.2094   -431.06819    36812.755 
  244900    297.90033   -1487.0364     476.3761    333.74794    -115.5669    36812.755 
  245000    304.60092   -1499.7775    525.92184      400.792   -57.039821    36812.755 
  245100    294.33556   -1493.1036    506.77188     341.9889   -364.52093    36812.755 
  245200    307.68369    -1517.533     526.7747    397.80174   -203.55105    36812.755 
  245300    300.06352   -1523.4392    500.17783    330.90924   -468.95773    36812.755 
  245400    291.75613   -1513.8276    485.18402    288.03617   -423.82608    36812.755 
  245500    291.93478   -1499.4048    498.12549    316.20668   -378.82514    36812.755 
  245600    301.40955   -1515.2471    482.06891    327.06697   -393.88042    36812.755 
  245700     305.6098    -1527.004    463.93236      316.129    -199.8744    36812.755 
  245800    301.11026   -1565.2067    505.17254    298.86031   -667.64918    36812.755 
  245900    309.06736   -1570.3791    463.71733    288.14263   -385.27741    36812.755 
  246000    302.46624    -1559.915    515.43661    320.53551   -575.16621    36812.755 
  246100    298.74676    -1541.626    493.24192    299.84401    -259.8316    36812.755 
  246200    301.50918   -1542.9238    483.85399    301.62499    378.94943    36812.755 
  246300    312.46482   -1570.9939    488.32159    327.46465   -50.597753    36812.755 
  246400    306.74392   -1498.5749    502.48208    388.22606   -287.84412    36812.755 
  246500    301.74375   -1460.1516    506.36278    407.96455   -711.86268    36812.755 
  246600    312.30786   -1496.9708    493.62956    406.08735    209.14542    36812.755 
  246700    300.99694   -1522.4561    517.26019    353.18719   -497.32216    36812.755 
  246800    294.72026    -1490.734     496.5338    335.85654   -64.955089    36812.755 
  246900     310.3171    -1532.261    487.51683    355.70027    -672.3038    36812.755 
  247000    294.12697   -1558.6037    508.53145      277.307   -771.50445    36812.755 
  247100    311.58665    -1499.634    465.77095    372.31075   -405.44474    36812.755 
  247200    305.28428   -1510.1491    506.76343     374.3459    37.544665    36812.755 
  247300    296.48106   -1469.0865    538.12986    407.04653     305.2989    36812.755 
  247400    293.61681   -1470.2137    498.27028    353.13352    295.15553    36812.755 
  247500    300.12583   -1512.1306    502.20342     344.5246    172.51033    36812.755 
  247600    306.92443   -1508.8854     498.6376    374.88577    -490.0118    36812.755 
  247700    297.04447   -1522.0227    490.49664     309.0197      93.0818    36812.755 
  247800     296.7351   -1498.3471    522.65282    363.45532   -168.49677    36812.755 
  247900    305.22711    -1473.328    501.01221    405.15776   -157.30246    36812.755 
  248000    299.17773   -1467.4862    516.61278     399.2997   -453.49278    36812.755 
  248100    300.19568    -1477.939    482.86366    359.69162    1.0651543    36812.755 
  248200    296.48729   -1457.7169    538.36662    418.68093    71.802191    36812.755 
  248300    298.96739   -1492.6853    487.97497    344.51345    322.75373    36812.755 
  248400    303.60624   -1506.2689    521.54895    385.43874    205.25808    36812.755 
  248500    305.91894   -1500.9222     518.5506    398.22419    484.57084    36812.755 
  248600    312.19532    -1480.878    480.61893     408.6617    275.86424    36812.755 
  248700    308.56234   -1524.6818    498.28309    366.12654    626.97225    36812.755 
  248800    299.64559   -1565.6519    504.72484    291.35739    939.01958    36812.755 
  248900    300.39098   -1532.4313     474.9742     298.1913    454.07876    36812.755 
  249000    293.64553   -1534.6557    481.53964    272.09049   -388.62505    36812.755 
  249100    292.93971   -1511.3687     504.7573    315.40983   -526.42107    36812.755 
  249200    297.89252    -1532.812    496.65592    308.21688   -321.11088    36812.755 
  249300    299.28493   -1546.3851     483.2058    287.47755   -246.32529    36812.755 
  249400    293.53463   -1488.0218     495.7957    332.48001   -513.95744    36812.755 
  249500    305.06666   -1500.3062    507.83181    384.27507    -404.6982    36812.755 
  249600    301.30043   -1542.9458    497.03872    313.84558   -46.696517    36812.755 
  249700    300.67626   -1539.6813    506.65463    323.90916    224.03259    36812.755 
  249800    301.55532   -1487.9385     470.6034    343.56797    88.423216    36812.755 
  249900    300.75275   -1507.5311    495.78411    345.53405    364.62706    36812.755 
  250000    306.91605   -1519.8361    535.88679    401.14643   -464.96924    36812.755 
  250100    313.20468   -1477.1141    471.24505    407.60685   -607.50902    36812.755 
  250200    289.56074   -1512.3035    493.35294    287.82151   -727.67266    36812.755 
  250300    298.15182   -1478.3886    491.98005    359.13464   -550.97314    36812.755 
  250400    304.08928   -1501.1377    484.53572    355.73665    56.072014    36812.755 
  250500    295.05401   -1520.5352    525.91414    336.94183   -246.35209    36812.755 
  250600     310.7393   -1514.9441    521.00396    408.40962    470.56152    36812.755 
  250700    292.47997   -1552.2798    489.91616    257.58283    98.359952    36812.755 
  250800    313.88074   -1514.3997    525.58544    427.71274    840.26101    36812.755 
  250900    294.57346   -1526.6003    513.38913    316.18306    570.81804    36812.755 
  251000    305.30127   -1473.4718    493.04911    397.38556    261.70499    36812.755 
  251100    296.73951   -1490.8184    499.89076    348.24185     -254.274    36812.755 
  251200     298.3642   -1468.7197    490.43067    368.21266   -471.56873    36812.755 
  251300    313.45232   -1503.3657    480.87109    392.09897   -177.82304    36812.755 
  251400    301.89323   -1473.8767    492.38022    380.93144   -217.35131    36812.755 
  251500    307.35708    -1488.589    508.66742    407.16446   -39.275283    36812.755 
  251600    293.58221   -1504.3962    494.49069    315.01525   -702.09263    36812.755 
  251700    292.07337   -1533.0436    451.20999    236.27789    -358.5373    36812.755 
  251800    307.87745   -1574.5865    508.32409    323.17207    233.14807    36812.755 
  251900    302.42931   -1544.3532    476.71129     297.2054    718.79728    36812.755 
  252000    302.80489   -1561.9859     475.3432    279.89952    512.75495    36812.755 
  252100    301.59759   -1570.9353    488.52358      278.682     830.3717    36812.755 
  252200    305.19541   -1587.4591    483.83391    273.70538    1043.4249    36812.755 
  252300    303.60907   -1536.5157    498.53721    332.19301     210.4039    36812.755 
  252400    297.70737   -1517.9603    517.52447    343.10152    401.35743    36812.755 
  252500    294.46029   -1492.2313    479.02173    315.67392    -93.28786    36812.755 
  252600    299.15697   -1516.3218     496.0111     329.7687   -528.52881    36812.755 
  252700    297.02464   -1461.1258    501.12663     380.4571   -142.36276    36812.755 
  252800    292.83008   -1469.3287    471.22638    323.42412    12.633838    36812.755 
  252900    294.71185    -1470.887    478.46133    337.59312    -26.02411    36812.755 
  253000      293.556   -1509.5759    491.44612    306.67268   -121.59643    36812.755 
  253100    303.73493   -1487.1405    498.49863    382.09766    641.53617    36812.755 
  253200    306.63645   -1471.5699    482.15444    394.41837    731.40159    36812.755 
  253300    307.33105    -1470.686    482.95482    399.23733    332.29742    36812.755 
  253400    307.05702   -1514.3664    467.53452        338.9    167.72482    36812.755 
  253500    295.46316   -1506.5563     493.4688    320.32186   -241.30708    36812.755 
  253600    291.23489   -1497.1821    503.80324    320.94858    135.60735    36812.755 
  253700    292.62191   -1500.3359    491.42409    311.67522    86.468699    36812.755 
  253800    304.20168   -1499.3524    497.80268    371.29613   -114.24646    36812.755 
  253900    311.68495   -1498.6106    482.77789    390.78481   -727.32249    36812.755 
  254000    300.43588   -1471.0255    496.77979    381.60531   -714.91118    36812.755 
  254100    287.33813   -1469.8955    478.29596    305.14204   -1328.8963    36812.755 
  254200    304.08687   -1457.5335    503.62476    418.41904   -842.46307    36812.755 
  254300    303.74979   -1443.5582    503.13444     430.3828   -265.71537    36812.755 
  254400     297.0573   -1480.9688    481.18459    340.81946   -217.99882    36812.755 
  254500    299.96296   -1479.4369    477.64114    351.92103    426.85666    36812.755 
  254600    296.83682   -1486.9413     514.6866    367.35391    177.49396    36812.755 
  254700     300.3993   -1471.5049    497.55185    381.73292    301.68485    36812.755 
  254800    298.09197   -1496.0971    476.44107    325.61708    211.87202    36812.755 
  254900    306.33407    -1468.991    522.03629    435.51451    160.34275    36812.755 
  255000    282.10669   -1469.1948    506.48356    310.42107   -268.91492    36812.755 
  255100    300.36615   -1496.7043    471.45816    330.29018   -267.09904    36812.755 
  255200    309.10845   -1475.2009    483.21487    403.00381   -510.16762    36812.755 
  255300    290.79463   -1461.3452    478.36026    329.35568   -988.09791    36812.755 
  255400    308.95914   -1457.9508    466.52973    402.89502   -751.52276    36812.755 
  255500    290.91636   -1455.5643    522.58138    379.90701   -501.84053    36812.755 
  255600    307.50155   -1471.7872     484.2781     400.2289   -254.79239    36812.755 
  255700    303.15884   -1471.5342    495.52731    392.13271    75.775573    36812.755 
  255800     307.0804    -1481.327    489.98889    394.49925    433.19888    36812.755 
  255900    294.56278   -1470.0893    483.75122    343.00798    226.11338    36812.755 
  256000    309.93517   -1464.5964    481.83638    415.96076    200.37405    36812.755 
  256100    292.57997   -1477.1379    492.90717    336.16702     212.9688    36812.755 
  256200    301.58007    -1465.369    487.29283    382.93853    144.97895    36812.755 
  256300    298.83998   -1465.8818    484.13601    366.90309   -81.871322    36812.755 
  256400    295.67409   -1488.8622    482.78694    328.28607   -376.92249    36812.755 
  256500    291.87678   -1501.3378    475.09549    290.98189    30.493876    36812.755 
  256600    300.93061   -1449.0585    479.54871    388.57388    91.662729    36812.755 
  256700    304.00335   -1452.8596    490.30894    409.40017    -264.1158    36812.755 
  256800    304.65976   -1464.3533    508.37926    418.93913   -221.61312    36812.755 
  256900     302.3334   -1489.7282     463.7027    338.38889   -381.21856    36812.755 
  257000    305.14117    -1445.376     486.5661    418.27586    676.91453    36812.755 
  257100    296.80566   -1494.8662     474.2791    318.88091    335.30213    36812.755 
  257200    300.80698   -1491.5535    484.21269    350.18498    16.663926    36812.755 
  257300    292.81983   -1466.1134    486.14978    341.51655   -240.27289    36812.755 
  257400      302.398   -1458.8372    485.85527    391.72407   -45.790296    36812.755 
  257500    301.10631   -1480.4631    460.39168    338.80521   -332.01752    36812.755 
  257600    296.40814   -1504.8933    488.77076    321.55149    72.709029    36812.755 
  257700    293.32624   -1494.0269    451.95726      281.696   -348.22466    36812.755 
  257800    310.29238   -1481.2502    528.73287    447.81552   -320.15736    36812.755 
  257900    291.26799   -1479.4315    480.63486    315.68015   -275.30609    36812.755 
  258000    294.71902   -1480.0351    503.88319    353.89924    533.61781    36812.755 
  258100     295.8918   -1472.6284    494.07308    356.78849     582.5452    36812.755 
  258200    304.57126   -1493.9955    472.69352     353.2118    793.90017    36812.755 
  258300    308.51779   -1513.1511    506.27744     385.4506    1093.7502    36812.755 
  258400    296.14079   -1509.0077    471.20347    298.66331    665.74784    36812.755 
  258500    299.01312   -1527.7249     493.5718    315.27704    364.04789    36812.755 
  258600    305.21852   -1537.8242    475.95955    315.57019    -74.13685    36812.755 
  258700    313.18741   -1470.1074    494.58061    437.87123   -244.52441    36812.755 
  258800    304.13638   -1499.8687    516.01654    388.69907   -277.33982    36812.755 
  258900    298.24783   -1469.8763    470.22879    346.32899   -359.09628    36812.755 
  259000    302.22453   -1488.1949    514.48629    390.21452   -471.43205    36812.755 
  259100     303.1296   -1472.6491    488.61914    383.97766    350.34079    36812.755 
  259200    307.48954   -1447.3287    479.15367    419.50882   -156.92714    36812.755 
  259300    284.04416     -1494.56    468.65182    255.96786   -561.58906    36812.755 
  259400    307.55765    -1494.219    460.24502    354.01723   -617.22906    36812.755 
  259500    293.70849   -1486.2413    465.43724    304.68665   -226.96667    36812.755 
  259600     302.0166    -1492.054    484.10416    355.03494    -472.2691    36812.755 
  259700    306.03083   -1480.2401    521.65066     422.5113    -305.3062    36812.755 
  259800    293.50499   -1487.6248    458.55732    295.50484    77.452836    36812.755 
  259900    299.23439   -1510.8649    455.16837     294.7322   -120.59673    36812.755 
  260000    291.30505   -1544.8172    460.68487    230.51175   -254.93603    36812.755 
  260100    290.13208   -1538.2331     503.0346    274.15197   -314.13016    36812.755 
  260200    295.48289    -1497.206    477.98102    314.27347     114.7847    36812.755 
  260300    295.55951   -1511.2067    481.89796    304.53549    338.99072    36812.755 
  260400    309.24046   -1468.5459    498.64247    425.68222   -3.3907414    36812.755 
  260500    309.95217   -1499.0226    478.62322    378.39813   -832.54336    36812.755 
  260600    305.56127   -1514.8918    470.27085    334.36065   -253.32637    36812.755 
  260700    301.28225   -1466.4471    491.93204    385.15556   -489.12485    36812.755 
  260800    295.34911    -1448.703    474.43529    358.62697   -313.73776    36812.755 
  260900    302.09704   -1498.1688     510.6608    375.83977     371.1856    36812.755 
  261000    303.58658   -1491.8034    493.79226    372.05878    232.74572    36812.755 
  261100     301.7079   -1487.9949    484.83527    358.43192   -23.728825    36812.755 
  261200    302.73618   -1481.1223    490.78572    375.89559   -35.359832    36812.755 
  261300    292.03066   -1496.6071    510.60919    331.92078   -139.49936    36812.755 
  261400     299.1183    -1468.856    508.47709    389.52596   -176.01414    36812.755 
  261500    295.47064   -1492.8475    461.34654    301.94223   -109.01344    36812.755 
  261600    305.62146    -1527.716    497.16647    348.70374   -39.473151    36812.755 
  261700    295.33303   -1522.2264    496.78348     307.3792    35.710639    36812.755 
  261800     295.8159   -1464.5763      508.738    379.16304    279.41452    36812.755 
  261900     300.8006   -1541.5597    459.14366    275.08094    164.79686    36812.755 
  262000    289.34768   -1522.7198    499.90094    282.99169    228.63136    36812.755 
  262100    302.29192   -1516.7343     479.1147    326.60763    1203.6249    36812.755 
  262200    298.64276   -1556.3939    487.31394    278.67886    549.74293    36812.755 
  262300    306.58634   -1523.1107    487.18865    347.68561    922.77216    36812.755 
  262400    303.44302   -1507.4126    503.75485    365.76439    483.90699    36812.755 
  262500    313.93277   -1470.8424    478.09269    424.01208    196.73322    36812.755 
  262600      299.928    -1449.414    468.65044    372.79544    312.63909    36812.755 
  262700    307.14412   -1447.0182    477.18704    416.29377     651.7919    36812.755 
  262800    289.86171   -1520.6522    496.93565    284.41379    188.56051    36812.755 
  262900    294.69566   -1427.5472    478.26506    380.66364    213.69154    36812.755 
  263000     297.8752   -1465.8086     494.2353    372.72156     125.0596    36812.755 
  263100    302.73315    -1461.267    503.32948    408.28097    307.00804    36812.755 
  263200    301.11274    -1495.728    502.38975    365.56736    370.71699    36812.755 
  263300    292.70892   -1467.4555     519.2589    372.78306    721.32578    36812.755 
  263400    293.96905   -1534.7698     496.9224    288.81915    716.94137    36812.755 
  263500    304.02261    -1498.328    478.89388    352.60364    37.281462    36812.755 
  263600    292.78611   -1491.3806    519.31983    349.26724   -77.535881    36812.755 
  263700     305.0827   -1503.1412    492.00884    365.68951   -80.412467    36812.755 
  263800    305.88024   -1463.2072    465.87622    383.09015    346.68206    36812.755 
  263900    295.94352   -1470.5403    490.44623    355.48322   -222.84832    36812.755 
  264000    299.64571   -1436.4164    496.91645    412.78515   -106.08202    36812.755 
  264100     294.7234    -1492.158    479.81995    317.73283   -78.160408    36812.755 
  264200    294.05734   -1484.2438    495.91931    338.74055   -155.21822    36812.755 
  264300    299.94393   -1459.6922    499.83179    393.77048    692.58413    36812.755 
  264400    308.27138   -1463.5368    494.86339    422.53876    365.63735    36812.755 
  264500    298.34693   -1434.5382    509.96941    421.85488    223.86808    36812.755 
  264600    295.56992   -1458.2524    511.87296    387.51183    634.85636    36812.755 
  264700    302.84286   -1468.0767    486.14231    384.77918    415.32487    36812.755 
  264800    300.72412   -1475.7939    511.36097    392.71896    -126.7405    36812.755 
  264900    303.51358    -1472.541    474.68544    371.88501   -444.55853    36812.755 
  265000    300.93017   -1431.8964    498.97014    425.15549   -49.646845    36812.755 
  265100     313.1421   -1455.5055    498.52132    456.20937    -352.3222    36812.755 
  265200     297.5324   -1471.7588    489.42444    360.41339    233.38852    36812.755 
  265300    291.16802   -1451.3171    506.86741    369.57598    170.22277    36812.755 
  265400    291.68736   -1489.6164    494.81573    321.56875    173.29675    36812.755 
  265500    296.11495   -1519.1938    506.19686    323.35389   -51.528974    36812.755 
  265600    291.07935    -1522.028    494.46998    286.06745   -466.95629    36812.755 
  265700    294.62149   -1521.0525    482.02819    290.58666   -390.69394    36812.755 
  265800    303.16277   -1545.8275    497.99977    320.32962     62.48538    36812.755 
  265900    304.41003   -1516.5746    504.49111     361.7026    13.496338    36812.755 
  266000    291.32077   -1523.5124     466.2097    257.41231   -462.99013    36812.755 
  266100     293.3729   -1513.4975    482.35649    292.83515    101.08061    36812.755 
  266200    308.50753      -1510.6    480.84302    362.52092   -34.701555    36812.755 
  266300    295.69541    -1497.046     502.6504    340.06198   -288.63249    36812.755 
  266400    297.93506   -1476.6641    515.40132     383.3022   -228.02797    36812.755 
  266500    303.07651   -1487.5555    486.47836    366.69094   -538.63843    36812.755 
  266600     303.8888   -1522.1762    477.87713    327.13486     504.4843    36812.755 
  266700    293.36544   -1523.5457    479.73774     280.1345   -161.86177    36812.755 
  266800     312.7846   -1495.8642    492.24386    407.95975    449.82098    36812.755 
  266900    307.50402    -1493.467    490.80369    385.08583    785.94164    36812.755 
  267000    298.31298   -1509.8579    500.71476    337.12731    878.15938    36812.755 
  267100    300.62671   -1442.2227    512.67953    427.16907    939.28799    36812.755 
  267200    309.61097   -1509.1534    492.85112    380.95539    918.67047    36812.755 
  267300    306.77115   -1479.0019    482.05821    387.49803     972.7993    36812.755 
  267400    300.31283   -1528.8131    486.31963    312.80226    446.46013    36812.755 
  267500    290.75164   -1504.0698    489.22067    297.29748    311.45919    36812.755 
  267600    293.62479   -1490.0741    477.72092    312.75971    847.66977    36812.755 
  267700    304.48457   -1533.5786    492.48655    333.03049    832.11977    36812.755 
  267800    300.81593   -1522.0742    482.00051    317.49243    440.91909    36812.755 
  267900    294.38448   -1506.9798    453.84209    275.40368    12.793508    36812.755 
  268000    301.23266   -1491.7473    509.46118    377.16076    12.454676    36812.755 
  268100    299.60878   -1472.0206    490.70168    370.79945   -273.35115    36812.755 
  268200    300.71705   -1502.2643    498.70307    353.55871   -128.12142    36812.755 
  268300    302.86754   -1527.0726    484.99618    324.74857    149.51294    36812.755 
  268400    308.84718   -1504.5899    507.79483    397.01571     211.7243    36812.755 
  268500    288.84454   -1485.3447    500.72229    318.91755   -239.47868    36812.755 
  268600    301.38382   -1502.1332    485.35524     343.3511   -242.82644    36812.755 
  268700    297.51204   -1486.3603    483.06665    339.36227    69.078665    36812.755 
  268800    299.55551    -1517.245    500.71621    335.34915   -504.76155    36812.755 
  268900    305.41083   -1523.0615    502.01404    357.25523    -171.4396    36812.755 
  269000    294.93977   -1529.7972    496.03206    297.28229   -70.610894    36812.755 
  269100    300.08787   -1522.4036    475.43667    307.31349   -474.53548    36812.755 
  269200    304.56014   -1504.1122    478.20352    348.55497    560.54168    36812.755 
  269300    292.17958   -1555.2398    493.20741    256.55839   -330.97848    36812.755 
  269400    299.37365   -1536.8891    507.80309    321.97129    180.30943    36812.755 
  269500    301.19416    -1525.677     483.7809    317.37705    113.23967    36812.755 
  269600      294.908   -1497.3666    486.16107    319.69847   -175.76822    36812.755 
  269700    302.84784    -1493.356    483.64649    357.02654    370.14305    36812.755 
  269800    304.99663   -1515.1892     486.0356    347.27984   -306.03678    36812.755 
  269900    305.81215   -1497.1118    511.19516    394.19723   -156.93438    36812.755 
  270000    293.19247   -1495.8381    494.45264    321.77645    155.55738    36812.755 
  270100    291.23747   -1515.3327     472.9703    271.97669   -743.85597    36812.755 
  270200    291.09294   -1501.2828    499.84244    312.24648   -678.49194    36812.755 
  270300    315.63142   -1507.0308    464.37644    381.77326    165.81722    36812.755 
  270400    298.10951   -1451.6324    536.07181    429.79167   -768.97969    36812.755 
  270500      294.174   -1478.1811    493.80538    343.21578   -77.693795    36812.755 
  270600    298.75942   -1529.0619    496.29082    315.51415   -196.70975    36812.755 
  270700    295.08671   -1502.6792     498.0661    327.09743    252.30861    36812.755 
  270800    303.94213   -1511.3068    476.75831    337.12603   -57.482702    36812.755 
  270900    286.41355   -1498.5548    497.15004    291.16423    1.7934748    36812.755 
  271000    296.79806   -1526.5773    512.26091    325.11735   -79.639573    36812.755 
  271100    291.44989   -1523.8333    458.42815     249.8926   -305.56415    36812.755 
  271200    301.25797   -1465.5137    491.76386    385.81121    54.886456    36812.755 
  271300    289.81365   -1500.6137    485.30725    292.60703   -548.99628    36812.755 
  271400    291.71168    -1518.635    515.48388    313.32801    502.34857    36812.755 
  271500    297.36376   -1476.4625    487.33866    352.86284    168.23624    36812.755 
  271600    310.12228   -1503.5399    496.74552    392.77079    258.73981    36812.755 
  271700     299.4709   -1551.2608    469.41803    269.65333   -295.14433    36812.755 
  271800    295.27757   -1549.4092    504.06542    287.22811   -334.39211    36812.755 
  271900    296.04039   -1546.1209    471.68255    261.57611    138.80136    36812.755 
  272000    309.89197   -1538.3222    477.17154    337.37518   -105.87015    36812.755 
  272100    291.76102   -1501.6507     497.4829    312.53408    -128.6014    36812.755 
  272200    299.41595   -1553.1129    484.79268    282.92788    218.38483    36812.755 
  272300    294.79129   -1503.1027    478.12712    305.40174   -146.30673    36812.755 
  272400    295.16987   -1506.8712    464.80899    290.02358     63.69872    36812.755 
  272500    297.20829   -1475.4011    487.85972    353.74367   -79.946568    36812.755 
  272600     295.0033   -1452.8277    506.28482    384.79118    183.45943    36812.755 
  272700    301.56503    -1484.681    518.55128    394.81713    150.54513    36812.755 
  272800    304.09909   -1466.6848    482.38438    388.08246    457.74242    36812.755 
  272900    306.40571   -1505.2076    517.22217    394.80711     162.5323    36812.755 
  273000    300.44115   -1460.8752    494.26416    389.26377   -329.37872    36812.755 
  273100    298.03646   -1484.9897    504.36281    364.39571   -193.15348    36812.755 
  273200    296.31761   -1504.0898    488.28691     321.4626   -1.6027893    36812.755 
  273300    292.10737   -1496.2973    512.81014    334.77774    200.33152    36812.755 
  273400    297.76702   -1512.8793    495.61487    326.54215    551.89882    36812.755 
  273500    302.64442   -1496.4529    484.67026    354.03544    379.17583    36812.755 
  273600    300.85476   -1473.8645    491.41082    375.28767   -36.650413    36812.755 
  273700    306.33994   -1455.9808    510.62588    437.14084    155.95421    36812.755 
  273800    307.11976    -1490.425    508.89594    404.48599     294.7373    36812.755 
  273900    293.75708   -1494.8861    474.56077    305.38458   -131.28865    36812.755 
  274000    298.03976   -1458.3759    474.40486     361.0664   -256.19698    36812.755 
  274100    304.83978   -1473.4025    485.20759    387.53071   -14.865204    36812.755 
  274200    297.62516   -1462.9564    484.30884    364.51887    606.97215    36812.755 
  274300    301.60841   -1494.9028    492.01359    358.25339    900.54304    36812.755 
  274400    297.70849   -1486.7575    496.04756    352.83256    1017.5537    36812.755 
  274500    311.03442   -1498.2955    484.35519    389.74134    1061.4493    36812.755 
  274600    296.66939    -1495.315    490.64052    334.17857    771.91738    36812.755 
  274700    299.36445   -1488.0731    490.04598    352.98859    12.578076    36812.755 
  274800    292.66481   -1492.0178    453.36946    282.13225    199.30962    36812.755 
  274900    313.83274   -1429.2084    501.58406    488.68601     301.3276    36812.755 
  275000    310.93398   -1485.1331    504.46111    422.55639    462.20342    36812.755 
  275100    299.47484   -1466.7833    479.16852    363.89911    227.74911    36812.755 
  275200    307.36317    -1503.835    514.30994    397.58842    427.48836    36812.755 
  275300    300.25132   -1468.2787    478.43725    365.17664   -287.82314    36812.755 
  275400    301.09112   -1424.6185    500.81935    435.00894    673.48039    36812.755 
  275500    297.21325   -1469.8357     509.9833    381.45502    398.79898    36812.755 
  275600    308.65383   -1481.0519    475.44762    387.33393    537.12752    36812.755 
  275700    290.72353   -1456.6917    491.31386    346.64184    476.43739    36812.755 
  275800    302.08148   -1471.3865    477.32187    369.21288    260.32165    36812.755 
  275900    296.19844   -1454.4939    475.91135    358.14512   -145.68995    36812.755 
  276000    310.58994    -1484.943     472.0637     388.7964   -107.79126    36812.755 
  276100    301.85475   -1481.1701    474.82767    355.91187   -63.335071    36812.755 
  276200    311.35443   -1494.0027    481.06871    392.19191   -79.254498    36812.755 
  276300    297.36759   -1473.0694    485.27416     354.2088   -63.991315    36812.755 
  276400    305.46102   -1531.8659    503.25964    349.92292   -641.02977    36812.755 
  276500    315.64194   -1540.1446    456.84716    341.17777    168.59279    36812.755 
  276600    293.57378   -1518.7858    490.95323     297.0502    339.14199    36812.755 
  276700    299.23978   -1509.8858    475.73478    316.30204    111.80267    36812.755 
  276800    301.45722   -1516.5372    499.73997    343.66309    1.4760815    36812.755 
  276900    300.32829   -1472.5702    513.33423     396.1295   -136.75802    36812.755 
  277000    304.68753   -1479.6492    509.83797    405.22728   -166.04435    36812.755 
  277100    312.36734   -1482.8575    475.66177    402.50128    194.17574    36812.755 
  277200    294.81667   -1489.7705    484.06265    324.78397    14.646418    36812.755 
  277300    305.39104     -1515.67     474.6821    337.22552   -141.82096    36812.755 
  277400    295.67677    -1522.241    486.47122    298.60365    65.378796    36812.755 
  277500     302.7977     -1471.57    499.24365    394.18345   -10.900017    36812.755 
  277600     300.2656   -1492.8604    496.97905    359.20124    934.12546    36812.755 
  277700    295.09764   -1453.3235     464.7854    343.22174    237.58867    36812.755 
  277800    299.04742   -1481.6514    496.02322    363.95685    105.37602    36812.755 
  277900    301.82611   -1464.3457    480.13416    377.91354    386.76922    36812.755 
  278000    294.00942   -1450.6055    510.69803    386.94123    887.53451    36812.755 
  278100     294.3513   -1455.8111    522.27205    394.85254    529.01472    36812.755 
  278200    303.06254   -1461.0481    475.23657    381.89344    794.47363    36812.755 
  278300    297.60822   -1436.0683    503.09797    410.11964    210.56106    36812.755 
  278400    296.37233   -1469.1858     498.8897    367.21636    131.22653    36812.755 
  278500    297.34069   -1425.1482    494.14516    410.87957   -460.99143    36812.755 
  278600    303.57095   -1419.4849    480.23817     430.7527   -136.35126    36812.755 
  278700    291.26421   -1433.2784    507.86534    389.04669   -322.14063    36812.755 
  278800    316.56884   -1433.0299     498.2844    493.91268    170.13353    36812.755 
  278900    310.13251   -1486.7897     476.4002     389.2219   -58.209702    36812.755 
  279000    292.17004   -1494.0275    483.63088    308.15106    367.68511    36812.755 
  279100    295.86647   -1500.8673    477.90586    312.26806    426.00522    36812.755 
  279200    297.48899   -1521.1557    507.44509    328.84125    465.38609    36812.755 
  279300    302.65722   -1482.3527    488.49067    372.01378    421.24522    36812.755 
  279400    304.81559   -1492.4869    486.46059    369.59011    -56.81072    36812.755 
  279500     296.4256    -1494.773    483.15188     326.1317   -259.66924    36812.755 
  279600    300.08017   -1498.6921    487.41883     342.9724   -365.14959    36812.755 
  279700    315.16868   -1550.6396    462.64575    334.34556   -865.47879    36812.755 
  279800    300.76925   -1510.2996    494.11996    341.17592   -79.429887    36812.755 
  279900     300.3492   -1518.6175    496.44469    333.28707    310.71363    36812.755 
  280000    295.96486   -1525.6978    514.38738     324.3631     101.3285    36812.755 
  280100    299.04957   -1547.9214    475.58241    277.25574    310.29805    36812.755 
  280200    306.88052   -1526.9584    492.56302    350.53997    526.07794    36812.755 
  280300    292.96056   -1493.3355    482.27032    311.05009   -352.61129    36812.755 
  280400    297.91077   -1508.8193    488.51376     324.1498   -346.75981    36812.755 
  280500    294.27937   -1501.0208    491.07322    318.11949    -527.7441    36812.755 
  280600    304.78623   -1519.3274    482.62239     338.7789   -102.63476    36812.755 
  280700    307.88387   -1481.9032     491.8951    399.45535   -486.26045    36812.755 
  280800    304.54456   -1520.6851     482.2852    335.99333   -26.736252    36812.755 
  280900    296.41193   -1483.4457    496.34371    350.58921   -196.45709    36812.755 
  281000    300.09486   -1526.3367    496.00062    323.97595   -856.04338    36812.755 
  281100    291.36183   -1496.9588    495.34571    313.28723   -710.81011    36812.755 
  281200    310.56979   -1529.6002    463.81852    335.80313   -364.33494    36812.755 
  281300    305.39864   -1549.0526     478.9312    308.12634   -723.07946    36812.755 
  281400    304.10265    -1477.533    501.33418    396.20015   -269.76476    36812.755 
  281500    293.68975   -1454.6158     540.7673    411.55759   -137.83047    36812.755 
  281600    298.76422   -1458.8443    470.04438    359.50695    176.06733    36812.755 
  281700    301.10072    -1512.209    510.62827    357.27064   -80.119623    36812.755 
  281800    302.76696   -1495.5077    506.04596     376.9093    302.27967    36812.755 
  281900     298.2703   -1480.6845    490.40833    355.80171   -124.74453    36812.755 
  282000    312.67566   -1510.7751    479.79931    380.11275    -451.9271    36812.755 
  282100    298.48368   -1458.7233    504.53781    392.85534   -420.03164    36812.755 
  282200     302.3384   -1481.3822    493.65397    376.70875   -556.74553    36812.755 
  282300    294.50901    -1506.174    506.95494    329.88434   -57.125907    36812.755 
  282400     291.0343   -1450.4806    520.22539    383.16699   -120.06178    36812.755 
  282500     296.7796   -1506.7312    495.23082    327.85008    434.35127    36812.755 
  282600    302.96607   -1501.6316    513.14521     378.7832   -49.211758    36812.755 
  282700     296.1763   -1465.8105    485.37925    356.19652    359.80849    36812.755 
  282800    301.86791   -1443.9438    534.11826    452.48814   -66.460931    36812.755 
  282900     291.0586   -1442.9281    502.02386    372.62756     248.2438    36812.755 
  283000     292.2938   -1444.1471     494.6971    369.65624    285.89572    36812.755 
  283100        298.5   -1451.3515    503.74562    399.50861   -301.97106    36812.755 
  283200     293.9814   -1461.3404    521.09647    386.47843   -161.70024    36812.755 
  283300    292.82865   -1469.2369    509.46762    361.75067    65.244343    36812.755 
  283400    302.68122   -1484.8449    482.81222     363.9514   -145.84675    36812.755 
  283500    295.62398   -1518.1109    491.42123    307.44547   -56.630632    36812.755 
  283600     298.9741   -1489.6272     487.1525    346.77935   -173.77099    36812.755 
  283700    303.40768   -1482.0336    485.52763    372.75664   -147.52409    36812.755 
  283800    296.70512   -1486.6449    506.26735    358.63679    41.850501    36812.755 
  283900    304.37569   -1493.7411    485.82624    365.71635    58.529875    36812.755 
  284000    297.62259   -1497.6928    493.46459    338.92658    41.355428    36812.755 
  284100    304.92932   -1473.1718    520.21444    423.17234   -160.13831    36812.755 
  284200    295.09375   -1436.2791    527.22254    422.68566    -787.1701    36812.755 
  284300     298.2563   -1493.6258    464.34374    316.73261   -542.02387    36812.755 
  284400    296.25039   -1454.5541    552.58643    434.99447   -794.52448    36812.755 
  284500    290.38288   -1486.2426    472.19231    296.43209  -0.85708574    36812.755 
  284600    292.67699   -1496.5604    495.60573    319.88091   -19.992489    36812.755 
  284700    300.91057   -1507.1606    502.61853    353.45125    678.03529    36812.755 
  284800    302.86803   -1540.3766    503.42273    329.87333    633.58204    36812.755 
  284900     304.0594   -1531.2367    487.72368    328.69075    172.52582    36812.755 
  285000    294.72032   -1524.3968    465.80432    271.46453    76.781787    36812.755 
  285100    292.46609   -1489.2907     472.0996     302.6927    89.033977    36812.755 
  285200    289.85267   -1494.9615    495.04972    308.17776    168.90253    36812.755 
  285300    305.38169   -1506.6218    498.33217    369.88154    698.94749    36812.755 
  285400    306.81472   -1538.1333    475.07902    321.58416   -67.251036    36812.755 
  285500    292.06301   -1505.8846    508.97723    321.15735   -186.50849    36812.755 
  285600    308.20712   -1489.1489    499.04482    400.81808    204.11283    36812.755 
  285700     294.7875    -1447.383    477.50251    360.47972   -36.948276    36812.755 
  285800    287.61741    -1489.883    520.58536    328.70428   -365.26139    36812.755 
  285900    291.36777   -1458.0582    489.91609      346.785    6.8590223    36812.755 
  286000    303.50453   -1441.5407    489.64271     417.8017   -251.11447    36812.755 
  286100    290.75742   -1446.5592     476.1443    341.75779    394.45471    36812.755 
  286200    294.01441   -1456.3191    486.69406     357.2462    13.093133    36812.755 
  286300     298.2938    -1455.573    508.59279    399.20373   -46.946949    36812.755 
  286400    293.85746   -1412.2601    479.26791    393.17082    501.46559    36812.755 
  286500    304.05252   -1432.8099      520.903    460.26584   -277.94408    36812.755 
  286600    306.26183   -1446.2024    485.03687    420.97774   -17.899064    36812.755 
  286700    308.92119   -1465.5896    488.11282    416.66794     328.9448    36812.755 
  286800    295.50247   -1514.3273    482.56743    301.82695    160.72151    36812.755 
  286900    291.13312    -1531.752    469.04629    251.16244    45.123767    36812.755 
  287000    290.33762   -1461.4969    484.38768    333.16893   -142.22818    36812.755 
  287100    299.38325   -1469.9562    504.72703    385.87144      431.355    36812.755 
  287200    293.75661   -1468.1842    499.61045     357.1341    678.04314    36812.755 
  287300    303.26499   -1504.2323    491.55806    355.94443    290.16986    36812.755 
  287400    297.95363   -1465.0718    490.98192    370.55888    120.89216    36812.755 
  287500    292.61747   -1473.7596    486.06682    332.87419    68.452148    36812.755 
  287600     297.4789   -1456.6438    491.82436    377.68691    303.23532    36812.755 
  287700    298.51745   -1474.6969     497.3466    369.84294    338.57976    36812.755 
  287800    298.08181   -1447.6832    504.48223    402.02627   -150.09201    36812.755 
  287900     300.5289   -1504.5708    472.33475    324.03474    409.90385    36812.755 
  288000    291.88517   -1451.1834    493.81776    359.89647   -286.96302    36812.755 
  288100    299.15494   -1449.9039    495.65348    395.81977    135.07366    36812.755 
  288200    303.12395   -1496.4084    483.52421    355.09794    219.28326    36812.755 
  288300    299.11289   -1484.8147    490.05066     355.1164    548.70929    36812.755 
  288400    302.02517   -1496.6721    508.75444     375.1058   -9.6356388    36812.755 
  288500    294.62265   -1486.1174    489.25355    332.75236   -735.48125    36812.755 
  288600    301.43172    -1464.837    489.55348     385.0617   -800.84758    36812.755 
  288700    296.86733   -1502.3544    499.49095    336.88289   -517.81824    36812.755 
  288800    290.98032   -1473.8234    501.89291     341.2481   -884.26419    36812.755 
  288900    293.01343   -1467.9882    494.60072    348.96639   -560.38425    36812.755 
  289000    298.72237   -1449.7721    493.13132    391.47727   -724.78485    36812.755 
  289100    310.54781   -1469.2989    486.51372    418.70042    30.424354    36812.755 
  289200    306.25212   -1484.9282    492.30499    389.47621   -52.141551    36812.755 
  289300    290.88981   -1484.1242    491.98608    320.63203   -551.86476    36812.755 
  289400    296.80749   -1503.8075    501.24973    336.91851    215.94175    36812.755 
  289500    293.85006   -1428.9177    506.22444    403.43632    141.43737    36812.755 
  289600    296.53877   -1455.2729    513.03838    396.02905    214.63318    36812.755 
  289700    302.80697   -1437.7843    497.74208    426.50947    442.41192    36812.755 
  289800    292.79879   -1447.1944    492.19976    366.39062    161.67451    36812.755 
  289900    295.14942   -1450.6081    504.52698    385.91238    83.857893    36812.755 
  290000    306.50946   -1470.0815    502.19332    415.37265    112.03518    36812.755 
  290100    294.00605   -1472.7476    500.68847    354.77438   -266.67961    36812.755 
  290200    294.82224   -1489.9199    476.82774    317.42485   -349.67561    36812.755 
  290300    298.72081   -1494.9903    481.03914    334.15982    -409.1376    36812.755 
  290400    308.51481   -1484.9264    473.60501    380.98944   -500.56515    36812.755 
  290500    305.55624   -1495.0636    467.22058    351.11596   -198.41623    36812.755 
  290600    293.54291   -1500.1702    497.00431    321.57754    -588.2434    36812.755 
  290700    300.52991   -1507.3625    505.64211    354.55498   -129.89545    36812.755 
  290800    298.84487   -1493.4528    508.61766    363.83569    346.47804    36812.755 
  290900    305.42289   -1494.4123    476.37837    360.32321    261.86365    36812.755 
  291000    298.73019   -1508.4742    508.83285    348.51197   -205.12921    36812.755 
  291100     303.7076   -1471.1411     511.6836    411.15864    -307.1817    36812.755 
  291200    290.28176   -1454.2085    507.09247    362.91004   -587.12398    36812.755 
  291300    301.69185   -1486.8827    477.30384     351.9403   -281.68956    36812.755 
  291400    298.52237   -1462.7119     480.3654    364.86903   -29.592163    36812.755 
  291500    304.02278   -1505.2622    487.74731    354.52359   -174.53775    36812.755 
  291600    295.38897   -1458.4113    480.34577    355.00911   -89.188214    36812.755 
  291700    294.98367   -1497.9548    494.64347    327.93419   -275.83661    36812.755 
  291800    306.54458    -1487.703    493.95003    389.66628   -268.45584    36812.755 
  291900    295.35716   -1497.5681    467.52927    302.89223    -239.1498    36812.755 
  292000    296.66072     -1469.99    471.84762    340.67152    27.029355    36812.755 
  292100    295.98562   -1461.4974     513.3621    387.63189    473.39846    36812.755 
  292200    301.43177   -1461.8308    489.58326    388.09795    583.04447    36812.755 
  292300    294.15988   -1456.3655    492.91357    364.07585   -23.080389    36812.755 
  292400     299.1746   -1461.0644    502.21337    391.30795   -54.057477    36812.755 
  292500    291.34153   -1456.0636    509.31413     368.0593    41.036964    36812.755 
  292600    298.92352   -1466.4394    475.07943    357.66582   -126.53229    36812.755 
  292700    303.29804   -1436.7597    514.20269    446.21082   -260.82571    36812.755 
  292800    295.03098    -1452.705    469.40177    348.15576    492.13198    36812.755 
  292900    298.99627   -1464.4491    489.60638    374.51146    457.82345    36812.755 
  293000    307.91401   -1443.5323    511.70434    457.77147    208.43405    36812.755 
  293100    301.96036   -1437.9168    482.16293    406.97704    366.23573    36812.755 
  293200    287.95488   -1463.9972     507.0706    342.59835    477.18881    36812.755 
  293300    294.32832   -1507.6362    490.90117    311.55292   -104.76635    36812.755 
  293400    294.81816   -1490.0742    458.64842    299.07278    562.73591    36812.755 
  293500    296.08415   -1468.1475    514.53036    382.59478    631.82084    36812.755 
  293600    292.91084   -1509.3805    480.28114    292.79157    466.96217    36812.755 
  293700    295.94088   -1519.6233    536.44415    352.38615    85.965235    36812.755 
  293800    297.76088   -1489.8406    476.00802    329.94637    64.816178    36812.755 
  293900    302.29946   -1465.6578    488.84366    387.44712    -167.7089    36812.755 
  294000    301.52895    -1469.344    485.66673    377.10668    51.915622    36812.755 
  294100     298.8577   -1489.1223    477.89593    337.50238   -134.50291    36812.755 
  294200    306.38181   -1488.4689    504.22824    398.44399   -278.48053    36812.755 
  294300    306.93981   -1503.0272    493.48738    375.66307   -258.07325    36812.755 
  294400    296.88238   -1508.8297    494.85702    325.84159    648.09529    36812.755 
  294500    298.48593    -1486.881    492.97852    353.14856    44.524076    36812.755 
  294600     300.7686   -1537.0401    462.85055    283.16307    507.00613    36812.755 
  294700    298.87139   -1531.8586    500.97617    317.90814   -64.459628    36812.755 
  294800    303.97428    -1498.511    482.82403    356.13264   -97.725006    36812.755 
  294900     299.5856   -1522.1184    492.78898    322.68438    285.89816    36812.755 
  295000    300.72972   -1538.3945    478.70337    297.48596    81.293858    36812.755 
  295100     300.0389   -1540.9696    490.35367    303.44351   -645.97687    36812.755 
  295200    301.63919   -1493.6121    484.85572    352.52515   -1248.7128    36812.755 
  295300    303.61647   -1499.0364    472.32655    343.49503    -413.4698    36812.755 
  295400    292.02099   -1493.9486    501.99748    325.92397    -370.7003    36812.755 
  295500    294.76526   -1487.6153    512.70902    355.35351   -191.80145    36812.755 
  295600    304.88604   -1536.2647    494.64772    334.31739    475.32307    36812.755 
  295700    294.05949   -1507.7187    480.43274    299.78877    115.80724    36812.755 
  295800    299.66166   -1497.7857    497.07425    351.64556    217.64837    36812.755 
  295900    290.20691   -1505.8721    494.53194    298.34806    -37.44857    36812.755 
  296000    297.58933   -1508.5984    480.61676    315.02309    740.94777    36812.755 
  296100    302.77147   -1501.8838    510.32676    374.83438   -381.05088    36812.755 
  296200    291.31599   -1474.1119    480.40246    320.98397   -119.41762    36812.755 
  296300    304.77074   -1477.6114     507.8978    405.70043   -215.03157    36812.755 
  296400    300.10753   -1492.6906    499.30036    360.97892   -158.19944    36812.755 
  296500    292.88675   -1486.4384    472.28705    307.63091   -303.24774    36812.755 
  296600    293.14257   -1537.3608    546.99858    332.57448   -260.56435    36812.755 
  296700     294.6575   -1479.6585    509.46565     359.5807   -464.99376    36812.755 
  296800    289.26695   -1501.2864    482.82366    286.98352   -622.59581    36812.755 
  296900    302.22892   -1526.8923    477.07382    314.12442   -641.55118    36812.755 
  297000    292.33177   -1523.8945    508.94543    304.32853   -244.44772    36812.755 
  297100    305.39306   -1537.6565    488.81868    329.38467   -108.09181    36812.755 
  297200     304.1842   -1537.1003      497.357    333.02371   -716.84072    36812.755 
  297300    298.49064   -1500.0038    511.87281    358.94123   -145.65933    36812.755 
  297400    303.68144     -1514.81    515.73298    371.42101   -77.413939    36812.755 
  297500    293.26692   -1514.1244    528.90758    338.28112   -91.752521    36812.755 
  297600     294.2977   -1509.1106     524.8279    343.86706    -598.9488    36812.755 
  297700    304.47921    -1509.699     505.1919    369.59126    89.272095    36812.755 
  297800    293.96177   -1505.1185    499.99898    321.51422   -35.574166    36812.755 
  297900    298.15697   -1541.0898    497.38676    301.86341    -638.3942    36812.755 
  298000     296.8561   -1523.0012    498.68095    315.37541   -880.53283    36812.755 
  298100     296.0854   -1483.3053    490.47072    343.38294    -870.1214    36812.755 
  298200    296.06873   -1514.0605    489.21674    311.29855    -573.8765    36812.755 
  298300    301.48594   -1520.9477    519.32866     358.9708   -411.60991    36812.755 
  298400    310.44819   -1533.4719    472.54995    340.11414   -229.20093    36812.755 
  298500    294.23098   -1485.5784    507.00035    349.27062   -140.97337    36812.755 
  298600    293.53091   -1495.7991    501.04612    329.93627   -100.62973    36812.755 
  298700    310.90949   -1501.3987    522.28751    424.00663    438.86233    36812.755 
  298800    298.57038   -1536.3645    475.47193    286.53953    74.847094    36812.755 
  298900    305.97833   -1545.9215    515.09897     350.0413    30.303673    36812.755 
  299000    294.92461   -1535.4063    494.36141     289.9341    126.37884    36812.755 
  299100    298.16926   -1535.3456    486.24912    296.52542    3.8243509    36812.755 
  299200    304.98446   -1538.9471    496.54295    333.97437    140.85965    36812.755 
  299300    306.32269   -1501.7899    508.32395    388.95195    425.29017    36812.755 
  299400      297.504   -1510.9522    509.21568    340.88308   -172.06783    36812.755 
  299500    296.98213   -1510.3489    505.55359    335.46912   -103.61163    36812.755 
  299600    305.92369   -1527.3123    480.07685    333.38178    239.07134    36812.755 
  299700    302.47926   -1515.0534    502.60545    352.62473    545.48279    36812.755 
  299800    290.71558   -1496.6376    473.55287    288.89914    142.73782    36812.755 
  299900    310.30255   -1497.7602    516.62676    419.24537   -15.775166    36812.755 
  300000    298.29102   -1515.7141    513.98677    344.44402    278.28837    36812.755 
  300100     295.8723   -1499.6473     520.6032    356.21178     384.3166    36812.755 
  300200    295.58465   -1507.5146    491.06836    317.51147   -851.35947    36812.755 
  300300    303.65088   -1496.6214    510.77879    384.51754   -1016.0931    36812.755 
  300400    311.15806   -1495.5332     473.9847    382.69116   -293.39087    36812.755 
  300500    294.45108   -1475.9132    482.31149    335.24019   -743.27662    36812.755 
  300600    296.62046   -1462.9947    523.46648    399.10398    -578.4538    36812.755 
  300700    300.51832   -1492.4238    478.53621    342.33543   -82.270504    36812.755 
  300800    302.78713    -1530.338    490.21859    326.34263    25.714237    36812.755 
  300900    289.28828   -1511.0799    502.14447    296.60703     548.6619    36812.755 
  301000    299.42016   -1547.3884    501.74611    305.62487    149.01429    36812.755 
  301100    301.08761   -1530.1898    499.50304    328.10552    339.13752    36812.755 
  301200    306.95067    -1577.749    495.44976    302.95272    330.47427    36812.755 
  301300    298.37218   -1532.3198    497.09295    311.31078    1100.5341    36812.755 
  301400     293.4713   -1571.3748     478.8347    231.88017    550.72168    36812.755 
  301500    303.77071   -1561.4451    493.45322    302.90911    539.40461    36812.755 
  301600    295.92496   -1551.1644    487.53633    271.86543     564.2912    36812.755 
  301700    300.79595   -1528.4921    467.21402    296.19792    721.24768    36812.755 
  301800     301.9925   -1512.1168    512.38751    363.14665     337.8218    36812.755 
  301900    290.96573   -1503.0527    484.37905    294.43913    778.92578    36812.755 
  302000    298.57158   -1526.2518    503.57204    324.75781    297.00462    36812.755 
  302100    303.62962   -1561.9487    502.64521    310.96075    463.89198    36812.755 
  302200    299.98992   -1547.9043    478.31905    284.25321    214.51095    36812.755 
  302300    289.92413   -1575.7728    472.35399    204.99328     -29.0362    36812.755 
  302400    297.57011   -1517.6485    497.61114    322.88058   -124.51935    36812.755 
  302500    300.34586   -1540.2731    487.99183    303.16356    498.17468    36812.755 
  302600    301.96092   -1508.6524    479.70269    333.78379    312.74308    36812.755 
  302700    291.54891   -1486.4694     501.8495    331.12474   -453.26732    36812.755 
  302800    300.98696   -1491.7342    530.58754    397.19133    221.60316    36812.755 
  302900    294.37561   -1428.3321    480.55382    380.72307    519.86873    36812.755 
  303000    288.92113   -1467.4347    505.17574    341.62662    439.52406    36812.755 
  303100    298.83103   -1510.3299     514.1551    352.43363    516.21877    36812.755 
  303200    309.54568   -1506.4175    491.85877    382.40435    77.258585    36812.755 
  303300    299.83907   -1506.1568    465.45507    312.45591    2.5319807    36812.755 
  303400    307.79757   -1486.2157    477.78899    380.64725    36.973983    36812.755 
  303500    293.60943   -1520.6318    474.86708    279.27888    32.603182    36812.755 
  303600    291.85067   -1483.7897    526.14799    359.46472   -275.46369    36812.755 
  303700    285.86273   -1445.7012    497.70469    342.08665   -246.84194    36812.755 
  303800    303.24987   -1457.8549    510.57077     421.2663    282.97219    36812.755 
  303900    287.83866   -1440.2467    502.40314     361.1569    363.37706    36812.755 
  304000    299.28857   -1420.4798    484.71158    414.90506    -237.2582    36812.755 
  304100    303.19369   -1449.3844    514.93469    433.84722   -56.448535    36812.755 
  304200    306.61925   -1460.4068    483.35492    406.70436    -228.8484    36812.755 
  304300    292.25743   -1465.7795     489.1787    342.34131    -583.6674    36812.755 
  304400    297.21557   -1441.2681    524.67965    424.72947   -241.95542    36812.755 
  304500    306.56645   -1481.5362    469.88341    371.86518   -356.23179    36812.755 
  304600    299.04688   -1466.2479    489.27815     372.6128   -880.90153    36812.755 
  304700    300.07122   -1526.7401    466.26378    293.72904   -1227.7117    36812.755 
  304800    293.08085   -1500.4637    482.93841     305.1329   -641.52332    36812.755 
  304900    301.44518   -1493.4046     485.7921    352.79344   -578.24305    36812.755 
  305000    300.66352    -1481.884    470.05371    345.04801   -632.35185    36812.755 
  305100    320.76591   -1521.1762     470.8054    397.22861   -809.25004    36812.755 
  305200    295.05695   -1489.3232    479.70645    321.95946   -921.10078    36812.755 
  305300    305.24213   -1499.3788    492.16098    370.32352    4.5981351    36812.755 
  305400    305.41313   -1518.7117     497.3949    356.99626   -669.16719    36812.755 
  305500    299.76973   -1524.0816    490.82987      319.593   -571.81999    36812.755 
  305600    300.22286   -1511.5898    482.97093    326.27086   -549.62899    36812.755 
  305700    293.17709   -1475.6994    501.23313    348.62627   -88.559235    36812.755 
  305800    302.84034     -1514.31    501.58732    353.97959   -24.866508    36812.755 
  305900    302.03961   -1484.4562    487.46357    366.09594   -61.538221    36812.755 
  306000    299.31735   -1534.1452    486.63886    303.29683   -331.98563    36812.755 
  306100    313.76464   -1531.3199    456.91044    341.59352   -1222.7935    36812.755 
  306200    295.59612   -1507.2462    505.07891    331.84218   -518.57107    36812.755 
  306300    306.79211   -1499.7161    480.49318    365.31349   -30.417743    36812.755 
  306400    298.54809    -1520.046    461.36919    288.65476    85.771366    36812.755 
  306500    298.07598   -1520.8706    506.76649    331.09682    106.88533    36812.755 
  306600    300.09086   -1524.8203    464.20917     293.6828   -38.629498    36812.755 
  306700    309.68714   -1526.9214    457.38117    328.06127   -190.96031    36812.755 
  306800    296.05368   -1530.3467    484.72225    290.44989   -24.599613    36812.755 
  306900    292.34397   -1531.3437    501.33211    289.32104   -354.23956    36812.755 
  307000    294.18519   -1548.4032    485.97869     265.2175   -296.29326    36812.755 
  307100    299.79201   -1533.0536    488.86994    308.76166    410.37807    36812.755 
  307200    304.65437   -1517.4209    502.01104    359.47899     60.20086    36812.755 
  307300    289.27849    -1521.575     469.1621    253.08542    233.63933    36812.755 
  307400    311.79306    -1515.673     507.9765     399.4089    586.72789    36812.755 
  307500    290.00185   -1507.7882    501.18951    302.16409   -207.64821    36812.755 
  307600    290.67504    -1510.671    508.41124    309.54112    438.81111    36812.755 
  307700    302.19041   -1514.8695     465.7331     314.6327     630.3399    36812.755 
  307800    305.12228   -1520.0013    475.15159    332.15075    181.06227    36812.755 
  307900    300.44289   -1491.3913    491.82003    356.31136    332.31576    36812.755 
  308000    287.68597    -1526.136    479.72164    251.89699   -238.75028    36812.755 
  308100    302.97577   -1464.1187    465.65859    368.85324   -214.19732    36812.755 
  308200    300.93855   -1465.6171    484.87697     377.3794    393.88476    36812.755 
  308300     301.7294   -1451.0788    510.36172    420.97152    149.07105    36812.755 
  308400    304.44514   -1503.3354    520.56364    391.17288   -149.19621    36812.755 
  308500    304.26981   -1462.0407    492.81164    403.92423   -386.57052    36812.755 
  308600     302.2125   -1501.3441    502.08573    364.61043   -439.66605    36812.755 
  308700    289.07367   -1471.5771    478.87317       311.87   -359.14049    36812.755 
  308800    281.19299    -1500.217    492.18897    260.98084   -423.46774    36812.755 
  308900    323.49636   -1502.4827    485.25546     442.6945   -175.87418    36812.755 
  309000    298.51225    -1514.781     498.7714    331.16016    170.10578    36812.755 
  309100     301.4907   -1506.9715    478.79972    332.43962   -147.70047    36812.755 
  309200    288.84301   -1498.9577    509.69809    314.27348    15.259272    36812.755 
  309300    297.22228   -1530.5002    492.38326    303.23127     455.4486    36812.755 
  309400    303.17435   -1514.1104    497.18987     351.2891   -62.773622    36812.755 
  309500    305.12238   -1469.4069    502.52501      410.119    173.62355    36812.755 
  309600    297.17249   -1471.2939      504.475     374.3046    940.40516    36812.755 
  309700     297.9074   -1490.3728    511.35923    365.42657    913.88929    36812.755 
  309800    295.23033   -1519.7501    485.92277    298.53133    822.23348    36812.755 
  309900    309.13209   -1501.1172    479.10331    373.08269    503.81654    36812.755 
  310000    307.70508   -1512.8127    479.94244    355.78628    314.19626    36812.755 
  310100    286.48198   -1517.6967    477.28351    252.46464   -92.019519    36812.755 
  310200    306.58153   -1510.8279    477.85837    350.61651   -604.38738    36812.755 
  310300    305.18962   -1503.4708    473.63084    347.46449   -20.514321    36812.755 
  310400    304.65014   -1516.9831    477.83356    335.72016   -453.31579    36812.755 
  310500    311.26878   -1533.9647    488.95052     359.7252   -487.63056    36812.755 
  310600    302.77065   -1564.6651    460.19892    261.92155   -588.70762    36812.755 
  310700    298.60573    -1566.831    481.38142    262.14202   -344.70376    36812.755 
  310800    304.44959   -1566.4779    470.01075    277.49758    198.69462    36812.755 
  310900    300.79203   -1530.6204    457.99866    284.83657   -236.92138    36812.755 
  311000    307.95475   -1515.4725    485.24144    359.55222   -31.424232    36812.755 
  311100     305.3878   -1518.8046    474.58075     333.9749       174.25    36812.755 
  311200     295.3789    -1528.591    475.64071    280.07888   -151.51745    36812.755 
  311300    291.77734   -1511.3908    485.07151    290.45619    83.201086    36812.755 
  311400    304.47689   -1459.5517     508.0649    422.60104    565.77953    36812.755 
  311500     301.6125   -1484.9588    507.33898    383.54124    527.89632    36812.755 
  311600    294.86482   -1522.1559    514.81684    323.37012    305.22442    36812.755 
  311700    298.95254    -1513.863    482.16016    317.45393    313.34421    36812.755 
  311800    297.09348    -1517.377    470.23822    293.62819   -9.6230954    36812.755 
  311900    299.43418   -1493.4311     491.9002    349.79949    133.38005    36812.755 
  312000    307.65312   -1444.0015     497.6693    442.08988    154.10571    36812.755 
  312100    303.52047   -1427.7803    532.22528    474.21661    264.28988    36812.755 
  312200     299.2984   -1449.3628    484.81764    386.17244    81.342963    36812.755 
  312300    309.69591   -1466.4218    518.91196    450.13123    133.11614    36812.755 
  312400    300.07529   -1473.7202    486.90437    367.40787    244.76266    36812.755 
  312500    300.19644    -1463.294     535.3975    426.87395    237.83675    36812.755 
  312600    294.73396   -1472.8401    478.73555    336.01404    32.345515    36812.755 
  312700     305.4752   -1474.8767    490.87827    394.59475   -4.4008877    36812.755 
  312800    310.50691   -1508.0966    502.36426    395.56877   -232.86649    36812.755 
  312900    301.71807   -1443.9166    489.24205    406.96296    717.52479    36812.755 
  313000    305.59519   -1442.2774    525.73984    462.59719    195.27527    36812.755 
  313100    300.05145    -1452.407    495.65026    397.35935    105.96713    36812.755 
  313200    294.09176   -1451.1886    526.18748    402.21926    149.39089    36812.755 
  313300    302.25668   -1477.3764     471.6212    358.31302   -543.67956    36812.755 
  313400    296.68626   -1441.5362    494.31521    391.70818   -1307.7465    36812.755 
  313500    309.93921   -1459.0413    479.51636    419.21408   -416.57751    36812.755 
  313600    302.15621   -1477.7982    513.23624    399.05277   -755.63276    36812.755 
  313700    302.64114   -1506.0966    499.37493    359.08159   -582.99544    36812.755 
  313800    302.20488   -1503.7381    496.68478    356.78116   -370.58181    36812.755 
  313900    298.04955   -1509.5461    463.52016    299.05568   -89.533372    36812.755 
  314000    303.11018   -1489.6279    508.80796        387.1   -124.30955    36812.755 
  314100    290.03028   -1475.6288    481.28026    314.54258    144.28661    36812.755 
  314200    301.81193   -1511.9068    466.45723    316.61144    635.68269    36812.755 
  314300    294.71416   -1531.6264    497.97929    296.38207    557.26428    36812.755 
  314400    298.99668   -1546.1255    474.21267    277.44321    325.88699    36812.755 
  314500    303.42598   -1511.5514    485.13008    342.92383    503.75795    36812.755 
  314600    302.33455   -1524.1293    509.72383     350.0141    401.86619    36812.755 
  314700    298.65219   -1485.9722    504.88311    366.71222    120.18049    36812.755 
  314800    306.46496   -1465.3585    491.01253    408.71395     116.0305    36812.755 
  314900    299.28634   -1484.5357    501.87691     368.0044   -218.61525    36812.755 
  315000    304.06698   -1459.7009    475.49444    388.03155   -6.0701308    36812.755 
  315100     300.6552   -1470.7515    495.93589    382.02523   -442.84599    36812.755 
  315200    301.89908   -1475.4448    495.52879    382.53838   -86.527042    36812.755 
  315300    294.66125   -1464.2319    492.44195    358.00052    627.71612    36812.755 
  315400     305.6317   -1445.4366    491.30348    425.16633    321.13636    36812.755 
  315500      305.197   -1495.2924     485.3183    367.36358   -513.00789    36812.755 
  315600    295.47802   -1453.1452    496.55207    376.88336   -458.73732    36812.755 
  315700     306.1087   -1461.4821    503.26175    423.23187   -394.22499    36812.755 
  315800    286.74033   -1452.2836     501.0758    342.83597   -865.26332    36812.755 
  315900    299.04839   -1450.7382    481.55519    380.40639   -629.39524    36812.755 
  316000    298.74852   -1493.2124    494.93334    349.95701    78.262646    36812.755 
  316100    306.16454   -1475.8349     497.9241    403.79336    160.01694    36812.755 
  316200    296.15895   -1447.7629    468.98927    357.77584    536.85092    36812.755 
  316300    298.86601   -1455.0375    503.44018    397.16902    511.17554    36812.755 
  316400    293.38935     -1441.16    498.68912    381.57955    346.71028    36812.755 
  316500     298.3121   -1499.3868    485.48376    332.36346   -349.02233    36812.755 
  316600    296.58823   -1486.0375    484.06989    336.51918   -470.40542    36812.755 
  316700    295.67649   -1533.1084    473.68763    274.95144   -284.14389    36812.755 
  316800    301.48816   -1459.4144    497.92726    399.11275   -79.865652    36812.755 
  316900    288.22717   -1504.0819    507.37469    304.04663    182.41181    36812.755 
  317000    299.16701   -1473.8629    510.60032     386.8621    176.46166    36812.755 
  317100    298.45805   -1443.0052    482.71853     386.6385   -131.36646    36812.755 
  317200    286.14934   -1476.8219    501.96181     316.5166    -83.71592    36812.755 
  317300    285.28706   -1492.7204    490.54234     285.3072   -88.055478    36812.755 
  317400    293.39126   -1508.5496    489.64765    305.15712   -399.52495    36812.755 
  317500    306.00138    -1515.954    507.91577    372.92963   -268.92083    36812.755 
  317600    307.87253   -1491.3826    479.43394    377.46353   -342.10082    36812.755 
  317700    291.88018   -1481.7229    479.28326    314.80003   -595.08381    36812.755 
  317800    292.49718   -1510.1286    493.11353    303.00907   -46.925184    36812.755 
  317900    296.21404   -1515.5467    500.51732    321.76873    5.1411905    36812.755 
  318000    286.83241   -1518.4156    491.52648    267.57019     -79.2549    36812.755 
  318100    296.29178   -1502.0108    506.61437    341.75248   -335.17465    36812.755 
  318200    314.10332   -1485.3818    483.33041    415.48008   -532.82108    36812.755 
  318300    302.32986   -1502.7851    499.81741    361.43076   -475.25546    36812.755 
  318400    301.09015   -1544.4576    488.00425    302.35031   -344.86525    36812.755 
  318500    306.42538   -1528.4624    479.14958    333.56852    60.797486    36812.755 
  318600    299.02081   -1500.2104    482.31557    331.57007    -389.5509    36812.755 
  318700    301.83929   -1476.8277    504.94363    390.30047   -285.15865    36812.755 
  318800    297.54651   -1533.2606    501.27587    310.82673    280.39856    36812.755 
  318900    297.88074   -1536.6467    490.13499    297.80814    132.93282    36812.755 
  319000    300.94049   -1528.3162      477.296    307.10814    666.17457    36812.755 
  319100    300.49643   -1520.1044     487.9434    323.96333    494.07707    36812.755 
  319200    288.11573   -1526.9323    527.19817    300.51668    165.44107    36812.755 
  319300    296.97889   -1544.3452    482.21724    278.12187    35.174224    36812.755 
  319400    293.84105    -1529.737    470.78244    267.13436    -234.9444    36812.755 
  319500    291.06127   -1513.2776    493.38464    293.65097   -533.25117    36812.755 
  319600    292.35492   -1553.1955    494.00852    260.19514    -506.9879    36812.755 
  319700    295.38027   -1537.1412    474.55441    270.44852   -638.70619    36812.755 
  319800    312.49369   -1492.1163    452.98687     371.1379   -940.33635    36812.755 
  319900     297.1544   -1498.0512    522.16796    365.15864   -609.69953    36812.755 
  320000    296.52622    -1530.106    473.50307    281.60397    -460.2653    36812.755 
  320100    285.36029   -1563.3544    486.08134     210.5426   -175.81384    36812.755 
  320200    289.44136   -1502.2114    498.53408    302.55598    535.11281    36812.755 
  320300    291.85363   -1570.8723    505.53843    251.78591    245.12118    36812.755 
  320400    293.06534    -1508.478    498.00087    312.11111   -725.39039    36812.755 
  320500    296.61858   -1509.2893     485.8115    315.14594   -635.35453    36812.755 
  320600    309.84609   -1521.0192     523.3917    400.69125   -290.97291    36812.755 
  320700    299.98869   -1461.9462    488.27057     380.1573   -1049.2478    36812.755 
  320800    295.17897   -1522.1521    457.81174    267.78655    -572.7358    36812.755 
  320900    309.53468   -1519.1713    498.08117    375.82328    69.586666    36812.755 
  321000    306.87361   -1475.6795    509.59772    418.82237    311.86802    36812.755 
  321100    296.34481   -1488.2218     499.1342    348.30068    170.16428    36812.755 
  321200    301.88855   -1490.9244    494.22492    365.70732   -80.101488    36812.755 
  321300    299.65174   -1515.5716     511.6438    348.38444   -522.66429    36812.755 
  321400    287.56125   -1533.5295     473.2166    237.43559    -530.9493    36812.755 
  321500    294.70282   -1507.1072    491.79424    314.66508   -902.73619    36812.755 
  321600     292.4193   -1492.8224    505.08232    331.93249   -173.82398    36812.755 
  321700    304.35815   -1463.7086    511.93339    421.77682    388.11203    36812.755 
  321800    295.90855   -1488.5035     499.1135    346.02946   -161.83964    36812.755 
  321900    299.21701    -1478.919    508.50988    379.94118   -517.92352    36812.755 
  322000    310.54702   -1477.3035    485.47051    409.64909   -451.82341    36812.755 
  322100    303.38654   -1521.2399    482.11098    330.03831  -0.57560878    36812.755 
  322200    311.83818   -1520.5322    506.88216    393.65899    155.62341    36812.755 
  322300    291.76546   -1503.4508    512.68832    325.95943   -122.18472    36812.755 
  322400    303.65524   -1480.2487    497.28889    387.41997   -222.01177    36812.755 
  322500    302.03741   -1504.4419    498.86718     357.5039   -119.44053    36812.755 
  322600    306.74771   -1467.5593    532.49715    449.27381    99.250797    36812.755 
  322700    310.21973   -1475.7507    506.97027    431.22463    -127.3918    36812.755 
  322800    288.41255   -1526.6995    478.63737    253.52829   -463.15093    36812.755 
  322900    297.13193   -1502.1817    505.62324    344.38204   -164.29854    36812.755 
  323000    296.28463   -1514.5627    515.96463    338.51861   -12.896067    36812.755 
  323100    311.52687   -1537.9211    506.52027    374.50323    430.48539    36812.755 
  323200    293.03272   -1546.2668    495.92134    272.09547    481.75199    36812.755 
  323300    301.98399   -1506.6056    505.31422    361.54622    79.883792    36812.755 
  323400    307.75039   -1480.6812    481.27787    389.45764   -131.97945    36812.755 
  323500     307.1879   -1474.4263    486.66509    398.56134    122.86826    36812.755 
  323600    304.10664   -1431.0483    512.83303    454.20176   -70.088107    36812.755 
  323700    303.14565   -1457.8308    475.27995    385.52925   -253.58238    36812.755 
  323800    308.63652   -1470.8653    498.92946    420.92419   -375.14023    36812.755 
  323900    288.49564   -1530.0684    504.91931    276.81633   -304.98547    36812.755 
  324000    301.48972   -1490.8228    497.39132    367.17549    333.71813    36812.755 
  324100    301.40447   -1460.3655    492.31863    392.17534    31.149819    36812.755 
  324200    289.95109   -1474.7099    516.03313      349.857   -565.76088    36812.755 
  324300    299.14526   -1461.0481    479.98955    368.96796   -780.67421    36812.755 
  324400    297.58626   -1480.6415    525.81916    388.16854    -862.5013    36812.755 
  324500     288.2877   -1490.0454    488.32517    299.30673   -501.54476    36812.755 
  324600    291.27384   -1477.7897    505.88659    342.60016   -709.72745    36812.755 
  324700    301.21593   -1516.1272    478.21704    321.46122   -298.67751    36812.755 
  324800    287.98968   -1452.6087    504.36516    351.43841   -435.70097    36812.755 
  324900    294.95725   -1437.0805     501.4738     395.5196   -383.84019    36812.755 
  325000    295.37941    -1458.956    485.78524    359.86065   -72.174832    36812.755 
  325100    293.55156   -1485.8083    510.26777    349.24195    43.636803    36812.755 
  325200    301.89413   -1470.9812    525.01554    416.46634    703.70509    36812.755 
  325300    284.15166   -1495.3794    465.30713    252.28896    241.04635    36812.755 
  325400    300.72227   -1469.9257     510.1568     397.3746   -344.54652    36812.755 
  325500    305.49577   -1519.5965    482.16416    341.25367   -662.84508    36812.755 
  325600    294.06872   -1504.2252    481.95348     304.8447   -794.00484    36812.755 
  325700    306.60027   -1478.4761    503.07512    408.26962   -984.04056    36812.755 
  325800    304.26543   -1431.1934    520.72516    462.66533    -398.7771    36812.755 
  325900    310.51322   -1431.0576    491.67524    461.94711    6.9993204    36812.755 
  326000    292.13145   -1502.6489    459.68459    275.40926   -159.63131    36812.755 
  326100    297.18554   -1484.7538    524.81417    381.24281   -107.75468    36812.755 
  326200    314.91309    -1504.957    468.59937    384.82826    132.02389    36812.755 
  326300    295.03737   -1437.2552    517.05337    411.28599   -191.53397    36812.755 
  326400    301.80916   -1523.5362    496.29989     334.8123   -34.399415    36812.755 
  326500    300.35604    -1500.315    469.75515     324.9309    135.78426    36812.755 
  326600    305.00031   -1490.7431    500.27148    385.97838    377.02454    36812.755 
  326700    307.32139    -1527.225    500.66654    360.36651    508.51733    36812.755 
  326800    288.35303   -1518.4414     489.3525     272.2329    800.55148    36812.755 
  326900    300.86603   -1492.9794    493.35835    358.17118    565.17998    36812.755 
  327000     292.1124   -1465.8065    481.26385    333.74495    226.63062    36812.755 
  327100    309.87786     -1497.02    505.59308    407.03527    399.88646    36812.755 
  327200    293.82522   -1459.5286    481.54177    348.03064    234.65191    36812.755 
  327300    300.75808   -1466.3437     495.8656    386.82702    321.87326    36812.755 
  327400    305.56952   -1500.6973    498.03732    376.35893    782.56321    36812.755 
  327500    298.01945   -1467.4762    519.48748    396.95711    151.48586    36812.755 
  327600    305.74449   -1473.9414    511.80555    417.67264   -143.97905    36812.755 
  327700    305.89277   -1481.7959    499.77501    398.45682   -601.31216    36812.755 
  327800    292.86006   -1492.3274    490.97161    320.30596   -1239.7456    36812.755 
  327900    305.33192   -1478.0591    510.69135    410.57881    -871.9422    36812.755 
  328000    309.51181   -1467.8949    501.20206    430.11734   -934.31669    36812.755 
  328100    309.85737   -1485.3877    496.36606    409.34806   -860.48878    36812.755 
  328200    293.15535   -1492.8029    480.67234     310.8638   -968.94463    36812.755 
  328300    295.53142   -1484.8326    490.02046    338.90535   -519.74018    36812.755 
  328400    298.06221   -1536.4546    508.77776    317.46197   -914.74665    36812.755 
  328500    309.45838   -1545.7691    501.37847    352.17842   -261.06902    36812.755 
  328600    300.79791   -1524.9969       478.12    310.60796   -33.155554    36812.755 
  328700    302.58806   -1547.6387    517.84057    335.76554    70.484612    36812.755 
  328800    306.18864   -1529.6912    519.63238    371.75413    340.73604    36812.755 
  328900    310.30573    -1517.149    504.40601    387.65016    675.55636    36812.755 
  329000    299.89587   -1498.3116    491.61195     346.7143    675.24616    36812.755 
  329100     302.8066   -1510.2494    494.21798    350.51857    753.95137    36812.755 
  329200     293.3809   -1497.7654    480.62368    306.87054     253.2907    36812.755 
  329300    303.83818   -1482.1078    512.11516    401.21273    319.38679    36812.755 
  329400    296.27663   -1441.9558    517.14999    412.27479     179.9003    36812.755 
  329500    294.81171   -1447.3916    507.02561    390.10343   -700.19255    36812.755 
  329600    299.43424   -1486.0537    484.41523    349.69216   -1004.9028    36812.755 
  329700    301.71224   -1486.8702    493.25769    367.99869   -549.82894    36812.755 
  329800    297.09958   -1502.1387    479.32769    317.98347   -346.24134    36812.755 
  329900    293.92741   -1526.5925    491.47104    291.35724    269.28479    36812.755 
  330000    298.25083   -1554.5491    507.99797     299.4389    336.71685    36812.755 
  330100    298.68513   -1538.8097     473.7271    282.86745     192.5243    36812.755 
  330200    302.72895   -1556.6472    481.68416    291.23644    510.07472    36812.755 
  330300    298.49295   -1548.9488     484.7159    282.84981   -673.19424    36812.755 
  330400    265.40526   -1558.9695    504.46402     143.2542    -636.1199    36812.755 
  330500    294.76832   -1540.1317    486.00069    276.14268   -236.76714    36812.755 
  330600    309.37454   -1560.1568    482.03869    318.07265   -119.08531    36812.755 
  330700    296.84414   -1549.8186    482.07072    271.89383   -293.69164    36812.755 
  330800    300.58648   -1567.9422    487.56567    276.15411    748.78324    36812.755 
  330900    302.75484   -1557.3222     504.3723    313.36647    563.55465    36812.755 
  331000    292.53528   -1528.2273    494.48774    286.45647    1014.5172    36812.755 
  331100    298.08556   -1545.4518    501.94402    301.73638    997.98103    36812.755 
  331200    304.31428   -1548.7064    472.42296     297.0706    539.26377    36812.755 
  331300    294.77535   -1539.1441     490.8624    282.02363    272.72687    36812.755 
  331400    292.52183    -1500.757    482.75091    302.12926    443.21291    36812.755 
  331500     308.3098   -1565.1178    453.40176    279.66959   -325.63079    36812.755 
  331600    299.90692   -1527.9081    490.75552    316.31128   -724.24022    36812.755 
  331700    307.95301   -1552.7604    481.12885    318.14386   -796.16052    36812.755 
  331800    297.08908   -1561.9632    476.24464    255.02856    -181.9155    36812.755 
  331900    304.61528    -1562.569    480.00754    292.15096   -407.32284    36812.755 
  332000    304.99506   -1509.5396    494.67025      361.557   -11.244044    36812.755 
  332100    297.34391   -1557.0639    483.29847    268.13166   -291.42222    36812.755 
  332200    304.35225   -1559.1143    502.37942    316.79049   -322.74408    36812.755 
  332300    307.59431   -1505.9367    487.92985    370.14978    106.60612    36812.755 
  332400    307.87338   -1539.5132    469.77691    319.67972   -162.86541    36812.755 
  332500    305.21089   -1537.7657    502.37176    342.00647   -330.93417    36812.755 
  332600    297.37066   -1500.7078     486.2398    327.54987    164.22469    36812.755 
  332700    287.57041   -1529.7033    469.32362    237.41018     107.0285    36812.755 
  332800    292.53259   -1522.7919    510.65131    308.04333    449.16036    36812.755 
  332900    304.30088   -1521.1163    498.25043    350.42765    346.07082    36812.755 
  333000    304.16885   -1494.7154     484.3983    362.38067    99.913303    36812.755 
  333100    292.31611   -1525.6743      472.059    265.59162   -15.002432    36812.755 
  333200    309.53333   -1514.4757    495.50831    377.93995     525.3003    36812.755 
  333300    306.25095   -1479.8731    506.68154    408.90255    840.27285    36812.755 
  333400    309.50729   -1531.4327    489.16034    354.51745    692.12303    36812.755 
  333500    310.64973   -1524.3585    473.90712    351.49425    1166.9336    36812.755 
  333600    300.60636    -1503.293     494.3936    347.72097    32.002388    36812.755 
  333700    307.98678   -1511.2535    494.01226    372.68661   -90.293237    36812.755 
  333800    306.31079   -1521.6298    465.62524    326.35965   -264.72828    36812.755 
  333900    308.04441   -1530.5269    484.20918    343.87013   -415.40821    36812.755 
  334000    297.48049   -1515.5656    488.34072    315.28859    46.720003    36812.755 
  334100    294.42377   -1528.2211    488.08336    288.58097   -293.67203    36812.755 
  334200    290.34649   -1505.1173    496.24377    301.44464   -152.55688    36812.755 
  334300    289.68453   -1520.6549    472.61678     259.2926    153.41068    36812.755 
  334400    297.06691   -1496.6599    472.73685    316.72397     304.9191    36812.755 
  334500    306.39862   -1499.7638    487.68287    370.67966    357.10629    36812.755 
  334600    297.60725   -1477.4599     469.1722     334.7979   -743.08505    36812.755 
  334700    307.15976    -1521.868     510.9455    375.27299   -102.80406    36812.755 
  334800    308.26047   -1541.5339    488.87411    338.50322   -304.80137    36812.755 
  334900    302.50123   -1507.0448    477.28072    335.40778    -147.3754    36812.755 
  335000    299.31355   -1557.1574    434.76354    228.39211   -565.76047    36812.755 
  335100    300.89437   -1500.0989    457.71317    315.53448    63.949125    36812.755 
  335200    296.18538    -1501.325    450.04582    285.38955   -418.04893    36812.755 
  335300    300.27866   -1497.3846     481.7638    339.52071   -248.03668    36812.755 
  335400    310.14977   -1518.1385    508.54043     390.0912   -190.37828    36812.755 
  335500    296.21921   -1503.4046    477.82784    311.24467    134.17141    36812.755 
  335600     310.4997   -1488.8775    491.12749    403.51854    -704.1063    36812.755 
  335700    298.90469   -1532.9435    510.29178    326.28911   -922.82867    36812.755 
  335800    294.36852   -1535.4584    470.03197    263.04288     -770.499    36812.755 
  335900    301.17843   -1547.2517    475.67644    287.62688   -290.07449    36812.755 
  336000    304.48859    -1506.347    476.18374    343.97744   -252.58113    36812.755 
  336100    295.90931   -1510.2974    503.63435    328.75977   -197.28459    36812.755 
  336200    303.12597   -1501.9228      471.941     338.0095    264.88495    36812.755 
  336300    303.77433   -1524.6835    469.51126    315.74505     41.95379    36812.755 
  336400    306.62645   -1507.2319    468.74244    345.29928    138.87835    36812.755 
  336500    301.37862   -1527.0339    482.03733    315.10902    161.37985    36812.755 
  336600    299.39164   -1552.6601    492.40122    290.87958    557.07993    36812.755 
  336700    295.77954   -1509.5911    485.06371    310.30982   -21.329391    36812.755 
  336800    309.29059   -1490.9503    471.60162    376.46315    153.58977    36812.755 
  336900    293.19883   -1520.4707    502.59145    305.31136    275.71871    36812.755 
  337000    305.44981   -1546.4325    493.08499    325.13115    413.25063    36812.755 
  337100    298.15296   -1504.8272    487.78711    328.50818     679.6906    36812.755 
  337200    296.15051   -1515.4663    477.09657     298.1416    194.58029    36812.755 
  337300    312.12304   -1547.3416    467.32659    328.57956    188.91635    36812.755 
  337400     291.3554   -1493.9019    513.15188    334.12132    54.174211    36812.755 
  337500    290.61428   -1482.6067    485.60215    314.52209   -246.18889    36812.755 
  337600    303.01751   -1488.5603    490.07369    369.01521    44.240689    36812.755 
  337700    294.32086   -1523.2853    491.17059    296.13959    216.18407    36812.755 
  337800    300.47248   -1528.9104    486.56927    313.67514    6.4010182    36812.755 
  337900    301.91005   -1509.2366     512.8974    366.16469   -254.91368    36812.755 
  338000    298.00642   -1490.1493    485.28121     340.0189   -566.44623    36812.755 
  338100    307.53996   -1490.3274    483.83872    381.42263    -632.9762    36812.755 
  338200    303.47028   -1478.1975    481.05993    372.40752   -1337.0788    36812.755 
  338300    299.23352   -1494.2752    504.23753    360.38713   -787.58888    36812.755 
  338400    287.94962   -1463.5308    497.99896    333.96939   -418.51888    36812.755 
  338500    313.21538   -1459.4526    497.05721    451.12879   -73.207688    36812.755 
  338600    300.40135   -1532.2812    475.93974     299.3537   -25.596478    36812.755 
  338700    295.89318   -1534.4775    522.86455    323.73707    33.063277    36812.755 
  338800    303.37508   -1511.6538     466.0625    323.52418    271.65227    36812.755 
  338900    297.87623   -1472.0489    503.58534    375.83595   -228.95151    36812.755 
  339000    299.21822   -1468.6806    488.73735    370.41257   -255.57634    36812.755 
  339100    304.11421   -1492.2136    484.82339    365.06088   -429.84564    36812.755 
  339200    300.79524   -1453.7585    465.91426    369.62862   -386.47812    36812.755 
  339300    307.45266   -1488.8931    503.20842    401.83272   -794.78224    36812.755 
  339400    296.81781    -1470.114    502.01392     371.4228   -430.21713    36812.755 
  339500    287.47643   -1482.1867    479.84808    295.02706   -439.88657    36812.755 
  339600    303.59522    -1484.676    481.26916    366.70209   -442.53829    36812.755 
  339700    291.68403   -1523.3523    465.47278    258.47489    -227.8034    36812.755 
  339800    313.25565   -1507.8995    525.71257    431.51903    807.18832    36812.755 
  339900    295.65013   -1503.4922    467.25609    298.01707   -340.78878    36812.755 
  340000     293.7626   -1456.6494     505.1189    374.20443    346.16264    36812.755 
  340100    309.22317   -1443.6591    492.16176    444.01023   -191.20118    36812.755 
  340200    303.81338   -1474.2128    505.15015    402.03082   -182.77156    36812.755 
  340300    293.81546   -1462.4617    498.19089    361.70265     212.9953    36812.755 
  340400    307.63894   -1533.5052    469.29895    324.15175    200.05919    36812.755 
  340500    295.18717    -1500.782    491.63693    323.01886    335.11975    36812.755 
  340600    309.78111   -1480.5575     486.4649    403.93299    46.438604    36812.755 
  340700    293.63333   -1482.2738    496.62884     339.5065    462.03342    36812.755 
  340800    293.55174   -1528.1676    476.88376    273.49945   -576.54833    36812.755 
  340900    297.63796   -1487.2447    474.92648    330.90591    109.17791    36812.755 
  341000    299.12324   -1465.9838    502.39146    386.33478    355.02651    36812.755 
  341100    298.19409   -1450.5717     492.1957    387.35797   -451.06562    36812.755 
  341200    303.80649   -1462.1169    495.12593    404.07139   -88.836512    36812.755 
  341300    334.43401   -1482.8967    484.01042    510.39652    399.96441    36812.755 
  341400    296.54463   -1463.0851    490.73584     365.9408    227.81514    36812.755 
  341500     304.2502   -1522.6334    485.44543    335.87685    355.57506    36812.755 
  341600    303.03692   -1489.6641     492.0637    369.98899   -98.884865    36812.755 
  341700    311.11903   -1478.3868    498.16272    423.83938    104.14859    36812.755 
  341800     303.7266   -1516.3524    486.39915    340.74862   -349.21745    36812.755 
  341900    295.78928   -1490.6044    487.00021    331.27703   -250.27575    36812.755 
  342000    306.17164   -1527.7535    493.92352    347.90625    74.399887    36812.755 
  342100    296.01407   -1460.9661    502.84758    377.77713    -750.6346    36812.755 
  342200    302.27557   -1488.0011    495.58988     371.7422    -14.25455    36812.755 
  342300    295.63151   -1465.4471    505.98204    374.70411   -358.01364    36812.755 
  342400    301.06136   -1443.6411    486.43103    401.46368    -369.7761    36812.755 
  342500    299.40666   -1445.9039    485.44783    390.75015   -501.67569    36812.755 
  342600    301.56907   -1467.9333    516.70446     409.7362    109.96863    36812.755 
  342700    306.04563   -1454.1035    510.03588    437.09994    237.11963    36812.755 
  342800    290.68592   -1445.2127    500.70797    367.34531    74.154877    36812.755 
  342900    295.89676   -1468.3209    484.98211    352.02745    553.01857    36812.755 
  343000     294.6712   -1466.6974    493.59699    356.73491    312.15163    36812.755 
  343100    300.23493   -1461.5863    487.75222    381.11012    578.36102    36812.755 
  343200    296.93177   -1497.9262     492.4019    334.51287    889.69296    36812.755 
  343300     299.5741   -1504.8881    479.26601    326.33976   -31.458563    36812.755 
  343400    307.14746   -1499.4809     502.2003    388.85938    505.02984    36812.755 
  343500    298.45344   -1508.1059    452.08295    290.88148    -739.2881    36812.755 
  343600    303.50758   -1488.5999    483.34088     364.4544   -115.33181    36812.755 
  343700    297.07738   -1514.4657    462.08348     288.3121   -541.32807    36812.755 
  343800    305.05495   -1492.2209    505.58086    390.05664   -431.52091    36812.755 
  343900    303.60778   -1488.8743    497.28269    378.57403   -323.78169    36812.755 
  344000    310.05626   -1486.0479    498.59331     411.8127    -497.5109    36812.755 
  344100    310.34278   -1460.8313    489.74385    429.47284    134.56498    36812.755 
  344200    297.25562   -1489.3516    472.27775    324.42479   -113.33847    36812.755 
  344300    296.86224   -1498.2539    489.13803     330.6075    55.367185    36812.755 
  344400    294.66368   -1484.7633    503.06095    348.09899    267.52699    36812.755 
  344500    303.16172   -1506.8411    479.85924    341.17072     181.6341    36812.755 
  344600    304.03188   -1524.4091    501.25253    348.92304   -475.43173    36812.755 
  344700    296.03545   -1469.8017    499.00691    365.19734   -565.79998    36812.755 
  344800    302.80905   -1467.2806    512.42626    411.70667   -438.71795    36812.755 
  344900    296.76104   -1504.1998    486.49752    321.56437   -632.31075    36812.755 
  345000    300.74578   -1483.2287     501.2465     375.2674   -886.98449    36812.755 
  345100    299.40315   -1514.2287     478.7354    315.69706   -423.17013    36812.755 
  345200    295.71101   -1475.4084    490.44274    349.56223   -503.97197    36812.755 
  345300    300.63992   -1487.1574    482.08294    351.69737   -49.362263    36812.755 
  345400    306.61137   -1473.1662    499.76687    410.32133    99.902867    36812.755 
  345500    301.32867   -1466.4936    482.05637     375.4429   -295.50826    36812.755 
  345600    287.88396   -1457.8708     488.8102    330.14434    181.62682    36812.755 
  345700    290.55309   -1456.9991    505.13069     359.3821    670.46031    36812.755 
  345800    299.21589   -1447.0995    524.98511    428.23085    641.90148    36812.755 
  345900     291.1662   -1485.8205     489.3276    317.52455    1642.0668    36812.755 
  346000    303.72239   -1520.6103    487.53136    337.60397    874.02989    36812.755 
  346100    295.67507   -1542.4103    470.83846    262.79391    111.57565    36812.755 
  346200    290.71326   -1510.8182    498.96124    300.11637    184.64319    36812.755 
  346300    291.76944   -1505.2788    503.37435    314.83545    23.474134    36812.755 
  346400     306.5938    -1485.414    494.23584    392.46328    334.57384    36812.755 
  346500    298.54651   -1495.5889    471.74392     323.4794    173.62902    36812.755 
  346600    298.97636   -1541.9893    476.58067    283.85563     437.9686    36812.755 
  346700    301.77054   -1516.3897    472.80801    318.29253    740.03499    36812.755 
  346800    294.13507   -1525.1136    476.60406    278.90622    361.81567    36812.755 
  346900    290.34935   -1492.1095    504.14126    322.36284    48.237343    36812.755 
  347000    294.14186   -1483.1938    504.18826    348.44085    269.38141    36812.755 
  347100    306.45428   -1530.8916    495.63296    347.75314    329.38393    36812.755 
  347200    305.85811    -1502.158     499.7281    377.89133    154.70525    36812.755 
  347300    296.53896   -1501.1104    488.46396    325.61801    504.50428    36812.755 
  347400    307.79553   -1502.2943    472.16486    358.93532   -31.570384    36812.755 
  347500    301.26553   -1488.9186    533.89293     404.5695    171.78089    36812.755 
  347600    296.76725   -1551.9473    482.06415    269.41153    499.21682    36812.755 
  347700    308.51136   -1519.2385     483.5147    356.57142    704.15844    36812.755 
  347800    304.99107   -1497.2753    500.79828    379.93135    318.66382    36812.755 
  347900    311.18974   -1536.1771    479.13718    347.34273    337.65429    36812.755 
  348000    295.68142   -1525.6983    510.55875    319.25483    433.79673    36812.755 
  348100    296.28501   -1526.2133     462.0578    272.96291    589.15639    36812.755 
  348200    309.50434   -1516.3917    476.30974    356.69452   -84.630029    36812.755 
  348300    302.29716   -1496.6924    498.42066    365.97908    128.46153    36812.755 
  348400    297.46637   -1497.2923    487.54531    332.70276   -608.10466    36812.755 
  348500    301.95364   -1483.6741    490.59969    369.62616   -494.37784    36812.755 
  348600    297.96423   -1479.6144    523.77744    388.85961   -321.10804    36812.755 
  348700    304.56312   -1488.3062    516.39593    402.56677   -147.87953    36812.755 
  348800    304.30277   -1471.3814    497.31927       399.24   -98.748927    36812.755 
  348900    290.19258   -1478.1358    471.57986    303.06761   -67.310685    36812.755 
  349000    303.64865   -1513.7379    513.05591    369.66806    460.75521    36812.755 
  349100    303.58607   -1530.8103    490.36412     329.6215    111.57672    36812.755 
  349200     307.5747   -1519.7143     492.8832      361.237    310.14968    36812.755 
  349300    305.90453    -1532.655    483.52288    331.39857    599.07498    36812.755 
  349400    301.51235   -1521.6031    506.77681    345.88278    490.42908    36812.755 
  349500    300.95102   -1520.6633    483.32725    320.83973     172.1978    36812.755 
  349600    299.81424   -1522.6696    489.11086    319.48679    263.22334    36812.755 
  349700    298.43984   -1504.4402    496.78325    339.18608    231.13655    36812.755 
  349800    299.45533   -1542.0508    482.32395    291.69903    226.19375    36812.755 
  349900    296.52435   -1520.2568    497.95777    315.89943    571.69128    36812.755 
  350000    298.50054   -1485.1416    488.68521    350.66059     392.2778    36812.755 
  350100    296.95023   -1502.5738    484.49104    322.03768    265.46458    36812.755 
  350200    298.72009   -1550.7245    475.32786    272.71109     96.84168    36812.755 
  350300    296.61429   -1509.2364    502.18712    331.55509    234.76559    36812.755 
  350400    306.20642   -1538.3359    483.58518    327.14248     228.4661    36812.755 
  350500    290.70724   -1541.7621     493.2513     263.4354   -448.14926    36812.755 
  350600    314.72222   -1539.8545    466.62352    347.09349    66.290425    36812.755 
  350700    295.36618   -1526.6229    486.74365    293.09248   -6.7552527    36812.755 
  350800    301.26142   -1553.7547    479.45781    285.27972   -289.74234    36812.755 
  350900    298.90624   -1505.5903    451.32886    294.68642   -103.50696    36812.755 
  351000    295.94267   -1506.4222    497.39344    326.54461    -705.4297    36812.755 
  351100    312.48022   -1496.3729    479.06085    392.89447   -793.24489    36812.755 
  351200    303.56138     -1497.53    493.79861     366.2248   -1071.7753    36812.755 
  351300    280.90015   -1503.4618    491.31486    255.54038   -552.82527    36812.755 
  351400    301.09674   -1490.9255     509.5608     377.4687   -474.32137    36812.755 
  351500    285.15699   -1455.7618    499.57284    330.70925   -357.64807    36812.755 
  351600    295.50128   -1442.1945    488.97046    380.35737    181.08501    36812.755 
  351700    303.81166   -1465.5414    523.30645    428.85083    10.874496    36812.755 
  351800    304.59378   -1475.3347     495.6968    394.97746   -97.841731    36812.755 
  351900    297.77896   -1480.3326    487.02787    350.55573    28.884329    36812.755 
  352000    305.29758   -1519.1297    493.03374    351.69564   -18.577368    36812.755 
  352100     300.3909    -1534.337     475.2215    296.53249   -512.86749    36812.755 
  352200    293.87367   -1515.9198    498.79618    309.11249   -89.655112    36812.755 
  352300    306.55203   -1565.3192     486.3823    304.51593    61.015158    36812.755 
  352400    296.77304   -1561.5798    507.71546    285.45649    710.45976    36812.755 
  352500    292.68573   -1536.0044    506.78812    291.65872    117.31584    36812.755 
  352600    294.01075   -1534.4723     499.0877    291.47015    204.26466    36812.755 
  352700    300.17462   -1539.2087    479.95714    295.42046     34.03732    36812.755 
  352800    291.84657   -1542.0009    480.48186    255.56885    633.87875    36812.755 
  352900    306.98168   -1579.4939    503.24404    309.14205    478.84734    36812.755 
  353000    292.54976   -1520.6986    522.89853    322.46131     312.5824    36812.755 
  353100     292.3623   -1521.9173    515.65047    313.14852   -22.729266    36812.755 
  353200    302.61521    -1537.636     504.1464    332.19663     135.1606    36812.755 
  353300    294.43818    -1553.959     481.1428    255.96758   -588.01577    36812.755 
  353400    296.34497   -1502.5282    534.99637     369.8571   -44.053206    36812.755 
  353500    299.99877   -1546.6085    506.74984    314.01972    -346.6484    36812.755 
  353600    314.87348   -1533.4854    492.68656     380.2083   -448.82447    36812.755 
  353700    311.52941   -1512.1356    484.85398    378.63393   -746.07357    36812.755 
  353800    290.98943   -1512.2132     476.7383    277.74483   -723.65999    36812.755 
  353900    301.95862   -1523.1551    488.34185    327.90987     -749.731    36812.755 
  354000    309.33925   -1522.8916    497.27394    370.41384    522.81445    36812.755 
  354100    300.58679   -1509.6954    496.62352    343.46016    -441.7121    36812.755 
  354200    298.72789   -1502.8087    508.69263     354.0269   -327.62318    36812.755 
  354300    302.61882   -1498.2387    499.90163    367.36544   -424.68611    36812.755 
  354400    302.82506    -1483.708    505.21694    388.14225   -117.32232    36812.755 
  354500    304.25852   -1508.9005    491.49366    355.69558   -721.76037    36812.755 
  354600    305.44795   -1491.3194    505.25184     392.4026    35.654528    36812.755 
  354700    302.36793   -1500.1217    530.41609    394.86471   -152.11819    36812.755 
  354800    301.85377   -1481.2997    508.13905    389.08921    -482.4322    36812.755 
  354900    305.00299    -1503.482    508.99158    381.97175   -250.79497    36812.755 
  355000    291.82285   -1506.2763    492.54952    303.25412   -585.96154    36812.755 
  355100    304.06048   -1516.2804    515.50909    371.43736   -269.84767    36812.755 
  355200    300.67026   -1533.5303    473.77058    297.14902   -218.24503    36812.755 
  355300    308.46937   -1503.5199    473.38664     361.9725   -258.42837    36812.755 
  355400    306.48242   -1522.8775    503.79199    364.05322    67.361926    36812.755 
  355500    291.29024   -1531.8231    485.15648    267.91065   -208.06194    36812.755 
  355600    294.27898   -1525.1599     520.6096    323.51502    262.74589    36812.755 
  355700    293.58188   -1490.7712     498.6471    332.79522     -303.854    36812.755 
  355800    297.23721    -1487.159    509.89739      364.154    -136.5365    36812.755 
  355900    296.66759   -1487.7543    500.41658    351.50723   -550.92818    36812.755 
  356000    295.82025    -1518.708    487.56417    303.87715   -365.08283    36812.755 
  356100    291.46987   -1488.4821    523.48572    350.39151    -347.1032    36812.755 
  356200     297.3257   -1511.1984    514.82073    345.43729    -318.6089    36812.755 
  356300    313.61041   -1507.7608    494.65119    402.19732    279.42703    36812.755 
  356400    303.24502   -1516.4605    509.59794    361.66593    823.23905    36812.755 
  356500    294.70435   -1509.0833    532.00053    352.90213    568.52707    36812.755 
  356600    296.78465   -1474.4008     474.3976    339.37002    429.47026    36812.755 
  356700    305.13476   -1495.8612    521.33592    402.53159    842.15034    36812.755 
  356800    304.37655   -1505.5924    509.21122    377.25393    153.92973    36812.755 
  356900    295.32839   -1457.2164    514.34556    389.93031    455.30771    36812.755 
  357000    305.03229   -1406.2753    527.63795    497.95707     189.7177    36812.755 
  357100    297.13086   -1477.5195    531.31879    394.73494    583.63922    36812.755 
  357200    302.22192   -1461.3618    515.83427    418.38387    371.36911    36812.755 
  357300    302.34577   -1475.3336    511.20219    400.33886    33.661585    36812.755 
  357400    305.71238    -1459.586    508.50563    428.58321    77.132884    36812.755 
  357500    289.46894   -1480.9287    498.95225    324.38144   -583.94348    36812.755 
  357600    296.10561   -1476.1606    493.82805    353.97621   -356.96443    36812.755 
  357700     299.0645    -1472.462    504.06205    381.26211   -156.17417    36812.755 
  357800    300.88588   -1488.3772    510.31455     379.8192    146.38641    36812.755 
  357900    296.84629   -1474.1443    517.98461     383.4917    303.75613    36812.755 
  358000    295.35169   -1490.0512     500.5578      343.413    283.17774    36812.755 
  358100    303.00909   -1522.2454    497.04498     342.2634    188.30122    36812.755 
  358200    307.03306   -1570.4465    502.02722    317.20443     297.2984    36812.755 
  358300    300.02239   -1513.6646    504.54266    344.86304    234.14782    36812.755 
  358400     295.1648   -1513.8795    495.73994    313.92339    119.53076    36812.755 
  358500     308.7893    -1481.773     516.7273    428.50385   -406.73907    36812.755 
  358600    305.29167   -1484.5565    519.01709    412.22552   -246.14684    36812.755 
  358700    296.66983   -1475.3273    527.05368    390.58137   -198.04696    36812.755 
  358800    306.45037   -1483.1201    490.54035    390.41437    389.68434    36812.755 
  358900    305.88759   -1484.1279    504.71131    401.03771    73.455454    36812.755 
  359000    302.41599   -1495.9402    501.62788    370.47487   -19.501297    36812.755 
  359100    288.09862   -1488.4157    525.62044    337.37832   -176.34329    36812.755 
  359200    293.37651   -1500.6528    518.91716    342.25681   -128.00442    36812.755 
  359300    297.88051   -1482.8659     517.2967    378.74955    139.19662    36812.755 
  359400    305.31489    -1491.809    487.40734    373.46805    260.33407    36812.755 
  359500    301.38746   -1493.8972    499.76508    366.01329     64.57166    36812.755 
  359600    289.27503   -1483.8493     498.6701    320.30346   -142.22532    36812.755 
  359700    297.71593   -1477.0784    512.97967    379.47732    242.37283    36812.755 
  359800    301.74058   -1516.6234    522.70182    367.81752    264.91182    36812.755 
  359900    300.18025   -1505.1418    493.70432    343.25989   -328.94339    36812.755 
  360000    299.90945   -1525.2319    500.32665       328.57   -365.68368    36812.755 
  360100    295.88874   -1498.8292    482.71471    319.21553   -78.620165    36812.755 
  360200    309.52398   -1487.6752    505.23117    414.42104   -325.61377    36812.755 
  360300     298.8889    -1501.932    521.47582     368.4134    -104.3546    36812.755 
  360400    300.81039   -1520.2242    471.86166    309.17868   -117.88455    36812.755 
  360500    303.01263   -1430.9552    529.00972    465.53427   -362.36402    36812.755 
  360600    308.37346   -1489.2694    506.64737    409.05089   -915.55663    36812.755 
  360700    307.06842   -1532.6715    503.64522    356.75709   -973.56037    36812.755 
  360800    302.02538   -1508.6149    494.76535    349.17482     123.0289    36812.755 
  360900    302.16221   -1542.4339    497.60391    318.81182    93.134854    36812.755 
  361000    304.16772   -1486.9437    507.00516    392.75406    158.10446    36812.755 
  361100    304.72116   -1452.2907    516.29958    439.19921   -83.816883    36812.755 
  361200     296.5887   -1474.5956    491.72302    355.61632    87.022781    36812.755 
  361300    298.07988   -1475.9796    483.03165    352.27061    335.14198    36812.755 
  361400    294.95051   -1489.8829    518.18606    359.39907    203.51781    36812.755 
  361500    304.41159   -1529.0455    514.91016    359.65786    296.97019    36812.755 
  361600    308.56327   -1501.3826    479.37012    370.51707    268.79796    36812.755 
  361700    293.98013     -1532.71    509.61317    303.61971    305.15225    36812.755 
  361800    285.52833   -1516.8915    519.94899    291.63158   -287.18451    36812.755 
  361900    302.48047   -1478.6306    501.23252    387.68011   -78.998787    36812.755 
  362000    300.11508   -1431.1976     505.1579    428.36359   -51.137383    36812.755 
  362100    303.63165   -1457.7791    514.99685    427.49109   -618.75193    36812.755 
  362200    292.90055   -1513.1147     502.2816    311.01139    165.76537    36812.755 
  362300    301.58222   -1521.5876    499.96348    339.40027    546.40268    36812.755 
  362400    292.76106   -1515.8925    514.20388     319.5263    88.859889    36812.755 
  362500     295.4644   -1521.1256    517.26177    329.55113    703.83852    36812.755 
  362600    304.86848   -1475.0299    548.94071    449.76586    705.58335    36812.755 
  362700    303.22477   -1531.4223    537.88227    374.89705    354.20152    36812.755 
  362800    292.11098   -1483.0057    502.53701    337.81256    227.92588    36812.755 
  362900    304.23265   -1484.1757    512.34346    401.15339     433.9251    36812.755 
  363000    301.31518   -1500.0344    504.60676    364.39164    16.022773    36812.755 
  363100    297.98164   -1509.8438    490.06353    324.99496   -127.08789    36812.755 
  363200    298.03961   -1544.2915    499.99655    300.74183   -303.52503    36812.755 
  363300    298.33079   -1499.2854    512.38913    359.45463   -489.17319    36812.755 
  363400    299.95786   -1536.2573    498.55913     315.9956   -881.85407    36812.755 
  363500    287.40921   -1539.0284    497.31248    255.34642   -670.56365    36812.755 
  363600    296.91333   -1545.3087    495.23153    289.87674   -281.54371    36812.755 
  363700    311.32886   -1543.7364    494.76258    356.03665    152.27889    36812.755 
  363800    299.64462   -1571.1451    500.23632    281.37131   -223.67748    36812.755 
  363900    294.11615   -1506.9401    499.06927    319.45962     124.2208    36812.755 
  364000    300.37549    -1527.743    479.45815    307.29363    404.02496    36812.755 
  364100    296.28214   -1504.5941    527.93993    360.45131    99.323146    36812.755 
  364200    306.17061   -1500.2313    506.93687    388.43709    127.30763    36812.755 
  364300    306.90639   -1533.0188    482.40552    334.43878    444.93654    36812.755 
  364400    297.72183   -1558.2098    492.87013    278.26302   -38.359897    36812.755 
  364500     307.8349   -1497.9862    485.84384    377.10007   -199.16923    36812.755 
  364600    298.22371   -1495.6319    497.44482    347.68055   -280.45889    36812.755 
  364700    310.26927   -1501.2766    500.75569    399.70765     103.4599    36812.755 
  364800    303.58637   -1468.6656    509.66037    411.06378    406.23796    36812.755 
  364900    303.14174   -1475.5964    520.55915    413.02517    359.78902    36812.755 
  365000    301.99697   -1497.1195    508.42277    374.19943    85.965722    36812.755 
  365100    306.36649   -1471.5029    518.89587    430.00851    381.59213    36812.755 
  365200    288.62948   -1515.2233     497.1324    284.47851    450.23519    36812.755 
  365300    302.20666   -1547.6258    496.13833    312.35505    394.96118    36812.755 
  365400    300.51827    -1498.542    523.42782    381.10868    608.08794    36812.755 
  365500    291.06196     -1525.61    503.55127    291.48833    361.21267    36812.755 
  365600    301.68116   -1498.3163    505.67563    368.83022    132.27438    36812.755 
  365700    291.76741   -1496.1364    502.85788    323.45215    107.79118    36812.755 
  365800    289.80701   -1492.2147    544.60394    360.27273   -67.812891    36812.755 
  365900     296.4044   -1485.2728    512.68306     365.0674   -627.29178    36812.755 
  366000    297.89642   -1498.5512    494.62817    340.46756    186.25442    36812.755 
  366100    301.60701   -1481.4466    519.15788    398.84757   -229.51767    36812.755 
  366200    301.71378   -1489.6833    511.89402     383.8288   -886.86275    36812.755 
  366300    302.79773   -1474.7783    489.81106    381.54275    119.34626    36812.755 
  366400    300.73092   -1506.6643    473.69739    324.21559   -725.62646    36812.755 
  366500    303.36681   -1537.9297    504.07368    335.22219   -471.84251    36812.755 
  366600    299.97839   -1563.3806    497.62661     288.0324    40.249279    36812.755 
  366700    307.39143   -1556.1935     511.4263    342.47387      580.924    36812.755 
  366800     293.5436   -1543.9741    504.18311     284.9556   -61.192466    36812.755 
  366900     294.3049   -1581.6629    504.99112    251.51049    3.2723126    36812.755 
  367000    298.39139   -1531.6996    492.75183    307.67654    -184.2694    36812.755 
  367100    301.96943   -1524.2061    480.81035    319.37612   -625.75307    36812.755 
  367200    299.25952   -1515.8702    488.72726    323.39924   -229.63519    36812.755 
  367300    290.32084   -1511.4089    511.89427    310.68774    -325.4586    36812.755 
  367400    302.63885   -1514.8094    530.09035    381.07385    296.69163    36812.755 
  367500    296.77884   -1523.6383    490.15146    305.86013   -94.161667    36812.755 
  367600    300.16577   -1522.4725    506.03825    338.19783    429.31613    36812.755 
  367700    300.76303   -1551.8278    512.14195    317.64164    192.97427    36812.755 
  367800    304.21987   -1485.2926    504.64121    392.27663    885.29273    36812.755 
  367900    307.93487   -1539.2947    489.60425    340.00315    103.06788    36812.755 
  368000    289.49149   -1524.7321    509.96368    291.69115   -131.74998    36812.755 
  368100    287.56792   -1497.5845    506.06961    306.26367   -58.466436    36812.755 
  368200     293.6181   -1497.0639    492.45324    320.47212   -138.44938    36812.755 
  368300    309.42478   -1478.7666    504.56901    422.21983   -412.88381    36812.755 
  368400    293.36304    -1531.797    486.73971    278.87439   -1060.3749    36812.755 
  368500    303.64695   -1488.6774    494.33423    375.99927   -880.23698    36812.755 
  368600    288.08408   -1537.0043    490.94199    254.04565   -610.47713    36812.755 
  368700    307.58184   -1496.0341    470.25281    362.31905   -52.347892    36812.755 
  368800    306.09802   -1557.8658    496.14794    319.68607   -116.92759    36812.755 
  368900    297.01983   -1520.7509     483.6827    303.36634   -39.170381    36812.755 
  369000     297.1181   -1577.3935    491.10072    254.58524   -228.65739    36812.755 
  369100    304.21668    -1574.391    474.67142    273.19402    469.75293    36812.755 
  369200    298.56973   -1517.7334    500.93694    330.63276     60.08553    36812.755 
  369300    300.05655    -1527.582    500.74271    327.29985    369.05664    36812.755 
  369400    293.15263   -1515.7367    508.46319    315.70859   -335.81218    36812.755 
  369500    298.58799    -1495.425    507.35343    359.44004   -609.10861    36812.755 
  369600    297.62617   -1568.0537    469.12223    244.23945   -172.15963    36812.755 
  369700    303.10544   -1533.2597    493.71062    328.34957   -403.33094    36812.755 
  369800    294.10607    -1507.588    525.07234    344.76931   -436.70114    36812.755 
  369900    300.73527   -1478.5885    491.38001    369.99362    233.19122    36812.755 
  370000     294.0167   -1520.3392    504.76933    311.31177   -451.82526    36812.755 
  370100    297.39149   -1487.3234    503.04527    357.83376    150.24435    36812.755 
  370200    302.42039   -1467.1693    502.84412    400.48187    27.038375    36812.755 
  370300     298.2372   -1482.2369    492.37792     356.0695   -339.11287    36812.755 
  370400    306.65404   -1486.7292    529.74793    426.93199   -43.199341    36812.755 
  370500    305.95793   -1461.3123    511.16856    430.62802    29.074283    36812.755 
  370600     307.1568   -1474.3417    510.25309    422.09358    442.25574    36812.755 
  370700    296.09885   -1505.3423    494.61286    325.54878    408.66772    36812.755 
  370800     300.0377   -1487.1957    490.55557     357.4139    539.61987    36812.755 
  370900    304.67091   -1484.9286    506.59862    396.63353    274.73313    36812.755 
  371000    300.09066   -1486.3334    511.26212    379.22181    186.32221    36812.755 
  371100    288.72527   -1495.5397     485.0963    292.55825    724.50589    36812.755 
  371200    302.24724   -1518.7295    517.10492    362.40102   -194.37262    36812.755 
  371300    285.21512   -1451.0772    500.08044    336.16378   -589.18688    36812.755 
  371400    300.47874   -1470.3283    469.05576    354.77192   -507.95216    36812.755 
  371500    286.53915   -1483.1959    499.55404    309.49401   -734.72308    36812.755 
  371600    297.00112   -1489.2967    493.22118    344.27459   -230.36039    36812.755 
  371700    290.13606   -1512.0958    481.76734    279.04009    69.801449    36812.755 
  371800    293.01112   -1514.9024    492.54113    299.98221    118.01318    36812.755 
  371900    303.03375   -1535.0846    483.12411    315.61456    208.52095    36812.755 
  372000    299.20937    -1541.952    490.02377    298.38763    581.33065    36812.755 
  372100    313.32813   -1481.6454    515.57223     447.9599    347.76302    36812.755 
  372200     299.6471   -1473.4782     504.8377    383.65083    361.47294    36812.755 
  372300    306.03633   -1537.5194    466.69274    310.29887    436.53338    36812.755 
  372400    297.14084    -1487.932    524.31119     377.3599   -162.20134    36812.755 
  372500     300.8741   -1488.2117    496.80205    366.41906   -84.891792    36812.755 
  372600    297.11016   -1502.7843    472.29841    310.35635    118.81475    36812.755 
  372700    298.63674   -1503.5782     501.1659    345.31925   -27.402597    36812.755 
  372800    294.10803   -1486.3491    475.54368    316.48841    341.09201    36812.755 
  372900    307.98965   -1509.1893    506.04693    386.79839   -27.500896    36812.755 
  373000    297.81273   -1496.5818    500.72049    348.15156    190.38348    36812.755 
  373100    300.19748   -1504.3833    487.96068    338.35255   -244.62043    36812.755 
  373200     292.8432   -1503.9138    474.01788    291.68978   -15.916031    36812.755 
  373300    300.25752   -1476.3615    518.44128    397.12585   -469.76635    36812.755 
  373400    294.96818   -1487.5843    496.61077    340.20203   -459.24643    36812.755 
  373500    288.87143   -1445.1107    504.60232    363.15287   -350.03547    36812.755 
  373600    300.67752    -1494.465    490.67212    353.14864   -460.18038    36812.755 
  373700    297.94852   -1488.3316    498.12441    354.41855   -422.79337    36812.755 
  373800    312.41288   -1461.8584    495.49331    443.53754    253.82278    36812.755 
  373900    301.00471   -1479.7534    493.48896    372.15373   -801.17675    36812.755 
  374000     304.0734   -1424.4476    489.22972    437.04908   -409.40169    36812.755 
  374100    294.10745   -1475.2625    502.40518     354.4338   -270.02685    36812.755 
  374200    305.14163   -1475.7815    497.27231    398.57859   -872.40536    36812.755 
  374300    297.99642   -1472.7808    505.87592    377.93704    287.51619    36812.755 
  374400    297.68759   -1467.9193    521.46199    396.99086    128.56661    36812.755 
  374500    296.82897   -1476.2846    498.80209    362.09072   -61.274079    36812.755 
  374600    293.33938   -1473.3606    499.74025    350.20455    487.87557    36812.755 
  374700    298.84674   -1468.5709    501.17843    381.28687    67.164238    36812.755 
  374800    295.26847   -1513.4477    499.16411     318.2472   -576.96687    36812.755 
  374900    294.67847   -1465.9445    487.47417    351.39776   -317.44466    36812.755 
  375000     307.6985   -1481.7391    502.87819    409.76591   -328.47038    36812.755 
  375100    307.50273   -1503.7744    518.24419     402.2131    -500.7265    36812.755 
  375200    306.75725   -1527.8555    492.67338    349.19695   -163.74836    36812.755 
  375300    298.90876   -1485.2409    506.31384    370.03215    -371.6432    36812.755 
  375400    302.14136   -1471.0354    516.77913    409.29149   -259.43078    36812.755 
  375500    291.86171   -1529.5631    513.19729    300.79047   -91.379875    36812.755 
  375600    300.13985   -1535.6251    518.64146    337.53139   -193.40441    36812.755 
  375700     299.8393   -1562.9292    474.24982    264.47933   -239.41836    36812.755 
  375800    294.78552   -1478.5131    528.12069    379.95882    32.518856    36812.755 
  375900    295.78588   -1536.2016     511.7762    310.44042   -68.123775    36812.755 
  376000    294.89684     -1525.62    503.88676    309.12039    236.45738    36812.755 
  376100    302.22898   -1520.0721    508.62763    352.49867   -105.96731    36812.755 
  376200    303.06646   -1487.2505    503.79732    384.26949    -718.4833    36812.755 
  376300    315.16189   -1526.0636    484.36491    380.61003    24.424758    36812.755 
  376400    303.85434   -1512.3605    508.49733     367.4152   -546.23537    36812.755 
  376500    295.72429   -1499.0336    460.66292    296.21721   -390.38662    36812.755 
  376600    300.04731    -1504.027    502.76798    352.83838    -60.77073    36812.755 
  376700    299.55514   -1500.2824    500.13867    351.73256    34.840536    36812.755 
  376800    290.27082   -1553.9401    518.17881    274.21536    -25.22328    36812.755 
  376900    304.40615   -1534.4772    490.38361    329.67508   -349.29257    36812.755 
  377000    291.90106   -1532.1013    506.45471     291.6873   -98.863665    36812.755 
  377100    297.79909   -1515.6795    511.49186    339.76373   -419.85757    36812.755 
  377200    302.20503   -1484.1782    500.35209    380.00897   -479.95158    36812.755 
  377300    291.87569   -1483.2948    512.65923    346.58374   -744.77808    36812.755 
  377400    299.69122   -1506.9168    528.52097    374.09459   -350.37923    36812.755 
  377500    289.86239   -1526.3646    487.15112    268.91993   -383.77013    36812.755 
  377600    298.78229   -1541.2741    504.32384    311.43818   -72.376976    36812.755 
  377700    307.64978   -1533.2993    523.33603    378.44375    90.246989    36812.755 
  377800    293.77575   -1515.9963    491.77373    301.57164   -318.26635    36812.755 
  377900    291.60256   -1507.4406     495.4157    303.96178   -62.308137    36812.755 
  378000    307.68755   -1504.0349    499.38793    383.93045   -247.99915    36812.755 
  378100    305.76532   -1515.2505    504.21743    368.86944    75.183934    36812.755 
  378200     296.3729   -1533.3775    507.37352    311.51105   -125.01624    36812.755 
  378300    310.52469   -1511.9349    514.99566    404.44207    270.19081    36812.755 
  378400    311.83133   -1545.3256    472.54388    334.49637   -174.62244    36812.755 
  378500     298.8106   -1538.5199    494.26275    304.25904    34.521088    36812.755 
  378600    308.00857   -1505.9035    500.59475    384.71744    73.224802    36812.755 
  378700    309.73782   -1556.8681    505.48881    346.45084   -290.54274    36812.755 
  378800    301.61735   -1558.9456    469.58125    271.81861     115.5533    36812.755 
  378900    294.50468   -1578.2726    496.45002    247.26128   -285.12073    36812.755 
  379000    309.35431   -1586.0609     501.6003    311.63884    254.51133    36812.755 
  379100    295.97527   -1589.9882    490.36358    236.09597    343.24837    36812.755 
  379200    307.94927   -1528.7308    513.98448    375.01219    469.47101    36812.755 
  379300    309.15197   -1496.6352    488.64606     387.1971    387.55692    36812.755 
  379400    293.94615   -1503.7506      503.668    326.48063    85.772438    36812.755 
  379500    292.37377   -1505.4662    514.55801    328.55894   -122.71393    36812.755 
  379600    293.60878   -1512.9396    507.33756    319.43867    27.769977    36812.755 
  379700    310.77881   -1498.4558    504.54266    408.61496   -466.76403    36812.755 
  379800    294.66117   -1483.4261    518.92989    365.29386   -335.48678    36812.755 
  379900    295.44471   -1432.4973    511.70948    412.53833   -103.33355    36812.755 
  380000    293.81896   -1458.3545    504.80259    372.43728   -620.45711    36812.755 
  380100    303.51514   -1497.2697    503.27012    375.74798    -1187.317    36812.755 
  380200    301.83229   -1459.8422    519.54426    421.85504   -204.11775    36812.755 
  380300    296.77517   -1550.1213    477.38832    266.59747   -336.34956    36812.755 
  380400     291.7802   -1469.0867    529.45713    377.15889   -223.47846    36812.755 
  380500    285.34671   -1485.9252    487.02832    288.85749    -230.6169    36812.755 
  380600    299.64113   -1479.2221    491.12838    364.17058   -168.29313    36812.755 
  380700     311.7066   -1531.6916    481.70824     356.7318    40.873374    36812.755 
  380800    302.13119   -1542.4298    493.20129    314.27342    581.10983    36812.755 
  380900    312.94828   -1571.4268    508.95638    349.84844    447.64999    36812.755 
  381000    294.68439   -1518.1767    503.19522    314.91333    485.93458    36812.755 
  381100     299.0291   -1532.1437    515.22447    332.58306    546.70774    36812.755 
  381200    305.29458    -1518.015    510.89355    370.65668    420.97474    36812.755 
  381300    301.51431   -1543.3693     501.2789    318.62755    -65.22631    36812.755 
  381400    293.39098   -1487.6796    502.34466    338.72282    1081.6164    36812.755 
  381500    288.13858   -1524.7345    505.09133    280.71084   -170.74669    36812.755 
  381600    293.78401     -1481.92    508.34137    352.25287   -283.17253    36812.755 
  381700    300.71752   -1531.0617    501.76273    327.82312    467.57667    36812.755 
  381800    301.78264   -1531.6719    505.09713    335.35413    558.29141    36812.755 
  381900    296.88029   -1532.6235    481.51389    288.69518    227.98895    36812.755 
  382000    301.43675      -1542.6    518.19595    335.96385    957.54334    36812.755 
  382100    294.03307   -1556.0811    500.48716     271.3615    1171.3565    36812.755 
  382200    301.75288   -1546.9671    505.61257    320.44006    796.97532    36812.755 
  382300    305.64894    -1504.032    516.24406    391.58935    123.22908    36812.755 
  382400    301.76388   -1546.4391    463.11275    278.51783    -19.10517    36812.755 
  382500    306.32542   -1542.4315    509.94991    349.94857   -121.31002    36812.755 
  382600    307.02915   -1522.6534    475.50443    338.45719   -26.534448    36812.755 
  382700    301.36439   -1516.5863    521.26848    364.72354   -751.78415    36812.755 
  382800    307.95685   -1530.4229    490.43148    349.80139   -496.47965    36812.755 
  382900    289.92984   -1518.7562    487.39468     277.0763    49.809989    36812.755 
  383000    290.20629    -1481.837    507.90715    335.75561   -704.30591    36812.755 
  383100    300.13744   -1527.8284    503.46458    330.14037    -86.47938    36812.755 
  383200    297.56571   -1524.3036     484.9689    303.56345   -345.12612    36812.755 
  383300    296.86487   -1493.6976    496.62326    342.66086   -75.206188    36812.755 
  383400    291.86326   -1524.3954    492.25115    285.01899    67.714524    36812.755 
  383500    297.49381   -1534.3479    514.49335    322.71905   -152.13689    36812.755 
  383600    291.11518   -1529.1101    502.43819    287.11526    352.61058    36812.755 
  383700    302.15051   -1510.3559    506.03408    359.26724    530.40132    36812.755 
  383800    293.17653   -1532.8842    479.04763    269.25335    333.19751    36812.755 
  383900    305.36278    -1501.833    502.59426    378.84709   -583.20987    36812.755 
  384000    310.68715   -1479.7393    514.32265    436.69785   -47.056281    36812.755 
  384100    307.57804   -1514.3704    486.56697    360.27981    212.32193    36812.755 
  384200    295.79729   -1523.4685    512.67999    324.12879   -431.46249    36812.755 
  384300    307.92313   -1553.4515    494.59454    330.78364    -206.0279    36812.755 
  384400    305.31043   -1529.4088    502.36154    350.80237   -427.79328    36812.755 
  384500    296.00143    -1539.336    468.26418    264.76679   -59.588297    36812.755 
  384600    303.65253   -1550.4855    500.87269    320.75477   -613.78616    36812.755 
  384700     295.4796   -1563.0018    510.77265     281.2545    423.07155    36812.755 
  384800    302.17981   -1530.8709    499.45304    332.30345    98.988214    36812.755 
  384900    288.42262   -1560.0311    491.80895    233.41371   -263.76071    36812.755 
  385000    293.88635   -1502.0758    495.01037    319.22793   -182.35544    36812.755 
  385100    301.71643   -1483.6249     493.7301    371.73532   -553.58593    36812.755 
  385200    304.08865   -1490.7539    492.99239    374.57426    135.99621    36812.755 
  385300    302.91623   -1518.2765     515.0971    363.86538   -8.7448822    36812.755 
  385400    296.45864   -1518.1343    482.52221    302.28991    26.604613    36812.755 
  385500    316.85972   -1504.8432    508.71087    433.83866   -289.89038    36812.755 
  385600     298.5909   -1524.3298    491.46698    314.66188   -104.15582    36812.755 
  385700    311.60875   -1549.2539    487.64362    344.66337   -388.41789    36812.755 
  385800    302.42197   -1516.3712     529.0617    377.50467   -436.79789    36812.755 
  385900     299.6887   -1528.5523    480.67819    304.60501   -367.38141    36812.755 
  386000    294.42645   -1494.5605     508.2794    342.44969    300.11716    36812.755 
  386100    309.81768   -1540.8186    497.83498    355.20695   -31.891917    36812.755 
  386200    293.45594    -1556.681    477.47706      245.147   -423.02469    36812.755 
  386300    298.88682   -1521.8304    493.62144     320.6512     438.4898    36812.755 
  386400    298.11728   -1496.3153    505.21187    354.28392     337.9841    36812.755 
  386500    298.54321   -1537.1245    490.33976    300.52479    575.30743    36812.755 
  386600    297.04399   -1525.2019    474.48691    289.82864    153.69233    36812.755 
  386700     305.6462   -1481.9796    504.21883    401.60413    617.17898    36812.755 
  386800    310.27951   -1520.3747    480.83547    360.73555   -41.346916    36812.755 
  386900    310.05221   -1513.2657    540.46375    426.44711    -312.3944    36812.755 
  387000    294.77643   -1517.1105    472.21405    285.41381   -229.57364    36812.755 
  387100    312.00408   -1534.6271    485.99944    359.43001   -295.52806    36812.755 
  387200    305.17199   -1537.9172    509.95724    349.26489    165.09153    36812.755 
  387300       290.76   -1502.5025    478.85693    288.53879    256.99658    36812.755 
  387400    301.04707   -1529.7189    490.25299    319.14341    326.50853    36812.755 
  387500    295.05959   -1554.5762     497.6345    274.64639    390.13547    36812.755 
  387600    295.94771   -1545.6287    472.91603    262.88345    75.455361    36812.755 
  387700    304.67854   -1464.4046    530.10889    440.70224    150.62666    36812.755 
  387800    297.11784   -1477.8658    489.93275     352.9438    373.47612    36812.755 
  387900    305.94033   -1479.1045     522.4639    424.05167    229.95701    36812.755 
  388000    302.43606    -1486.865    485.23072    363.24348    215.20608    36812.755 
  388100    294.87841   -1452.3318    505.21655    383.65524    666.28725    36812.755 
  388200    291.07139   -1466.0106    536.62252    384.20147   -113.83892    36812.755 
  388300    296.78204   -1506.5982    485.89883     318.6621    656.46373    36812.755 
  388400    297.69487   -1481.6353    522.86563    384.71137   -6.8268517    36812.755 
  388500    295.03074   -1519.0732    489.08399     301.4687   -93.659536    36812.755 
  388600     296.4159   -1519.5516    486.08305    304.24053    70.053678    36812.755 
  388700    306.43056   -1533.6258    477.23096    326.50983      52.9864    36812.755 
  388800    313.15032   -1515.2951     493.4248    391.36031   -75.231689    36812.755 
  388900    295.71531   -1509.2118    490.99375    316.32928    530.99841    36812.755 
  389000    303.16203   -1497.2983    498.33317    369.18887    -1.613378    36812.755 
  389100    297.12978   -1531.3443    498.30415    307.89064    213.73324    36812.755 
  389200     297.4528   -1499.4357    487.40128    330.35409    389.07605    36812.755 
  389300    307.18685   -1498.8256     490.6638    378.15602    96.479808    36812.755 
  389400    291.50335   -1484.8086    498.96124    329.69164   -246.26091    36812.755 
  389500    299.77193   -1524.1357    513.78235    342.50124    2.0101887    36812.755 
  389600    296.85005   -1491.5959    523.82485    371.89731    1102.2023    36812.755 
  389700    296.39887    -1513.701    477.96707    301.89832    340.94029    36812.755 
  389800    300.43137   -1494.7689    525.36795    386.42975    392.24444    36812.755 
  389900    295.57232   -1514.5488    507.27571    326.62895    20.320136    36812.755 
  390000    298.49065   -1552.5766    471.89554    266.39122   -639.33639    36812.755 
  390100    296.23755   -1538.7564    477.85465    276.00242   -80.515952    36812.755 
  390200    302.62492   -1536.5114    488.62503    317.84365   -156.47676    36812.755 
  390300    306.30909   -1548.6997    491.81309    325.46986   -30.400433    36812.755 
  390400    301.40982   -1527.9445     494.4731    326.77501   -257.41987    36812.755 
  390500     296.4583   -1503.0746    516.17257    350.99839   -220.00532    36812.755 
  390600    283.94882   -1505.4291     487.7074     263.7241   -525.43007    36812.755 
  390700    303.99648    -1535.208    512.67385    349.38564    35.961093    36812.755 
  390800    301.91972    -1547.464    504.09997    319.18344   -339.93991    36812.755 
  390900    295.61569   -1552.7954    500.72561    282.02803    282.02831    36812.755 
  391000    300.06242   -1523.1661     498.4163    329.41588    667.60251    36812.755 
  391100    303.05683   -1536.9035    505.45651    336.23229    185.90191    36812.755 
  391200    293.67951   -1511.0925     491.9969    306.26429    88.883066    36812.755 
  391300    302.46375   -1540.8555      517.758    341.90517    41.459083    36812.755 
  391400    305.14905   -1541.3208     515.2729    351.07341    9.6695547    36812.755 
  391500    309.45638   -1537.6656     508.6994     367.5939    216.94478    36812.755 
  391600    302.22923    -1523.148    494.85414    335.65041   -220.68008    36812.755 
  391700    293.08222   -1518.4317    514.65881    318.89147    29.826341    36812.755 
  391800    303.81672    -1507.972    491.24392    354.38051    52.861338    36812.755 
  391900    295.07416   -1502.5901    492.48294    321.54674    79.012292    36812.755 
  392000    306.81619   -1487.5695     498.8837    395.95917    187.51155    36812.755 
  392100    296.18796   -1544.5664    497.00673    289.12075   -336.62945    36812.755 
  392200    304.19589   -1524.8837    484.52975    332.46579   -394.84179    36812.755 
  392300     306.5428   -1514.8208    500.03182    368.62226   -478.32747    36812.755 
  392400    294.75433    -1525.893    491.89054    296.20809   -323.65959    36812.755 
  392500     304.3167   -1560.3026    531.29899     344.3613   -177.65779    36812.755 
  392600    292.53508   -1500.3836    489.20587    309.01742    316.10099    36812.755 
  392700    295.29074   -1488.6948    519.11305    363.04958    716.99173    36812.755 
  392800    290.52641   -1499.3961    527.85897      339.593    501.31848    36812.755 
  392900    292.63412   -1514.0923    483.60305    290.15279    144.45767    36812.755 
  393000    304.46105   -1530.3953    520.65206    364.27318    61.720257    36812.755 
  393100    300.41119   -1465.1647    507.68057    398.25545     528.4751    36812.755 
  393200    308.53285   -1486.3361    507.29837    413.35455    81.083794    36812.755 
  393300    303.87208   -1446.4261    495.14843    420.08072   -449.17762    36812.755 
  393400    291.46351   -1461.0735    515.66553     369.9512   -509.00958    36812.755 
  393500    307.61633   -1500.6349    523.63337     411.2545    408.53451    36812.755 
  393600    295.03077   -1516.1025    505.48407    320.83958   -167.58738    36812.755 
  393700    297.35584   -1525.6309    485.12408    301.44414    118.41431    36812.755 
  393800    297.35572   -1527.4898    484.01702    298.47759    63.485459    36812.755 
  393900     298.4242   -1497.7565    491.52551    340.54141    81.873238    36812.755 
  394000    308.77871   -1500.1517     508.4214    401.77152   -352.40775    36812.755 
  394100    307.04494   -1503.9608    488.86909    370.58563    32.679203    36812.755 
  394200    296.71601    -1502.966    483.58373    319.68119    281.81038    36812.755 
  394300     299.3469   -1516.6141    504.31177    338.63423   -99.432585    36812.755 
  394400    293.52323    -1484.403    473.17648    313.42804    -125.4965    36812.755 
  394500    307.49071   -1505.5217    504.41764    386.58498    201.30385    36812.755 
  394600    305.52194   -1523.1945    510.10337    365.71303    134.63764    36812.755 
  394700    294.18873   -1508.9539    473.16561    291.86965   -348.89205    36812.755 
  394800    302.01477   -1480.9345    515.25436    397.29634    145.86503    36812.755 
  394900    304.48752   -1528.3668     501.4633    347.23234    -102.9402    36812.755 
  395000    305.80598   -1512.8949     499.4411    366.63222    258.04301    36812.755 
  395100    300.95667   -1538.4847    480.16107    299.87773    347.52993    36812.755 
  395200    298.01755   -1489.3349    488.85502    344.45734    374.23676    36812.755 
  395300    300.52659   -1477.7892    477.66054    356.13176    507.55831    36812.755 
  395400    300.30065   -1476.9977    510.57952    388.82253    269.40255    36812.755 
  395500    311.28169   -1537.2094    468.29247    335.88062   -722.60812    36812.755 
  395600    302.64286   -1521.2372    491.32183    335.89563   -316.51664    36812.755 
  395700    297.11399   -1536.3612    472.17412    276.67247   -612.65202    36812.755 
  395800    306.29104   -1492.1921    499.76884    389.85177   -420.44157    36812.755 
  395900    313.62796   -1528.5903    481.10573    367.90165   -521.40544    36812.755 
  396000    302.47256   -1529.5324    487.08079    322.59085   -493.33336    36812.755 
  396100    303.37491   -1503.0332    497.80477    363.88625   -651.86505    36812.755 
  396200    291.40774   -1512.5899    479.58251    282.10012   -276.71682    36812.755 
  396300     315.0277     -1554.16    482.56816    350.11128    186.74057    36812.755 
  396400    295.14035   -1561.7556    495.29599    265.49301    30.999364    36812.755 
  396500    296.24521   -1535.0594    482.20299    284.08238    -499.8153    36812.755 
  396600    304.20303   -1508.5395    493.79517    358.10768   -502.78949    36812.755 
  396700    294.97515   -1530.7239    476.58863    277.07173   -265.72622    36812.755 
  396800    298.86287   -1464.4192    505.31531    389.64823   -23.133848    36812.755 
  396900    297.45264   -1533.5258    490.48907    299.35113   -149.01992    36812.755 
  397000    309.21794    -1511.279     491.9603    376.16525    167.18411    36812.755 
  397100    305.66712   -1532.4751    467.73949    314.72377   -248.17484    36812.755 
  397200    301.35767   -1528.2422    463.51828     295.2871   -332.52739    36812.755 
  397300    293.24809   -1519.4087    493.02231    297.02652   -569.88601    36812.755 
  397400    341.43252   -1561.8167    425.97406    405.02407    681.98874    36812.755 
  397500    309.08465    -1548.282    483.11671    329.71719   -217.01691    36812.755 
  397600    307.89323   -1520.3125    498.18709    367.38021    193.94341    36812.755 
  397700    295.10372   -1551.1576     488.2963      268.926    33.929667    36812.755 
  397800    298.90911   -1523.5197    480.28927     305.7304   -129.43434    36812.755 
  397900    295.73775   -1552.8139    490.14622    271.98094   -300.39664    36812.755 
  398000     308.6544   -1552.2831    478.09445    318.75214   -762.06641    36812.755 
  398100    295.10334   -1491.9149    480.61045    320.48108   -385.55925    36812.755 
  398200       300.32   -1480.1481    494.22633    369.40628    6.8046887    36812.755 
  398300    306.12664   -1490.1298    499.17624    390.57952   -28.449218    36812.755 
  398400    299.65383   -1491.6898    501.72583    362.35768    74.905249    36812.755 
  398500    302.33051   -1499.3931    508.04106    373.04932    336.27532    36812.755 
  398600    309.69895    -1470.444     506.7415    433.95224    311.38131    36812.755 
  398700    295.49045    -1461.558    502.39725    374.37182   -457.07374    36812.755 
  398800    297.43921    -1466.384    509.37435    385.31755   -332.69728    36812.755 
  398900    307.59828   -1458.8214    490.03096    419.38416    -590.4506    36812.755 
  399000    299.72752   -1464.8682    508.88167    396.66769   -324.57922    36812.755 
  399100       296.51   -1460.1877    474.05807    352.00415    -593.2646    36812.755 
  399200    304.94969   -1496.4395    480.41925    360.20137   -495.07721    36812.755 
  399300    301.26156   -1516.1941    496.79942    340.18256   -393.12531    36812.755 
  399400    308.56285   -1492.2373    494.42088    394.71119   -124.53579    36812.755 
  399500    299.19336   -1488.5899    502.42673    364.08047    154.32907    36812.755 
  399600    298.03022   -1479.1161    499.57222    365.45058   -39.584476    36812.755 
  399700     308.9985   -1517.2171    504.26251    381.53913   -431.33813    36812.755 
  399800    301.08107   -1439.7753    477.87412    396.86159   -425.10026    36812.755 
  399900    310.37843   -1481.0963    516.39501    436.01995   -804.48193    36812.755 
  400000     294.5363   -1497.8235     484.0611    315.46417   -720.62582    36812.755 
  400100    286.77318   -1523.8387    498.43672    268.79005    187.60717    36812.755 
  400200    306.46507   -1524.5033    491.11719    349.67434     879.6721    36812.755 
  400300    293.56716   -1511.7086    506.80591    319.95013    469.47277    36812.755 
  400400    298.27492   -1498.6897    510.15424    357.56331    1.7224353    36812.755 
  400500    320.59866   -1466.1688    505.97839     486.6542    45.838692    36812.755 
  400600    308.91705   -1481.4557    480.34272    393.01304    91.149324    36812.755 
  400700    301.85888   -1496.1363    486.40841    352.54508    124.91758    36812.755 
  400800    303.09675   -1489.4355    541.42479    419.84866    296.71558    36812.755 
  400900    292.90007   -1473.2459    501.35786    349.95432    459.73564    36812.755 
  401000    290.27769   -1523.9457    509.27136    295.33328    334.50029    36812.755 
  401100    293.76823   -1473.5717    504.00665    356.19529   -326.05591    36812.755 
  401200    301.54152   -1479.0556    511.37118    393.15634   -169.16811    36812.755 
  401300    299.43005   -1442.9446    499.80339    408.17056   -666.45652    36812.755 
  401400    296.79182   -1450.1653    529.47281    418.71313   -333.32707    36812.755 
  401500    295.51274   -1482.0316    507.86403    359.46556    17.789054    36812.755 
  401600     304.2634   -1467.7586    511.03567    416.40153    276.74828    36812.755 
  401700    305.50123   -1505.9856    497.15899    369.88407    182.09075    36812.755 
  401800    304.63691   -1443.7892     493.5658    424.58663    375.14444    36812.755 
  401900    299.36353   -1462.2062    503.12626    391.93161    185.41845    36812.755 
  402000    305.73389   -1474.7173    476.31096    381.35432   -149.01025    36812.755 
  402100    304.24725   -1505.0989    465.43317    333.38578    167.34727    36812.755 
  402200    300.52897   -1446.1007    516.80628     426.9767   -104.57861    36812.755 
  402300    307.27646   -1459.8209    489.90643    416.80767    194.48063    36812.755 
  402400    309.58568   -1405.7366    535.96064    527.36761    230.63754    36812.755 
  402500    288.54231   -1433.0323    507.44072    376.58443    174.15344    36812.755 
  402600    307.14216   -1461.3027    502.88641    427.69978    603.78891    36812.755 
  402700    307.76013    -1502.015    502.01395    388.90397    1110.6611    36812.755 
  402800     304.3004   -1493.9655    516.82768    396.15356    548.29977    36812.755 
  402900    299.47901   -1535.1979    461.89766    278.23245    614.56057    36812.755 
  403000    305.05171    -1509.862     489.7132     356.5332    299.39437    36812.755 
  403100    304.07032   -1488.5126    512.37226    396.11267    244.09077    36812.755 
  403200    294.66469   -1485.6594      470.897    315.04354   -209.48406    36812.755 
  403300    291.19657   -1498.3931    481.08764    296.84909    349.63996    36812.755 
  403400    298.01696   -1508.4519     492.5634    329.04607   -126.93033    36812.755 
  403500    302.73086   -1519.0385    466.98574    314.15537   -513.05589    36812.755 
  403600    300.06104   -1507.4129     499.4845    346.23097    755.73658    36812.755 
  403700    291.45226   -1544.8967    487.86621    258.27788    236.41396    36812.755 
  403800    294.76664   -1511.4213    484.29249    303.13726    253.15937    36812.755 
  403900    311.25883   -1512.6303    475.64261    367.70676    271.16115    36812.755 
  404000    301.83584   -1540.9226    508.88294    330.12933   -305.03804    36812.755 
  404100    309.19714   -1461.2401    495.72241    429.87243   -554.99158    36812.755 
  404200     305.5657   -1468.1109    456.57972    367.47047   -324.74809    36812.755 
  404300    290.77533   -1529.3563    482.47004    265.36728   -654.95399    36812.755 
  404400    304.85744   -1506.6223    482.27141     351.4544   -219.50504    36812.755 
  404500    303.93235   -1557.7287    467.13998    281.04168   -185.80701    36812.755 
  404600    299.93249   -1450.7822    518.47294    421.27004   -161.56509    36812.755 
  404700    303.70874   -1488.7398    484.07504    365.95653    157.49509    36812.755 
  404800    294.92108   -1491.0739    487.80498    327.69412  -0.43909328    36812.755 
  404900    315.87941   -1508.1466    469.49001    386.89022   -151.87173    36812.755 
  405000    291.11781   -1496.7924    497.62314    314.62978   -379.09537    36812.755 
  405100    305.25345    -1504.781    473.87216    346.68365   -287.13762    36812.755 
  405200    288.39688   -1532.2741    478.84598    248.09157   -1031.7275    36812.755 
  405300    302.89508    -1515.866    473.86689    324.95011   -747.03819    36812.755 
  405400    294.83597   -1501.4688    465.54038    294.65051   -8.1672468    36812.755 
  405500    308.19159   -1511.6559    479.07241    358.26862   -582.30326    36812.755 
  405600    291.46378   -1459.4571     507.6703    363.57363   -223.01625    36812.755 
  405700    306.83808   -1472.3996    489.63614    401.98034    451.63977    36812.755 
  405800    300.89551   -1508.8244    491.46798    340.56892    412.28549    36812.755 
  405900     304.5657   -1490.4372    491.42763     375.4791    203.50796    36812.755 
  406000    315.58358   -1468.2682    467.50489    423.44843    50.977207    36812.755 
  406100    302.73155    -1478.207    495.57794    383.58217    286.96087    36812.755 
  406200    294.71359   -1468.3119    499.49923    361.21396    418.46368    36812.755 
  406300    307.48033   -1479.2612     500.2205    408.60156   -223.74303    36812.755 
  406400    301.62233   -1478.5879    489.42355    372.04103   -136.64394    36812.755 
  406500    292.12423   -1466.2871    465.27033    317.32427   -640.48771    36812.755 
  406600    296.85594   -1520.0463    506.23951    325.88812    -911.6396    36812.755 
  406700    304.24554   -1494.0224    477.22336    356.24477   -873.06004    36812.755 
  406800    303.50559    -1489.964    494.04163    373.78212   -441.03561    36812.755 
  406900    296.16694   -1477.6154    519.79219    378.76227    587.48363    36812.755 
  407000    294.81807   -1490.0937    513.38565    353.79009   -41.001192    36812.755 
  407100    305.44988   -1524.7601    487.25088    340.96972   -250.29299    36812.755 
  407200    294.39021   -1566.9379    481.13903    242.76836    223.93736    36812.755 
  407300    307.29997    -1540.103    492.20265    338.92799    544.33297    36812.755 
  407400    301.27989   -1527.2327     485.1248    317.55216    315.39581    36812.755 
  407500    291.78347   -1524.5149    467.31821     259.6065   -134.67757    36812.755 
  407600    299.65702   -1530.6216    505.91529    327.62975    94.482608    36812.755 
  407700    291.38569    -1546.916    478.17965    246.27161     391.9949    36812.755 
  407800     302.1826   -1558.2178    472.10908    277.62515    41.461709    36812.755 
  407900    302.99427   -1602.8871    488.58498    253.09476    368.39471    36812.755 
  408000     299.5852   -1531.6535    467.60942    287.96789    -70.40754    36812.755 
  408100    290.71798    -1530.153    479.18872    261.03041   -86.778805    36812.755 
  408200    289.96189   -1550.3745    451.37969    209.58765   -338.52278    36812.755 
  408300    294.53805   -1491.2296    480.46931    318.47415   -548.33763    36812.755 
  408400    298.07963   -1473.2489    475.10181    347.07033   -216.71892    36812.755 
  408500    299.80821   -1522.0175    493.11883    324.11971    129.01471    36812.755 
  408600    294.48959   -1511.2287    498.05487    315.84196   -135.16938    36812.755 
  408700    304.25488   -1488.2896    488.79448    373.59081    127.11017    36812.755 
  408800    306.55401   -1532.0925     479.6997    331.06898    635.87079    36812.755 
  408900    304.31319   -1551.4363    478.94811    300.86091    377.72454    36812.755 
  409000     298.2276   -1533.7696    509.72263    321.83825    201.90868    36812.755 
  409100    299.71171   -1529.4608    509.57855    332.70061    176.21137    36812.755 
  409200    299.67115   -1525.7538    487.85014    314.49617   -625.82763    36812.755 
  409300     299.4203   -1477.8931    450.59357    323.96819   -386.13561    36812.755 
  409400    308.84434   -1547.4479    474.84668    321.19675   -565.05544    36812.755 
  409500     299.7584    -1530.084     498.9262    321.63574   -157.69462    36812.755 
  409600    303.77024   -1485.8745      489.059    374.08336   -77.312262    36812.755 
  409700    302.49159   -1498.2148    451.60336    318.51692   -239.48944    36812.755 
  409800    292.50614   -1497.0022    509.03001    332.09236   -20.803275    36812.755 
  409900    289.35951   -1476.8161    485.49304     314.5409    420.11953    36812.755 
  410000    296.85604   -1455.9136    486.89688    370.67868    123.81281    36812.755 
  410100     315.0986   -1463.0397    495.28847    454.27191    82.559481    36812.755 
  410200    305.54778   -1452.6929    471.85753    398.08536   -9.4731487    36812.755 
  410300     306.9784   -1430.1777    494.79074    449.99013     227.6616    36812.755 
  410400    293.74156   -1470.2798     476.0269    331.38702   -56.758865    36812.755 
  410500    300.27928   -1457.2782    491.96651    389.83256   -179.24151    36812.755 
  410600    302.86478   -1512.0285    492.95505    347.73907   -131.54308    36812.755 
  410700    311.07176   -1442.3855    492.01928    453.48393    105.60713    36812.755 
  410800    304.74728   -1490.1502    488.38202       373.54   -104.60215    36812.755 
  410900     303.6888   -1442.4928    495.12391    423.16234    358.72392    36812.755 
  411000    297.51601   -1465.2124    509.30562    386.76707    599.47218    36812.755 
  411100    294.16494   -1485.7009    483.56089    325.41064    291.85119    36812.755 
  411200    290.85571   -1474.1659    496.23109    334.68145    356.96061    36812.755 
  411300    289.75021   -1446.4398    493.07819    354.26558    23.920375    36812.755 
  411400    296.22602   -1479.0784    486.19269    343.96647    355.85478    36812.755 
  411500    283.64321   -1455.3259    486.67654    311.41727    110.28241    36812.755 
  411600    294.98269   -1445.9633    502.99152    388.26934    288.26198    36812.755 
  411700      297.809   -1496.8095    486.72255    333.90913    131.76182    36812.755 
  411800    303.40577   -1449.8061     476.0777     395.5256   -406.74334    36812.755 
  411900    301.89984   -1513.3948     504.4531    353.51609     91.33636    36812.755 
  412000    294.68974   -1520.9472    460.41352    269.38534    280.79143    36812.755 
  412100    297.94116   -1496.6863    480.29845    328.20462   -512.14926    36812.755 
  412200    292.07274   -1457.7669    486.97935    347.32113   -226.57177    36812.755 
  412300    307.79469     -1483.49     486.9512    392.52213   -243.76141    36812.755 
  412400    292.88545    -1470.362    489.49615    340.91053    188.15712    36812.755 
  412500    297.26427   -1466.1517    504.15904    379.54502   -235.02615    36812.755 
  412600    301.64526   -1445.5332     497.0433    412.81898   -704.85234    36812.755 
  412700    305.15322   -1489.6954    497.42271    384.86741   -18.227678    36812.755 
  412800    305.47337   -1481.1142    460.22401    357.69478    -390.6971    36812.755 
  412900    298.05621   -1486.9097    479.53998    337.74202   -41.093874    36812.755 
  413000      298.117   -1459.9359    498.97324    384.42338   -136.71576    36812.755 
  413100    308.29188   -1471.9127    468.14684    387.53887   -426.03519    36812.755 
  413200    291.28735   -1474.5603    462.49987    302.50379   -704.60296    36812.755 
  413300    305.03236   -1481.8238    486.86955    381.64049   -293.82956    36812.755 
  413400    287.92651    -1465.577    490.18486     324.0048    25.594338    36812.755 
  413500    296.30545    -1480.179    482.97531    340.00689    326.69589    36812.755 
  413600    304.63019   -1448.4063    494.35943    420.73283    76.275844    36812.755 
  413700    295.05246    -1431.829    495.39305    395.11997   -214.58885    36812.755 
  413800    294.64982   -1459.7771    519.78758    389.74934   -140.30705    36812.755 
  413900    293.90646   -1439.3241    492.85762    379.91761   -293.74236    36812.755 
  414000    305.91356   -1444.6928    519.45401    455.33274   -196.05945    36812.755 
  414100    303.54799   -1456.1678    493.77903    407.50704   -721.14665    36812.755 
  414200    297.01104   -1419.8765    495.71111     416.2295    -804.8652    36812.755 
  414300    302.42006   -1468.1884    496.45393    393.07104   -454.46395    36812.755 
  414400    306.64984   -1468.4287    493.27748    408.74313   -170.26556    36812.755 
  414500    301.74284    -1429.534    489.48604    421.70127   -267.29419    36812.755 
  414600    293.77803   -1472.5439    486.83434    340.09499   -245.81624    36812.755 
  414700    304.77954   -1461.6785    481.41245     395.1877   -316.79348    36812.755 
  414800    303.84995   -1452.5527    496.03579    414.74161   -98.481316    36812.755 
  414900    303.44109   -1456.3747    475.37258    388.41127   -536.31215    36812.755 
  415000    297.60013   -1479.6046    502.72082    366.16964   -49.022393    36812.755 
  415100    302.48997   -1469.9319    488.04546     383.2346    66.255464    36812.755 
  415200     302.2071    -1502.066    483.68271    345.46123   -275.47917    36812.755 
  415300    290.08989   -1455.3506    494.36382    348.17337   -310.64304    36812.755 
  415400    289.93121   -1489.9722    467.74986     286.2217   -202.16247    36812.755 
  415500    298.85857    -1444.897    498.71361    402.54926   -268.55329    36812.755 
  415600    304.80148   -1404.4219    508.25959    479.39045   -18.821572    36812.755 
  415700    301.71686   -1424.2734    495.21646    432.57504   -649.17912    36812.755 
  415800    305.17786   -1462.1651    476.50855    391.59473    -574.0558    36812.755 
  415900    291.74134   -1496.2527    491.57476    311.93503   -356.35526    36812.755 
  416000    299.40146   -1450.2793    490.32258      391.226   -233.29119    36812.755 
  416100    311.60288   -1487.0198    484.66746    403.89478    -117.4045    36812.755 
  416200     298.2171   -1483.6579    493.38714    355.56705   -302.49012    36812.755 
  416300    304.55989   -1517.1556    490.44226    347.74912   -123.51808    36812.755 
  416400    303.89539   -1442.0736    512.72193    442.11192    343.59106    36812.755 
  416500    293.95491   -1478.9905    495.34938    342.96165    161.15717    36812.755 
  416600    284.68389   -1426.7722    504.84696    362.83787   -241.07062    36812.755 
  416700    295.44945   -1457.6459    469.13207    344.83367    266.64725    36812.755 
  416800    295.82323   -1469.7761    524.68233    389.94066      -180.67    36812.755 
  416900    300.53003   -1471.2442    469.30075    354.33244      437.141    36812.755 
  417000    314.96961   -1517.2844    497.29045    401.44701    220.56057    36812.755 
  417100    291.39848   -1510.6415    499.39026    303.81451    334.06412    36812.755 
  417200    311.63925   -1457.4886    513.77146    462.69411    345.10632    36812.755 
  417300    298.27154   -1434.4227    514.19688     425.8577   -114.21815    36812.755 
  417400    304.96173   -1413.1231    521.87692    485.02975    624.02513    36812.755 
  417500    294.64068   -1439.4231    502.02647    392.30094    -25.07306    36812.755 
  417600    295.87369   -1454.3213    510.70613    391.64692    -20.03995    36812.755 
  417700    305.27339   -1435.0287    519.30805    461.96178   -180.22016    36812.755 
  417800    303.17013   -1435.6627    524.96349    457.49136   -257.85847    36812.755 
  417900    296.44387   -1450.7425    492.01244    379.10529   -140.89042    36812.755 
  418000    305.44084   -1449.1376    484.66043    413.96103    -601.4873    36812.755 
  418100    301.35535   -1454.4634     512.5048    418.04199   -745.80673    36812.755 
  418200    304.88505    -1446.389    478.91009    408.45098   -578.34515    36812.755 
  418300    300.91554   -1454.1098    498.99997    402.90591    -285.5297    36812.755 
  418400    299.29791     -1472.96    503.89832    381.65374     232.0902    36812.755 
  418500    285.55273   -1504.6994    497.73517    281.71996    76.373495    36812.755 
  418600    302.79323   -1460.9293    521.59855    427.15886     343.6304    36812.755 
  418700    297.38162    -1499.694    518.80564    361.17901    307.11857    36812.755 
  418800    288.48684   -1503.6704    490.30445    288.55968    403.77324    36812.755 
  418900    289.36104   -1453.5602    517.86754    370.17826    369.44626    36812.755 
  419000     300.8081   -1480.6512    515.08477     391.9644   -227.40546    36812.755 
  419100    304.15362    -1483.758    482.45741    371.32841    43.375489    36812.755 
  419200    299.12169   -1516.3783    504.39081    337.93267    -588.7765    36812.755 
  419300     292.1797   -1463.8564    494.20437    348.93934   -686.18655    36812.755 
  419400    300.30248   -1484.0159    498.82652    370.05965   -555.86206    36812.755 
  419500     307.3202    -1502.023    483.40785     368.3044   -63.808772    36812.755 
  419600    295.79557   -1552.0426     491.4083    274.27521   -588.72449    36812.755 
  419700    297.61547   -1507.0823     497.1883    333.22868    379.80553    36812.755 
  419800    299.91245   -1522.4621    491.96291    322.98967    77.226196    36812.755 
  419900     299.4628   -1506.1462     499.3046    344.61801   -277.10619    36812.755 
  420000    299.95473   -1520.1008     485.0398    318.61862    611.57098    36812.755 
  420100    305.36603   -1519.0513    477.97454    337.02377    1173.2999    36812.755 
  420200    302.48129   -1541.0642    487.72951    311.74713    403.35279    36812.755 
  420300    299.45449   -1500.2926    492.14252    343.27204    408.89686    36812.755 
  420400    293.91489   -1485.2091    485.22001    326.43305    116.08379    36812.755 
  420500    313.21727   -1493.8331    516.36038    436.06005    336.10852    36812.755 
  420600    299.01353   -1481.8068    479.91912    347.54435    299.24693    36812.755 
  420700    299.62289   -1463.0125     471.6217    360.79123    188.21008    36812.755 
  420800    297.63821   -1450.9756    492.91515    385.16486    63.808541    36812.755 
  420900    302.65706   -1476.7086    490.37793    379.54442    586.88229    36812.755 
  421000    296.82537   -1454.7082    471.92657    356.77538    310.91564    36812.755 
  421100    292.31696   -1496.9844    486.25521     308.4816    383.88581    36812.755 
  421200    309.90532   -1469.2275    461.24287    390.60143    207.36507    36812.755 
  421300    299.69272   -1466.0052    487.55369    374.04568   -136.75357    36812.755 
  421400    304.58961   -1484.3335    471.28261     361.5457   -448.87272    36812.755 
  421500    306.38424   -1527.2089    460.63097    316.11775   -480.70211    36812.755 
  421600    312.39957    -1510.142     473.5981    373.29865   -434.97355    36812.755 
  421700    297.61051   -1522.1796    497.51432    318.43499   -365.08976    36812.755 
  421800    296.53757   -1505.5228    486.03572    318.77111   -449.14652    36812.755 
  421900    298.24172   -1478.5497    496.42268    363.82191   -365.05251    36812.755 
  422000    300.17344   -1471.1168      495.218    378.76787   -104.36987    36812.755 
  422100    300.46429   -1487.5388    475.20515    343.64553   -240.76606    36812.755 
  422200    297.68415   -1488.3284    492.68344    347.78762   -189.22569    36812.755 
  422300    305.18744   -1497.4348    488.00117    367.86095   -230.21593    36812.755 
  422400    312.62519   -1505.0579    502.29177    408.09454   -104.19354    36812.755 
  422500    297.26361   -1510.7626    480.02689    310.79905    -138.8594    36812.755 
  422600     294.0711   -1492.5767    499.43623    333.98666     -584.672    36812.755 
  422700    294.71807   -1510.2231    468.89123      288.715    9.7283952    36812.755 
  422800    301.05139   -1497.7845    504.25186    365.09612    212.35866    36812.755 
  422900    300.88213    -1529.257    491.48316    320.09105   -162.83475    36812.755 
  423000    301.94161   -1491.9255    490.77741    361.49819    427.91429    36812.755 
  423100    297.96295   -1484.0177    486.93614    347.60923   -149.86284    36812.755 
  423200    297.87459   -1491.7812    499.47959    351.99046   -276.98223    36812.755 
  423300    293.09735   -1495.9722    513.33239    340.09282    -6.510432    36812.755 
  423400    298.13696   -1528.1917    465.95849    283.24287    143.93137    36812.755 
  423500    314.32786   -1492.6383    484.46679     410.3733   -50.497482    36812.755 
  423600    291.97554   -1513.5384    461.84672    265.97828   -288.11627    36812.755 
  423700    292.07379     -1554.22    507.77516    271.66849   -214.67946    36812.755 
  423800    298.28087   -1491.4666    505.53507     360.1941     261.5681    36812.755 
  423900    296.40782   -1500.2921       477.94    315.32057    567.26277    36812.755 
  424000    301.93202   -1505.4528    524.18969    381.33993    1270.2063    36812.755 
  424100    308.49496    -1500.911    489.52334    380.83355    174.55901    36812.755 
  424200    302.25219   -1478.1383    487.67313    373.58276   -98.786379    36812.755 
  424300    293.32558   -1513.0204    500.03382    310.77607   -548.35902    36812.755 
  424400     294.2697   -1525.1128    494.56468    297.47527   -447.72798    36812.755 
  424500    301.37687   -1544.8999    499.43037    314.62814   -379.90315    36812.755 
  424600    302.75682   -1538.2125    540.99801    369.11084    532.08946    36812.755 
  424700    298.32311   -1532.8087    497.04711    310.55467   -255.71808    36812.755 
  424800    298.31132   -1504.1554    489.04869     331.1563   -513.91864    36812.755 
  424900    299.18013   -1557.0796    472.34478     265.4491   -438.00082    36812.755 
  425000    306.26026   -1565.0158    492.55713    309.67741    35.502873    36812.755 
  425100    303.13017   -1552.3045    483.01889    298.72457   -317.04129    36812.755 
  425200      294.641   -1521.9692    482.55166    290.28148    171.09982    36812.755 
  425300    291.53789   -1531.3451     505.1996    289.54941    220.65707    36812.755 
  425400    289.86387   -1512.6346     512.2881    307.79363   -196.71906    36812.755 
  425500    300.09454   -1539.0444     512.2477    327.51388    -249.0371    36812.755 
  425600    302.95243   -1502.7286    490.52916    355.00861    -363.9322    36812.755 
  425700    294.06189   -1494.8906    482.28406    314.47905   -340.29862    36812.755 
  425800    301.12741   -1525.8522    487.24653    320.36619    -405.0069    36812.755 
  425900    315.12317   -1521.7537    483.01769    383.39797   -348.92842    36812.755 
  426000    291.00769   -1559.4388      509.443    263.30632   -791.83319    36812.755 
  426100    311.63009   -1576.6343    465.72183    295.45746   -698.27377    36812.755 
  426200    295.71227   -1535.0425    478.81424    278.30536   -603.79439    36812.755 
  426300    295.94335   -1535.6663    514.64628    314.55643   -335.97555    36812.755 
  426400    308.71171   -1515.2232    493.06031    371.03649   -334.01084    36812.755 
  426500    300.58246   -1511.7241    503.13687    347.92531    128.08473    36812.755 
  426600    300.16016   -1536.5955    498.42533    316.43654    157.80835    36812.755 
  426700    286.10642   -1511.9715    481.79258    261.00407    10.623433    36812.755 
  426800    294.61835   -1474.8514    496.45048    351.19592   -104.54289    36812.755 
  426900    309.04658   -1485.1432    506.02838    415.59583   -357.12231    36812.755 
  427000    288.10812   -1514.3372    483.82646    269.70571    351.47902    36812.755 
  427100    301.36478     -1533.45    487.20463    313.79768    381.41421    36812.755 
  427200    296.70365   -1519.5669    486.52865    305.96942    46.796823    36812.755 
  427300    299.21664   -1555.5619    511.56206    306.34879    181.08082    36812.755 
  427400    292.37245   -1573.4726    463.80104    209.78959    48.606202    36812.755 
  427500    307.06781   -1566.8154    460.23526     279.2004   -299.73907    36812.755 
  427600     301.0707   -1507.3459    509.06225    360.43226   -521.01039    36812.755 
  427700    304.02113   -1517.5638    490.35916    344.82642   -274.90432    36812.755 
  427800     295.0905    -1493.577    491.99264    330.14327    -470.8337    36812.755 
  427900    303.72608   -1526.2132    489.06022    333.54652    181.46292    36812.755 
  428000    298.96879   -1520.0765    480.31518    309.46878   -215.32294    36812.755 
  428100    295.89477    -1513.353    477.08186    299.08616    62.947641    36812.755 
  428200    295.68594   -1500.8192     490.6054    324.20098    -94.24923    36812.755 
  428300    293.56839   -1547.4607    471.39043    248.78814   -603.06809    36812.755 
  428400    305.09061   -1509.5358    507.20561    374.52737    15.457623    36812.755 
  428500    298.75589   -1524.6437    492.42597    316.05157    -331.5727    36812.755 
  428600    295.66924   -1545.1353    502.74122    291.94532   -442.21733    36812.755 
  428700    303.16423   -1539.4379    496.74598    325.47204   -11.994809    36812.755 
  428800    296.79509   -1527.3845    491.78824    303.82408    100.59922    36812.755 
  428900     308.7146   -1523.1619    491.58964    361.64017    584.29308    36812.755 
  429000    310.90785   -1556.4087    512.38113    359.08289    303.06336    36812.755 
  429100    300.10559   -1535.4527    508.86074    327.76847    130.01382    36812.755 
  429200    292.20364   -1547.3413    497.35514    268.71324     180.0588    36812.755 
  429300    295.27489   -1526.3441     485.8382    292.05382    208.70595    36812.755 
  429400    307.63619   -1536.2091     521.3066    373.44309    280.91639    36812.755 
  429500    310.33506    -1507.888    513.73258    406.37011    394.00835    36812.755 
  429600    302.95225   -1521.3103    494.71227    340.60925    162.99855    36812.755 
  429700    307.77832   -1541.2202    518.55738    366.32427    118.29639    36812.755 
  429800    295.74977   -1547.0133    483.86769    271.55729    111.18683    36812.755 
  429900    309.26644   -1492.6378    552.54793    455.61302    852.87436    36812.755 
  430000    295.29498   -1548.2337    503.94746    288.36423    281.93591    36812.755 
  430100    316.19893   -1487.0773    499.73061    439.64212    211.70543    36812.755 
  430200    309.54882   -1543.5992     483.1396    336.51762    144.71957    36812.755 
  430300    300.12818   -1504.8515    522.53251    372.14345    264.52309    36812.755 
  430400     287.8419   -1519.0683    504.42132    284.36813   -263.37647    36812.755 
  430500    299.74637   -1494.1461    489.09844    347.69165   -119.95954    36812.755 
  430600    302.64483   -1530.4204    484.65943    320.05893    181.14223    36812.755 
  430700    301.70811   -1490.2101    525.30663    396.68906    140.10968    36812.755 
  430800    297.29286   -1489.9955    501.09738    352.76864    33.982313    36812.755 
  430900    296.51034   -1481.3812    503.17416    359.92822   -634.01078    36812.755 
  431000    288.30273   -1471.2244    507.86266    337.73298   -607.04183    36812.755 
  431100    293.75619   -1507.8979    510.62556    328.43367   -993.97056    36812.755 
  431200    299.23463   -1520.2414    499.47507    329.66355   -598.53164    36812.755 
  431300    300.74914   -1558.5327    501.46809    300.20009     -229.737    36812.755 
  431400    300.16721   -1484.5891    487.18467    357.23411   -162.95529    36812.755 
  431500    303.08444   -1523.7906    494.15091    338.16416   -14.689938    36812.755 
  431600    298.32774   -1516.8119    510.94807    340.47325   -173.90342    36812.755 
  431700    302.90102   -1532.0454    477.68059    312.61125    40.309836    36812.755 
  431800      307.188   -1545.7369     500.2374    340.82346   -28.248028    36812.755 
  431900    290.82341   -1527.5645    511.62348    296.52943    72.139268    36812.755 
  432000    296.57731   -1502.0251    512.22826    348.64066    187.98426    36812.755 
  432100    302.09849   -1535.2535    505.57945     333.6802    32.256452    36812.755 
  432200    308.27251   -1559.6635    486.77088    318.32467    19.151469    36812.755 
  432300    302.84716   -1541.1515    482.13198    307.71344     73.63718    36812.755 
  432400    301.24614   -1557.5985    485.71454     287.6237    420.78536    36812.755 
  432500    292.16503   -1575.8111    481.81591    224.52997    795.55823    36812.755 
  432600    298.29134   -1547.9076    511.72608     309.9913    780.08219    36812.755 
  432700    294.59239   -1582.4405    471.32785    218.36704    54.820266    36812.755 
  432800    292.12602   -1542.3551    491.96392    267.95793   -101.98177    36812.755 
  432900    301.65968   -1523.7149    486.14248    323.80155   -72.369758    36812.755 
  433000    307.73676   -1519.0303    496.70746    366.47664    16.535117    36812.755 
  433100    297.82219   -1529.4254    464.27114     278.9013    87.987082    36812.755 
  433200      301.824   -1522.4041    509.92498    349.63638    43.716716    36812.755 
  433300    296.31798   -1534.6956    503.60994    306.18152    283.15878    36812.755 
  433400    293.50037   -1548.9421    491.40794    267.01731    13.066635    36812.755 
  433500     309.6938   -1500.9172    523.75504    420.46938   -5.6897035    36812.755 
  433600    293.87775   -1505.8127    498.59121    319.03303    142.98229    36812.755 
  433700    311.47022   -1535.4869    503.17035    373.33187    526.55862    36812.755 
  433800    302.55045   -1510.6951     486.2202    340.91908   -31.342834    36812.755 
  433900    297.42111   -1550.5308    479.72908    271.44379    36.064824    36812.755 
  434000    300.05309   -1511.1899     485.9316    328.86518    344.52413    36812.755 
  434100    300.61153   -1575.4336    484.35743    265.56755    494.01034    36812.755 
  434200    302.01274   -1554.7048    486.64404    294.90654     322.0968    36812.755 
  434300    300.82211   -1575.7522     484.9591    266.80099    808.61469    36812.755 
  434400    308.22235   -1543.1166    494.25842    342.13278    1079.7274    36812.755 
  434500    291.31959   -1559.0028    506.53527    262.24222    132.24161    36812.755 
  434600    288.91193   -1549.8375    496.19775     250.2043    23.365003    36812.755 
  434700    301.97109   -1544.5419    482.31544    300.55288    -506.7539    36812.755 
  434800    297.78846   -1523.7689    498.93639     319.0709    145.76628    36812.755 
  434900    305.10685   -1528.4531    520.23782    368.71563   -20.981188    36812.755 
  435000    303.69291   -1541.1663    488.95413    318.33763    47.099433    36812.755 
  435100    290.43717   -1525.8758    483.21768    268.06923   -331.00498    36812.755 
  435200    300.76676   -1457.3122    489.51723    389.54933    384.43238    36812.755 
  435300    308.48331   -1518.4703    507.92053    381.61882    935.20825    36812.755 
  435400    293.93055   -1551.4459    503.33377    278.38071    705.98441    36812.755 
  435500     295.9408   -1529.3178    493.73425    299.98137    150.82612    36812.755 
  435600    303.16198   -1494.7761    507.97496    381.35261    495.00373    36812.755 
  435700    299.94839   -1519.3791    497.70835    331.98025    471.97007    36812.755 
  435800     294.0473   -1541.0762    487.27205    273.21553   -98.811661    36812.755 
  435900    303.63535   -1551.1999    483.35677    302.44698    263.03591    36812.755 
  436000    295.11883   -1554.0534    492.55063     270.3527    825.98724    36812.755 
  436100     298.9936   -1562.4946    522.97159    309.81911    376.43659    36812.755 
  436200     293.9383    -1535.768      498.827    289.58676    217.43493    36812.755 
  436300    302.04445   -1576.5911    483.36063    269.87992    288.11878    36812.755 
  436400    283.03252   -1528.1142     486.7933    235.98976   -57.895331    36812.755 
  436500    303.96524   -1537.9592    505.15994    338.97956   -754.01972    36812.755 
  436600    306.04906   -1525.4462    496.65866    352.39549   -41.569093    36812.755 
  436700    304.26283   -1537.9192    473.54372    308.74636     388.7772    36812.755 
  436800    291.25249    -1468.373     503.3731    349.40698     114.5285    36812.755 
  436900    300.50279   -1501.6793    503.07927    357.55296   -98.148486    36812.755 
  437000    308.70561   -1524.2423    490.91538    359.84493   -299.54384    36812.755 
  437100    287.79576   -1559.4358    472.71915    212.09021   -1222.2572    36812.755 
  437200    293.04859   -1552.3187    503.85556    274.04944   -481.58501    36812.755 
  437300    301.99155   -1513.1412    472.07278    321.80325   -250.52039    36812.755 
  437400     301.5934   -1554.5703    493.09234    299.59687    131.54749    36812.755 
  437500    297.50582   -1555.1245    479.50721    267.01053    129.12234    36812.755 
  437600    307.28035   -1510.1164    503.26785    379.89123     257.7599    36812.755 
  437700    293.36172    -1520.899     499.4522    302.47891   -357.44337    36812.755 
  437800    307.84484   -1495.0098    493.86655    388.14406   -17.106954    36812.755 
  437900    301.15183   -1517.5819    484.11397    325.61414   -34.691987    36812.755 
  438000    294.84885   -1525.1002    509.27713    314.81399    37.255667    36812.755 
  438100    307.84822   -1499.8783    503.06214    392.48637    308.24104    36812.755 
  438200    303.24686   -1502.3852    506.02305    372.17463   -495.85404    36812.755 
  438300    294.88799   -1495.4995     500.2811    335.59531   -230.35737    36812.755 
  438400    306.11112   -1461.9612    512.93656    432.43837   -301.00747    36812.755 
  438500    299.64201   -1512.5197    502.35372    342.10231    640.33076    36812.755 
  438600    304.10545   -1509.5074    464.82082    327.72497    796.39674    36812.755 
  438700    297.34446    -1502.226    522.29117     361.9648    715.54082    36812.755 
  438800    306.18456   -1562.6806    474.21432    293.32822     857.5193    36812.755 
  438900    310.36503   -1558.3305    495.89311    338.22338    255.44782    36812.755 
  439000    297.28915   -1551.6506    487.20025     277.1997    172.38111    36812.755 
  439100    309.85982   -1531.4183    502.77529    369.73774    453.69537    36812.755 
  439200     297.3866   -1551.7494    493.53103    283.87137   -536.98256    36812.755 
  439300    300.81738   -1529.4599    499.28367    327.39645   -35.647545    36812.755 
  439400     299.8242   -1487.1409    493.31906    359.26874    364.06553    36812.755 
  439500    292.65203   -1512.0678    511.64593    320.30106   -209.90404    36812.755 
  439600    283.64126   -1512.9985    474.23181    241.29117    -196.1823    36812.755 
  439700     299.0203    -1505.933    527.04272    370.57227   -41.818807    36812.755 
  439800    302.73595   -1514.6133    513.52183    365.13962   -31.558878    36812.755 
  439900    307.68317   -1535.7509    510.41905     363.2258    24.180693    36812.755 
  440000    303.48959   -1497.5979    476.12325    348.15763    205.79601    36812.755 
  440100    305.79421   -1474.9697    487.36362    392.42677    182.87224    36812.755 
  440200    290.69112   -1485.9068    511.20843    337.17511   -31.330843    36812.755 
  440300    316.49407   -1490.9319    532.82569    470.21455    302.92874    36812.755 
  440400     291.0187   -1515.5685    489.95446    287.73778   -201.29876    36812.755 
  440500    298.43758   -1470.4992    508.35343    384.68703    691.26162    36812.755 
  440600    305.55825   -1526.3019    511.30736    363.97346    42.277333    36812.755 
  440700    308.93468   -1522.6896    501.13052    372.64651     -9.66448    36812.755 
  440800    295.39833   -1486.5954    477.44527    323.96669   -117.87165    36812.755 
  440900    308.79821   -1522.8915    491.76399    362.46222    -413.0682    36812.755 
  441000     297.6103   -1492.8804    491.14687    341.36577    145.43866    36812.755 
  441100    298.65902   -1512.4234    481.39897    316.80766   -201.66246    36812.755 
  441200    299.08922   -1517.3484    513.97209    346.39726   -64.309672    36812.755 
  441300    304.98844   -1524.6363    488.51712    340.27726   -2.9596755    36812.755 
  441400    293.62301   -1521.2589    485.49062    289.33659    65.822726    36812.755 
  441500    294.77763   -1521.9799    476.09063    284.42642    125.21294    36812.755 
  441600    297.70635   -1531.2845    501.72909    313.97737    500.11053    36812.755 
  441700    301.62965   -1546.5177    496.19619    310.91694    279.27129    36812.755 
  441800    305.03977   -1562.2516    500.75406    315.13057   -298.92801    36812.755 
  441900     307.3948   -1536.7551    491.29736    341.79853   -96.770813    36812.755 
  442000    291.39446   -1505.4662    498.10333    307.68468    361.43528    36812.755 
  442100    292.17731   -1510.2598    513.84335    322.16406    432.24923    36812.755 
  442200    303.15388   -1542.1713    512.99491    338.94078    507.79893    36812.755 
  442300      302.044   -1503.7194    507.41476    366.80376     -83.0493    36812.755 
  442400    298.08153   -1548.1978    457.24681    254.27493    433.10567    36812.755 
  442500    298.16524   -1506.9083    506.63911    345.33457   -139.80499    36812.755 
  442600    285.96037   -1495.6481    494.78692    289.66259    204.55281    36812.755 
  442700    289.76349   -1484.6911    496.39165    319.38772    -208.8889    36812.755 
  442800    290.49892   -1474.2547    495.62741    332.37874   -203.22081    36812.755 
  442900    301.87512   -1458.1504    480.82723    385.02304    397.60128    36812.755 
  443000    302.31773   -1466.7583    515.81266    413.39809   -152.18056    36812.755 
  443100    304.03251   -1501.7191    482.73243    353.09575    145.23032    36812.755 
  443200    297.11611   -1470.4527    507.08816    377.50453   -101.06651    36812.755 
  443300    294.31451   -1475.2928    492.17859    345.11139    213.99938    36812.755 
  443400    298.30743    -1483.688    486.15648    348.71387   -482.24445    36812.755 
  443500    302.55003   -1487.7591    475.02628    352.65924     254.9094    36812.755 
  443600    300.25404    -1470.781    486.89569    371.14512    6.1870001    36812.755 
  443700    293.93593   -1436.8301    519.29297    408.97994    214.95015    36812.755 
  443800     292.9485   -1490.0595    479.90895    311.91034   -308.44537    36812.755 
  443900    298.78288    -1505.556    481.69814    324.53329   -105.86866    36812.755 
  444000    300.83052     -1504.66    500.24147    353.21346   -458.54605    36812.755 
  444100    304.63928    -1499.949    480.82966    355.70138    2.2553806    36812.755 
  444200    296.50169   -1462.0447    490.15414    366.20567   -97.056522    36812.755 
  444300    295.94872   -1505.4117    501.90934    332.09841    29.554104    36812.755 
  444400     285.2172   -1520.6511    510.47718    276.99599    322.36916    36812.755 
  444500    305.82176   -1505.2934    507.21148    382.07528    120.67882    36812.755 
  444600      293.607   -1528.8876    464.93575    261.08079    -183.9561    36812.755 
  444700    296.25951   -1498.8932    512.76922    350.87932    161.70982    36812.755 
  444800    298.69346   -1557.7643    484.37855    274.60182   -60.138322    36812.755 
  444900    302.63784   -1514.0848    467.82172    319.52532    213.31276    36812.755 
  445000    297.85279   -1548.4624     458.9404    254.67167   0.99362673    36812.755 
  445100    299.15658   -1596.0029    496.08212    250.15686   -317.23474    36812.755 
  445200    307.07919   -1534.6642    494.81633    345.98404    325.64505    36812.755 
  445300    304.68078   -1539.2008    466.50369    302.31088   -55.904723    36812.755 
  445400    302.45516   -1549.5456    499.25806    314.67644      385.883    36812.755 
  445500    290.44728   -1520.2977    497.49122    287.96657   -699.32669    36812.755 
  445600    306.87134    -1525.198    478.90779    338.60372    41.840859    36812.755 
  445700    298.04406    -1571.101    483.21824    257.17409   -543.22429    36812.755 
  445800    314.20584    -1538.797    480.86007    360.05719   -167.47192    36812.755 
  445900    305.00747   -1509.1448    486.00498    353.34261   -189.14493    36812.755 
  446000     310.0485   -1523.0337     487.3448    363.54339    439.86549    36812.755 
  446100    297.00165   -1514.9707    476.22796    301.60977    30.645546    36812.755 
  446200    297.66859   -1551.4913    492.04493    283.91604   -380.62953    36812.755 
  446300    295.23089   -1520.0349    502.00752    314.33383    371.92827    36812.755 
  446400    305.82338   -1477.4788    520.24803    422.93377    75.461385    36812.755 
  446500    299.19657   -1510.3187    480.42856    320.36797   -450.63928    36812.755 
  446600    291.10497   -1498.6698    488.75032     303.8216   -666.34389    36812.755 
  446700    293.79299   -1553.3763    479.94619    252.44192   -397.35875    36812.755 
  446800     297.2064   -1549.9128    479.41005    270.77378   -219.39652    36812.755 
  446900    296.29659   -1539.5584    481.59335    279.20558   -344.64823    36812.755 
  447000    291.33026   -1528.5707    496.14283       282.33   -691.02067    36812.755 
  447100    299.06478   -1540.8903    472.76595    281.53893   -677.97536    36812.755 
  447200    298.74674   -1517.1537    467.32215     298.3965     76.13016    36812.755 
  447300    289.06523   -1519.2624    511.77733    297.05084    2.6747612    36812.755 
  447400    301.52464   -1507.3339    512.07831    365.50896    226.16221    36812.755 
  447500    310.10002    -1534.536    477.05853    341.98729    370.89077    36812.755 
  447600    289.30929   -1494.8807    493.31437    304.07094    234.72459    36812.755 
  447700    302.14786   -1503.9775    493.01115    352.61075    771.50674    36812.755 
  447800    307.46754   -1498.1417    493.44208    382.88486    612.24957    36812.755 
  447900    304.84102   -1507.5783    503.78835    371.94128    670.91308    36812.755 
  448000      304.208   -1535.5205    464.20228    301.55623    1198.3614    36812.755 
  448100    299.89171   -1485.2519     498.4971    366.64043    467.87258    36812.755 
  448200    292.45817      -1481.5    491.09643    329.44452    73.012386    36812.755 
  448300    311.46888   -1469.7155    473.32397    409.25089   -177.59015    36812.755 
  448400    314.93379   -1478.0044    485.58066     428.8556   -179.35883    36812.755 
  448500     309.6225   -1465.0175     476.9033    409.19556    219.04798    36812.755 
  448600     291.7742   -1509.3281     465.7894    273.22263    740.14828    36812.755 
  448700    303.31626   -1517.9498     494.4887     345.3889    247.27414    36812.755 
  448800    295.98837   -1502.2383    484.19382    317.73519    189.32826    36812.755 
  448900    303.86952   -1449.8875     511.9842    433.44355    12.014599    36812.755 
  449000    301.28997   -1463.0863    500.59085    397.21007    366.00458    36812.755 
  449100    298.27611   -1450.6549      463.748    359.19724    -87.44885    36812.755 
  449200    303.02688   -1447.3105    493.99907    414.23262   -385.13308    36812.755 
  449300    303.09162   -1449.1937    483.57197    402.21448    174.16706    36812.755 
  449400    303.67265   -1494.1588    474.92522    351.22483    128.95912    36812.755 
  449500    302.20612   -1507.8596    475.41192    331.39237    544.47646    36812.755 
  449600    313.69441   -1488.7157    502.02399    428.99436    711.48634    36812.755 
  449700    295.57285   -1497.2583    471.68517    308.33131     789.7896    36812.755 
  449800    303.17247   -1480.3009    473.24427    361.14444    415.83098    36812.755 
  449900    304.30291    -1482.803    487.13838    377.63811    123.18248    36812.755 
  450000    305.03948   -1477.1231    489.85902     389.3628     218.3361    36812.755 
  450100    300.35421   -1487.5536    486.62072    354.54964   -199.12741    36812.755 
  450200    295.49672   -1479.4215     487.1078    341.24713    374.75631    36812.755 
  450300    308.51824   -1503.3388     483.1361    372.12355   -144.05147    36812.755 
  450400    307.69033   -1487.8834    507.74701    408.45355   -246.66616    36812.755 
  450500    306.23639   -1464.2887     472.4333    390.17304   -67.801063    36812.755 
  450600    296.43284   -1490.6895    489.26082    336.35681    122.14247    36812.755 
  450700    295.89902   -1468.6603    467.45225    334.16836    237.61044    36812.755 
  450800    297.70843   -1474.3561    491.91785    361.10392    728.28624    36812.755 
  450900    288.88029   -1478.7903    482.82958    307.74058    223.06023    36812.755 
  451000    302.67777   -1442.9003    468.78784    391.85612    308.19276    36812.755 
  451100    304.92776    -1450.707    489.21196    414.62763    128.88105    36812.755 
  451200    294.66709   -1452.6586    484.97512    362.13336   -769.86083    36812.755 
  451300    294.33428   -1465.3335    482.46998    345.45126   -24.966069    36812.755 
  451400      303.482   -1503.5596    487.53691     353.5753    584.76028    36812.755 
  451500    301.64998   -1520.0061    472.69412    314.01817    377.62232    36812.755 
  451600     295.4801   -1535.1937    479.54611    277.83826    1146.8171    36812.755 
  451700    311.08208   -1475.1911    500.78146     429.4871    1093.2844    36812.755 
  451800    301.70221    -1484.283     466.9012    344.18405    741.05767    36812.755 
  451900    295.50223   -1494.4489    505.77326    344.91008    680.79326    36812.755 
  452000     310.0073   -1500.8389    492.62118    390.82863    430.63153    36812.755 
  452100    300.73734   -1517.7415    467.93443    307.40446    264.69148    36812.755 
  452200     297.6053   -1526.4097    481.60787    298.27498    535.99961    36812.755 
  452300    298.99986   -1492.6635    487.43964    344.14646   -14.534672    36812.755 
  452400    309.16934   -1482.5605    456.44818     369.1523   -80.620906    36812.755 
  452500    302.06281   -1444.1302    468.40219    387.46525   -794.25327    36812.755 
  452600    299.17691   -1409.7926    490.53518      430.912   -912.36582    36812.755 
  452700    289.51081   -1399.1039    464.97426    372.41709   -779.96007    36812.755 
  452800    298.91706   -1411.8533    465.61886    402.76226   -359.99755    36812.755 
  452900    300.71753   -1461.1203    504.78684    400.78862    198.56211    36812.755 
  453000    306.23097   -1504.2146      474.792    352.58134   -92.418518    36812.755 
  453100    300.68006   -1493.1236    456.82269    320.65211    -445.5299    36812.755 
  453200    298.76271   -1484.4643    474.28934    338.12511   -362.79307    36812.755 
  453300    290.25301   -1454.2334    455.71003    311.37292    36.104688    36812.755 
  453400    305.98509   -1470.5928    476.95851    387.26003   -370.71947    36812.755 
  453500    290.12416   -1484.1826    469.12139    294.25362   -365.75838    36812.755 
  453600    302.22585    -1459.961    462.18456    366.15268    349.89407    36812.755 
  453700    295.49868   -1439.8098    503.48599    397.24588    91.812217    36812.755 
  453800    298.69104   -1433.3641    493.62842    408.24093    85.793807    36812.755 
  453900    300.66928   -1425.0867    469.43537    401.25308   -233.34293    36812.755 
  454000     298.1768   -1434.6587    491.06832    402.06556    762.48951    36812.755 
  454100    298.05722   -1431.1251     485.8183    399.80944    353.88789    36812.755 
  454200    300.46007   -1426.4345    506.62137    436.14702     761.8933    36812.755 
  454300    299.75234   -1470.6427    471.50616    353.62971    123.16773    36812.755 
  454400    297.10453   -1466.1967    472.80415    347.42425   -7.7176656    36812.755 
  454500    284.77208    -1493.242    476.53087    268.44999   -593.58797    36812.755 
  454600    302.22066     -1443.66    486.12371    406.36933   -717.06026    36812.755 
  454700    295.60491    -1516.909    454.12137     271.2615   -431.57926    36812.755 
  454800    299.05459   -1526.4286    478.52084    301.70957   -725.03746    36812.755 
  454900    301.82704   -1525.1712    458.23426    295.19231   -210.80014    36812.755 
  455000    298.66022   -1490.7338    477.85262    334.95636   -757.79978    36812.755 
  455100    300.15439   -1444.5153    480.27226    390.33761   -1013.9868    36812.755 
  455200    292.99895     -1420.82    474.13106    375.59965    -1797.038    36812.755 
  455300    305.12997    -1433.062    479.09348    423.06663   -853.78801    36812.755 
  455400    295.68534   -1433.6519    466.41495     367.1751   -1135.7908    36812.755 
  455500    301.18654   -1447.7383     489.8323    401.33265   -673.05928    36812.755 
  455600    303.65782    -1442.917    472.82461    400.29909   -197.77176    36812.755 
  455700    302.33204   -1447.0291    492.37646    409.75567   -417.58531    36812.755 
  455800    307.68092    -1483.478    448.58698    353.65652    136.03083    36812.755 
  455900    296.26835   -1480.1384    464.51847    321.42327    536.71402    36812.755 
  456000    303.37571   -1492.1841    488.66398    365.59824   -74.239341    36812.755 
  456100    298.31129   -1477.0585    490.59055    359.79492    336.08519    36812.755 
  456200    310.59744   -1455.8449    489.75464    435.61936    730.30233    36812.755 
  456300    292.52018   -1438.7931    499.46318    380.79794    629.40218    36812.755 
  456400    307.99925   -1514.2393    498.36197    374.10677    487.70835    36812.755 
  456500    307.57854   -1478.2553     468.3029    378.13311    209.96123    36812.755 
  456600    310.71973   -1466.2751    464.30785    400.29426    134.86226    36812.755 
  456700    301.28539   -1483.3768    501.63788    377.94596   -18.117401    36812.755 
  456800     293.7946   -1448.8477    454.14128    331.17289    202.09889    36812.755 
  456900    301.94542   -1474.4642    487.89071    376.09004    196.34718    36812.755 
  457000    296.81691   -1489.4256    468.80251     318.8957    162.13856    36812.755 
  457100    298.44793   -1487.2862    466.00472      325.598   -18.458274    36812.755 
  457200    295.46096   -1477.9627    482.64061    338.07738    99.152934    36812.755 
  457300    292.72714   -1453.3144    483.69745    351.44497   -304.74112    36812.755 
  457400    300.79422   -1449.6681    480.42554    388.22561    130.65487    36812.755 
  457500    305.22545   -1505.5109    489.33328    361.28853    961.33534    36812.755 
  457600    292.21782   -1464.5101    481.08256    335.33577    398.22361    36812.755 
  457700    300.70702   -1466.0888    473.67434    364.66021    206.27323    36812.755 
  457800    293.88264   -1460.5569    506.55382    372.27353    298.12086    36812.755 
  457900    303.19468   -1474.5506    491.03712    384.78782    854.05884    36812.755 
  458000    293.43682   -1452.2569    487.42101    359.42875    516.76402    36812.755 
  458100    297.95665   -1505.4447    495.15601    334.37369   -311.82323    36812.755 
  458200    300.12108    -1506.172    482.26004    330.51838    480.84931    36812.755 
  458300    303.59926   -1522.6955    479.57626    327.00796    424.43441    36812.755 
  458400    298.63084   -1559.6073    477.40306    265.50076    -329.4929    36812.755 
  458500    316.64048   -1502.5357    465.90671    392.35255    787.99885    36812.755 
  458600    298.85801   -1503.8081    471.28618    316.20828    172.01984    36812.755 
  458700    308.24476   -1464.4323    470.13641    396.79622   -405.22578    36812.755 
  458800    292.13515   -1467.2991    480.52624    331.61743    -106.5839    36812.755 
  458900    306.67432   -1479.9459    466.63718    370.69599    101.99004    36812.755 
  459000    306.90162   -1477.7912    480.34181    387.58116    254.52341    36812.755 
  459100    301.97297   -1488.1525    457.19585    331.83124    182.66713    36812.755 
  459200    298.36274   -1458.9276    494.06156    381.62901   -131.46168    36812.755 
  459300    307.61752   -1511.4314    462.00081    338.83075    -278.1436    36812.755 
  459400    304.51572   -1455.1522    483.78187    402.89283   -58.229546    36812.755 
  459500    295.56742   -1466.1723    498.00981    365.71744   -644.62684    36812.755 
  459600    300.03698   -1479.0862    487.24116    362.20579    175.26586    36812.755 
  459700    312.69487   -1513.0115     468.5644    366.72811    536.88464    36812.755 
  459800    288.88362    -1517.431    495.75883    282.04412   -263.02032    36812.755 
  459900    298.14614   -1510.4605    497.38942    332.44645   -295.70305    36812.755 
  460000    296.93266   -1489.1961    458.80887    309.65391   -517.49791    36812.755 
  460100    312.95592   -1500.5364    485.24182    397.05875    16.287183    36812.755 
  460200    297.03097   -1493.6674    485.23688    332.05431   -49.338351    36812.755 
  460300    297.99373   -1527.4345    487.42372    304.81894    360.38147    36812.755 
  460400     304.0544   -1496.0833    496.34624    372.44415    838.81741    36812.755 
  460500    299.89039   -1459.5585    468.09122    361.92203    583.58396    36812.755 
  460600    302.23383   -1460.2243    500.24008    403.98084    748.33524    36812.755 
  460700     302.5816   -1501.8023    492.64748    356.37978    521.15764    36812.755 
  460800    305.41712   -1477.9586    477.84465    378.21716    345.88264    36812.755 
  460900    294.93557   -1457.3281    465.08991     338.7902    405.70328    36812.755 
  461000    295.64648   -1493.2374     487.7936    328.79292    360.90598    36812.755 
  461100    304.20223   -1472.8734    482.98715    382.96215   -362.62678    36812.755 
  461200     292.7633   -1483.5937    474.04199    311.67336   -859.07145    36812.755 
  461300    296.04285   -1506.5667    491.06868    320.52751   -832.63373    36812.755 
  461400     292.6292   -1491.5578    486.96657    316.02868   -921.52638    36812.755 
  461500    302.24215   -1480.3535    485.75727    369.40636   -735.57961    36812.755 
  461600    300.80122   -1465.2741     473.9034    366.12905   -165.04404    36812.755 
  461700    297.34864   -1483.1496     495.8148    354.58364   -177.19797    36812.755 
  461800     304.1848    -1502.737    456.72096    326.75363   -397.17862    36812.755 
  461900    301.51286   -1485.3252    477.58108     352.9673    108.28413    36812.755 
  462000    290.26967   -1505.2538    492.45748    297.17518    337.28095    36812.755 
  462100    291.05238   -1536.3293    462.70448    239.87895    187.85544    36812.755 
  462200     293.8749   -1502.6768    482.08392    305.64885    597.59053    36812.755 
  462300    290.18984   -1504.5297    473.04721    278.12871    201.69931    36812.755 
  462400    294.93481   -1515.4364    457.13721    272.72586    466.63558    36812.755 
  462500    299.99273    -1488.329    501.40105    366.92321    580.95468    36812.755 
  462600     295.7153    -1535.057    465.54825    265.03857   -386.22381    36812.755 
  462700    296.42754   -1499.9606    487.90843    325.70944    170.76662    36812.755 
  462800    297.77147   -1465.9213    484.65921    362.56455    311.13602    36812.755 
  462900    294.85201   -1478.0602    471.50118    324.09229    217.28787    36812.755 
  463000    298.28201    -1481.217     469.3182    334.23192    558.64522    36812.755 
  463100    298.77108   -1481.9799    477.45476    343.81275    588.27375    36812.755 
  463200    289.13249   -1491.6077    477.55522    290.78692    358.74602    36812.755 
  463300    302.92879   -1474.9502    483.46126    375.61246     913.4884    36812.755 
  463400    306.12771   -1470.5233    478.24266    389.25735    395.88003    36812.755 
  463500    305.25356   -1423.0957    509.36668    463.86391   -53.221988    36812.755 
  463600     301.6633   -1431.8467    496.87673    426.42035   -370.72225    36812.755 
  463700    298.93806   -1427.1242    466.83157    388.79885   -504.65089    36812.755 
  463800    306.40078   -1451.3587    515.32409    446.73571   -294.86872    36812.755 
  463900    304.91348   -1487.0995    480.75497    369.71365   -225.61898    36812.755 
  464000    306.56334    -1462.336    474.66021     395.8281   -489.72084    36812.755 
  464100    293.53013    -1498.689    469.80266    295.79943    -60.17414    36812.755 
  464200    292.70762   -1524.6648    475.66528    271.97433   -74.867194    36812.755 
  464300    297.37841   -1503.3357    480.54639    319.26359    229.56151    36812.755 
  464400     304.6946   -1472.6746      462.905    365.30074    297.62789    36812.755 
  464500    300.05132   -1499.0638    453.75576    308.80749   -681.51418    36812.755 
  464600    285.98681   -1476.9129    464.30186     278.0321   -445.66031    36812.755 
  464700    299.70352   -1427.7115    492.05025    416.88467   -71.668898    36812.755 
  464800    309.62845   -1463.3936    460.96789    394.91087   -397.76871    36812.755 
  464900    302.31767   -1477.6623    453.09371    339.77485    130.12566    36812.755 
  465000    298.74116   -1447.7819    515.73042    416.15132    173.85588    36812.755 
  465100    300.41971   -1463.6743    499.70774    391.81146   -166.46663    36812.755 
  465200    292.44343   -1440.7198    487.02711    366.08888   -33.691284    36812.755 
  465300    292.48553   -1486.2836    503.35535    337.04326   -484.60455    36812.755 
  465400    301.02591   -1480.1191    484.07454    362.46928   -293.92707    36812.755 
  465500    309.89211   -1397.3864    484.36629    485.50634    354.39071    36812.755 
  465600    303.00161   -1465.9296     488.1799    389.68037    137.34633    36812.755 
  465700    307.02536   -1493.0784    455.88873    348.39934    16.235753    36812.755 
  465800    301.17255   -1491.9017     491.7142    358.98811    318.19647    36812.755 
  465900    291.78703   -1517.6779    461.62707    260.76846   -111.91948    36812.755 
  466000    300.11427   -1480.7008    498.13199    371.83083    535.04182    36812.755 
  466100    301.92183   -1473.0742    477.47508    366.95794    189.98027    36812.755 
  466200    299.01617   -1459.2866    519.94156    410.09894   -235.69249    36812.755 
  466300    305.30692   -1450.3542    467.12434    394.60393    63.389208    36812.755 
  466400     304.9521   -1458.2706    499.28107    417.24299    94.578537    36812.755 
  466500     290.5796   -1474.1005    494.00779    331.27748    338.11317    36812.755 
  466600    297.20816   -1452.0408     458.2181    347.46175   -130.26225    36812.755 
  466700    300.43159   -1428.3757    483.03035    410.48632    127.22847    36812.755 
  466800     298.6658   -1467.9518     474.6915     354.6025   -277.10543    36812.755 
  466900    300.37419   -1435.4666    488.58456    408.69057    489.67415    36812.755 
  467000    299.16866   -1439.8247    486.31025    396.61768    143.64909    36812.755 
  467100    296.32271    -1478.511    493.36112    352.13865    144.16086    36812.755 
  467200    297.99242   -1480.4421    468.32102    332.70275   -489.36087    36812.755 
  467300    296.03972   -1445.2361    482.75017     373.5255   -406.62243    36812.755 
  467400    301.14854   -1437.7281     477.0859    398.42497   -770.74418    36812.755 
  467500    308.08797   -1443.3043    468.11579    415.19598   -472.69237    36812.755 
  467600    302.00179   -1492.1896    470.93191    341.66017   -445.85654    36812.755 
  467700    303.90793   -1484.6287    484.21969    371.11122   -273.62061    36812.755 
  467800    308.51473   -1502.7631    480.57523     370.1226   -333.55493    36812.755 
  467900    316.28906   -1446.1934    450.24224     431.4444    97.285259    36812.755 
  468000    293.43854   -1441.1539    463.38478     346.5033   -113.82791    36812.755 
  468100    295.94233   -1496.1313    466.32171    305.76229   -128.66902    36812.755 
  468200    292.18821   -1441.5371    479.53304    356.62561    100.11017    36812.755 
  468300    309.20463   -1484.7161    489.98663    400.69441    429.12063    36812.755 
  468400    301.74299   -1509.5137    497.34854    349.58477    164.18802    36812.755 
  468500    300.47914   -1462.5937    492.14208    385.59461     842.7979    36812.755 
  468600    289.74618   -1479.0295    487.09352    315.67302    601.97371    36812.755 
  468700    309.43209   -1488.5184    474.44146    382.37356    667.55445    36812.755 
  468800    290.43919   -1509.9466     473.5066     274.2965    684.11179    36812.755 
  468900    305.23482   -1420.8146    479.91975    436.61354   -9.1567394    36812.755 
  469000    293.98571   -1436.6325    477.68053    367.78982    1.4257917    36812.755 
  469100    305.00774   -1455.4344    455.72832     376.7775    57.952758    36812.755 
  469200    302.90249    -1486.162    444.37962    325.20032    442.13889    36812.755 
  469300    298.97069   -1496.8037    493.80332    346.23835     327.2308    36812.755 
  469400    295.24405   -1523.5112    473.16579     282.0752    660.00699    36812.755 
  469500    304.08205   -1504.7487    489.91736     357.4746    566.59194    36812.755 
  469600    303.33333   -1521.8296    470.00346    317.10091   -452.44766    36812.755 
  469700    302.07055   -1485.8994    480.21663    357.54546   -180.63527    36812.755 
  469800    299.01215   -1478.4472    512.15265    383.13129   -441.19694    36812.755 
  469900    300.65959   -1492.4237    462.27895    326.71588    59.825113    36812.755 
  470000    297.08662    -1473.459    506.65458    373.93161    110.10359    36812.755 
  470100    287.37484   -1483.9762    452.75925    265.69033     393.7002    36812.755 
  470200    305.99647   -1491.4862    528.32724    417.78669     823.3251    36812.755 
  470300    283.97384   -1507.2593     479.9169    254.21633    342.74314    36812.755 
  470400    310.90687   -1517.2552    501.92724    387.77807    290.55127    36812.755 
  470500    299.77285   -1462.3576    477.32252    367.82375   -126.25449    36812.755 
  470600    301.20422   -1471.6011    473.12863    360.84602    37.437517    36812.755 
  470700     293.1237   -1495.2694    477.62039    305.20251   -597.63715    36812.755 
  470800    314.85445    -1474.846    489.00065     435.0759   -681.85205    36812.755 
  470900    300.74509   -1497.5523    501.22913    360.92329     203.2478    36812.755 
  471000    294.89997   -1504.3303    504.75079    331.28821    343.08294    36812.755 
  471100     302.3366   -1498.9723    509.41011    374.86671   -381.37011    36812.755 
  471200     299.5686   -1478.5709    474.39153    347.75772   -913.60406    36812.755 
  471300    301.24154   -1476.3607    488.74744    371.87368   -1426.4347    36812.755 
  471400    285.11417   -1453.8752     503.1086    335.93833   -878.68286    36812.755 
  471500    301.23896   -1490.6215    451.95493    320.80866   -1140.9642    36812.755 
  471600    303.18959   -1492.1552    468.90751    345.03066   -886.47921    36812.755 
  471700     299.9031   -1493.4725    489.90377    349.87785   -343.15232    36812.755 
  471800    320.41862   -1516.6931    476.06526    405.40423   -211.81186    36812.755 
  471900    299.68244   -1504.8541     489.2866    336.88333   -667.38851    36812.755 
  472000    298.75584    -1451.367    485.70334    382.60548   -632.58507    36812.755 
  472100     292.4034   -1458.6959    470.51303    331.41801   -192.77975    36812.755 
  472200    286.48845   -1464.3501    494.22375    322.78068   -179.88384    36812.755 
  472300    291.14017    -1459.024    494.70564     349.5816   -634.02629    36812.755 
  472400    297.58599   -1459.1282    482.38933    366.25071   -396.49303    36812.755 
  472500    307.47634   -1472.5199    479.32385    394.42818   -90.562386    36812.755 
  472600    310.67169   -1496.1952    505.37589    411.22542     58.22714    36812.755 
  472700    301.73829   -1490.3881    483.08488    354.42552   -326.55968    36812.755 
  472800    296.06619   -1494.0599    472.05843    314.12937    151.84023    36812.755 
  472900    288.83375   -1490.5442    482.12059    295.06759    308.93037    36812.755 
  473000     289.8218   -1511.5287    458.07071    254.49228    -410.6581    36812.755 
  473100    296.68954   -1505.0852    465.66782    299.52665   -203.24704    36812.755 
  473200    300.40345   -1488.2511    492.35154    359.80509   -154.82209    36812.755 
  473300     313.5387   -1478.0482    491.71449    428.64969     171.5883    36812.755 
  473400    297.32262    -1517.131    494.89732    319.56737    911.80876    36812.755 
  473500    302.87882   -1457.1326     475.7075    385.45076    1015.0057    36812.755 
  473600    297.76335   -1493.9739    519.24369    369.05987   -174.20553    36812.755 
  473700    292.98789    -1479.433    448.06307    290.86867    106.47262    36812.755 
  473800    294.45123   -1488.7777     485.2476    325.31251    112.89637    36812.755 
  473900     302.6969   -1478.8728    502.73049    389.91262    72.905902    36812.755 
  474000    307.09448   -1488.9251    484.18691    381.16276   -363.62035    36812.755 
  474100    310.60342   -1508.7052    476.11088    369.14225   -756.82983    36812.755 
  474200    298.58761   -1482.5805    485.16786    350.09725   -505.14999    36812.755 
  474300     303.9834   -1545.3875    459.32491    285.79817   -169.98437    36812.755 
  474400    298.95772   -1558.1219    477.88794     268.9462   -273.44445    36812.755 
  474500    307.66922   -1543.3001    454.84067    300.03534   -262.93465    36812.755 
  474600    300.07164   -1542.3696    462.49507     274.3327   -573.94283    36812.755 
  474700    308.77661   -1591.1277    474.86953    277.23413   -412.99694    36812.755 
  474800    292.54523   -1537.0664    458.53205    241.70661   -722.66322    36812.755 
  474900    308.28932   -1523.7882    470.04582    337.55079    -455.2161    36812.755 
  475000    294.87673   -1531.7874    476.99091    275.96639   -205.49636    36812.755 
  475100    302.46107   -1561.8822    461.71328     264.8217   -76.952839    36812.755 
  475200     294.2462   -1541.7912    480.23175     266.3579   -115.07002    36812.755 
  475300    295.34943   -1505.1394     475.8244    303.58115    251.32685    36812.755 
  475400    298.22587   -1518.2137    472.26692    299.93055    119.86808    36812.755 
  475500    299.75103     -1503.28     455.7711    305.25142   -241.72225    36812.755 
  475600    304.36179   -1502.3192     502.5376    373.78685    -316.8833    36812.755 
  475700    301.93831   -1517.1382    463.30411    308.79732   -255.38297    36812.755 
  475800    297.66457   -1518.2881    465.63734    290.69348   -239.63308    36812.755 
  475900    295.11602   -1493.0781    475.08395    313.84866    184.29748    36812.755 
  476000    300.31551   -1511.4151    488.13586    332.02857    471.72826    36812.755 
  476100    297.38466   -1526.6901    458.61181    274.00276    455.51403    36812.755 
  476200    296.00965   -1494.7816    496.36812    337.46227     591.6879    36812.755 
  476300    299.66239   -1491.4893    502.02396    362.89496    718.37663    36812.755 
  476400    313.40045   -1515.2394    485.46663    384.58666    211.59405    36812.755 
  476500    299.96174   -1471.4021    481.91444    364.22358    96.860866    36812.755 
  476600    303.46664   -1483.6087    508.72945    394.64942   -74.471596    36812.755 
  476700    294.38365   -1495.0341    475.24875    308.75229    264.36641    36812.755 
  476800    291.51304   -1443.0361     471.5691    344.11577   -348.47726    36812.755 
  476900    308.78082   -1458.7705    487.53771    422.27847    104.86186    36812.755 
  477000    298.59124   -1489.7829    467.55642    325.29974    13.473257    36812.755 
  477100    290.70796   -1500.4097    493.13829    304.67802   -118.49925    36812.755 
  477200    302.70851   -1487.0076    491.83668    370.93632   -223.46498    36812.755 
  477300    303.45378   -1465.4251    474.49837    378.54392   -892.49923    36812.755 
  477400    314.76187     -1433.33    492.23709    479.41056   -37.982375    36812.755 
  477500      306.666   -1403.8844    456.92747    437.01035   -585.37786    36812.755 
  477600    301.70029   -1425.3865    487.72787    423.89861   -73.712707    36812.755 
  477700    301.41675   -1410.0901     477.0915    427.27908   -99.130512    36812.755 
  477800    309.96115   -1482.7087    478.49817    394.62755   -231.34024    36812.755 
  477900     299.7255   -1400.6546    490.04614    442.03661   -691.67679    36812.755 
  478000    296.17274   -1435.0048    484.15718    385.76408    395.21662    36812.755 
  478100    298.97117   -1483.3668    447.50768     313.3818   -259.60162    36812.755 
  478200    298.70472   -1427.0396    476.96247    397.96124   -111.34344    36812.755 
  478300    297.44446   -1438.4545    485.39005    389.28648    645.14182    36812.755 
  478400    292.66815   -1423.7023    481.03313    378.12655   -106.89115    36812.755 
  478500    300.15504   -1445.6668    476.18344    385.10024     144.0221    36812.755 
  478600    305.22465   -1479.9069    473.52921    371.08481    -330.1278    36812.755 
  478700    305.21828   -1460.1387    485.62888    402.92387   -239.23464    36812.755 
  478800    303.35712   -1447.1283    477.03573    398.94189    91.242003    36812.755 
  478900    300.35337   -1432.2138    469.55312    392.81798   -401.82357    36812.755 
  479000    298.97721   -1446.8178    468.10234    370.55264   -340.12412    36812.755 
  479100    292.43031   -1364.4049    477.31948    432.63693   -655.51587    36812.755 
  479200    302.30905   -1397.7484    474.00018    440.55634   -412.75331    36812.755 
  479300    297.60434    -1447.885    471.27791    366.46537    -510.5536    36812.755 
  479400    298.95951   -1406.6381     474.7188      417.269    74.203286    36812.755 
  479500    309.94729    -1432.197    512.15989    478.73841   -83.763934    36812.755 
  479600     299.5598    -1376.874    483.91183    458.93521   -266.40085    36812.755 
  479700     300.1442   -1426.2022    459.21704    387.54959   -159.06516    36812.755 
  479800    305.69392   -1431.3178     474.4913     422.7538   -223.72578    36812.755 
  479900    302.05147    -1401.588    455.96213    417.51623    84.316668    36812.755 
  480000    295.87362   -1413.8991    473.67444    395.03714    659.93095    36812.755 
  480100    300.64165   -1416.2568    463.79227    404.31511   -136.72413    36812.755 
  480200    298.08494   -1431.5682    482.33281    396.00595    259.23032    36812.755 
  480300    297.89164   -1446.3053    500.55255    398.61628   -503.27938    36812.755 
  480400    299.88473   -1426.1075    472.15289     399.4091    231.99483    36812.755 
  480500    295.66806   -1420.1698    487.59878    401.76308   -313.46345    36812.755 
  480600    303.58158   -1473.9981    467.02121    363.07048   -325.88301    36812.755 
  480700    308.79771   -1466.8362    487.96907    414.72041   -472.24004    36812.755 
  480800    292.72318   -1420.6603    473.51583    373.89959   -158.82088    36812.755 
  480900    306.20513   -1454.4485    485.44761    412.88648   -247.74902    36812.755 
  481000    300.40598   -1460.9532    453.49381    348.25666   -403.98605    36812.755 
  481100    307.78745   -1429.0145    495.42962    455.44345   -280.76729    36812.755 
  481200    308.08212   -1461.0637    481.20451    410.49887   -375.20362    36812.755 
  481300    292.58815   -1502.5364    475.79263    293.69085     324.9214    36812.755 
  481400    299.32441   -1465.5791    453.58456    338.84045   -706.48653    36812.755 
  481500    300.53528   -1442.9643    479.89494     393.2302   -499.73803    36812.755 
  481600    301.71853   -1411.8646    477.28106    427.05601   -469.97016    36812.755 
  481700    298.75218   -1443.9915    487.29699    391.55813   -147.07816    36812.755 
  481800    313.98538   -1471.2204    479.64556    425.42437    344.56168    36812.755 
  481900    298.11004   -1448.1983    492.90734    390.06371    288.51474    36812.755 
  482000     292.3683   -1474.6874    476.06206    320.81718    49.406336    36812.755 
  482100    298.14504   -1464.6475    463.17821    344.04324   -580.94033    36812.755 
  482200    304.15199    -1459.309    471.57805    384.89073    -834.6666    36812.755 
  482300    306.96895   -1456.6492    484.31393    412.99915   -317.04616    36812.755 
  482400    299.70592   -1440.5032    493.02521    405.07878   -386.38432    36812.755 
  482500    300.79242   -1402.5128    463.36505    418.31236   -347.74244    36812.755 
  482600    305.95266   -1426.4719    502.47848    456.75449   -296.51827    36812.755 
  482700    298.84363   -1417.6924    471.67957    402.65242   -244.61686    36812.755 
  482800    299.08247   -1425.6346    474.32177    398.43034   -546.38592    36812.755 
  482900    308.84165   -1448.4431      500.101    445.44377   -798.30724    36812.755 
  483000     309.6224   -1443.9358    458.21684    411.59029   -818.68996    36812.755 
  483100    291.03309   -1437.2487    485.15262    361.32061   -320.38286    36812.755 
  483200    301.80028    -1426.675    491.74104    427.07451    93.860805    36812.755 
  483300    293.74755   -1443.3353    490.37522     372.7069    641.20244    36812.755 
  483400    293.94898   -1451.6803    485.51283    360.40851    552.29389    36812.755 
  483500    298.14742   -1455.7196    496.64031    386.44408    332.16292    36812.755 
  483600    304.77661   -1430.9706    491.23144    435.70138    271.41876    36812.755 
  483700    291.36317   -1440.7334    483.63784    357.81079    267.67252    36812.755 
  483800    305.76427    -1415.512    506.59717    470.98296    487.21831    36812.755 
  483900    305.36144   -1435.8672    484.03455    426.24718     424.8447    36812.755 
  484000    293.11108   -1428.6533    477.94076    372.08207    25.757108    36812.755 
  484100    304.16672   -1518.4586    510.96526    365.19472    182.99209    36812.755 
  484200    298.25764   -1492.7323    473.07136    326.35976    266.88456    36812.755 
  484300    300.59506   -1458.5194    515.27257    413.32262    184.31846    36812.755 
  484400    310.04929   -1454.6682    466.11395    410.68163    385.80998    36812.755 
  484500    296.71868   -1478.3773    479.80299    340.50123   -511.57363    36812.755 
  484600     288.8866   -1468.7697    511.60238    346.56244   -440.82129    36812.755 
  484700    300.18904   -1476.4895    488.05938    366.30699   -389.71691    36812.755 
  484800    294.87758   -1424.2807    475.92678    382.41275   -967.97255    36812.755 
  484900    301.18754   -1415.8552    508.22911    451.61716     -1040.71    36812.755 
  485000    296.30528   -1393.2822    481.52385    425.45154   -440.40668    36812.755 
  485100    299.25846   -1413.5296    475.20688    412.21466   -558.89315    36812.755 
  485200    300.63199    -1435.633    513.46609    434.56913   -356.28478    36812.755 
  485300     298.0333   -1457.8594    505.04501    392.19392   -1002.6154    36812.755 
  485400    308.35229   -1478.7768    472.00025    384.80078   -316.26176    36812.755 
  485500    298.17156   -1464.9184    474.55461    355.26847   -300.30879    36812.755 
  485600    309.67307   -1474.1653    495.75245    419.12515    163.80117    36812.755 
  485700    297.35277   -1476.4704    489.39993    354.86667   -132.81074    36812.755 
  485800    292.27174   -1483.7736    485.63491    320.86796   -753.40763    36812.755 
  485900    296.64915    -1486.582     474.0465    326.22618   -906.58872    36812.755 
  486000    299.83679     -1460.76     491.2357    383.62304   -459.16033    36812.755 
  486100    297.81712   -1443.1175    500.18769    401.10287   -681.93825    36812.755 
  486200    298.93262   -1441.7579    484.92979    392.23879   -68.377955    36812.755 
  486300    308.62828   -1440.2275     496.4246    449.01998    490.84456    36812.755 
  486400    297.00156   -1429.3268    491.20149    402.22679    289.94013    36812.755 
  486500    306.61883   -1455.8347    477.19685     405.1165    371.74222    36812.755 
  486600    305.20109   -1468.1503    495.87704    405.08289    119.25514    36812.755 
  486700    306.50396   -1471.0361    481.89062    394.09051     23.51872    36812.755 
  486800    307.65079   -1520.4965    469.47444    337.38941   -236.36962    36812.755 
  486900    302.34468   -1492.5141    489.08144    361.03265    200.95678    36812.755 
  487000    298.57903   -1495.4007    475.45191    327.52234   -134.01527    36812.755 
  487100    299.79695   -1491.6845      487.405    348.68807   -166.60756    36812.755 
  487200    296.03958    -1511.572     496.7608    321.19955     143.8047    36812.755 
  487300    293.62638   -1502.3468    479.90542    302.67874    400.46308    36812.755 
  487400    296.83815   -1498.6878    484.94302    325.86994    165.59128    36812.755 
  487500    305.26474   -1458.6611    456.69679    375.67911   -217.91468    36812.755 
  487600    306.80887   -1462.6802    474.28934    396.22115   -64.600515    36812.755 
  487700    297.26845   -1498.9626    492.24575    334.83969   -119.91231    36812.755 
  487800    303.32382    -1460.499    492.73621     401.1214    411.27277    36812.755 
  487900    296.58194   -1434.1055    510.43937    414.79232    249.58698    36812.755 
  488000    304.65903   -1419.2189    467.75749    423.44847    224.60092    36812.755 
  488100    303.03459    -1376.268    505.36028     496.6711    129.01414    36812.755 
  488200    299.33793   -1409.3914    465.62621    407.13091    586.17697    36812.755 
  488300    304.11821    -1430.613    496.35157    438.20781    652.07112    36812.755 
  488400    303.26565   -1424.4418     491.6656     435.8454    702.67902    36812.755 
  488500    304.62941   -1420.7271    495.30044    449.34951    923.53254    36812.755 
  488600    302.81945    -1453.888    467.88802    380.60799     138.6248    36812.755 
  488700    296.42014   -1447.4293    456.87138    347.17029   -56.284368    36812.755 
  488800    299.98462   -1429.9187    454.53347    378.42927   -475.67962    36812.755 
  488900    297.45614    -1461.881     465.7374    346.26002    -244.8207    36812.755 
  489000     309.2437   -1451.3798    445.92456    390.14504   -215.92663    36812.755 
  489100    297.05855   -1482.5167    476.42461    334.51725   -184.22867    36812.755 
  489200    297.84551   -1439.2342    505.98145    410.90804    150.10626    36812.755 
  489300    297.31974   -1477.9268    465.90397    329.76526     146.5918    36812.755 
  489400    297.19803   -1444.5531    505.37139    402.05706   -522.04397    36812.755 
  489500    294.06246   -1410.9406    462.82417    378.97169   -278.64258    36812.755 
  489600    301.34325   -1482.0877    491.23646    369.09469    264.07172    36812.755 
  489700    302.79318   -1448.1388    486.72445    405.07509   -91.487646    36812.755 
  489800    297.48763   -1424.6647    481.14018    399.02125   -261.98579    36812.755 
  489900    292.06497    -1413.549    454.44922    358.97374   -142.62179    36812.755 
  490000    298.76576   -1422.5028    481.32804    407.13917    410.45406    36812.755 
  490100    301.31157   -1484.5149     469.0362    344.32425    265.46684    36812.755 
  490200     304.6344   -1519.0646      480.677    336.41108    60.754896    36812.755 
  490300    298.06899   -1481.2452    499.00743    362.93157    273.37949    36812.755 
  490400     292.7571   -1455.8413    486.30684    351.66262    362.05947    36812.755 
  490500    293.02233   -1479.9148    456.56331    299.04264    101.31506    36812.755 
  490600    298.28478   -1493.7372    471.77214    324.17814    48.937892    36812.755 
  490700    312.28792   -1463.1598    468.06821    414.24704   -49.574446    36812.755 
  490800    293.24892   -1466.2031    481.31436    338.52795    40.458447    36812.755 
  490900    299.89049   -1499.1454     463.0297    317.27403   -443.65128    36812.755 
  491000    295.93486   -1459.6922    479.97015    355.81614    3.5018788    36812.755 
  491100    312.34739   -1478.8564    451.75352    382.50418    859.48546    36812.755 
  491200    299.45085   -1483.9807    478.17212     345.5971   -234.42609    36812.755 
  491300    295.76642    -1492.208    493.08204    335.65207    -423.9547    36812.755 
  491400    305.95628   -1472.7839    461.14658    369.12697    79.772356    36812.755 
  491500    301.52011   -1516.7282    461.82544    305.84131    164.38754    36812.755 
  491600    296.93912   -1535.6411    475.60848    280.03767    55.632591    36812.755 
  491700    309.28481   -1534.0656     469.9665    331.68665    127.87343    36812.755 
  491800    308.18516   -1502.8395    457.16851    345.15209    752.55448    36812.755 
  491900    302.34962   -1546.4663    463.48632    281.50769    419.07058    36812.755 
  492000    295.85642   -1555.0065    468.87236    249.04999    287.78856    36812.755 
  492100    311.41855   -1534.1488    454.47681    325.74323     112.2692    36812.755 
  492200    293.78989   -1490.3627    471.70043    307.19579    360.16912    36812.755 
  492300    307.35565   -1508.4795    476.72823    355.32829   -85.190968    36812.755 
  492400    303.61436   -1498.4391    484.49581    356.25207   -68.201768    36812.755 
  492500    301.55796   -1454.3788    463.01181    369.54789   -137.31827    36812.755 
  492600    304.95012   -1488.2591    483.12928     371.0938    421.92583    36812.755 
  492700    302.48447   -1489.6015    482.92327    358.41799    96.048625    36812.755 
  492800    293.39618    -1464.939    464.24563    323.38786    268.17576    36812.755 
  492900    296.64558   -1513.8883    478.72758    303.58493    321.59499    36812.755 
  493000    302.70928   -1488.6122    476.09023    353.58879    804.16835    36812.755 
  493100    308.34319   -1498.5507    475.20201    368.18762    972.29084    36812.755 
  493200     296.3983   -1522.1429    496.12288    311.60958    394.46775    36812.755 
  493300    299.08398   -1536.9353     467.2917    280.10635    426.13539    36812.755 
  493400    287.96249   -1517.8911    458.82849     240.4967    333.11181    36812.755 
  493500    299.61894    -1549.288    478.46803    281.34421   -34.453193    36812.755 
  493600    305.83872   -1510.7255    445.13752    314.64576    35.228157    36812.755 
  493700    301.89844   -1499.8295    473.75798    336.37999    100.05783    36812.755 
  493800    299.47531   -1495.7838    474.54028    330.27253     207.9473    36812.755 
  493900    300.08969   -1500.8682    455.02841    308.44892    -224.1952    36812.755 
  494000    299.85409   -1464.2728      465.601    354.55366   -337.29546    36812.755 
  494100    288.97427   -1534.9121     473.7087      242.922    -703.2445    36812.755 
  494200    295.91854   -1558.6439    470.06765    246.88822   -468.50807    36812.755 
  494300    303.03556   -1510.0978    475.99763    333.48311   -837.80719    36812.755 
  494400    308.05708   -1531.7946    478.53374    336.98429   -138.87875    36812.755 
  494500    295.58934   -1521.3054     473.9592    286.63269   -426.02667    36812.755 
  494600    310.59733   -1513.5359    489.08311    377.25636   -286.99119    36812.755 
  494700     289.4028   -1519.4675    452.97971    239.57156   -421.16174    36812.755 
  494800    296.08981   -1495.8377    478.35787    318.75761   -368.36545    36812.755 
  494900    303.80352   -1479.5604    473.19125    364.67989    495.39711    36812.755 
  495000    303.41453   -1539.5798    470.90599    300.61975   -23.214425    36812.755 
  495100    297.81549   -1505.7873    485.02731    323.26536    375.75318    36812.755 
  495200    290.51571   -1477.1088    479.24811    313.22113    329.68845    36812.755 
  495300    295.11268   -1509.2646    475.14396    297.70708    581.77286    36812.755 
  495400    295.49849   -1501.6929    472.77661    304.65256    738.03389    36812.755 
  495500    303.81794   -1488.5463    497.15001    379.71776    759.97672    36812.755 
  495600    296.37549   -1494.4465    454.22893    297.30918    1110.1989    36812.755 
  495700     305.4005   -1485.7375    500.85124    393.36985    1523.9656    36812.755 
  495800    296.90531   -1512.7898    496.64385    323.77181    1292.9125    36812.755 
  495900     298.6957   -1483.7669    463.82192    328.05267    1138.6529    36812.755 
  496000    294.30144    -1485.686    467.88725    310.36792    514.33246    36812.755 
  496100    299.63961   -1517.5298    499.57754     334.3053    127.40367    36812.755 
  496200    302.23749   -1470.6764    479.07061     372.3758   -114.35326    36812.755 
  496300    294.16452   -1507.7896    458.22384    277.98294    47.163032    36812.755 
  496400    301.81055   -1480.7779    470.06128    351.33817   -105.03232    36812.755 
  496500    300.42903   -1493.9924    481.84193     343.6697    164.05352    36812.755 
  496600    305.40819   -1535.7064    452.39272     294.9771    553.86708    36812.755 
  496700    312.98336   -1485.2667    475.87829    403.08874    480.29911    36812.755 
  496800    290.22322   -1467.1532    472.24248    314.85114    610.15948    36812.755 
  496900    301.95156   -1478.3437    458.82776    343.17526    280.95057    36812.755 
  497000     301.5722   -1499.6145    498.18639    359.55109    89.502283    36812.755 
  497100    292.99359   -1498.3578    457.83248    281.73906    269.64408    36812.755 
  497200    308.44956   -1477.9933    478.92003    392.94306   -61.095907    36812.755 
  497300    292.59652   -1507.7274    469.90304    282.64804   -737.57635    36812.755 
  497400    301.46717   -1487.3358    469.22362    342.39301   -637.76931    36812.755 
  497500     301.4016   -1507.9474    471.49678    323.75867    -8.514377    36812.755 
  497600    293.75648   -1476.8424    477.53428    326.39915    204.16973    36812.755 
  497700    294.39145   -1447.5789    507.12007    388.11403    935.82297    36812.755 
  497800    312.09617   -1499.8371    471.17299    379.80919    182.38783    36812.755 
  497900    311.90779   -1500.2007    478.00001    385.42243   -208.55428    36812.755 
  498000     295.8147   -1517.8107    476.18711    293.37229    329.20656    36812.755 
  498100    301.45299   -1557.2895    476.01612    279.16784    507.23737    36812.755 
  498200    304.85763   -1492.7848    462.08199    345.10333    167.75822    36812.755 
  498300    301.33282   -1511.7816    485.51286    333.63013    418.33415    36812.755 
  498400    295.15565   -1543.0563    477.67235    266.63767   -55.471469    36812.755 
  498500    296.82658   -1504.1273    486.07245     321.5076   -218.98546    36812.755 
  498600    296.29467   -1473.2009    469.45007    333.41113   -74.047047    36812.755 
  498700    307.10042   -1502.9949     485.3284    368.26123   -4.2083252    36812.755 
  498800    303.84093   -1483.7972    501.69737    389.11797   -503.37287    36812.755 
  498900    306.12964   -1496.9182    493.77591    378.40437   -68.783368    36812.755 
  499000    304.80693   -1541.1652    484.31337    318.72548   -92.058339    36812.755 
  499100    310.39124   -1540.5726    482.78922     342.9957   -232.54102    36812.755 
  499200    304.67068    -1576.878    487.64366    285.72808   -647.76322    36812.755 
  499300    309.95014   -1517.3477    475.59026    357.03099   -117.13555    36812.755 
  499400    309.12647   -1468.7061    500.54621     426.9113   -574.44354    36812.755 
  499500    292.09753   -1498.6666      485.548     305.1019   -278.49342    36812.755 
  499600    289.15426   -1540.0629    481.44126    246.31602   -387.11694    36812.755 
  499700    291.47991   -1538.5997    499.72062    276.55415   -58.624035    36812.755 
  499800    309.14816   -1540.3261    456.22885    311.07182   -625.63701    36812.755 
  499900    298.55127   -1523.4034    476.61883    300.56133    80.104032    36812.755 
  500000    297.85603   -1558.8628     475.9085    261.25398   -244.47519    36812.755 
  500100    299.86219   -1545.0268    502.03797    310.27321   -199.35128    36812.755 
  500200    304.84188   -1547.2599    480.73336    309.20852    363.24193    36812.755 
  500300      300.679   -1550.6113    470.40573    276.74266   -75.933682    36812.755 
  500400    295.68477   -1519.1745    488.80443    304.03944    334.97732    36812.755 
  500500    300.36117   -1535.5543    487.73283    307.69239    143.66037    36812.755 
  500600    307.08636   -1514.9352    504.03121     374.9603    746.18929    36812.755 
  500700    302.78685   -1504.7534      485.951    347.65845    83.388855    36812.755 
  500800    297.92837    -1516.332    485.71165    313.91441    46.078384    36812.755 
  500900    303.83831   -1489.9105    498.81807    380.11354    460.35664    36812.755 
  501000     306.3771   -1529.9008    491.43223    344.19485    69.232782    36812.755 
  501100    305.52151   -1527.3918    464.03733    315.44771   -671.08813    36812.755 
  501200    297.50179   -1471.6231    509.09336    380.07986   -1118.9922    36812.755 
  501300    303.58524   -1487.0235    507.41672    390.45711   -833.17307    36812.755 
  501400    291.10659   -1521.3346      492.697    285.11087   -779.79724    36812.755 
  501500    305.66536    -1494.927    505.01704    389.54147   -237.14002    36812.755 
  501600    289.81875   -1468.5723    490.09981    329.46395    182.37702    36812.755 
  501700    299.79859   -1503.7691    498.54496    347.75082    831.13241    36812.755 
  501800    304.69504   -1462.0211    505.42465    418.47592    488.24401    36812.755 
  501900    296.80914   -1508.4032    478.98689    310.06747    452.46614    36812.755 
  502000    292.53707    -1539.514    477.20683    257.89693    505.99584    36812.755 
  502100     307.5034   -1534.8269    483.63541    336.55491    711.48418    36812.755 
  502200    305.32143   -1569.1151    517.86131    326.64545    628.06309    36812.755 
  502300    292.97347   -1553.8698    477.55954    245.86333    79.147901    36812.755 
  502400    305.55106   -1520.6873    487.83694    346.08523     216.8062    36812.755 
  502500    298.94955   -1501.7018    491.65109    339.09256      395.432    36812.755 
  502600    288.22921   -1512.7176    513.23499    301.28035    132.02677    36812.755 
  502700    301.52388    -1504.645    515.49252     371.6087    253.09988    36812.755 
  502800    296.01754   -1501.0721    476.53155    311.37076    776.73712    36812.755 
  502900    301.30265   -1467.2316    529.14295    421.67409   -355.30975    36812.755 
  503000    307.94483   -1464.4087      496.347     421.6768    3.3840823    36812.755 
  503100    298.44735    -1509.133    492.58995    330.33387   -1.6026893    36812.755 
  503200    306.50319   -1491.4652    498.24091    390.00819    217.63037    36812.755 
  503300    307.76531   -1537.0887    489.36793    341.20756    229.57594    36812.755 
  503400    307.49329   -1505.3787    504.26408    386.58614   -290.23899    36812.755 
  503500    295.21659   -1513.4344    490.15635    309.01863     -462.136    36812.755 
  503600     306.7889   -1538.5869    491.64112     337.5761    71.955105    36812.755 
  503700    295.45126   -1510.7909    490.19883     312.7637    98.412155    36812.755 
  503800    309.75142   -1515.3588    481.83356    364.36627   -87.733782    36812.755 
  503900    298.52171    -1521.833    493.11832    318.49782    251.83102    36812.755 
  504000    308.15465   -1512.3693    495.86352    374.17967    254.80004    36812.755 
  504100    303.88874   -1504.4573    499.40761    366.38386    135.70737    36812.755 
  504200    311.07859   -1498.3987    483.74997    389.23234    449.01976    36812.755 
  504300    294.33256   -1470.8825    517.61794    375.04252    540.76251    36812.755 
  504400    305.38803   -1500.2536    485.36869    363.31496    666.31708    36812.755 
  504500    303.06626   -1492.2052    513.50829    389.02491    679.10274    36812.755 
  504600      292.742   -1503.1651    507.48404    325.44785     477.9816    36812.755 
  504700    305.12944   -1501.7891    472.31557    347.55932   -272.77564    36812.755 
  504800     303.5407   -1507.5454    458.43931    320.75685   -372.85913    36812.755 
  504900    292.49297   -1501.5764    501.05434    319.48299   -92.852775    36812.755 
  505000    309.96089   -1557.2369    478.59188    320.19191   -30.333778    36812.755 
  505100    302.20039     -1499.34     484.8131    349.28725    -202.7807    36812.755 
  505200    297.72226   -1504.5975    457.19459     296.2017   -289.86834    36812.755 
  505300    305.53951   -1572.6253    472.31212    278.57028    73.236577    36812.755 
  505400    294.48803   -1533.7693    480.26267    275.50203   -221.55981    36812.755 
  505500    295.69231   -1509.0183    502.91183    328.33709   -583.88521    36812.755 
  505600    316.94829   -1539.1626    471.48808    362.69612   -336.23143    36812.755 
  505700    296.27951   -1551.2244    479.89172    265.76084    21.355307    36812.755 
  505800    300.86276   -1565.4481    509.76898    302.09839    -120.7039    36812.755 
  505900    291.87565   -1506.1274    483.72477    294.81654    134.82976    36812.755 
  506000    308.18247   -1550.6131    477.10665    317.30452    21.751618    36812.755 
  506100    307.24402   -1537.6751    494.66082    343.56147    -858.4682    36812.755 
  506200    300.51207   -1514.2677    457.78512    299.71229    23.010968    36812.755 
  506300    294.98264   -1512.3959    484.96654    303.81154   -367.33244    36812.755 
  506400    303.92408   -1514.1424    483.42637    340.87707   -544.10307    36812.755 
  506500    307.09725   -1479.2418    492.06167    398.73326    323.80982    36812.755 
  506600    313.27145   -1516.0094    489.94598    387.71384    297.77436    36812.755 
  506700    303.34692   -1555.7219    499.86195    313.12841    75.340151    36812.755 
  506800      294.111   -1525.0356    476.86146    279.13307    453.71554    36812.755 
  506900    313.71785   -1497.9036    527.12735    445.01564    677.67445    36812.755 
  507000    296.85046   -1487.5806    475.61295     327.7026    52.446418    36812.755 
  507100    288.32676   -1499.8826    503.64893    304.96952   -23.872534    36812.755 
  507200    308.71656   -1541.9809    451.49197    302.73234   -198.47291    36812.755 
  507300    289.17747   -1549.5412    454.95947    210.46074    60.833589    36812.755 
  507400    301.14991   -1544.2354    466.83268    281.67071    6.0179158    36812.755 
  507500    310.14141   -1563.5583     508.9949    345.08819    361.30039    36812.755 
  507600     305.7466   -1510.6444    478.45562     347.6292    55.068016    36812.755 
  507700    307.38294   -1516.9653    479.37501    349.61249    93.459942    36812.755 
  507800     316.1257   -1536.2375    485.76669    376.18746    88.694863    36812.755 
  507900    303.57379   -1554.8918    497.27704    312.39745    339.04224    36812.755 
  508000    302.17598   -1496.8726    500.88417    367.71558    709.96115    36812.755 
  508100    309.47831   -1529.3505    485.58442    352.89301    806.95689    36812.755 
  508200    296.01412   -1535.0708    452.54211    253.36718    92.418663    36812.755 
  508300    289.42729   -1507.5699     488.2102     286.8102    444.22103    36812.755 
  508400    292.74823   -1494.7578    495.67574    322.07504    420.44223    36812.755 
  508500     301.9564   -1519.3622    510.83917    354.19001    -195.0593    36812.755 
  508600     302.5924   -1490.5771    475.74412     350.7503    495.97463    36812.755 
  508700    299.98824   -1501.9533    486.69137    338.56888   -217.99618    36812.755 
  508800    301.25234   -1511.8287    473.19729    320.90425   -402.68841    36812.755 
  508900    303.24697    -1534.121    478.82701    313.24328   -387.62751    36812.755 
  509000    294.05905    -1486.617    515.17583    355.63155    564.92296    36812.755 
  509100    290.05048   -1533.5263    466.45583    241.91184     66.17985    36812.755 
  509200    296.67664   -1518.1424    459.99264    280.73607   -165.79016    36812.755 
  509300    289.49147   -1536.8178    503.72334    273.36501    562.69419    36812.755 
  509400    296.29447   -1574.3838     502.3319    265.10922    712.57743    36812.755 
  509500    299.15744   -1535.2431    472.47147    287.30983    965.39857    36812.755 
  509600    300.08817   -1556.4858    487.08193    284.87797    791.36645    36812.755 
  509700    297.57985   -1566.5846    486.45812    262.83538   -119.97787    36812.755 
  509800    290.15406   -1504.0914    488.74197    294.10032     507.0533    36812.755 
  509900    299.83317   -1485.2196    503.05794    370.96932    304.42445    36812.755 
  510000    290.83849   -1498.8711    507.91086    321.57829   -422.29688    36812.755 
  510100    292.52089   -1526.9752    460.44228    253.59819     73.85593    36812.755 
  510200    296.15914   -1536.0314    476.52969    277.04859    29.902458    36812.755 
  510300    306.24126   -1536.9151    484.65157    329.78682    135.83014    36812.755 
  510400    294.41844   -1551.4164    484.43349    261.71171     367.0295    36812.755 
  510500    297.00376   -1526.6044     497.1787    310.93639    46.494851    36812.755 
  510600    301.23053   -1541.0078    462.41974    280.84917   -499.62037    36812.755 
  510700    307.40717   -1517.1601    465.42176    335.57374   -558.01466    36812.755 
  510800    294.63183    -1466.155    486.43009    349.93275   -411.25943    36812.755 
  510900     303.1242   -1504.0113    474.54223    338.51416    41.310573    36812.755 
  511000    297.30701    -1440.143    477.08212    378.66972   -356.45507    36812.755 
  511100    316.88593   -1485.5031    489.18904    433.77514   -387.39554    36812.755 
  511200    292.42546   -1486.1451    502.62766    336.18304   -725.35805    36812.755 
  511300    288.57334   -1517.0168    489.33029    274.62956   -225.24744    36812.755 
  511400    309.40254   -1506.9929    479.10682    368.43101   -413.09884    36812.755 
  511500    288.99163   -1498.7667    465.28249    270.71955   -190.77136    36812.755 
  511600    295.89476   -1461.4182    477.83026     351.7693    211.44909    36812.755 
  511700    295.25888   -1503.6596    484.60935    313.43724   -43.361636    36812.755 
  511800    292.24077   -1482.2944    517.17308    353.74563    575.53018    36812.755 
  511900    288.43617   -1504.6138    477.32173    274.40485     147.6384    36812.755 
  512000    297.29544   -1507.3184    478.25845     312.6184   -231.52902    36812.755 
  512100     297.4406   -1508.5061    487.26683    321.09419   -300.67806    36812.755 
  512200    306.32152    -1536.836    512.89575    358.47232    561.69836    36812.755 
  512300    294.02353   -1520.3226    486.52433    293.11417    274.84941    36812.755 
  512400    303.34284   -1509.2814    496.70342    356.39198   -48.834878    36812.755 
  512500    296.07511   -1512.1917    504.52709    328.50648   -242.95165    36812.755 
  512600    294.16106   -1519.4632    522.40815    330.47807    98.239748    36812.755 
  512700    289.75031   -1460.2124    505.65484    353.07002    404.44537    36812.755 
  512800    310.32741   -1494.7096    534.53397     440.3154    646.27974    36812.755 
  512900    304.80248    -1525.619    509.72879    359.66701    413.73393    36812.755 
  513000    302.11901   -1522.2967    501.88402    343.03424    871.18908    36812.755 
  513100    299.49192   -1518.6748     466.5733    299.48946    584.60379    36812.755 
  513200    293.52247   -1522.2624    502.22618    304.61494   -126.13268    36812.755 
  513300     298.1713   -1515.3538    499.01333     329.2906    271.39983    36812.755 
  513400    300.67525   -1526.4614    489.83115    320.30104    798.98625    36812.755 
  513500    296.72938   -1508.0006    513.93385    345.05707    145.69599    36812.755 
  513600     297.3192   -1525.9613    491.78526    307.60958    550.04258    36812.755 
  513700    299.13306    -1488.567    500.55536    361.95985    781.68965    36812.755 
  513800     290.9025   -1530.0616    514.31149    297.07724    1030.1674    36812.755 
  513900    294.72256   -1542.1814    506.20094    294.08669    1212.9147    36812.755 
  514000    306.14669   -1465.7473    504.75022    420.62659    996.35816    36812.755 
  514100    301.94388   -1468.0128    507.59915    402.24291    828.03901    36812.755 
  514200    296.82844   -1521.1178    494.49251    312.94549   -75.513057    36812.755 
  514300    295.10029   -1512.3312     468.5858    288.02639    38.949149    36812.755 
  514400    299.47197   -1497.3681    516.29305    370.42591    264.85253    36812.755 
  514500    298.88105   -1498.6023    491.36402    341.59594    150.50168    36812.755 
  514600    302.22266   -1491.5337    483.30165    355.68264    1.2700589    36812.755 
  514700    298.61262   -1482.4349    490.06207    355.24993    159.51192    36812.755 
  514800    311.72863   -1495.4371    494.59484    405.97241    411.19704    36812.755 
  514900    303.40273   -1480.3457    513.03784    401.93246   -391.35592    36812.755 
  515000    288.15853   -1528.0767     510.8943    283.26155   -454.31072    36812.755 
  515100    304.75971   -1527.9138    484.01272    331.46319   -433.34045    36812.755 
  515200    290.14938   -1483.1771    507.56865    333.82016    110.18052    36812.755 
  515300    307.68834   -1498.8681    481.03765    370.75057   -22.926133    36812.755 
  515400    302.53486   -1499.0746    514.28695    380.53599     394.2088    36812.755 
  515500    306.20028   -1503.1152    518.03259    396.78285    489.11953    36812.755 
  515600    296.87635   -1468.6758    471.76795    342.87925   -97.597036    36812.755 
  515700    299.91621   -1499.6738    496.38003    350.21202   -384.90225    36812.755 
  515800    302.38263   -1507.8794    483.91162    340.66888   -323.35958    36812.755 
  515900    297.08248   -1504.2226     496.1951    332.68978   -5.9081614    36812.755 
  516000    297.22807   -1504.6396    497.24531    333.98003    107.36082    36812.755 
  516100    293.99741   -1500.4683    482.90183    309.22807   -82.119568    36812.755 
  516200    300.34152   -1462.8877    514.70193    407.23941    -61.71917    36812.755 
  516300    310.24762    -1478.895    500.43064    421.66653   -80.020748    36812.755 
  516400    300.16046   -1464.8017    509.19954    399.00586   -949.73286    36812.755 
  516500    302.45406   -1458.3558    494.06807    400.67127   -301.99769    36812.755 
  516600    295.99315   -1455.1969     497.3623     377.9666   -249.18453    36812.755 
  516700    294.24045   -1475.5962    489.80142    342.09662   -22.797619    36812.755 
  516800     296.4044   -1469.5995    498.21704    366.27466   -65.326404    36812.755 
  516900    306.29003   -1436.5801    505.25766    450.94812    432.15744    36812.755 
  517000    300.08405    -1465.454    505.46735    394.27662    126.25487    36812.755 
  517100    305.21759    -1460.672    520.76002    437.51869    585.84711    36812.755 
  517200    297.03632   -1482.5974     488.8412     346.7528    278.98717    36812.755 
  517300    299.01907   -1480.8956    508.63653    377.19794    124.96936    36812.755 
  517400    297.56791   -1513.2127    501.41235    331.10774    252.38907    36812.755 
  517500    289.69661   -1498.9107    516.11794    324.59255    1.4634636    36812.755 
  517600    299.75546   -1508.3189    506.26564    350.72712   -276.82128    36812.755 
  517700     290.7014   -1516.2632    486.53065    282.18723      30.1118    36812.755 
  517800    307.99445   -1508.1951    507.54349    389.31089    154.56259    36812.755 
  517900    300.19049   -1508.4911    490.35421    336.60671    292.16609    36812.755 
  518000    293.65691   -1523.7344    502.76872    304.29223    875.36443    36812.755 
  518100    290.20053   -1513.5994    506.91564    302.97565    127.08309    36812.755 
  518200     296.2879   -1488.1625    498.08761    347.05649    87.572091    36812.755 
  518300    303.56233   -1465.3006    488.02592    392.68588    738.46582    36812.755 
  518400    296.88294     -1520.54    487.38745    306.66421    418.20067    36812.755 
  518500    303.86173   -1509.1994    485.42179    347.53416    390.95443    36812.755 
  518600    268.41859   -1505.2217    530.22921    236.36618   -516.38033    36812.755 
  518700    293.16447   -1513.2475    476.29637    286.08437    -393.9411    36812.755 
  518800    298.91023   -1524.2085    496.86491    321.62227   -180.70726    36812.755 
  518900    307.26113   -1529.2994    495.12938    352.48299    47.866781    36812.755 
  519000    306.30728   -1496.3003    469.47268    355.52073   -71.280772    36812.755 
  519100    301.22567   -1503.7651    508.85777    364.50794   -509.84248    36812.755 
  519200    299.82459   -1520.0199    498.98759    332.05999   -347.19191    36812.755 
  519300    308.67679   -1501.7824    523.94476    415.20414   -255.68171    36812.755 
  519400    303.32723   -1461.5806    506.50228    413.82123    114.35617    36812.755 
  519500    298.77467    -1483.558    508.47229    373.26839    -606.8298    36812.755 
  519600    292.87951    -1488.674    477.44406    310.51965   -188.91556    36812.755 
  519700    300.23524   -1472.9944    506.04105    387.99218   -369.92864    36812.755 
  519800    298.06156     -1469.62    488.90486    364.42072    62.038228    36812.755 
  519900    305.17158   -1491.4007    500.85049    386.67281    363.28623    36812.755 
  520000    300.03599   -1485.2832    505.92742    374.69055    87.056444    36812.755 
  520100    301.28749   -1494.8716    509.66963    374.49236    292.63192    36812.755 
  520200    298.23583   -1506.2746    499.81213     339.4599   -192.06962    36812.755 
  520300    294.36814   -1529.9744    509.80969     308.3029   -609.80586    36812.755 
  520400     283.0926   -1560.0851    481.60369    199.10032    79.744712    36812.755 
  520500    304.80625   -1546.9549    530.99206     359.6114    346.98502    36812.755 
  520600    298.47819    -1502.136    511.51475    356.39487    153.43025    36812.755 
  520700    305.92071   -1536.8591    471.61946    315.36412    79.929677    36812.755 
  520800     287.3379   -1506.3703    535.04646    325.41667    -443.2299    36812.755 
  520900    298.23421   -1504.9673    505.72771    346.67536   -187.66506    36812.755 
  521000    295.69906   -1502.5353    491.49997    323.43866    -200.5979    36812.755 
  521100    305.38919   -1451.6948    492.69478    419.20499   -418.04219    36812.755 
  521200    310.11943   -1493.0415    503.95731    410.46815   -355.21861    36812.755 
  521300    303.90961   -1496.4348      493.032    368.12499   -287.34861    36812.755 
  521400    299.51582   -1548.0312    499.89567    303.56325    173.58825    36812.755 
  521500    294.31911   -1546.6787     504.9103    286.47797   -216.06408    36812.755 
  521600    294.02321   -1516.6646    485.96485    296.21126   -390.25317    36812.755 
  521700    303.81445   -1494.1468    502.07778    379.02929   -371.74882    36812.755 
  521800    294.88342   -1525.4378    499.18748    304.54269    99.100164    36812.755 
  521900    306.26024   -1513.9358    491.89114    360.09136   -126.00949    36812.755 
  522000    299.11786   -1537.1756    501.55055    314.27785     -244.703    36812.755 
  522100    299.48841   -1511.8439    534.62408     374.3553   -270.61985    36812.755 
  522200    299.38979   -1489.3409    529.04681    390.83601    57.031518    36812.755 
  522300    301.55444   -1520.9022     510.8865    350.88334   -141.57495    36812.755 
  522400    309.52047   -1475.6567    493.89912    415.09171   -161.28563    36812.755 
  522500    299.40936     -1494.36    488.91565    345.77404   -840.53022    36812.755 
  522600    301.73271   -1569.0621    506.16815    298.80961      44.7331    36812.755 
  522700    304.44635   -1557.3957    492.92168    309.47605   -146.58203    36812.755 
  522800     288.7858   -1519.9064    483.04523    266.41365   -96.317769    36812.755 
  522900    300.41857   -1533.7158    530.80736    352.86449   -432.29216    36812.755 
  523000    300.29319   -1532.3452    502.08374    324.94561    119.85099    36812.755 
  523100    292.04047   -1517.6506    504.60796    304.92034    126.67419    36812.755 
  523200    298.83904   -1537.1857    511.95134    323.41018   -179.97671    36812.755 
  523300    300.38359   -1519.1548    490.55243    327.01272    244.75224    36812.755 
  523400     302.8848   -1499.4521    526.21753    393.66824    891.29083    36812.755 
  523500    304.20679   -1540.0277    497.97238    330.81358    486.14021    36812.755 
  523600    291.14131   -1564.8429    510.30024    259.36241     610.8557    36812.755 
  523700    298.59177   -1543.7521    513.08981    316.86644    481.84153    36812.755 
  523800     294.0936   -1563.9147     505.9645     269.2784    359.94085    36812.755 
  523900    295.20492   -1612.5142    464.44433    184.17409   -151.91689    36812.755 
  524000    301.32468   -1540.3165    519.61879    339.16446   -210.55919    36812.755 
  524100    286.09587   -1546.1031    490.31826    235.35053   -431.68496    36812.755 
  524200    304.38893   -1532.3345    472.88541     314.2418   -127.19943    36812.755 
  524300    304.62001   -1535.8296    504.65661    343.56077    545.89276    36812.755 
  524400    304.31426   -1526.4934    506.17659     353.0372   -265.99765    36812.755 
  524500    303.69294    -1505.156    495.29198    360.68598    194.19818    36812.755 
  524600    299.25944    -1490.593    526.31372    386.26251    161.58364    36812.755 
  524700    288.57285   -1527.6852     506.3735    281.00216   -314.87859    36812.755 
  524800    300.85084   -1539.2288    502.91056    321.40547   -1106.9752    36812.755 
  524900     299.8733   -1523.6517    482.57889    312.23929   -557.29783    36812.755 
  525000    306.94806   -1555.9715    492.12525     321.3939   -566.58744    36812.755 
  525100     304.2751    -1545.757    513.32119    340.74147    160.25384    36812.755 
  525200    308.19446   -1528.4856    481.85595    344.23545    310.54678    36812.755 
  525300    308.04349   -1529.8726    505.06724    365.37846    -72.53148    36812.755 
  525400    298.82274   -1496.0349    503.39222    355.92838    103.21797    36812.755 
  525500    316.10314   -1503.6412    518.29417     441.2095    113.49455    36812.755 
  525600    294.56376    -1465.545    493.34419    357.14968    530.09188    36812.755 
  525700     312.6993    -1487.651    535.88086      459.425    307.22303    36812.755 
  525800    299.09169   -1498.7795     489.5672    340.57244    598.47327    36812.755 
  525900    304.81068   -1495.4808    481.59711    361.71057    159.56212    36812.755 
  526000    300.74138   -1445.2757    518.47322    430.42731   -785.99959    36812.755 
  526100    303.82584    -1484.135      491.894    378.90871   -327.81871    36812.755 
  526200    284.26424   -1467.5764    537.07512    352.36799   -416.54168    36812.755 
  526300    296.35201   -1503.9179    515.85686     349.3597   -313.02753    36812.755 
  526400    301.21762    -1500.499    505.79125    364.67128   -438.61134    36812.755 
  526500    312.29631   -1500.8285     495.1996     403.7476   -208.72306    36812.755 
  526600    309.34816   -1454.0539    511.60753     453.6253    306.76844    36812.755 
  526700    297.82562   -1483.1029    534.24393    395.21213   -53.291406    36812.755 
  526800    295.79591   -1502.9825    506.80024    338.72882    95.986754    36812.755 
  526900    301.59085   -1541.2901    502.02369    321.79695   -544.91922    36812.755 
  527000    291.55581   -1498.2744    517.98789    335.48924   -244.45434    36812.755 
  527100    292.42059   -1496.2266    489.50646    312.95829   -698.83527    36812.755 
  527200    308.57915   -1511.2068    513.81445    395.20885   -76.724456    36812.755 
  527300    291.66019    -1505.129    496.55904    307.67687   -203.64429    36812.755 
  527400    308.75775   -1540.5327    472.24283     325.1173   -791.96215    36812.755 
  527500    300.50452   -1518.2514    527.45891    365.36836   -518.02555    36812.755 
  527600    287.82629   -1513.7043    506.18312    291.42342   -353.30283    36812.755 
  527700    312.20166   -1526.9063    510.05168    392.09478   -261.34874    36812.755 
  527800    298.18624   -1552.5456    492.19733    285.35028   -229.39885    36812.755 
  527900    294.22084   -1535.0436    506.76969    299.52901    199.89995    36812.755 
  528000    300.68327   -1504.2344    478.09004    330.82308    306.36862    36812.755 
  528100    308.19634   -1532.1725    500.95615     359.6572    819.17056    36812.755 
  528200    304.51523   -1506.8113     491.3354    358.78496    371.60415    36812.755 
  528300    291.63966   -1508.5598    512.83092    320.42532    212.86745    36812.755 
  528400    303.52117   -1466.5001    499.32242    402.59707    41.533049    36812.755 
  528500    301.53938   -1493.5267    511.70029    379.00461   -553.59211    36812.755 
  528600    301.73856   -1496.9847    500.20357    364.94883   -267.28804    36812.755 
  528700    299.87218    -1505.096    511.78418    359.99525   -163.48617    36812.755 
  528800    298.47173   -1509.7048    464.54758    301.82968   -695.42291    36812.755 
  528900    299.99719   -1499.4112    494.44367    348.90374   -1115.6602    36812.755 
  529000    296.91694   -1489.1019    481.11166    331.97995   -526.63084    36812.755 
  529100     305.9113    -1466.084    503.26304    417.74032   -579.04797    36812.755 
  529200    292.31067   -1518.3192    480.57227    281.43545   -571.54441    36812.755 
  529300     284.4461   -1517.0306    500.68302    267.34247   -197.61928    36812.755 
  529400    295.97782   -1541.7597    494.55555    288.52786    482.58019    36812.755 
  529500    298.04963   -1511.9222    482.30176     315.4616    378.35005    36812.755 
  529600    295.35148   -1495.3851    492.51034    330.03065    579.90313    36812.755 
  529700    311.17613   -1510.2233     525.3463    419.44418    727.53175    36812.755 
  529800    297.21593   -1525.7633    492.72306    308.27931    16.176041    36812.755 
  529900    299.06857   -1481.4874    511.22659    379.41961    293.63491    36812.755 
  530000    290.23871   -1508.0484    490.52854    292.31185    724.93624    36812.755 
  530100    307.70659   -1522.3843    509.01557    375.29464    529.48472    36812.755 
  530200    310.24245   -1486.7501    503.16973     416.5272    1180.0094    36812.755 
  530300    299.23403   -1467.5396    512.19984    395.08744    506.64796    36812.755 
  530400    299.08779   -1479.5783    498.72131    368.91021      57.9599    36812.755 
  530500    300.65453   -1498.8207    503.10247    361.11949   -344.22146    36812.755 
  530600    308.80678   -1526.5898    495.64315    362.68184   -149.08478    36812.755 
  530700    295.45574   -1495.0576    493.53155    331.84992    20.852136    36812.755 
  530800    297.89923   -1501.1002     507.5487    350.85174     39.46006    36812.755 
  530900    313.12733   -1479.9886    507.28082    440.41909    355.24072    36812.755 
  531000    300.51688   -1514.3992    493.84106    335.65839   -217.63398    36812.755 
  531100    310.12584   -1462.4062    497.73285    434.90793    834.18548    36812.755 
  531200    304.49725   -1513.8495    500.07192    360.40215    562.45408    36812.755 
  531300    310.14158   -1518.1345    510.33598    391.85383    620.27764    36812.755 
  531400     304.1997    -1499.794    503.26942    376.31231     232.2693    36812.755 
  531500     301.3162   -1509.7061    489.03097    339.14874    330.50601    36812.755 
  531600    294.57141   -1497.4421    504.92447    336.86732    600.02035    36812.755 
  531700    298.71627    -1456.149    500.56763    392.50918    1159.7878    36812.755 
  531800    301.06052    -1473.176    523.57764    409.07167    980.24335    36812.755 
  531900    304.39811   -1479.5646    501.49668    395.66439    630.92093    36812.755 
  532000    300.53592    -1500.304    477.01893    333.01743    172.33482    36812.755 
  532100     306.8757   -1532.1509    488.81544    341.57812   -254.49292    36812.755 
  532200    297.97307   -1516.6715     483.4516     311.5166   -129.12865    36812.755 
  532300    309.02263   -1526.3888    506.21153    374.42527   -260.56175    36812.755 
  532400    298.00129   -1459.2984    486.48272    372.04823   -227.55517    36812.755 
  532500    306.15392   -1488.2078    510.04248    403.49092  -0.93335711    36812.755 
  532600    297.85557   -1502.4412    497.16793    338.93295   -147.66633    36812.755 
  532700    293.16867   -1543.2339    496.49197    276.31253   -368.40461    36812.755 
  532800    291.18901   -1514.2604    489.64491    289.50491    29.004078    36812.755 
  532900    311.31769    -1488.436    468.57296    385.09701   -57.135076    36812.755 
  533000    307.22591   -1489.1958    487.00005    384.29833   -279.77163    36812.755 
  533100    298.94398   -1470.7902    527.23637    405.56435   -219.10285    36812.755 
  533200     308.6659    -1482.736    488.17966    398.43633   -24.321831    36812.755 
  533300    293.18421   -1469.9308     483.3556    336.54942    35.350288    36812.755 
  533400    295.77746   -1467.1121    492.06537    359.78111    447.66386    36812.755 
  533500    283.46667   -1464.8285      519.739    334.18036    118.07788    36812.755 
  533600    302.50668   -1498.3314    450.36887    317.23393    24.003241    36812.755 
  533700    297.07533   -1486.2913    489.12425    343.51801   -661.64194    36812.755 
  533800    307.22379   -1498.9003    494.85646    382.44064   -371.99783    36812.755 
  533900    296.60527   -1505.6906    484.23135    317.10442   -236.37609    36812.755 
  534000    301.75733   -1501.7779    493.29633    353.33305    2.8417511    36812.755 
  534100    297.44113   -1524.9134    498.86844    316.29093   -106.37291    36812.755 
  534200    291.05446   -1505.4567    494.44871    302.50517    57.108367    36812.755 
  534300    318.06688   -1507.5516    470.80218    398.66939   -400.70034    36812.755 
  534400    310.27956   -1526.2961    476.03199    350.01093   -625.47518    36812.755 
  534500    297.90751   -1507.3325    469.48307    306.59122   -1160.6722    36812.755 
  534600    302.80907   -1504.3526    520.15689    382.36538   -344.82172    36812.755 
  534700    293.49393   -1524.8009     500.3388    300.06029   -646.39374    36812.755 
  534800    308.65952   -1565.9695    467.50795    294.50234    -103.8632    36812.755 
  534900    310.60253   -1533.6398    484.85708    352.94985    61.943178    36812.755 
  535000    305.47726    -1508.396    476.36892    346.57544    196.11752    36812.755 
  535100     293.1061   -1510.8836    495.75683    307.64536    195.41659    36812.755 
  535200    297.39115   -1505.9855    497.93158    334.05644    242.19002    36812.755 
  535300    299.36716   -1515.7946    491.35671    326.59006    539.09807    36812.755 
  535400     301.8508   -1497.3513    515.65033    380.53556    470.94591    36812.755 
  535500    300.32698   -1483.6828     501.2897     372.9665    1019.2276    36812.755 
  535600    300.97599   -1507.2099    490.47885    341.55746    714.57488    36812.755 
  535700    296.38455   -1507.7772     495.3891    325.17945    347.45849    36812.755 
  535800    291.85728    -1470.216    512.58486    359.50512    738.40326    36812.755 
  535900     291.9866    -1453.005    525.79837    390.51324    620.87875    36812.755 
  536000    304.38033   -1442.7245    493.06499    423.99261    330.13757    36812.755 
  536100    303.05867   -1448.1748    500.82723    420.33992    104.85148    36812.755 
  536200    298.85715   -1447.7341    499.61667    400.60887     13.64685    36812.755 
  536300    306.05612   -1444.5215    500.69825    437.39164    136.58122    36812.755 
  536400    294.77275   -1466.2472    470.31466    334.36113    76.401651    36812.755 
  536500    311.98978    -1466.498    498.13069    439.62586   -521.40908    36812.755 
  536600     305.4554   -1455.5035    498.56905     421.5694   -542.57085    36812.755 
  536700    294.01366    -1484.624    485.91621    328.16014    80.834619    36812.755 
  536800    295.50788    -1481.613    499.81746     351.8157     -38.5576    36812.755 
  536900    302.32809    -1488.142    453.75347    330.00196    481.22943    36812.755 
  537000     293.9771   -1464.0961    533.38685    395.99369    197.74777    36812.755 
  537100    305.31265   -1477.7707    503.39064    403.47957    505.00426    36812.755 
  537200    306.15276   -1493.2745    493.28248    381.65899    649.74061    36812.755 
  537300    292.52901   -1479.4286    508.57342    349.31263     267.2888    36812.755 
  537400    294.45322    -1526.519    479.19748    281.53012     236.6697    36812.755 
  537500    304.05235   -1502.0773    472.93302    343.02769    46.058782    36812.755 
  537600    309.09114   -1477.1577    483.54655    401.30061   -102.58787    36812.755 
  537700    296.42837   -1490.2775    499.80789    347.29579   -306.81484    36812.755 
  537800     305.3247   -1456.6061    493.68134    414.98922   -405.67946    36812.755 
  537900    301.45523   -1516.1022    491.14373    335.49285   -646.42712    36812.755 
  538000    294.71445   -1507.9542    499.23895    321.31528   -763.04272    36812.755 
  538100    288.42675   -1491.9931    500.19957    309.86089   -758.97158    36812.755 
  538200    285.67223    -1529.656    481.82066    241.38806   -535.39973    36812.755 
  538300    295.92907   -1541.8733    472.24559    265.88427   -111.11045    36812.755 
  538400    291.48422   -1551.4896    511.71208    275.67515    62.433155    36812.755 
  538500     300.2485    -1533.697    485.27841    306.58675    426.02739    36812.755 
  538600     296.7841   -1544.5288    498.83797    293.67991   -47.923386    36812.755 
  538700    306.89925   -1497.4542    492.07659    379.64229    308.57287    36812.755 
  538800    315.67284   -1480.3116    495.29227     439.5953   -328.42558    36812.755 
  538900    296.18793   -1487.4744    473.09094     322.2968   -32.803247    36812.755 
  539000    309.68785   -1459.2243    489.43622    427.81662    95.366895    36812.755 
  539100    293.63756   -1483.7726    482.18135    323.57934    133.54313    36812.755 
  539200    293.91754   -1494.6443    505.82281    337.61261    9.5961338    36812.755 
  539300    293.34691     -1494.02     500.6198    330.45872   -516.20163    36812.755 
  539400    303.34468   -1484.1984    495.65197    380.43188   -220.42221    36812.755 
  539500    308.52217   -1497.2982    474.26934     369.3152   -297.02184    36812.755 
  539600    307.43481   -1498.8438    500.14018    388.73326   -290.82933    36812.755 
  539700    297.31524   -1489.5757    499.17012    351.36217   -898.25857    36812.755 
  539800    301.28498   -1460.7727    498.53919    397.44949   -800.39896    36812.755 
  539900    293.60649   -1429.0138    494.48246    390.49906   -469.00218    36812.755 
  540000     298.7892   -1410.0125    494.57946    432.98662   -28.880787    36812.755 
  540100      296.513   -1424.4253    516.15039    429.87239   -289.03374    36812.755 
  540200    305.37784    -1403.098     506.1952    481.25104   -153.98599    36812.755 
  540300     300.9483    -1417.275    501.13334    442.02185    320.86811    36812.755 
  540400    292.85312   -1459.7612    500.05667    361.92597    479.10761    36812.755 
  540500    305.25318   -1473.2796    491.43009    395.74175    228.55364    36812.755 
  540600    299.77229    -1450.125    505.17876    407.91005    759.03936    36812.755 
  540700    295.94814   -1433.5773    523.19543    425.21624   -185.11877    36812.755 
  540800     300.5067   -1461.5756    496.43802    391.03305    186.09501    36812.755 
  540900    307.73553   -1453.4236    485.26993    420.64029   -20.080866    36812.755 
  541000    296.51393   -1451.1288    516.32736    403.35002    232.07131    36812.755 
  541100    285.44416   -1459.1854    521.86785    350.87666    224.01047    36812.755 
  541200    282.59059   -1500.8375    491.30191    265.78058     -360.759    36812.755 
  541300    301.54775   -1530.8009    462.72946    292.79739   -275.62725    36812.755 
  541400    300.45316   -1482.7048    494.30911    367.53334    -177.6312    36812.755 
  541500    293.50776   -1484.5513    493.40655    333.44005   -810.77729    36812.755 
  541600    300.56429   -1503.1764    468.59143    321.84554   -716.05323    36812.755 
  541700    300.86536   -1498.3138    496.78404    356.25955   -890.42368    36812.755 
  541800    284.42517   -1470.6454    500.71703    313.66715   -79.871632    36812.755 
  541900     297.9866   -1481.2795    503.60663    367.12467    157.19172    36812.755 
  542000    317.78126   -1459.1214    493.80339    468.81181    461.16885    36812.755 
  542100    297.20394   -1520.1636    489.81972    310.92163    869.71493    36812.755 
  542200    300.02771   -1509.9981     471.6731      315.684    317.87562    36812.755 
  542300    304.33159    -1437.075    520.94361    457.30078    441.29406    36812.755 
  542400    295.94764   -1467.1957    503.37268    371.77276   -21.525174    36812.755 
  542500    308.08965   -1469.2826    498.06503    419.17452    637.75763    36812.755 
  542600    302.27273   -1482.7416    517.82158    399.22056   -135.30356    36812.755 
  542700    294.67893   -1476.2838    503.99148    357.57793   -131.73429    36812.755 
  542800    303.23087   -1511.2847    510.69313    367.87311    544.14445    36812.755 
  542900    297.05066   -1511.9856    493.17045    321.75859   -50.032699    36812.755 
  543000    297.42013   -1499.7246    499.68462    342.20112   -50.322127    36812.755 
  543100    291.33775   -1455.6849    509.78101    368.88772    388.30091    36812.755 
  543200     306.0041   -1447.7348     510.8719    444.11722   -442.12306    36812.755 
  543300    301.92762   -1478.9305    476.13691    359.78955    -601.2716    36812.755 
  543400    294.97725   -1434.0619    510.17618    407.33077   -619.49377    36812.755 
  543500    298.98489   -1494.8959    484.52131    338.92818   -126.31616    36812.755 
  543600    292.34079    -1510.813    510.69458    319.19988      130.944    36812.755 
  543700     302.3369   -1517.2549    497.88313    345.05845   -131.01385    36812.755 
  543800    297.06347   -1510.4221    487.86156    318.07096    115.84303    36812.755 
  543900     306.7147   -1493.9626    503.76781    393.99219   -237.42331    36812.755 
  544000    292.21282   -1454.1859    494.46847    359.02339   -546.21331    36812.755 
  544100    296.34322   -1451.0966    500.81928    387.10375   -995.70515    36812.755 
  544200     298.5591   -1470.7174    506.20449    382.86834   -81.740742    36812.755 
  544300    305.26612   -1484.1243     515.1412    408.66653   -156.55574    36812.755 
  544400    305.31019   -1515.6885    475.62466    337.78469   -72.119405    36812.755 
  544500    304.30281   -1489.9279    512.59079    395.96511    244.90997    36812.755 
  544600    310.66896   -1541.8694    493.63258    353.79551     272.7545    36812.755 
  544700    292.01435   -1464.9876    516.42464     369.2821    278.18674    36812.755 
  544800    293.81126   -1499.9271    496.33487     322.3622    73.742332    36812.755 
  544900    309.35701   -1474.4865    535.07079    456.69586   -60.834371    36812.755 
  545000     302.9732   -1441.7818    491.36377    416.88384   -330.47154    36812.755 
  545100    294.78585   -1464.3591    490.33886    356.33248   -139.83417    36812.755 
  545200    304.34724   -1476.1541    507.97164    405.32038    59.522375    36812.755 
  545300    302.84612   -1481.6425    492.41774    377.50355    -94.10949    36812.755 
  545400     296.3909   -1474.6667    491.84144      354.771   -151.79281    36812.755 
  545500     301.9162   -1488.2168    512.48174    386.79654    5.1443963    36812.755 
  545600    294.74083   -1521.2359    485.44619    294.35986    230.82821    36812.755 
  545700    296.38782    -1484.058     476.9685    330.49284    134.24786    36812.755 
  545800    306.84537   -1471.8098    498.53329    411.50019   -21.531684    36812.755 
  545900    310.33879   -1493.0038    494.86011    402.39863   -458.45599    36812.755 
  546000    296.09888   -1449.8118    494.75971    381.22632    106.05013    36812.755 
  546100    303.73829   -1481.6856    508.32102    397.39003    64.426221    36812.755 
  546200    302.09029    -1501.269    510.71149    372.75976   -448.00751    36812.755 
  546300    300.85832    -1468.509    494.08211    383.33063    185.84289    36812.755 
  546400    304.49558   -1477.4345    503.32809    400.06584    281.90217    36812.755 
  546500    295.50924   -1474.3408    480.05971    339.33631    67.921068    36812.755 
  546600    295.21294    -1506.108    486.86116    313.03331     212.3298    36812.755 
  546700    296.86158   -1465.1208    522.11263    396.71223    1015.9345    36812.755 
  546800    295.90436    -1465.245    510.92094     381.0765    900.68729    36812.755 
  546900    302.05328   -1493.0809    479.03593    349.10527    947.66076    36812.755 
  547000     301.9629   -1505.3353    502.55627    359.96336    724.03319    36812.755 
  547100    310.91772   -1565.3764    501.94846     339.7271    1251.5511    36812.755 
  547200    297.15391    -1575.127     467.6585    233.57122    568.92019    36812.755 
  547300    301.85794   -1556.8025    508.05129    313.51749    27.820818    36812.755 
  547400    298.56718   -1549.5414    473.49162    271.36791   -357.99048    36812.755 
  547500    294.89698     -1534.79    459.03067    255.09491   -76.537858    36812.755 
  547600    295.66875   -1517.5463    507.34523    324.13621   -150.21459    36812.755 
  547700     302.5481   -1497.1116      491.161    359.43276    287.36222    36812.755 
  547800    297.86688   -1528.9767    491.17187    306.45241   -59.895994    36812.755 
  547900    301.75127   -1548.3703    484.73356    298.15061   -89.819315    36812.755 
  548000    296.56094   -1547.5103    487.78226    278.63559   -491.31986    36812.755 
  548100    292.93204   -1556.8327    452.10879     217.2627   -123.03471    36812.755 
  548200    291.73586   -1505.9764    488.95065    299.56257   -170.10391    36812.755 
  548300    304.53399    -1504.052    477.56753    347.86108   -686.19242    36812.755 
  548400    293.84975   -1472.1944    502.41152    356.34531   -139.90732    36812.755 
  548500    301.14586   -1503.5238    494.66244    350.19378   -350.37753    36812.755 
  548600     305.0365   -1475.8208    483.26676     384.0593   -397.30367    36812.755 
  548700    297.64748   -1479.4434    499.51874    363.34252    167.05984    36812.755 
  548800    305.71505   -1487.7404    501.33852    393.27378   -64.972715    36812.755 
  548900    288.40638   -1515.2438     498.1198     284.4385    86.589432    36812.755 
  549000     293.9201   -1508.2241    488.98032    307.20192    138.17291    36812.755 
  549100     290.1096   -1520.9892    487.85334    276.11324   -114.06027    36812.755 
  549200    301.97121   -1526.1398    494.51282    331.15296     309.1576    36812.755 
  549300    303.72283   -1532.0746     499.6792    338.28949    616.11685    36812.755 
  549400    299.72606   -1492.4681    512.76938    372.94892    982.68033    36812.755 
  549500    299.73215   -1533.2722    486.56491    305.96791    1271.5459    36812.755 
  549600    295.34669   -1559.9941    514.14636    287.03601    740.63991    36812.755 
  549700    290.63926   -1526.3313    493.31884    278.62697    755.69302    36812.755 
  549800     300.6215   -1559.2817    489.99797    287.40502    396.09603    36812.755 
  549900    307.67598   -1543.5785     486.5663    331.51306     839.2207    36812.755 
  550000    299.70795   -1555.0069     489.4049    286.96385    619.61268    36812.755 
  550100    312.47729   -1526.2315    491.30594    375.26774     360.7822    36812.755 
  550200    306.44776   -1496.7106    490.64853     376.9202   -8.0477852    36812.755 
  550300    297.82389   -1506.4202    485.86191    323.50495   -392.89134    36812.755 
  550400    305.59056   -1465.6133    483.53191    397.03246   -326.50497    36812.755 
  550500    302.98752   -1544.6691    474.72648     297.4238    140.74199    36812.755 
  550600    301.41397   -1574.2597    496.92192    282.92731   -160.92352    36812.755 
  550700    312.17496   -1510.7064    506.92278    405.04526     513.0777    36812.755 
  550800    303.52983   -1507.3069    478.63883    341.14581   -180.90539    36812.755 
  550900    294.88224   -1508.6548    494.94726    317.08017   -300.82053    36812.755 
  551000    297.46911   -1507.1109    497.12431    332.47559   -137.22152    36812.755 
  551100    302.37603   -1471.4045    489.21403     382.4164   -366.20067    36812.755 
  551200    310.41723   -1518.2595    486.11325    368.75005    117.17769    36812.755 
  551300    289.16399   -1507.2413    503.97574    301.71602   -380.25578    36812.755 
  551400    301.09159   -1505.8608    470.67778    323.62721    291.89891    36812.755 
  551500    311.98732   -1481.0918    502.85319    429.74342    861.88538    36812.755 
  551600    298.63428   -1478.2276    472.99746    342.49031    18.199356    36812.755 
  551700    311.01405      -1508.4    481.11796    376.30766    527.11622    36812.755 
  551800    297.69379   -1496.6715    503.82887    350.63349    298.22155    36812.755 
  551900    304.31391   -1451.1874    468.53483    390.69986    732.75034    36812.755 
  552000    301.97239   -1479.8303    513.77735    396.73227    391.94208    36812.755 
  552100    311.47578   -1497.1629    487.72276    396.23334    434.09968    36812.755 
  552200    294.53807   -1511.7462    500.08784    317.57621    196.08099    36812.755 
  552300     303.3818   -1522.6191    467.57946    314.10618   -282.97539    36812.755 
  552400     302.2241   -1519.6811    494.30088    338.54099    41.935027    36812.755 
  552500     292.1023   -1526.7088    495.24438    286.77763   -446.61262    36812.755 
  552600    301.44996   -1525.1345    473.67799    308.97097   -564.28017    36812.755 
  552700    294.45462   -1542.3212    480.72014    267.25681   -904.21932    36812.755 
  552800    292.32338    -1502.861    454.30522    270.68401   -1085.3726    36812.755 
  552900    302.95399   -1516.2152     498.7602    349.76015   -1421.8356    36812.755 
  553000    290.03649   -1488.2094    503.38697    324.09673   -925.32995    36812.755 
  553100     303.6347   -1476.5282     474.7378    368.49666   -844.50541    36812.755 
  553200    305.26042   -1492.0461    491.86933    377.44716   -656.77955    36812.755 
  553300    293.85863   -1485.6861    485.98014    326.46233   -170.41821    36812.755 
  553400    303.00643   -1494.7878    496.04827     368.7123   -73.834834    36812.755 
  553500    300.01365   -1447.9159    508.86616    414.89575    -648.4695    36812.755 
  553600    301.12562   -1454.8643    498.80147    402.90089   -782.19452    36812.755 
  553700    298.37638   -1508.4606    481.93601    320.03198   -785.66491    36812.755 
  553800    303.47857   -1496.4496    490.85394    363.98686   -17.351442    36812.755 
  553900      297.484    -1559.199    492.55836    275.88867    277.17724    36812.755 
  554000    300.97312    -1524.533    493.05261    326.79513    219.40599    36812.755 
  554100    295.00374   -1520.8113    518.26404     328.7888    487.07067    36812.755 
  554200    301.07951   -1499.0919    492.07684    351.74063    386.68403    36812.755 
  554300    296.23077   -1498.5255    483.20621    321.55428   -107.20898    36812.755 
  554400    303.99881   -1503.6298    494.67427    362.97477   -43.518429    36812.755 
  554500    304.17373   -1476.4766    502.90261    399.14574   -276.10107    36812.755 
  554600    297.68195   -1530.1384    496.20444    309.48868   -538.80509    36812.755 
  554700    297.55978   -1496.5767     483.1937    329.48836    -27.44276    36812.755 
  554800    305.46965   -1501.4654    497.01749    374.12018    9.7799994    36812.755 
  554900    297.32941    -1448.377    515.05088    408.50556   -590.13089    36812.755 
  555000    310.96327   -1483.2534    507.16658    427.27376    5.6412117    36812.755 
  555100    307.17142   -1466.4193    490.46031    410.28916   -29.504379    36812.755 
  555200    296.38947   -1462.7349    524.61054    399.46543   -397.63701    36812.755 
  555300    300.30918   -1485.9702     506.4311    375.74017   -306.70759    36812.755 
  555400     300.1533   -1453.9458    502.37217    403.00217   -147.62797    36812.755 
  555500    291.85068   -1464.5237    500.61592    353.19866     166.8186    36812.755 
  555600    307.58302   -1447.8912    517.33345     457.5479    -378.6249    36812.755 
  555700    298.29456   -1430.2178     506.0973    422.06688   -339.63433    36812.755 
  555800    296.78925    -1457.813    484.72966    366.31064   -523.21402    36812.755 
  555900    298.30328   -1505.1972    512.44943      353.479   -88.490644    36812.755 
  556000    289.64469   -1569.9415    475.47604    212.68554    106.92882    36812.755 
  556100    301.91537   -1547.5595    497.40725    312.37563    351.42358    36812.755 
  556200     295.7446   -1540.8776    488.28254    282.08453    480.90023    36812.755 
  556300    299.95051    -1530.133    519.47957    343.00712    490.01311    36812.755 
  556400    297.29555   -1535.3419    503.01959    309.35656    57.856697    36812.755 
  556500    288.56058   -1555.7679    505.30721    251.79778   -483.03782    36812.755 
  556600    296.33614   -1493.3449    494.77549    338.77975   -1196.9027    36812.755 
  556700    300.96277   -1471.3301    508.09859    394.99733   -800.71635    36812.755 
  556800    300.32866   -1503.7844    468.42551    320.00826     -586.521    36812.755 
  556900    297.61997   -1532.5248    518.99784      329.616    -313.8693    36812.755 
  557000    301.73012   -1502.8828    476.22374    335.03277   -90.571902    36812.755 
  557100    294.68784   -1442.4734    503.61099    391.04801   -629.93023    36812.755 
  557200    306.02945   -1483.8766    469.48645    366.70432   -461.16111    36812.755 
  557300    295.77203     -1489.39    512.91086    358.32423   -821.18774    36812.755 
  557400     295.5066   -1499.0021    517.80704    352.41038   -422.16173    36812.755 
  557500    297.78137   -1480.5028     489.7732    353.14176   -267.16807    36812.755 
  557600    307.74697   -1486.0634    548.94446    451.72664    205.44565    36812.755 
  557700    293.89752   -1481.0534    493.83564      339.126   -241.58241    36812.755 
  557800    296.35067   -1481.2742    514.07643    370.21691   -298.66109    36812.755 
  557900    305.19222   -1489.0801    516.50347    404.73948   -283.92875    36812.755 
  558000    297.81748   -1480.9584    480.54599    343.62187   -151.30871    36812.755 
  558100    302.21002   -1456.8316    519.52785    426.55389    35.315347    36812.755 
  558200    297.85921   -1500.0714    545.36314    389.51441   -601.56132    36812.755 
  558300    296.28791   -1482.1725    499.94786    354.90685   -119.86393    36812.755 
  558400    303.16572   -1477.8801    517.18117    407.47174   -657.51559    36812.755 
  558500    293.30934    -1566.172    512.36322    269.88057   -1136.5052    36812.755 
  558600    295.47376   -1521.5971    478.93103    290.79118   -214.74612    36812.755 
  558700    308.60462   -1482.4013    496.78535    407.10022   -36.128585    36812.755 
  558800    307.79437   -1450.3128    516.28614    455.03285   -139.26017    36812.755 
  558900    301.31989   -1498.3802    520.25997    381.72029   -256.29919    36812.755 
  559000    308.53559   -1476.5255    526.86848    442.74759    2.3349634    36812.755 
  559100    302.35127   -1508.3155    506.12538    362.30495    -475.0891    36812.755 
  559200    299.62083   -1515.5338    507.79431    344.43328   -55.921779    36812.755 
  559300    313.46536   -1551.5872    490.28995    353.35507   -396.34764    36812.755 
  559400    297.72706   -1529.0265    518.47685    333.07663   -46.415708    36812.755 
  559500    307.53808   -1527.8406    522.31089    382.37317    467.63254    36812.755 
  559600    300.44652    -1491.045    526.26633    391.12036    1036.4807    36812.755 
  559700    296.40726   -1526.5842    525.94892    337.03481    453.00997    36812.755 
  559800    293.67805   -1525.1304    520.73919    320.96204    613.60875    36812.755 
  559900    304.74898   -1519.8164    517.07317    372.57254     659.0326    36812.755 
  560000    295.25105    -1536.206    506.44643    302.69257    307.24441    36812.755 
  560100    292.45433    -1513.806    510.40086    316.42558   -314.48178    36812.755 
  560200    305.37519   -1520.9951    505.73479    362.88155    250.48067    36812.755 
  560300    299.28772   -1543.8105    494.41186    301.27079   -435.60503    36812.755 
  560400      290.512   -1556.8456     506.1154    260.33488    543.55756    36812.755 
  560500    287.60886   -1527.9498    539.87778    309.89132    126.26752    36812.755 
  560600    297.58925   -1553.4841    491.15436    280.67457   -317.04017    36812.755 
  560700    300.34556   -1505.6449    531.39588    381.19441   -554.94619    36812.755 
  560800    289.08515   -1515.8894    501.01484    289.75123   -169.11681    36812.755 
  560900    291.05392   -1526.6975    506.35304    293.16625    520.84874    36812.755 
  561000    297.98692   -1544.6395    506.57107     306.7306    718.48019    36812.755 
  561100    308.52712   -1520.4434    516.28899    388.21199    460.26392    36812.755 
  561200    300.16375   -1522.2546    517.75458    350.12291    361.06701    36812.755 
  561300    302.74438   -1502.6646    493.97614    357.58072    585.76547    36812.755 
  561400    293.16035   -1497.6606    512.64361    337.99993    6.1777215    36812.755 
  561500    301.21262   -1526.5599    528.88321    361.67976    758.51797    36812.755 
  561600    296.80762   -1538.9204    495.03342    295.58987    273.66417    36812.755 
  561700    297.79913    -1523.799    530.71167    350.86417    635.92677    36812.755 
  561800    291.06405   -1549.7107    510.89862    274.74439    353.27532    36812.755 
  561900     315.2407   -1544.3802    492.30864     370.5928     732.2782    36812.755 
  562000    300.81565   -1548.8353    496.05125    304.78089     527.4215    36812.755 
  562100     301.0191   -1529.3304    489.40634      318.559    64.784289    36812.755 
  562200    298.98714   -1542.5396    499.70445    306.47779    481.79608    36812.755 
  562300    291.94278   -1534.7809    500.01616    282.75737    375.29278    36812.755 
  562400    302.85335   -1544.7436    473.35114    295.36848    45.292092    36812.755 
  562500    297.58653   -1533.5666    525.36466    334.79014    56.148585    36812.755 
  562600     307.5673   -1587.6456    499.95358    300.34277   -101.04511    36812.755 
  562700    307.16112   -1566.7126    471.52622    291.01529    181.07399    36812.755 
  562800    296.85154   -1559.2493    505.68917    286.11494   -220.07003    36812.755 
  562900    302.64653   -1577.3874    494.01752    282.45769    7.4907969    36812.755 
  563000    312.96765   -1509.3344    512.64005    415.71186   -5.6278027    36812.755 
  563100     294.5299   -1514.2824    528.37702    343.29228   -230.01817    36812.755 
  563200    306.81705   -1524.0341    496.22868    356.84348    168.63586    36812.755 
  563300    303.14703   -1521.4844    500.38545     346.9873   -193.95021    36812.755 
  563400    299.28326   -1555.6896    501.02669    295.98639   -98.392183    36812.755 
  563500    288.35588   -1540.2949     484.1362    245.17596   -178.61219    36812.755 
  563600    303.87166   -1484.0969    487.59748    374.85706     360.3536    36812.755 
  563700    302.15753    -1526.168    538.59263     376.0454    -37.15804    36812.755 
  563800    297.95978   -1528.2699    496.51762    312.92422    208.98773    36812.755 
  563900    295.11227   -1534.1639    510.32464    307.98655    406.61695    36812.755 
  564000    305.97361    -1510.923    504.94904    374.86854   -100.94654    36812.755 
  564100    312.11056   -1525.2809    494.18905    377.44636    138.67932    36812.755 
  564200    290.77383    -1492.796    531.01937    350.47015    159.12595    36812.755 
  564300    292.42332   -1494.5679    510.71376    335.83663   -206.07891    36812.755 
  564400    303.17732   -1487.8145    504.18179    384.59027   -406.93739    36812.755 
  564500    310.00654   -1510.6269    515.82241    404.23844     152.2512    36812.755 
  564600     301.5731   -1513.2947    525.96142    373.64996    433.42136    36812.755 
  564700    290.53806   -1479.9794    497.27937     328.4826   -230.77011    36812.755 
  564800    291.38821   -1524.9714    475.87739    265.92533   -114.05642    36812.755 
  564900    295.25145   -1501.0434    496.75676     328.1673    -628.1753    36812.755 
  565000    293.67992   -1519.5372    496.55048    302.37502   -210.78226    36812.755 
  565100    297.32318   -1488.6918    500.41928    353.53111    551.93725    36812.755 
  565200    310.15168   -1486.0852    537.06178    450.67452    593.25579    36812.755 
  565300    307.33624   -1477.3658    517.08086    426.70709     1165.512    36812.755 
  565400    302.00215   -1487.1365    522.14256     397.9256    444.96227    36812.755 
  565500    301.34505   -1480.0169    481.26948     361.2067    553.70055    36812.755 
  565600    302.72316   -1484.3649    494.13213    375.94057    827.20526    36812.755 
  565700    295.95323   -1465.8784    526.06957    395.81226    669.15904    36812.755 
  565800    310.36167   -1528.8001    508.93703    380.78247     158.7304    36812.755 
  565900    292.97467   -1533.6453    513.12845    301.66212    526.20939    36812.755 
  566000    302.86917   -1526.6084    507.58558    347.80952    165.57865    36812.755 
  566100    295.51043   -1549.1234    514.29523    298.79459    130.94197    36812.755 
  566200     297.6442   -1558.3348    487.00823    271.92579   -59.887422    36812.755 
  566300    291.83806    -1534.321    507.26206    289.99054    215.87263    36812.755 
  566400     308.7462   -1576.5248    489.48081    306.31107   -353.01854    36812.755 
  566500      293.232   -1594.9933    492.74668     221.0937   -347.66796    36812.755 
  566600    299.11365   -1508.8061     484.1351    325.21282   -275.62166    36812.755 
  566700    298.23312   -1528.5586    489.41038    306.76183      49.0565    36812.755 
  566800    311.41955   -1536.9554    474.97487    343.43924    117.42883    36812.755 
  566900    289.45445   -1560.4387    508.14847    254.00223   -268.06395    36812.755 
  567000    296.39743   -1518.5322    487.55004    306.64361   -18.769752    36812.755 
  567100    302.41719   -1526.0093    509.61674    348.39998    6.1689908    36812.755 
  567200    303.98991   -1521.6815    486.81168    337.02038   -214.26568    36812.755 
  567300    303.56822   -1533.8623    490.69709    326.82188   -238.41705    36812.755 
  567400    301.99649   -1559.7073    472.20889    275.39559   -46.157938    36812.755 
  567500    290.64518   -1537.5366    507.08225    281.21177    264.56268    36812.755 
  567600    298.33713   -1509.2545    511.22969    348.35467     854.8553    36812.755 
  567700    288.20478   -1484.9469    507.16637    322.87224    62.961926    36812.755 
  567800    305.86474     -1495.09    510.35599    395.61721    155.27505    36812.755 
  567900    303.53141   -1510.3906    502.18417    361.61454     93.52589    36812.755 
  568000    305.70128   -1510.1383    488.93731    358.41255   -215.18632    36812.755 
  568100    297.10035    -1523.273    483.03809    300.56303   -629.57036    36812.755 
  568200     293.1678   -1513.3733    492.86025    302.53752    255.63749    36812.755 
  568300    301.86996   -1550.0963    504.88157    317.10823    85.886244    36812.755 
  568400    299.05637    -1506.441    508.25581     351.4402   -67.727947    36812.755 
  568500    295.96403   -1497.6418    460.61378    298.64178    148.73972    36812.755 
  568600    305.15473   -1466.4195    517.26729    427.99475   -69.566582    36812.755 
  568700    303.33288   -1497.3586    493.08754    364.65391    193.53158    36812.755 
  568800    304.69819   -1493.7351    510.45825    391.80974    275.36206    36812.755 
  568900    304.53725   -1478.5702    508.89235     404.6824    -2.481799    36812.755 
  569000    305.67069   -1529.6298    495.45562    345.30124    52.318497    36812.755 
  569100    296.58689   -1523.2566    509.83481    325.05897    2.2158467    36812.755 
  569200    309.60958   -1516.3361    490.35124    371.26657    98.939159    36812.755 
  569300    307.09467   -1548.1732     495.1085    332.83706    321.00553    36812.755 
  569400    294.59406    -1491.393    510.76297     348.8572   -77.804057    36812.755 
  569500    300.81187    -1475.353    511.36976     393.5646    46.823287    36812.755 
  569600    308.64543   -1514.7033    502.84833    381.04534    257.29346    36812.755 
  569700    302.89243   -1539.0624     488.6662    316.54113   -135.50212    36812.755 
  569800    299.33945   -1561.1991    483.34568     273.0495    38.446273    36812.755 
  569900    282.95917   -1563.0704    514.65565    228.56487     429.1084    36812.755 
  570000    310.23114   -1553.9497    489.12528     335.2321    302.19621    36812.755 
  570100    298.35646   -1539.7197    490.20824    296.95529    647.88727    36812.755 
  570200    289.08889   -1531.9113    519.27851    292.00992    -401.2578    36812.755 
  570300    297.68463   -1505.8602    503.02945    340.60397    36.496159    36812.755 
  570400    308.95878   -1486.2174    481.09691    389.19389    517.79766    36812.755 
  570500    309.32974   -1475.2418    498.95217    419.69889    907.40567    36812.755 
  570600    297.65244   -1469.5619    516.82917    390.55671    580.19285    36812.755 
  570700    305.49769   -1479.8184    469.28606    368.16234    45.939615    36812.755 
  570800    304.59962   -1463.3186    514.92889    426.25207   -398.08607    36812.755 
  570900    305.11626   -1468.0636    504.41994    413.32963   -294.20076    36812.755 
  571000    293.25951   -1503.1046    501.48161    321.84141   -95.093063    36812.755 
  571100    307.82923   -1510.7478    500.07994    378.54894   -219.79795    36812.755 
  571200     300.9244    -1494.224    502.04374    365.87546   -415.47922    36812.755 
  571300    295.51389   -1494.1418    530.97626    370.47277    184.21505    36812.755 
  571400     299.9802   -1473.8474    485.57842    365.52557   -74.186706    36812.755 
  571500    282.47443   -1465.0873    524.35391    334.05856   -192.29423    36812.755 
  571600    306.99575   -1511.5607    501.51226    375.40692   -537.16375    36812.755 
  571700    291.26102   -1515.3542    511.49573    310.58694   -814.85351    36812.755 
  571800    297.89042   -1498.3564    526.37649    372.38356   -651.07049    36812.755 
  571900    293.35913   -1514.8422    517.10753     326.1793   -345.36443    36812.755 
  572000    290.32613   -1480.8751    520.96516    350.31631   -141.56776    36812.755 
  572100    303.92887   -1478.0436    522.24575    415.81683     580.2873    36812.755 
  572200    309.23808   -1518.1275    498.83453    376.28194    176.71209    36812.755 
  572300    299.32219   -1474.7806    496.05745     372.1018     294.1086    36812.755 
  572400    297.71825   -1474.9445    501.01721    369.65919   -216.89893    36812.755 
  572500    309.68788   -1457.9713    501.94415    441.57771   -155.61581    36812.755 
  572600     299.6176   -1506.1656    497.41478    343.40738   -236.66321    36812.755 
  572700    294.99349   -1509.8842    497.61965     319.0253    64.497142    36812.755 
  572800    300.47554   -1522.2738     516.8255    350.58172   -26.809096    36812.755 
  572900    306.26517   -1490.1736    512.05435    404.03905    112.27065    36812.755 
  573000    286.24647   -1473.5657    534.82838    353.07763     309.1173    36812.755 
  573100    302.82786   -1559.8044    498.49167    305.33322     116.8413    36812.755 
  573200    299.24072   -1536.9241    527.83744     341.3707    434.59098    36812.755 
  573300    305.95837   -1568.3948    489.59646    301.97538    493.66221    36812.755 
  573400    293.78712    -1548.834    485.05914    262.07069    515.58575    36812.755 
  573500    300.12931   -1556.1762    505.52768      303.819   -135.93391    36812.755 
  573600    302.92602    -1488.747    503.99967    382.34153   -267.94364    36812.755 
  573700    311.14837   -1569.0289    485.68812    320.85516   -699.05409    36812.755 
  573800    302.76625   -1511.9677    519.80742    374.20762   -560.45821    36812.755 
  573900    292.48019   -1526.3648    511.07828    304.66086    -504.4242    36812.755 
  574000    307.64397   -1501.6136    511.67906    398.44625   -819.21145    36812.755 
  574100    288.21559   -1487.5657    523.09383    336.22967   -395.13499    36812.755 
  574200    307.10612   -1489.6531      499.565    395.86537   -465.53809    36812.755 
  574300    295.45888   -1491.2657     513.9836      356.108   -798.27432    36812.755 
  574400    294.47241   -1503.0345    513.60497    339.50868   -347.19331    36812.755 
  574500    290.75197   -1502.9206      479.919    289.14643   -70.071879    36812.755 
  574600    287.08458   -1539.7645     522.7072    278.54004    153.85672    36812.755 
  574700    297.00705   -1584.1007    496.61747    252.89369    680.28073    36812.755 
  574800    294.63727   -1569.0896    501.34677    261.93934    496.88971    36812.755 
  574900    299.41178   -1553.4336    502.84711    300.64279    1.2688904    36812.755 
  575000    309.06633    -1502.275    517.95502    410.47975    568.91356    36812.755 
  575100    293.16663    -1485.528    495.34966    332.86691   -31.953311    36812.755 
  575200    297.79325   -1504.0905    510.98385    350.81839    414.70878    36812.755 
  575300     304.7691   -1512.7528    500.83187    363.48565     441.6956    36812.755 
  575400    296.30089   -1517.7639    514.89737    334.32353    420.90572    36812.755 
  575500    312.31041   -1573.8204    506.41893    342.03871     1003.983    36812.755 
  575600    299.02144   -1572.4304    528.78233    305.81969    474.37313    36812.755 
  575700    290.46989   -1548.4694    524.22607     286.6317    1174.3931    36812.755 
  575800    297.86046   -1561.4283    496.66513     279.4651    642.31481    36812.755 
  575900    305.70959   -1537.9442    476.44105    318.14783     386.5215    36812.755 
  576000    300.96298   -1505.6871    497.94257    350.48527   -194.00417    36812.755 
  576100    302.88075   -1571.1907    497.34344    293.03731    174.82236    36812.755 
  576200    309.09353   -1529.4312    526.85825    392.34963   -57.269565    36812.755 
  576300    306.27638   -1543.1442    468.83041    307.89506   -141.75628    36812.755 
  576400    308.47764     -1539.97    497.17839    349.35141   -14.535144    36812.755 
  576500    293.70348   -1535.9422    488.84345    278.36934    66.846393    36812.755 
  576600    307.99563   -1529.1573    483.91231    344.72279    83.252486    36812.755 
  576700    302.08046   -1551.6208    508.08044    319.73251    252.72816    36812.755 
  576800    282.93727   -1518.6094    523.05183    281.32317    590.95074    36812.755 
  576900    289.51712   -1515.2062    500.64447    292.01354    718.76395    36812.755 
  577000    291.73968   -1524.8272     494.5375    286.31587    328.47986    36812.755 
  577100    307.33392    -1533.154    496.16791    349.99542    222.94304    36812.755 
  577200    304.77641    -1535.636    486.52164    326.32523   -149.10153    36812.755 
  577300    293.34614   -1517.2523    480.44851    287.05159   -274.97119    36812.755 
  577400    302.71701   -1529.6141    480.69406    317.22562    195.31002    36812.755 
  577500    306.45982   -1539.8126     497.3783    340.60248    378.63383    36812.755 
  577600    302.21143   -1524.0457     508.8744    348.69263    181.85813    36812.755 
  577700    298.68656    -1523.192    505.10843    329.87284    674.15862    36812.755 
  577800    302.02496   -1502.8965    510.11734    370.24334    806.66957    36812.755 
  577900    291.83712   -1505.7341    507.33918    318.65033    372.56839    36812.755 
  578000    304.94682   -1502.3617    521.96313    395.81007   -129.66673    36812.755 
  578100    295.13582   -1489.2523    460.28935    302.96923    -257.7027    36812.755 
  578200    305.54638   -1526.1518    513.94559    366.70821   -802.34571    36812.755 
  578300     300.1941   -1535.7341    487.91118    306.93691   -145.33312    36812.755 
  578400    294.26227   -1553.2494    481.97583    256.71628    281.51438    36812.755 
  578500    304.59531    -1482.765    519.02996    410.88726    211.58361    36812.755 
  578600    305.67689   -1528.4851    471.28689    322.30526   -219.96957    36812.755 
  578700    295.94262   -1496.3304    497.66362    336.90642   -361.63343    36812.755 
  578800    310.96572   -1476.4716    508.49144    435.39145    121.98631    36812.755 
  578900     299.4015   -1535.5212    495.58624    311.24801    137.10998    36812.755 
  579000     303.1313    -1518.099    492.19291    342.10921   -174.75311    36812.755 
  579100    300.77676   -1475.3069    482.85878    364.94132   -31.496787    36812.755 
  579200     293.9311   -1496.0289    499.74015    330.20659   -625.76496    36812.755 
  579300    299.61999   -1474.2874    507.77728    385.65881   -462.38944    36812.755 
  579400    309.69384   -1498.9713    503.03557    401.69598    145.12306    36812.755 
  579500    297.25027    -1538.683    483.60868    286.40016    61.032019    36812.755 
  579600    306.78571   -1518.8487    482.76141    348.42018   -272.34998    36812.755 
  579700    300.02829     -1511.76    497.92064    340.17221   -167.42483    36812.755 
  579800    313.31345   -1512.0269    507.47431    409.41426     232.9361    36812.755 
  579900    305.98321   -1515.1554    511.87867    377.60916   -25.752974    36812.755 
  580000     301.4728    -1498.011    496.57303    359.09262     228.9744    36812.755 
  580100    303.77078   -1523.3747    484.02064    331.54723    1154.2925    36812.755 
  580200    302.55076   -1506.7014    505.50502    364.19893    725.69014    36812.755 
  580300    301.75919    -1509.922    497.93126    349.83232    250.87701    36812.755 
  580400    303.31795   -1511.4386    494.86305    352.28206    564.90852    36812.755 
  580500    310.52186   -1484.5526    511.18801    428.00399    652.78105    36812.755 
  580600    300.56108   -1511.9886    495.48544    339.91286    165.42562    36812.755 
  580700    301.49186   -1511.7286    509.26821    358.15621    202.17875    36812.755 
  580800    303.99787   -1492.2451    498.85308    378.53404     191.2502    36812.755 
  580900    317.91581   -1530.7723    481.09852    385.06329   -307.11522    36812.755 
  581000    301.79114   -1545.2615    504.79873    321.50445   -228.03507    36812.755 
  581100    297.31087   -1508.9925    464.95174    297.70733    401.09278    36812.755 
  581200     298.2895   -1477.8085    499.42347    367.77952   -305.63296    36812.755 
  581300    299.20595   -1490.5986    506.24687    365.94865   -103.47519    36812.755 
  581400    305.78084   -1495.2625    500.70117    385.41119    453.95731    36812.755 
  581500    290.47839   -1514.6939     507.1262    303.34568    331.75115    36812.755 
  581600    295.32941   -1548.8351    489.02582    272.99652    251.82067    36812.755 
  581700    298.66898   -1499.3431    479.65207    328.18604   -202.57811    36812.755 
  581800    296.69659   -1486.5932    504.87823    357.26087    -726.6963    36812.755 
  581900    300.24089   -1476.4921    491.51223    369.99113   -214.64229    36812.755 
  582000    301.02637   -1441.5804    488.40571    405.34124   -369.90682    36812.755 
  582100    298.45281   -1475.1281    513.92254    385.69596   -409.23297    36812.755 
  582200    302.72623   -1524.5734    469.95306    311.56689   -241.88458    36812.755 
  582300    312.13684   -1456.0809    541.37748     493.9534    157.90105    36812.755 
  582400    302.10658   -1466.9435     486.1023    382.54954    503.28206    36812.755 
  582500     293.4122   -1488.5057    511.75069     347.3985   -361.09581    36812.755 
  582600    306.76892   -1495.9754    500.88284    389.33917    229.69878    36812.755 
  582700    306.02059   -1531.2953    511.94816    361.70744   -404.67527    36812.755 
  582800    297.17439   -1495.5223     494.8382      340.448   -128.97327    36812.755 
  582900    296.74251     -1513.02      504.694    330.85708    231.34466    36812.755 
  583000    298.84772    -1500.049    503.60755    352.24231   -173.06396    36812.755 
  583100    296.89237   -1474.0485    501.40242    367.21326    126.28948    36812.755 
  583200    301.31359   -1480.1428    504.42823    384.09753    620.49733    36812.755 
  583300    309.33663   -1478.1845    484.28197     402.1171    482.32273    36812.755 
  583400    311.07455   -1467.4481    496.90829    433.32294    144.11656    36812.755 
  583500    297.28479    -1465.921    503.39646    379.10581    219.15948    36812.755 
  583600     295.7536   -1502.4531    498.51495    330.78199    62.884759    36812.755 
  583700    299.66229   -1468.2926     507.6444    391.71169    387.30773    36812.755 
  583800    289.31074   -1471.2223    497.00476    331.42634    215.90992    36812.755 
  583900    296.45171   -1469.4184    510.38598    378.83821    515.37269    36812.755 
  584000    287.50462   -1450.9583    517.01874    363.55336    611.71007    36812.755 
  584100    308.77819   -1476.5754    503.91399    420.83801    686.63505    36812.755 
  584200    299.27514   -1456.3481    529.60734    423.87193    1038.8049    36812.755 
  584300    303.86205   -1432.4936    529.55494    468.37453    602.25162    36812.755 
  584400    304.21407   -1464.9429    515.20731    423.16617    147.07122    36812.755 
  584500    294.49187   -1449.8935    510.78242    389.91495    986.15129    36812.755 
  584600    297.35011   -1485.1631    501.56881    358.33084     498.4288    36812.755 
  584700     288.6756    -1471.245    506.00637    337.53889   -165.93596    36812.755 
  584800    299.07445   -1469.5117    499.61022    379.80552    190.39398    36812.755 
  584900    310.59645   -1438.1776    509.95132    473.47885    181.10649    36812.755 
  585000    304.56464   -1484.0259    509.86395    400.32196    441.39715    36812.755 
  585100    298.49877   -1500.2075    535.88903    382.79044     457.3911    36812.755 
  585200    300.72011   -1474.2781    491.74053    374.59618    527.03856    36812.755 
  585300    296.09798   -1470.5612    530.32294    396.03607   -498.61545    36812.755 
  585400     295.1639   -1526.2312    514.88222    320.70994   -476.23297    36812.755 
  585500    303.41926   -1498.5207    506.44633    377.24048   -482.37272    36812.755 
  585600    289.40907   -1477.4677    508.63622     337.2561   -967.28142    36812.755 
  585700    299.96165   -1549.7271    485.38629    289.37007    -435.3013    36812.755 
  585800    300.42114   -1534.8301    499.18126    320.13564   -754.57315    36812.755 
  585900    297.88219   -1525.7805    467.55737    286.10326    -268.8761    36812.755 
  586000    305.17337    -1503.384    511.88808    385.73514   -93.611032    36812.755 
  586100    289.94415   -1547.8298    499.90026     260.5729   -176.07996    36812.755 
  586200    296.76436    -1522.636    486.57856     303.2242    102.78846    36812.755 
  586300    296.47932   -1488.4249    491.47333     341.0437    377.63105    36812.755 
  586400     298.3889   -1549.6556    495.53041    292.48787   -10.060781    36812.755 
  586500     301.4326   -1542.2312    508.17819     326.2962   -431.89668    36812.755 
  586600    304.65243    -1495.353    491.90594      371.433   -16.485474    36812.755 
  586700    304.93459   -1525.7655    494.64342    345.03141   -646.51904    36812.755 
  586800    300.25968   -1546.1305    465.35185    274.27718   -44.188942    36812.755 
  586900    297.19181   -1537.9074    495.61993    298.92326   -815.03578    36812.755 
  587000    293.90579   -1532.1586    511.64468    305.86722   -570.54169    36812.755 
  587100    302.51567   -1525.8684    490.22193     329.5906    264.03937    36812.755 
  587200    300.61873   -1519.6561    516.38073    353.40089   -355.76079    36812.755 
  587300    294.04212   -1551.9305    525.22729    300.29316   -910.05524    36812.755 
  587400    296.08296   -1515.0822    499.70322    320.82759    -623.2193    36812.755 
  587500     303.7567   -1515.3872    493.77018    349.22069    -736.0772    36812.755 
  587600    309.14712   -1505.9786    488.81662    378.00239   -764.71817    36812.755 
  587700      305.861   -1480.3344    497.99899    397.99886   -263.86136    36812.755 
  587800    301.19891   -1525.8362     495.7942    329.25253   -108.95369    36812.755 
  587900    295.03481   -1526.4709    520.14086    325.14618    -821.3213    36812.755 
  588000    309.27256   -1514.2924    513.87834     395.3164   -469.12747    36812.755 
  588100    296.33875   -1513.6361    489.74222    313.46698   -83.080084    36812.755 
  588200     292.8422   -1500.2319    536.48457    357.83383   -274.20167    36812.755 
  588300    301.18285   -1543.3225    522.29926    338.19881   -434.64093    36812.755 
  588400    301.37073    -1536.022    504.04421    328.09218   -30.135159    36812.755 
  588500    296.96024   -1505.9166    495.91034    330.15936    411.07744    36812.755 
  588600    284.11299   -1542.5024    491.77776    231.46207    216.01674    36812.755 
  588700    301.21118    -1548.684    503.60999    314.27584    291.53162    36812.755 
  588800    291.89489    -1495.669    495.74039    317.37739   -213.53382    36812.755 
  588900    305.78718   -1544.7497    494.08737    329.33886   -158.85885    36812.755 
  589000    297.63373   -1509.9139    503.70449    336.99566   -545.87109    36812.755 
  589100    297.99572   -1529.1887    505.67443     321.3245   -250.43923    36812.755 
  589200    305.55928   -1577.3376    490.13913    291.77415   -176.90392    36812.755 
  589300    298.38539   -1519.2877    494.14145    321.45102    -412.5786    36812.755 
  589400    304.25351   -1468.3396    501.28617    406.02638   -123.20002    36812.755 
  589500    303.11111   -1482.7687     494.1954    379.35088   -570.85239    36812.755 
  589600    309.80619   -1499.0823    500.63715     399.6936   -493.12863    36812.755 
  589700    296.66003   -1519.1624    524.11958    343.76805   -113.11136    36812.755 
  589800    295.93777   -1559.2496    530.76613    307.06777    90.561146    36812.755 
  589900    316.46305   -1534.8495    534.32324    427.65456    88.298057    36812.755 
  590000    287.54477   -1576.0453    504.84645    226.47523    40.659829    36812.755 
  590100    307.72247   -1575.4303    483.85138    297.15606    606.80714    36812.755 
  590200    293.59234   -1568.7888    500.16587    256.34357    591.25673    36812.755 
  590300    302.19764   -1544.3961    494.05638    313.46207    345.80059    36812.755 
  590400    300.65032   -1530.4374    510.30571    336.68713    409.89673    36812.755 
  590500    303.16788   -1590.4791    493.35498    271.05631    213.47623    36812.755 
  590600    302.39168   -1572.9235    495.93543    287.68935     95.46006    36812.755 
  590700    306.01523   -1590.8873    502.75949    292.90251   -160.23612    36812.755 
  590800    308.53773   -1574.9453    514.65082    332.11973    205.37786    36812.755 
  590900    301.37472   -1579.3993    485.91505    266.60373   -29.233267    36812.755 
  591000    301.94246   -1574.8339     512.2239    300.04019     1.208573    36812.755 
  591100     306.5358   -1584.5936    487.03366    285.81967    570.36189    36812.755 
  591200    294.51176   -1598.0043    510.76471    241.87621    -244.9415    36812.755 
  591300    304.14901   -1581.8424    488.07725    278.84305   -247.02376    36812.755 
  591400    297.87134   -1570.6139    527.92239    301.58585   -1077.1701    36812.755 
  591500    296.15563   -1575.3858    506.58584     267.7345   -1256.1483    36812.755 
  591600    297.93348   -1590.9232    468.88688    222.52155    63.106872    36812.755 
  591700    298.42227   -1541.2132    517.53758    323.08815    129.15917    36812.755 
  591800    307.79264   -1591.1479    504.13177    302.03561    271.20548    36812.755 
  591900    294.11576   -1551.9113    518.52823    293.94565    217.78451    36812.755 
  592000    301.64258   -1514.9369    515.46177    361.82169   -28.660558    36812.755 
  592100     303.9833   -1494.5614    486.11982    363.41878   -215.56911    36812.755 
  592200    299.83571   -1474.3966    513.10464    391.85053   -8.0525054    36812.755 
  592300     299.6123   -1509.5506    507.83661    350.42032   -158.77711    36812.755 
  592400    295.26542   -1510.7372    527.14996    348.92979   -353.05017    36812.755 
  592500     297.6946   -1499.2149      497.545    341.80992   -431.02338    36812.755 
  592600     296.5285   -1508.5555    504.46579    334.12749   -673.61855    36812.755 
  592700    295.55132   -1471.9477    509.52782    371.38741    -647.4297    36812.755 
  592800     288.4649   -1477.3257    489.56968    314.07056   -766.27923    36812.755 
  592900    293.87958   -1492.1222    486.31325    320.45388   -721.45885    36812.755 
  593000    287.56922   -1526.4911    500.65165    271.94501   -684.86915    36812.755 
  593100     305.3092   -1474.0836    511.68362    415.44409    512.15667    36812.755 
  593200    305.27907   -1460.7235    521.71701    438.70161    371.69562    36812.755 
  593300    303.88618   -1478.5334    494.61261    387.50128    983.48684    36812.755 
  593400    288.08859   -1512.2711    527.82724    315.68449    968.04776    36812.755 
  593500    304.73306   -1512.4381    530.60079    393.40671    476.87054    36812.755 
  593600    310.26484   -1510.6939    508.52776    398.04247    23.716088    36812.755 
  593700    297.83095   -1456.4324    525.59485     413.2576   -111.24871    36812.755 
  593800    299.23336   -1470.2312    515.13007    395.32296    436.21472    36812.755 
  593900    301.65038   -1489.8247    521.38135    392.88865   -104.76742    36812.755 
  594000    304.19217   -1483.5965      502.637    391.84344   -137.70541    36812.755 
  594100    296.62438   -1467.6095    505.24745    376.28783   -785.64043    36812.755 
  594200    292.86523    -1500.439    495.38967    316.63571   -1025.2068    36812.755 
  594300    299.60922    -1498.586    510.38956     363.9239   -803.77043    36812.755 
  594400    301.43528   -1491.3604    514.68779    383.68867   -373.90454    36812.755 
  594500    302.49059   -1507.3513    494.51471    352.28728    -541.9884    36812.755 
  594600    289.15965   -1495.3616    513.42657    323.02703   -698.50817    36812.755 
  594700     298.1404   -1502.5243    498.91251    341.87983   -291.98635    36812.755 
  594800    300.58153   -1503.2434    519.10596    372.37094   -431.79866    36812.755 
  594900    310.76623   -1502.6721    502.34071    402.13997   -168.60109    36812.755 
  595000    306.55299   -1534.0159    509.41672    358.85809   -1025.8717    36812.755 
  595100    310.84449   -1485.8455    521.71552    438.69454   -1247.9902    36812.755 
  595200    293.24618   -1477.2459    505.20518    351.36353   -876.71684    36812.755 
  595300    296.66136   -1521.6831    519.98374    337.11748   -779.20544    36812.755 
  595400     295.1827   -1507.2128    507.26009    332.19105   -869.62149    36812.755 
  595500    313.20318    -1513.768    488.15022    387.85142    38.363095    36812.755 
  595600    292.36324   -1516.4168    511.84603    314.84893   -69.602697    36812.755 
  595700      293.813   -1515.5655    492.97971    303.37651    284.29809    36812.755 
  595800    288.60788   -1512.3119    525.85089    316.01086    273.99967    36812.755 
  595900    292.60595   -1523.9612      514.475    311.02877    310.19023    36812.755 
  596000    304.09052   -1538.9261    493.81387    327.23202    961.02926    36812.755 
  596100    309.44146   -1560.9814    492.06506    327.57642    718.86412    36812.755 
  596200    290.55845   -1556.6401    514.01052    268.64516    42.957539    36812.755 
  596300     300.2729   -1533.4194    485.69057    307.38667   -240.36319    36812.755 
  596400    291.51801   -1506.1752    488.81002    298.24004    299.66057    36812.755 
  596500    293.69922   -1478.4191    500.39941    347.42911   -732.17364    36812.755 
  596600    289.27564   -1531.4754    502.51167    276.52179   -1139.0614    36812.755 
  596700    300.53708   -1548.9255    502.44877    309.83107   -613.37578    36812.755 
  596800    294.27453   -1500.2436    478.67325    306.47485    -320.5853    36812.755 
  596900    295.11523   -1542.0953    511.72571    301.46967   -278.75457    36812.755 
  597000    295.39767   -1523.4693    502.79573    312.44028    563.25875    36812.755 
  597100      307.252   -1565.9197    494.85655    315.54864    467.50877    36812.755 
  597200    311.74369   -1553.5832     482.6484    335.94779    708.95359    36812.755 
  597300    305.53724   -1530.4302     492.4743    340.91723    268.65683    36812.755 
  597400    305.18632   -1524.2704    519.69186    372.71097   -110.31236    36812.755 
  597500     294.9457   -1567.7157    510.21887     273.5773    368.13133    36812.755 
  597600    303.28022     -1535.11    505.90058    339.47801    186.56859    36812.755 
  597700    305.93401   -1529.8887    496.94902    347.72411   -27.707397    36812.755 
  597800    303.07181   -1498.2513    515.74746    385.24301   -378.79812    36812.755 
  597900    295.02515   -1486.0605    497.54297     342.9152   -130.41183    36812.755 
  598000    295.13714   -1516.2518    507.95229     323.6386   -604.78812    36812.755 
  598100    311.01617   -1510.9276    490.38393    383.05557   -1267.6895    36812.755 
  598200    296.84722   -1486.9953    485.88514    338.54549   -789.50866    36812.755 
  598300    313.43615   -1485.6829    506.04132    434.87895   -1430.3934    36812.755 
  598400    302.39921   -1500.7428    495.86027    359.82891   -546.42506    36812.755 
  598500     309.3576   -1479.4216    512.16011     428.8528   -917.64198    36812.755 
  598600    303.33608   -1486.8192    515.81655    397.93681    139.01482    36812.755 
  598700    291.16345   -1512.7107    502.58455    303.87887     64.98737    36812.755 
  598800    293.97202   -1499.5878    497.05703    324.14923   -134.31513    36812.755 
  598900    302.47703   -1483.3507    517.57289    399.28478    147.72021    36812.755 
  599000    305.40609   -1498.9787    476.71911    356.02173     50.84531    36812.755 
  599100    304.03553   -1489.6956    506.24584    388.64632    118.62056    36812.755 
  599200    300.77209   -1468.5733    505.24889    394.04391    327.21241    36812.755 
  599300    302.10413   -1489.0583    546.14379    420.46524   -288.00635    36812.755 
  599400    307.39916    -1473.663    498.23998    411.85295    460.42895    36812.755 
  599500    287.50701   -1503.4423    494.00133    288.06275   -422.93788    36812.755 
  599600    296.91442   -1532.1897    533.58026    341.34946   -3.7132312    36812.755 
  599700    299.30352    -1567.798    501.81796    284.76076     321.0638    36812.755 
  599800    291.04627   -1547.1819    510.39896    276.69326   -361.39477    36812.755 
  599900    299.74196   -1530.8805    493.96666    315.80558   -697.36392    36812.755 
  600000    299.65193   -1495.4974    504.72715    361.54288    284.45852    36812.755 
  600100    306.17994   -1503.7884     514.4626    392.44782   -430.83112    36812.755 
  600200    306.19797   -1530.7326    504.84432    355.96672    53.544673    36812.755 
  600300    303.51033   -1516.1875    493.34632    346.88468    225.49783    36812.755 
  600400    302.01662   -1528.1195    533.56358    368.42888    344.23868    36812.755 
  600500    311.29084   -1494.1488    511.35553    422.04556    290.95485    36812.755 
  600600    294.31123   -1520.1718    498.70896    306.74792    336.94014    36812.755 
  600700     294.8514   -1540.7635    516.58533    306.47042   -72.122949    36812.755 
  600800    294.49253   -1536.4509    522.64877    315.22689    696.68627    36812.755 
  600900    308.51286   -1463.7716    519.96558      448.496    520.01866    36812.755 
  601000    308.22923   -1466.5613    518.26718    442.72788    487.91067    36812.755 
  601100    312.78485   -1490.1358    519.11297    440.55842    172.66573    36812.755 
  601200    301.79328    -1506.658    510.81333    366.13217    129.66072    36812.755 
  601300    300.51969   -1504.3888    517.92069    369.76111    385.32157    36812.755 
  601400     301.8949    -1503.025    491.75994    351.17047    691.28077    36812.755 
  601500    310.32196   -1505.0778    480.07847    375.46709    627.46572    36812.755 
  601600    297.26696   -1530.2741    501.07577    312.35155    895.86672    36812.755 
  601700    302.32873   -1577.7625    495.76488    282.39569    1094.4351    36812.755 
  601800    306.53271   -1530.7811    489.61003    342.19465    909.87239    36812.755 
  601900    297.31255   -1523.9972    510.42869     328.1871    559.40191    36812.755 
  602000    305.11454   -1543.8711    475.26129    308.35575   -553.53559    36812.755 
  602100    302.48777   -1539.4478    493.66004     319.3233   -968.93204    36812.755 
  602200    301.69863   -1495.0207    485.55235    352.08143   -1181.6774    36812.755 
  602300    302.74958   -1501.9476    489.86567    354.21066   -792.82453    36812.755 
  602400    299.46332   -1477.2102    521.25772    395.50941   -680.54132    36812.755 
  602500    300.15915   -1504.3994     502.4578     352.6606   -301.97404    36812.755 
  602600    287.98792   -1501.2852     540.4394    338.82823    129.41128    36812.755 
  602700    297.69586    -1524.972     501.8529    320.36636   -79.454787    36812.755 
  602800    301.21072   -1522.1141     498.9818    336.21558   -358.01833    36812.755 
  602900    299.48627   -1534.9559    514.77669     331.3863   -387.13423    36812.755 
  603000    306.55001   -1511.0759     503.9973    376.36514    4.4630622    36812.755 
  603100    304.87274   -1535.6216    477.46357    317.71629   -320.05532    36812.755 
  603200    303.41129   -1525.0443    498.05212    342.28669   -809.03246    36812.755 
  603300    308.43709    -1520.669    488.93378     360.2248   -964.41987    36812.755 
  603400    299.71566   -1513.3087    505.36804       344.66   -792.40831    36812.755 
  603500    294.48822   -1530.5155    504.62796    303.12198   -926.17801    36812.755 
  603600     299.7171    -1534.238    481.51049    299.87973   -1143.5047    36812.755 
  603700    315.66746   -1548.8505    507.53328    383.27313   -787.82043    36812.755 
  603800    297.47641   -1556.7021    512.00592    297.79886   -113.02345    36812.755 
  603900    289.29432   -1586.5991    475.36277    194.33346    -585.2563    36812.755 
  604000    302.16296   -1597.0717    492.29789    258.87145   -529.55925    36812.755 
  604100    296.07734    -1528.905    514.86825    322.14439   -439.61329    36812.755 
  604200    315.44844   -1508.5952    501.56657    416.57327    -518.5515    36812.755 
  604300    300.03272   -1496.2454    495.17553     352.9617    254.41741    36812.755 
  604400    292.60635   -1506.4812    498.04845    312.08401   -89.906816    36812.755 
  604500    299.35871    -1545.472    529.37153    334.88939    249.76295    36812.755 
  604600    291.98044   -1550.6155    478.79716    245.87379    97.848935    36812.755 
  604700    302.38481   -1566.7641    499.28563    297.16799   -83.140902    36812.755 
  604800    295.05976   -1553.3663    481.98261    260.20526   -430.82551    36812.755 
  604900    307.68315   -1546.8357    498.51114    340.23299   -768.12662    36812.755 
  605000    300.39345    -1511.833     499.4438    343.27031   -520.09694    36812.755 
  605100    299.14023   -1523.0527    518.31976    345.27087   -264.50782    36812.755 
  605200    300.31332   -1520.0564    511.67137    346.91294    1166.9031    36812.755 
  605300    297.38887   -1527.0555    517.30543     332.3499   -63.120231    36812.755 
  605400    299.96562   -1529.3992    518.56781    342.89741   -114.39999    36812.755 
  605500    302.45387   -1538.7803     498.5741    324.75193    -135.4749    36812.755 
  605600    290.85221   -1525.7729    523.45565    310.28322   -623.92022    36812.755 
  605700    293.17264   -1529.9092    525.84426    319.00748   -410.10447    36812.755 
  605800     289.3755   -1538.9355    485.46808    252.46874   -880.95795    36812.755 
  605900    308.28809   -1489.3297    510.80724    412.76519     -444.794    36812.755 
  606000    301.99666   -1526.9872    532.29454    368.20206   -10.155324    36812.755 
  606100    301.82003   -1493.0114    525.63502    394.72129   -564.74105    36812.755 
  606200    299.74485   -1504.4742    499.14673    347.40496   -222.39821    36812.755 
  606300    300.10831   -1487.9811    521.25243    387.64406   -382.33744    36812.755 
  606400    294.08525   -1531.8415    499.38759    294.73704   -327.60697    36812.755 
  606500    295.30592   -1540.2793    494.27866    286.69916   -545.65906    36812.755 
  606600    302.06652   -1539.6635    486.16872    309.71525   -89.852502    36812.755 
  606700    300.00132   -1526.9391     498.8282    325.77893   -203.10927    36812.755 
  606800    305.66559   -1543.9321    504.90874    340.42906    360.95953    36812.755 
  606900    307.38124   -1502.5382    522.73839    407.39528    803.01531    36812.755 
  607000    298.77147    -1547.737    503.01385     303.6165    788.46246    36812.755 
  607100    300.75523   -1553.1598    510.08691    314.21933     788.8954    36812.755 
  607200     309.2888   -1571.9135    510.59241    334.48268    693.01788    36812.755 
  607300    301.04883   -1572.6115    503.32695    289.33272    470.76056    36812.755 
  607400    304.08545   -1533.2446     499.1545    338.23122    503.49858    36812.755 
  607500    298.44015   -1528.2823    495.79484    314.35691     221.1969    36812.755 
  607600    293.14723   -1554.8811    528.81654    296.89321    512.24629    36812.755 
  607700    298.93372   -1560.9468    491.31885     279.4439    98.125684    36812.755 
  607800    304.74991   -1553.9551    501.70866    323.07355    162.74539    36812.755 
  607900    301.77941   -1570.7744    496.37313    287.51306    174.30498    36812.755 
  608000     305.6068   -1554.4148    535.19217    359.96453    58.057379    36812.755 
  608100     298.0395   -1533.6396    493.15469    304.55139   -133.14027    36812.755 
  608200    306.66931   -1543.4958    505.55577    346.04213    174.57581    36812.755 
  608300    313.27508   -1548.2571    516.98328     382.5198    233.62709    36812.755 
  608400    294.76373   -1498.4605    514.29044    346.08288    344.06735    36812.755 
  608500    298.99025   -1525.5599    499.52132     323.2884   -191.63971    36812.755 
  608600    303.24844   -1523.8224    515.19258    359.91418   -440.30306    36812.755 
  608700    307.76264   -1509.0378    497.38728    377.26582    60.253741    36812.755 
  608800     304.4651   -1524.1368    474.86349    324.76137    354.34815    36812.755 
  608900    307.22568   -1537.6848    530.36701    379.17522    -339.2922    36812.755 
  609000    294.00379   -1578.2278    485.87086    234.46637   -79.860856    36812.755 
  609100    306.24269   -1566.1187    497.65597    313.59406    322.45889    36812.755 
  609200    292.69194   -1541.3245    511.62364    291.20215   -21.226999    36812.755 
  609300    293.42891   -1544.5188    498.10439    277.81453    204.20543    36812.755 
  609400    293.30939   -1564.2506    481.02564    240.46454    113.31164    36812.755 
  609500    294.51832   -1586.9342    524.92493    267.13614   -15.574895    36812.755 
  609600    298.97824   -1539.7505     507.8939    317.41622     510.3424    36812.755 
  609700    307.32032   -1512.4865    538.53422    412.96788     132.8316    36812.755 
  609800    301.53263   -1484.6187    533.68535    409.86724   -371.78442    36812.755 
  609900     294.3475   -1470.5009    524.93622    382.80975   -273.38503    36812.755 
  610000    302.33308   -1493.1565    520.50593    391.76243    188.75137    36812.755 
  610100    307.02286   -1599.1553    526.59432    313.01677    145.70666    36812.755 
  610200     296.0206   -1552.1764    471.41909    255.16777   -740.15825    36812.755 
  610300    301.34599   -1555.1696    499.96443    304.75318   -1063.0917    36812.755 
  610400    296.44023   -1538.0307    495.24033    295.02849    -594.5605    36812.755 
  610500    300.65798   -1555.0418     529.1068    330.91837   -104.10525    36812.755 
  610600    313.01958   -1510.1293    514.91737    417.42861    157.72801    36812.755 
  610700    295.50812   -1541.6954      522.344    314.26085    54.000834    36812.755 
  610800    299.28632   -1495.8501    522.65483    377.46789    163.80056    36812.755 
  610900    289.67252    -1479.709     535.9493    363.51688    462.10541    36812.755 
  611000     299.7683   -1511.7056    521.68502    362.81768    402.49557    36812.755 
  611100    305.02141   -1513.2025    512.38929    375.73204    323.29777    36812.755 
  611200     314.0153   -1521.3986    526.55262    422.28825    -564.7935    36812.755 
  611300     308.2206   -1505.1039    515.79067    401.66987   -384.27323    36812.755 
  611400    316.93012     -1540.49    512.97646    402.77508    283.42086    36812.755 
  611500    306.93224   -1549.0954    500.08294    336.15628   -341.98601    36812.755 
  611600    296.62351   -1524.0519    500.37484    314.96899     36.26094    36812.755 
  611700    302.14756   -1534.0331    532.37341    361.91603    311.69353    36812.755 
  611800    312.00591   -1536.6588    511.56905    382.97626    424.79671    36812.755 
  611900    306.27173   -1516.3307     525.8486    391.70578     947.7642    36812.755 
  612000    300.05295   -1532.3854    505.23896    326.97643    688.53999    36812.755 
  612100    290.41765   -1573.4141    504.62075    241.84595     202.0252    36812.755 
  612200    297.32704   -1560.3905    502.51396    283.94441   -104.06774    36812.755 
  612300    300.40281   -1554.4559    500.15617    301.40204   -757.78897    36812.755 
  612400    298.03978   -1524.8358    499.83667    320.03846   -1229.6913    36812.755 
  612500    299.18737   -1538.3608    508.64636    320.50209   -484.19921    36812.755 
  612600    314.03231   -1561.8776    502.10966    357.44302    7.1342193    36812.755 
  612700    319.00592   -1533.2518     501.0892    407.49401   -490.54682    36812.755 
  612800    300.07606   -1550.4282    501.83594    305.63489   -145.89044    36812.755 
  612900    299.73523   -1571.9182    493.02002    273.79084    784.59873    36812.755 
  613000     298.9172   -1549.2473    505.81693    305.56691    447.35669    36812.755 
  613100    305.14635    -1529.373    497.00575    344.74189    291.71767    36812.755 
  613200    291.66211   -1580.9531    543.91133    279.21367   -159.82783    36812.755 
  613300    308.53452   -1608.9833    497.64976    281.06625     276.7886    36812.755 
  613400    297.00607   -1564.1783    477.57165    253.76579   -172.45527    36812.755 
  613500    303.29629    -1558.275    533.35537    343.84027   -118.18201    36812.755 
  613600    300.82431   -1581.8926    504.69106    280.40243   -136.76477    36812.755 
  613700    295.32202   -1528.6151    538.64226    342.79963    369.23034    36812.755 
  613800    313.05301   -1538.2791    499.54323    374.05562    478.51528    36812.755 
  613900    303.32864   -1519.7459    513.04625     362.2063    472.21113    36812.755 
  614000    295.67946   -1516.7714    523.80474    341.41886    712.07218    36812.755 
  614100    294.49465   -1566.6346    510.56034    272.96431    551.34578    36812.755 
  614200    299.77494   -1546.1542    510.05297      316.767    846.84458    36812.755 
  614300    304.74641   -1578.3204    496.35006     293.3339     44.42218    36812.755 
  614400    308.36871   -1557.7147    515.26765    349.20445    -465.3007    36812.755 
  614500    294.68722   -1512.3454    497.17987    314.74208   -493.03667    36812.755 
  614600    299.95781   -1554.2936    536.90955    336.30951   -191.82324    36812.755 
  614700     300.7693   -1571.9138    510.42663    295.86859   -635.12957    36812.755 
  614800    306.42781   -1580.0752    494.76385    297.58088    -117.7024    36812.755 
  614900    304.63823   -1532.3995    506.11703    348.53356    122.46155    36812.755 
  615000    296.67013   -1532.7149    515.72286    321.86433   -254.12581    36812.755 
  615100    297.14099   -1545.6636    495.64154     290.9593   -560.47155    36812.755 
  615200    315.37684   -1515.8639     514.0736    421.48849   -69.505589    36812.755 
  615300    303.96074   -1508.2472    528.94691    392.45824   -220.40272    36812.755 
  615400    298.51816   -1526.7303    524.01048    344.47664    379.43888    36812.755 
  615500    304.78932   -1559.5372    490.13583     306.0965    487.89346    36812.755 
  615600    300.90873   -1548.3515    534.32037    343.95383   -346.69744    36812.755 
  615700    288.18645   -1545.5472    500.56669    255.58955   -101.68038    36812.755 
  615800    306.59434   -1530.1214     498.4773     351.9997    -64.08534    36812.755 
  615900    303.49725   -1531.9956    488.75806    326.42926   -427.44344    36812.755 
  616000    296.28644   -1535.3806    521.05004     322.7943   -594.58277    36812.755 
  616100    303.79582   -1524.9518    502.91947    348.98195   -493.61674    36812.755 
  616200    316.94208   -1519.5182    543.73092    454.55537   -921.92092    36812.755 
  616300      299.778   -1535.2143     510.3979    328.06568   -291.70277    36812.755 
  616400    292.31511   -1571.5174    485.47346    233.15853    -559.5904    36812.755 
  616500    300.91599   -1558.3934    483.49578    283.12014   -755.74015    36812.755 
  616600    301.81828   -1545.4233    473.26988     289.9363   -663.55346    36812.755 
  616700    293.87188   -1519.4673    499.84711     306.6078   -1099.8701    36812.755 
  616800    309.53056   -1531.9278    500.44899    365.41606   -318.41939    36812.755 
  616900    298.72577   -1561.8889    496.28441    282.52889   -396.32881    36812.755 
  617000    307.15744   -1529.5512    520.46464    377.09853     312.1089    36812.755 
  617100    297.15867   -1548.1614    537.81644    330.71617    567.90491    36812.755 
  617200    316.80372   -1555.0816    536.47023    411.10678    1332.0844    36812.755 
  617300    293.19658   -1517.6636    502.18446    307.70135      598.588    36812.755 
  617400    296.31668   -1498.2189    523.93856    362.98091    210.90462    36812.755 
  617500    310.34709   -1538.6925    483.43916    345.32641    181.75935    36812.755 
  617600    298.28736   -1524.2827    500.12888    322.00107   -307.11227    36812.755 
  617700    291.08293   -1495.9524    533.74971      351.439   -330.15726    36812.755 
  617800    292.32699   -1499.4589    503.20263    322.99978     338.4868    36812.755 
  617900     299.1518   -1504.5419    506.12081    351.63492    425.82313    36812.755 
  618000    296.91841   -1502.6288    507.50303    344.85111    624.94924    36812.755 
  618100    287.01411   -1514.4088    503.13418    284.00467    814.93143    36812.755 
  618200    295.80308   -1541.3399    515.76213    309.36563   -5.0599658    36812.755 
  618300    299.30895   -1492.1885    507.70706    366.28381    540.77583    36812.755 
  618400    298.34199   -1527.5602    502.79065    321.63192    446.50253    36812.755 
  618500    302.28216   -1497.8266    526.10503    392.46164    116.65969    36812.755 
  618600    295.03476   -1478.1264    490.03283    343.38244   -445.85097    36812.755 
  618700    296.94418   -1503.5738    477.33273    313.85212     452.0173    36812.755 
  618800    298.23504   -1506.8177    514.46505    353.56606    346.42308    36812.755 
  618900    298.55548   -1526.2342    489.27978    310.41047    54.415487    36812.755 
  619000    307.60124   -1530.3597     506.4356    364.26379    574.27367    36812.755 
  619100    289.88791   -1547.1959    497.15757    258.21028    379.38056    36812.755 
  619200    296.83206   -1519.6605    514.74521     334.6719    423.38216    36812.755 
  619300     284.8943   -1548.9564    506.02531    242.78159    345.57524    36812.755 
  619400    307.83854   -1561.0349    496.36312    324.58702    212.18106    36812.755 
  619500    295.68561   -1500.9996    501.84936    335.26308   -17.593562    36812.755 
  619600    295.08554   -1511.6147    505.28321     325.3738 -0.016133713    36812.755 
  619700    304.22532   -1496.4434    518.34688    394.85602   -11.611179    36812.755 
  619800    286.63244   -1510.5897     501.8527    284.81977    132.21378    36812.755 
  619900    297.56186   -1518.8714    492.14143    316.15079    291.88199    36812.755 
  620000    305.17642   -1502.4001    534.92111    409.76578    336.09642    36812.755 
  620100    295.62447   -1468.9801    521.79362    386.95088     1043.687    36812.755 
  620200    301.71668   -1458.4875    511.89379    415.03753     580.8312    36812.755 
  620300    307.48782   -1505.8003    524.97246    406.84819    508.68878    36812.755 
  620400    298.07783   -1537.9176    489.79212    297.08384    231.15211    36812.755 
  620500    296.48148   -1557.4875    523.39183    303.90938   -44.795974    36812.755 
  620600    305.17521   -1507.1632    508.19832    378.27447    256.25631    36812.755 
  620700    293.72103   -1507.7755    499.71047    317.48219    536.28261    36812.755 
  620800    295.13761   -1522.2765    520.44093     330.1046    141.53453    36812.755 
  620900    298.64549   -1511.7649    501.99767    338.00383   -260.66628    36812.755 
  621000     306.3296   -1515.0458     486.9354    354.33869   -201.19483    36812.755 
  621100    293.06312    -1517.534    520.18948    325.23364   -390.64918    36812.755 
  621200    300.33684   -1548.6064    484.81534    291.61306    17.324069    36812.755 
  621300    306.74807   -1485.1672    533.92241    433.09277    531.49423    36812.755 
  621400    299.87603   -1522.8396     528.9994    359.48423    674.36013    36812.755 
  621500    298.31542   -1521.0846     484.5955    309.79236    601.00828    36812.755 
  621600    305.09067   -1537.8837    509.89433    348.86846    355.57041    36812.755 
  621700    302.70704   -1518.9692    502.72572    349.85719    347.03151    36812.755 
  621800    295.32469   -1600.5976    505.86263    238.04956   -77.844469    36812.755 
  621900    300.32651   -1570.7605    509.28965    293.88663    754.69781    36812.755 
  622000    301.98944   -1583.9059     489.3904    268.34665    567.14439    36812.755 
  622100    307.96251   -1517.9312    518.23248    390.11954    934.11706    36812.755 
  622200    298.58508   -1513.3797    498.89092    333.00966    814.96536    36812.755 
  622300     290.7822   -1534.8418    502.64612    280.08875    390.88846    36812.755 
  622400    295.24726    -1548.116    503.52104    287.84007    345.30522    36812.755 
  622500    291.25557   -1563.9635     496.5679    247.02518    507.35414    36812.755 
  622600    304.24577   -1592.8676    491.64207    271.81932   -73.995134    36812.755 
  622700    296.94104   -1539.0469     477.2761    278.30818    242.94117    36812.755 
  622800    298.92028   -1530.9976    529.50045    347.51402    127.84448    36812.755 
  622900    303.13733   -1545.2526    466.86828    289.65819    326.29424    36812.755 
  623000    303.46422   -1548.5579    521.30112    342.26101    826.91887    36812.755 
  623100    296.79483   -1538.8152    516.43286    317.03685    597.17387    36812.755 
  623200    296.52063   -1479.9771    501.54184    359.74649    500.57991    36812.755 
  623300    300.71958   -1494.9976    521.28466    383.41837   -252.64224    36812.755 
  623400    295.68952    -1425.719    502.90789    411.61983   -635.18417    36812.755 
  623500    308.51444   -1495.3294    500.20665     397.1864   -395.22533    36812.755 
  623600    300.38349   -1492.6855    489.83587    352.76498   -400.39228    36812.755 
  623700    307.20923    -1483.514    502.27613    405.18094   -125.97451    36812.755 
  623800    291.93696   -1507.8125    511.07955    320.76296    14.192023    36812.755 
  623900    293.42842   -1529.9599    495.06772    289.33452   -319.73187    36812.755 
  624000    300.46873   -1545.5568    510.62718    321.06964    132.75342    36812.755 
  624100     294.8416   -1544.6349    499.36452    285.33403   -305.91669    36812.755 
  624200    301.99613   -1507.5682    510.04613    365.37033   -355.63899    36812.755 
  624300    299.03952   -1594.5592     478.0152     233.0053    -164.8206    36812.755 
  624400    304.92176   -1541.4616    532.58477    367.21871    209.45171    36812.755 
  624500    303.04057   -1571.1032    479.12807    275.63068   -441.87176    36812.755 
  624600    290.24311   -1549.7411    488.10778    248.21827   -27.790324    36812.755 
  624700    296.60926   -1559.9561    510.61075    289.23636    143.75394    36812.755 
  624800    289.50081   -1527.6432    512.93867    291.79707   -672.89358    36812.755 
  624900    298.79751    -1593.376    495.09532    250.17648   -40.110738    36812.755 
  625000    303.58052   -1554.6296    508.06944    323.48241   -189.73938    36812.755 
  625100    303.82684   -1528.1023    461.63675    304.68873   -358.01081    36812.755 
  625200     308.9337   -1541.1025    490.55992    343.65863     277.6026    36812.755 
  625300    312.11087   -1552.9673    493.95035    349.52262    331.58758    36812.755 
  625400    291.94281   -1576.4199    498.79668    239.89907   -584.31888    36812.755 
  625500    294.10362   -1526.3795    518.85016    319.74456   -416.27166    36812.755 
  625600    297.49732   -1477.4445    486.89525    352.04025   -364.38396    36812.755 
  625700    303.24772   -1489.0329    504.21849    383.72629   -931.10037    36812.755 
  625800    299.39666   -1504.5986    514.87736     361.4398   -674.80922    36812.755 
  625900    298.03362   -1498.8191    488.56809    334.75877   -406.31493    36812.755 
  626000    310.73341   -1486.2392    490.04224    406.12621    337.46137    36812.755 
  626100    300.60496    -1490.303    499.82644    366.13752   -110.69778    36812.755 
  626200    291.47641   -1488.1599    505.60581    332.86336   -97.068817    36812.755 
  626300    304.05376   -1535.8174    524.58509    360.94605    -44.37283    36812.755 
  626400    303.20115   -1496.8234    502.30602    373.81316    338.57034    36812.755 
  626500    302.10316   -1463.8764    508.13489    407.63388    333.61559    36812.755 
  626600    300.11273   -1501.5701    519.51007    372.33262    171.62679    36812.755 
  626700    288.82945   -1499.8525    512.66655    316.28589     107.5362    36812.755 
  626800    303.49098   -1496.8586    494.19654     366.9765    19.208119    36812.755 
  626900    309.15393   -1474.4195    502.15407    422.92973   -146.92075    36812.755 
  627000    298.62041   -1522.5338    501.97246    327.09651    225.20319    36812.755 
  627100    303.53338   -1530.5236    497.58055    336.88689    189.24939    36812.755 
  627200    306.07101   -1536.7767    498.37512    342.88047    643.74373    36812.755 
  627300    295.35521   -1547.0375    511.08577    296.97045    991.98593    36812.755 
  627400    307.25336   -1560.4929    487.71459    313.83968     860.9031    36812.755 
  627500    310.16342   -1538.9027     504.6035    365.45175    1112.5056    36812.755 
  627600    307.14094    -1519.438    499.71545    366.38811    276.24136    36812.755 
  627700    301.55628   -1549.5733    495.30068    306.63476    160.46497    36812.755 
  627800    306.12358   -1508.8021    510.06665    382.78381   -624.56309    36812.755 
  627900    296.37049   -1523.3795    481.81693    295.94152   -1176.5478    36812.755 
  628000    292.79862   -1571.9072    512.00167    261.47892   -491.91931    36812.755 
  628100    297.78543   -1511.7638    503.76965     335.8955   -706.73696    36812.755 
  628200    295.93092   -1562.6102    463.04773    235.95794    -541.3582    36812.755 
  628300    303.87118     -1541.86    531.73431    361.22863    4.8398445    36812.755 
  628400    298.07367   -1542.4688    493.15663    295.87828    340.35436    36812.755 
  628500    299.56524   -1525.9124    509.24443    335.25395      198.441    36812.755 
  628600    293.59438   -1498.4039     510.8387     337.4105   -90.267759    36812.755 
  628700    294.10824   -1547.3284    514.12936    294.09564   -124.46186    36812.755 
  628800    291.55688   -1564.5229    502.26538    253.52308    235.04357    36812.755 
  628900    314.03572   -1558.5399    503.80726     362.4938    961.54428    36812.755 
  629000    296.61581   -1582.3454    498.46998    254.73579    564.09371    36812.755 
  629100    309.97511   -1552.6658     492.6449    338.88014    614.92266    36812.755 
  629200    293.78316   -1567.5349    483.85708    242.14983    14.650433    36812.755 
  629300    295.61527   -1582.9107    483.88333    235.06851   -755.44868    36812.755 
  629400    305.25466   -1533.5652    492.24179     336.2745   -571.30411    36812.755 
  629500    307.43431   -1523.9287    472.72527    336.23118   -510.74443    36812.755 
  629600    311.13109   -1520.2612    510.21174    394.06848    208.06299    36812.755 
  629700    301.94864   -1497.7128    516.77661     381.7418    97.454191    36812.755 
  629800     300.2272   -1525.5095    533.03466     362.4344    369.03563    36812.755 
  629900    304.58718    -1473.694    532.51992    433.41157    1107.7711    36812.755 
  630000    303.18818   -1514.6556    505.13506     358.7515    594.89176    36812.755 
  630100    309.10152   -1463.1269    507.34233      439.174    555.89013    36812.755 
  630200    292.35862   -1476.9686    490.81913    333.24936   -348.81217    36812.755 
  630300    300.89192   -1494.0298    504.37412    368.25346   -439.60094    36812.755 
  630400    305.38437   -1474.9114    521.57994     424.8519   -333.74814    36812.755 
  630500    303.09807   -1461.4123    504.48616    410.93921     -337.366    36812.755 
  630600    285.17339   -1506.9036    502.18335    282.25194   -730.42268    36812.755 
  630700    294.44408   -1516.0487    489.90442    302.66606   -296.41678    36812.755 
  630800    314.08343   -1504.4143    503.05328    416.08062    417.81141    36812.755 
  630900     293.1317    -1582.282    497.61639      238.222   -8.0135993    36812.755 
  631000    305.61961   -1507.1525    492.42622    364.51862    465.59648    36812.755 
  631100    303.84412   -1527.0222    507.32857    351.53863   -317.35209    36812.755 
  631200    304.25382   -1478.2211    493.35385    388.21397    3.7565556    36812.755 
  631300    297.62251   -1501.7368    497.75596    339.17355    106.24506    36812.755 
  631400    305.28331   -1499.1061    462.47779    341.09884    323.95839    36812.755 
  631500    290.61287   -1486.5625    529.48107    354.43891   -91.261737    36812.755 
  631600    294.20296   -1502.0994    489.48509    315.10789     407.5792    36812.755 
  631700    306.06971   -1463.0295    513.73546    431.98218    696.55194    36812.755 
  631800     298.2971   -1473.7053     500.8904    373.38389    991.79446    36812.755 
  631900    307.13231   -1516.1276    516.70676    386.65079    492.03416    36812.755 
  632000     304.0558   -1531.7869    527.76393    368.16455    475.49858    36812.755 
  632100    293.02141   -1498.9111    480.16501     303.6438    271.51447    36812.755 
  632200    298.60354   -1523.0116    486.01427     310.5845   -195.62704    36812.755 
  632300    302.17706   -1506.2289    478.46488    335.94485   -259.33893    36812.755 
  632400    300.24142     -1536.54     486.1351    304.56855   -675.86868    36812.755 
  632500    305.46173   -1535.5851    514.97065    357.91797   -626.82615    36812.755 
  632600    294.69211   -1539.3915    483.62774    274.16594   -171.16152    36812.755 
  632700    301.75972   -1540.5979    512.56273    333.79026   -152.88418    36812.755 
  632800    306.13068   -1581.2149    520.66631    321.00276    329.84862    36812.755 
  632900    294.05018   -1595.4598    487.38779    218.96074    262.24312    36812.755 
  633000    304.73987   -1563.2191    508.37315    320.42873    528.80754    36812.755 
  633100    297.19126   -1536.2065    510.81024    315.81194    26.514584    36812.755 
  633200    315.86235   -1567.3327    496.29504    354.43219     307.4517    36812.755 
  633300    299.34407   -1548.0042    502.37593    305.29549    436.53029    36812.755 
  633400    301.86422    -1557.211    483.34997    288.43607    178.25409    36812.755 
  633500    290.18054   -1512.6721    509.89372    306.79085    272.81853    36812.755 
  633600    300.82469   -1549.6583    504.78516    312.73257    98.569298    36812.755 
  633700    291.77563   -1544.1306    497.41949    270.05671   -276.03653    36812.755 
  633800    297.10045   -1515.1108    495.08304    320.77069    48.840203    36812.755 
  633900    307.34442    -1516.972    523.50699    393.56384   -27.472907    36812.755 
  634000    297.68479   -1502.5236     502.7704    343.68235    587.73946    36812.755 
  634100    315.28329   -1537.2718    513.59087    399.17566    243.63647    36812.755 
  634200    304.24163   -1505.3914     505.0632    372.69802   -260.68596    36812.755 
  634300    309.42854   -1512.1464    508.19194    392.47998   -33.337036    36812.755 
  634400    300.75741   -1497.6455    501.10993    360.76648    242.89028    36812.755 
  634500    296.30221   -1471.7017    520.46973    385.96406   -441.55468    36812.755 
  634600    291.74411   -1506.7369    516.52828    326.41688   -84.867292    36812.755 
  634700    296.76693   -1481.7415    500.82695     358.3787   -247.97516    36812.755 
  634800    297.39854   -1465.1618    524.99631    401.97816   -526.43427    36812.755 
  634900    304.12981   -1491.9594    514.48983    395.05199   -986.36478    36812.755 
  635000    286.37104   -1474.5045    476.49716    294.36979    -222.1285    36812.755 
  635100    301.01707   -1492.0611    478.68329    345.09606   -11.930306    36812.755 
  635200    296.88526   -1478.2648    534.31142    395.87389   -135.04778    36812.755 
  635300    298.29455   -1498.6708     507.2972    354.81373   -452.66042    36812.755 
  635400    295.81881    -1504.705    492.32159    322.63108   -240.58049    36812.755 
  635500    304.69439   -1480.6918    490.31817    384.69586   -617.39699    36812.755 
  635600    299.19198    -1482.491    521.94636    389.69274    -241.4392    36812.755 
  635700    294.72626   -1497.3463    498.16416    330.90171   -437.35485    36812.755 
  635800    294.17526   -1522.3115     505.8833    311.16901    -621.9778    36812.755 
  635900    298.30173   -1479.3265    494.09386    360.98709   -18.380118    36812.755 
  636000    302.83253   -1507.2306     487.8391    347.27547    357.74551    36812.755 
  636100    300.98873   -1521.4782    506.17206    343.03983   -300.98064    36812.755 
  636200    303.48007   -1463.0283    495.08058    401.64163   -493.98566    36812.755 
  636300    299.17582   -1502.4398    508.85264    356.57733   -396.78204    36812.755 
  636400    307.02201   -1512.0249    487.61045     361.1594     98.95202    36812.755 
  636500     295.2726   -1481.0754    510.80557    362.27959   -16.129047    36812.755 
  636600    302.49904   -1498.7047     501.2304    367.68761    98.559795    36812.755 
  636700    290.88734   -1551.5344    498.07777    259.30233   -65.307118    36812.755 
  636800    300.72076   -1535.4492    507.97724    329.66476   -252.94667    36812.755 
  636900      300.861   -1507.7554    533.27683    383.29104   -150.44703    36812.755 
  637000    289.48726   -1513.7114    505.16112    297.89019    -228.7163    36812.755 
  637100    297.63296    -1521.737    503.23403    324.69868   -645.14547    36812.755 
  637200    297.45078   -1527.5367    509.66256    324.50529   -658.66042    36812.755 
  637300    291.89502   -1532.5207    489.03487    273.82075   -459.46239    36812.755 
  637400    298.96022   -1539.9762    473.27117    282.48638   -37.600972    36812.755 
  637500    306.06967   -1542.0598    489.25569    328.47193     525.8782    36812.755 
  637600    298.88086   -1545.1647    502.25657    305.92519    570.35096    36812.755 
  637700     304.8971   -1539.3968    503.87979    340.46725    793.69998    36812.755 
  637800    302.49482   -1557.5921    482.04315    289.59396    43.822591    36812.755 
  637900    303.14667   -1570.7181     483.4514    280.81799    379.83318    36812.755 
  638000    298.79859   -1538.0333    495.97642    306.40512    541.75613    36812.755 
  638100    301.86182   -1574.1808    492.12134    280.22673    394.98105    36812.755 
  638200     304.5817   -1560.6953    516.69059    330.55619   -46.348593    36812.755 
  638300    305.97186   -1559.8588    492.14473    313.12056   -356.71335    36812.755 
  638400     297.9376   -1568.5135    477.57707    253.63995   -471.65999    36812.755 
  638500    292.24589   -1549.6309    492.94193    262.20106   -386.96704    36812.755 
  638600    301.20865   -1544.1693    519.97453     335.1437   -84.127791    36812.755 
  638700    295.80612   -1518.4725    502.84922    319.33395    625.09845    36812.755 
  638800     291.0553   -1512.0787    493.06159     294.4999   -84.020237    36812.755 
  638900    287.35065   -1521.0778    523.72884     299.4491    70.239898    36812.755 
  639000    303.95064    -1525.036    513.50974    360.18675   -103.52203    36812.755 
  639100    308.98018   -1527.4719     492.3645    359.30362    -77.98923    36812.755 
  639200    299.57593   -1544.1062    495.95419    303.81811     172.4794    36812.755 
  639300    293.95095   -1515.0653     482.9342    294.45377   -262.51892    36812.755 
  639400    309.58558   -1511.3347    481.26722    367.07562   -161.34417    36812.755 
  639500    298.05173   -1557.4478    516.61448    304.25812    701.08084    36812.755 
  639600      296.809   -1508.9648    474.90919    305.42745    544.90211    36812.755 
  639700    297.34119   -1527.8287    494.86304    308.91919   -232.83656    36812.755 
  639800    300.26121   -1518.7863    501.59526    337.87171   -82.030065    36812.755 
  639900    293.32629   -1522.5381    478.63603    279.86382   -308.69911    36812.755 
  640000     292.9727   -1512.5817    499.05992    308.64834   -593.53284    36812.755 
  640100    297.03689   -1495.8585    498.06331    342.71637   -587.96477    36812.755 
  640200    307.14048   -1537.5131    485.91782    334.51324   -1030.9779    36812.755 
  640300    301.32172   -1509.7117    516.32074    366.45779   -901.98377    36812.755 
  640400    299.22907   -1546.6911    473.95503    277.66873   -279.24821    36812.755 
  640500    299.82557   -1524.7095    509.63705    338.02425    223.29555    36812.755 
  640600    301.52681   -1526.0224    505.56693    340.31886    632.33393    36812.755 
  640700    294.77434   -1535.0508    459.33664    254.58666    725.44742    36812.755 
  640800    307.39378   -1499.4549    526.30238    414.09914    21.021962    36812.755 
  640900    293.77238   -1459.0656    522.01994     388.7333    170.05757    36812.755 
  641000    305.97813   -1481.2714    480.72332    380.31485   -65.090496    36812.755 
  641100    304.09223   -1458.2343    523.73428    437.85194   -45.466024    36812.755 
  641200    291.55771   -1485.7061    501.79717    331.87539   -427.48131    36812.755 
  641300    294.56484   -1498.8121    493.41763    323.96084   -88.805052    36812.755 
  641400    297.70429   -1510.9567    503.19432    335.76112    243.27915    36812.755 
  641500    290.41998    -1486.747    487.58415      311.487   -106.95347    36812.755 
  641600    300.44778   -1476.0104     496.6569    376.55129     173.8259    36812.755 
  641700    299.94236   -1465.0501    490.21318    378.78682    175.21237    36812.755 
  641800    293.02111    -1452.454    496.35855    366.29311    153.43285    36812.755 
  641900    290.68251   -1472.2193    495.83831    335.45364     676.3877    36812.755 
  642000    305.79698   -1480.8156    511.54534    410.77515    917.28605    36812.755 
  642100     295.5045   -1480.9471    497.11229     349.7612    1253.0845    36812.755 
  642200    294.40504   -1446.1399    506.77423    389.26857    747.91989    36812.755 
  642300    293.24342   -1462.8998    477.57725    338.06931      959.141    36812.755 
  642400    294.37138   -1455.8464    518.43307    391.06894    259.17244    36812.755 
  642500    298.93465   -1476.4172    517.71984    390.37871    492.08214    36812.755 
  642600    305.91439   -1499.6813    501.05433    381.94832    720.60456    36812.755 
  642700    308.29441   -1523.9379    481.25645    348.63472     399.5793    36812.755 
  642800    308.02894   -1501.2125    480.28559    369.19117    719.29087    36812.755 
  642900    297.26214   -1519.3775     480.1658    302.31647   -75.013285    36812.755 
  643000    292.71496   -1551.7846    482.23929    251.46167    -119.5637    36812.755 
  643100    312.65539   -1499.3414    481.53221    393.18781    -297.2941    36812.755 
  643200    300.01595   -1496.1654    507.38783    365.17832   -432.13331    36812.755 
  643300    304.55807   -1447.9748    481.45731    407.93673   -19.832576    36812.755 
  643400    305.63507    -1464.322    480.42098    395.41363   -701.97265    36812.755 
  643500    307.10486   -1439.6002    490.31139    436.65902   -900.54533    36812.755 
  643600    301.16641   -1491.9442    478.65665    345.86029   -683.83836    36812.755 
  643700    299.96638   -1498.2648    477.59434     333.0617   -718.33912    36812.755 
  643800     298.1475   -1518.7955    468.27249    295.00067   -279.00872    36812.755 
  643900     294.0647   -1521.3218    508.97803    314.75439   -518.14289    36812.755 
  644000     304.9025   -1466.4002    473.51939     383.1278   -174.83234    36812.755 
  644100    301.24517   -1501.4633    483.88624    341.92623   -198.55443    36812.755 
  644200    298.49538   -1505.1941    496.06196    337.96151   -308.38486    36812.755 
  644300    294.19601   -1472.2086    509.67552    365.15773   -565.81195    36812.755 
  644400    295.10639   -1489.5926    486.71454    328.92131   -877.98035    36812.755 
  644500     285.8429   -1504.9819     482.3062    267.31797   -172.59265    36812.755 
  644600    301.33484   -1496.7512     478.1895    341.34635    74.057022    36812.755 
  644700    298.02099   -1482.9899    515.83828    377.80113    46.018556    36812.755 
  644800    299.95939   -1438.9188    494.06122    408.84308   -284.74247    36812.755 
  644900    299.17388   -1427.8222    482.46569    404.79916   -92.707022    36812.755 
  645000    306.90633   -1442.1438    520.53659    463.44468   -15.731516    36812.755 
  645100    297.81912   -1456.7255    501.65582    388.97202    66.063953    36812.755 
  645200    297.56576   -1453.5144    516.64424    406.02816   -270.20331    36812.755 
  645300    300.24348   -1419.4965     460.0784    395.56469   -217.96485    36812.755 
  645400    297.50482   -1444.4014    505.79305    404.01497   -177.80445    36812.755 
  645500    307.11964   -1420.4359    506.43449    472.01311   -131.75458    36812.755 
  645600    305.29586   -1436.1456    468.43906    410.07729     -213.751    36812.755 
  645700    295.27855   -1441.2046    502.39728    393.76892   -50.737876    36812.755 
  645800    297.52767   -1444.7134    486.56921    384.58222   -189.67032    36812.755 
  645900     297.5848   -1469.5441    520.85829    394.29846    311.64542    36812.755 
  646000    296.99346   -1427.8541    507.76145    420.22295    251.20598    36812.755 
  646100    303.52621   -1437.7507    483.72687    415.77371    1083.0577    36812.755 
  646200    299.79273    -1434.248     502.5558    421.25637    976.01588    36812.755 
  646300    305.53942   -1424.7467    500.31245    454.44872    1385.2804    36812.755 
  646400    290.34503   -1453.7404    490.49751    347.06867    454.12053    36812.755 
  646500    308.87592   -1475.0348    467.66342    386.56911    141.49152    36812.755 
  646600    305.89424   -1462.6782    477.02314     394.8292   -61.766912    36812.755 
  646700     300.9525   -1434.3201    464.84535    388.70779    243.97648    36812.755 
  646800    301.63095   -1473.3239     479.7506    367.67106   -232.89195    36812.755 
  646900    294.11388   -1477.5358    481.37924    331.16362    73.943129    36812.755 
  647000    303.85512    -1468.063    494.35684    397.57572    393.42226    36812.755 
  647100    296.15507   -1498.5534    449.40423    287.38274   -309.00705    36812.755 
  647200    298.40922   -1496.8854    468.51128    318.33065   -105.92159    36812.755 
  647300     307.5311    -1428.228    485.21449    444.85789   -312.46632    36812.755 
  647400    292.22316   -1451.6044    487.00033    354.18337    235.59925    36812.755 
  647500    303.12818   -1458.9485    478.49381    387.54654    63.026818    36812.755 
  647600    295.16646   -1482.4171     488.7918    338.44508    758.49966    36812.755 
  647700    294.57733     -1506.86    485.30679    307.85846    376.52983    36812.755 
  647800    297.88469   -1491.4378    509.16083     362.0607   -422.89345    36812.755 
  647900    296.44465    -1471.236    462.87396    329.47676   -66.299714    36812.755 
  648000    291.22321   -1483.5546    462.48424    293.20442   -473.78996    36812.755 
  648100    297.48809   -1445.8163    492.89233    389.62379   -624.58803    36812.755 
  648200    298.55425   -1460.6693    482.97259    369.66258   -197.27089    36812.755 
  648300    308.96681   -1485.2165    473.56597    382.70013   -83.443896    36812.755 
  648400    297.76857   -1507.1162     473.5446    310.24203    378.62558    36812.755 
  648500    295.43495   -1487.2695    490.69981    336.71239    57.702281    36812.755 
  648600    305.24499   -1511.3847    468.06929    334.23889    699.92409    36812.755 
  648700     290.9431    -1465.186    493.87475    341.69932     659.1115    36812.755 
  648800    307.79838   -1460.1537      501.828    430.75194    58.243317    36812.755 
  648900    292.79034   -1437.6612    491.37987    375.06577    381.28431    36812.755 
  649000    310.62956   -1463.4288     483.7563    422.18211   -88.368376    36812.755 
  649100    295.21105     -1465.87    516.85581    383.25741    144.20964    36812.755 
  649200    290.00918   -1495.5623    482.24499    295.47857   -83.775466    36812.755 
  649300    304.58981   -1547.5492    456.46872    283.51696   -48.089143    36812.755 
  649400    299.70547   -1449.2809    518.91656    422.19044     181.6659    36812.755 
  649500    298.08285   -1481.9348    470.00899    333.30608    294.88604    36812.755 
  649600    302.23522   -1488.1208    486.40592    362.25644    350.98978    36812.755 
  649700    308.11414   -1502.4588     500.3853    388.42911    52.607799    36812.755 
  649800    298.97612   -1468.2983    482.16459    363.12951    514.65496    36812.755 
  649900    301.92471   -1488.5507     475.9026    349.92189    477.03036    36812.755 
  650000    303.44381   -1541.2705    487.88317    316.03827   -111.96531    36812.755 
  650100    301.30245   -1498.6857    486.58389    347.65999   -141.19467    36812.755 
  650200    302.47142   -1487.5996    463.93579    341.37354   -114.78249    36812.755 
  650300    299.02538   -1506.3163    464.93493    308.10419   -549.39648    36812.755 
  650400    298.30072   -1474.9621    495.49542    366.74849   -674.90022    36812.755 
  650500    300.48681   -1451.2928    478.66817    383.45625   -860.92804    36812.755 
  650600    300.45798   -1468.3752    464.72329    352.29888   -413.27776    36812.755 
  650700    297.02147   -1524.3179    474.66207    290.78613   -229.30831    36812.755 
  650800    296.57811   -1483.1001    524.92695    380.26803    51.243375    36812.755 
  650900    292.93818   -1488.3236    484.96889     318.6596    321.56715    36812.755 
  651000    294.46167   -1511.9096    480.01971    296.99985   -298.57274    36812.755 
  651100    295.84713   -1478.2908     484.5489    341.40036   -74.847328    36812.755 
  651200    301.55714   -1510.0534    473.21814    324.07593   -386.19324    36812.755 
  651300    303.24327   -1514.9675    480.61214    334.16532   -607.34715    36812.755 
  651400    305.77059   -1500.4795    471.29011    350.73691   -30.609999    36812.755 
  651500    303.90883   -1481.3286    492.80148    382.99718   -419.66895    36812.755 
  651600    303.52954   -1445.7381    498.36288    422.43736    -253.4474    36812.755 
  651700    294.76566   -1473.4726    467.15114     323.9401   -175.55345    36812.755 
  651800    298.03845   -1489.7242    489.39723    344.70458    47.030229    36812.755 
  651900     301.8994   -1459.5367    483.38173    386.30083    9.9479297    36812.755 
  652000    297.79087   -1491.2433    493.57268    346.24359     62.05967    36812.755 
  652100    306.16529   -1467.9077    481.51183    395.31166    305.79594    36812.755 
  652200     298.3666   -1476.0485    482.10889    352.57283    82.707251    36812.755 
  652300    305.71489   -1484.8394    502.11638    396.95185    97.443417    36812.755 
  652400     306.7161   -1454.4127    478.21849    407.99911     106.9352    36812.755 
  652500    301.23338   -1464.0707    487.83493    383.21429   -105.40363    36812.755 
  652600    298.65807   -1405.3331    484.92139    427.41612    112.40437    36812.755 
  652700    295.74361   -1415.3318    471.79362    391.13692   -374.38233    36812.755 
  652800    290.41012   -1441.0026    491.71643    361.31912   -47.214262    36812.755 
  652900    304.81264   -1433.5075     491.4118    433.50743   -192.92176    36812.755 
  653000    298.19594   -1414.9978    481.20167    411.94615   -488.67687    36812.755 
  653100    299.88217   -1382.4326    495.97549    466.89503   -224.24957    36812.755 
  653200    305.09806   -1422.4488    476.30603    430.74844    338.39751    36812.755 
  653300    300.09911   -1414.8779    492.76693    432.22018    97.445399    36812.755 
  653400    303.05572   -1453.4009    495.80673    410.08008    12.233631    36812.755 
  653500    298.07436   -1471.3828    492.06029    365.87108    796.90171    36812.755 
  653600    296.03873   -1472.7221    478.54918      341.834    376.94241    36812.755 
  653700    295.89447   -1479.8182    477.14117    332.67883   -117.62048    36812.755 
  653800    306.70515    -1467.976    458.27046    374.43837   -29.117062    36812.755 
  653900    303.10381   -1496.8175    496.23234    367.30615   -726.05093    36812.755 
  654000    300.11849   -1455.2236    501.20892    400.40393   -687.68616    36812.755 
  654100    300.10582   -1466.6203    441.99561    329.73684   -910.41642    36812.755 
  654200    307.15669   -1475.2288    490.81806    401.77091   -598.64728    36812.755 
  654300     302.9221    -1511.094    478.45048    334.42771   -270.59736    36812.755 
  654400    294.95143   -1470.1773     482.5175    343.44016     183.9854    36812.755 
  654500    293.16406   -1461.5217    485.64164    347.15368    -73.89844    36812.755 
  654600    300.74842   -1441.9927    483.48375    398.75255    388.63069    36812.755 
  654700    295.79326   -1470.8992     505.1807    369.18061    52.409624    36812.755 
  654800    306.64047   -1489.2614    492.28868    386.87933   -262.12407    36812.755 
  654900    307.96768   -1474.3025    460.80451     376.3437    141.61516    36812.755 
  655000    305.75113   -1420.5915    483.24548     442.4925   -483.89711    36812.755 
  655100    302.89471   -1462.6833    471.56899     375.8333   -106.56081    36812.755 
  655200    291.90548   -1476.6006    482.83481    323.58799   -358.20703    36812.755 
  655300    296.10414   -1476.0468    474.87205    335.12741   -302.48359    36812.755 
  655400    287.33438   -1462.5107    493.70434    327.91827    109.41933    36812.755 
  655500    291.17932   -1489.6219    503.75149    328.20629    172.54943    36812.755 
  655600    306.41742   -1504.8516    486.87261    364.86641    875.53897    36812.755 
  655700     298.2507   -1478.6974    484.83417    352.12623    345.30699    36812.755 
  655800    296.49646    -1500.834    466.98515    304.22382    676.05611    36812.755 
  655900    293.40074   -1490.5502    482.04482    315.59644    648.04948    36812.755 
  656000    303.85055   -1485.3656    513.83266     399.7283    774.49472    36812.755 
  656100     294.9746   -1480.5656    474.10015     324.7391    1013.4208    36812.755 
  656200     297.2176   -1467.6805    452.33084    325.97743    324.55675    36812.755 
  656300    302.09852   -1471.9291    490.27171    381.69706   -163.84993    36812.755 
  656400    298.46724   -1490.4679    501.62454    358.12329    453.38113    36812.755 
  656500    300.32277   -1461.4607    470.09926    363.97913    614.77145    36812.755 
  656600     297.9489   -1513.6039    487.80589    318.82938    190.17497    36812.755 
  656700    293.56966   -1444.2924    487.25113    367.82291    656.03669    36812.755 
  656800    294.85896   -1478.4232    475.14469    327.40416   -269.17544    36812.755 
  656900    296.60598   -1476.2417    489.19174     351.5169   -4.4020733    36812.755 
  657000    293.04994   -1442.6262     482.3885    362.28093   -149.75757    36812.755 
  657100    300.33261   -1469.1149    473.71361    359.98366   -272.55725    36812.755 
  657200    302.01648   -1478.9637    460.79697    344.81752   -508.42293    36812.755 
  657300    306.99052   -1479.6839    462.23221    367.98007   -292.26608    36812.755 
  657400    294.32224    -1459.473    468.55572    337.34325    59.625347    36812.755 
  657500    302.97839   -1493.7815    492.45507     365.9988   -11.631193    36812.755 
  657600     281.9747   -1519.9364    479.85042     232.4507   -45.714239    36812.755 
  657700    289.86233   -1475.8227    476.82731     309.1378    -117.7433    36812.755 
  657800    287.79572   -1508.2836    482.15722    272.68026   -546.24922    36812.755 
  657900    305.21306   -1498.6886    470.67131    349.39288   -209.04426    36812.755 
  658000    293.13045   -1491.1826     482.4051    314.10453    81.583132    36812.755 
  658100    299.69588   -1492.2986    508.12994    368.34272    600.11364    36812.755 
  658200    297.78274   -1471.8496    487.91604    359.94394    356.31766    36812.755 
  658300    295.97169   -1465.1344    479.05633    349.62636    460.18227    36812.755 
  658400     297.7694   -1469.6883    484.99492    359.12394    326.11208    36812.755 
  658500    301.26028   -1448.4986    505.07399    416.14689    667.45048    36812.755 
  658600    298.96537   -1534.0997    485.85476    300.96977    467.07748    36812.755 
  658700    305.58764   -1494.9186     457.3839    341.56597    538.93364    36812.755 
  658800    301.35924   -1477.7055    455.49481    337.80745    58.316217    36812.755 
  658900    295.20543   -1492.8192    465.16586      304.593   -446.81827    36812.755 
  659000    297.88055   -1483.3498    486.50397    347.47311    -558.5636    36812.755 
  659100    298.85305   -1462.8995    507.76663     393.5749   -392.35996    36812.755 
  659200    301.01485   -1478.6921     468.0631    347.83489   -758.96522    36812.755 
  659300    299.48871   -1522.8917    509.03268    337.71749   -589.09655    36812.755 
  659400    302.64583   -1510.2088    451.66245    307.27806    105.18891    36812.755 
  659500    294.45214   -1495.4301    482.04313    315.45978 -0.070023388    36812.755 
  659600      297.616   -1518.3241    497.57725    322.37819   -462.37538    36812.755 
  659700    301.39691   -1491.5313    480.16808    348.82491   -398.53914    36812.755 
  659800    310.91717   -1499.2914    484.88575    388.74685    390.34867    36812.755 
  659900    306.06311   -1493.4971    493.94944    381.69877   -10.997858    36812.755 
  660000    306.85954   -1455.7128    496.60625    425.73411   -152.62367    36812.755 
  660100    293.04727    -1486.647    469.39179    305.25138   -503.92575    36812.755 
  660200    302.56508   -1496.6791    457.54067    326.32157   -79.587708    36812.755 
  660300     300.9473   -1450.4116    485.02702    392.77447    -720.9657    36812.755 
  660400    299.76983   -1448.3951    469.58595    374.03597   -561.15053    36812.755 
  660500    301.59345   -1448.9839    493.48547    405.57663   -723.39961    36812.755 
  660600    302.55305   -1425.7688     492.0153    431.65218     73.09313    36812.755 
  660700    297.38059   -1380.7434    468.43953    429.75877    223.05345    36812.755 
  660800    288.42055   -1428.3965    513.84383    387.07378    58.567323    36812.755 
  660900    293.63447   -1432.0246    494.81534    387.94731    97.475434    36812.755 
  661000    305.81227   -1425.4251    493.88655    448.57588    268.46425    36812.755 
  661100    311.73111   -1446.1302    484.41693    445.11257    8.8354377    36812.755 
  661200    304.77066   -1403.6026    504.22447    476.03554    317.59551    36812.755 
  661300    301.93673   -1416.3035    485.12422      431.445    15.699958    36812.755 
  661400    300.83954   -1390.0842    490.93299    458.52146   -814.88081    36812.755 
  661500    294.84325   -1413.9654    464.00098    380.64737   -243.85248    36812.755 
  661600    302.77416   -1440.5798    488.82964    414.65344   -891.49359    36812.755 
  661700    298.30758   -1401.2698    488.17964    433.15597   -1007.3079    36812.755 
  661800    296.83834   -1399.6732    503.81559    443.75787   -730.69617    36812.755 
  661900    297.14258   -1421.9667    509.71801    428.73983   -631.91341    36812.755 
  662000     295.2059    -1498.128    462.45988    296.58033   -191.79813    36812.755 
  662100    300.11355   -1488.7913    483.44003    349.04506   -180.34533    36812.755 
  662200    307.16265   -1511.8769     479.0624    353.39409    -34.12785    36812.755 
  662300    291.64101   -1476.7487    477.88392    317.29545   -873.87513    36812.755 
  662400    289.05101   -1478.1994    499.95604    326.22834   -629.75688    36812.755 
  662500    290.43058   -1480.6388    458.23787    288.29676   -457.79522    36812.755 
  662600    295.00526   -1489.5105    466.43218     308.2646   -380.61802    36812.755 
  662700    313.82095   -1461.1409    495.16811     450.2844    684.98843    36812.755 
  662800    298.20196   -1485.8779    471.01164     330.9032    119.91321    36812.755 
  662900    303.88777   -1438.5662    459.97445    392.83749   -586.84779    36812.755 
  663000    288.74102   -1482.0599    434.88232    255.89514   -350.95287    36812.755 
  663100    294.70372     -1455.95    487.53293      361.565   -301.52497    36812.755 
  663200    300.45324    -1467.009    479.76707    368.68747    293.00084    36812.755 
  663300    309.62732   -1467.8926    479.24426    408.68318   -151.25268    36812.755 
  663400    304.83929   -1502.4934    471.03191     344.2619    42.802427    36812.755 
  663500    304.31161    -1530.649    466.66749    309.36042    231.72853    36812.755 
  663600    300.17086   -1506.9853    462.31986    309.98954    294.91504    36812.755 
  663700    296.42052   -1537.1635    464.86169    265.42808    373.26782    36812.755 
  663800    290.79526    -1493.133    478.34511    297.55557   -377.26006    36812.755 
  663900    302.59352   -1469.6065     454.7391    350.72098   -247.49949    36812.755 
  664000    296.05845   -1458.8241    473.03691    350.30872   -238.66404    36812.755 
  664100    302.16272   -1468.6703    497.01294    391.98683    45.214203    36812.755 
  664200    304.50975   -1444.0418    500.73033    430.92475   -110.81605    36812.755 
  664300    300.31303   -1451.8196     466.2826    369.75961    39.434855    36812.755 
  664400    303.26073   -1437.5692    538.50104    469.53127   -438.47115    36812.755 
  664500    302.16571   -1457.5145    496.67241    402.81551   -171.12795    36812.755 
  664600    294.56967   -1428.0367    460.86679    362.20719    -759.6105    36812.755 
  664700    297.38527   -1434.2606    502.15836    409.98155   -820.21044    36812.755 
  664800    309.87838   -1471.8445    464.16986    390.78987   -533.32659    36812.755 
  664900    297.40617   -1458.3797    475.22667    359.02507   -659.03405    36812.755 
  665000    299.84344   -1464.9407    495.57217    383.80889   -432.25757    36812.755 
  665100    298.96705   -1460.3892    466.45765    355.29072   -416.54382    36812.755 
  665200    299.69161   -1506.4551    476.84524    322.88233    138.10784    36812.755 
  665300    300.24539   -1492.7594    462.80497    325.03691    221.24567    36812.755 
  665400    312.00477   -1449.1406    482.13499    441.05518   -10.159246    36812.755 
  665500     290.6827   -1478.8188    500.72976    333.74638   -432.50355    36812.755 
  665600    292.74082   -1490.7521    492.16222     322.5337   -48.637704    36812.755 
  665700    299.57574   -1475.2964    468.49016    345.16301   -362.45979    36812.755 
  665800    298.04619   -1491.7957    463.06421    316.33501    284.72602    36812.755 
  665900    293.79806   -1473.9074     486.0999    338.08743    158.17868    36812.755 
  666000    300.02613   -1427.3288    465.36778    392.04083   -144.45662    36812.755 
  666100    312.29388   -1465.1517    461.11626    405.33007   -54.345017    36812.755 
  666200     307.3929   -1432.4006    491.06921    445.91629     94.70388    36812.755 
  666300    301.82377   -1426.5277    486.80864    422.39542    39.537982    36812.755 
  666400    292.77751   -1413.9404    481.76143    389.11024    27.762087    36812.755 
  666500    295.25024   -1463.0047    481.94692    351.39074    226.52509    36812.755 
  666600    290.77131   -1444.7833      500.516    367.96801   -89.907154    36812.755 
  666700    266.86333   -1462.2066     480.2782    222.41152   -308.81053    36812.755 
  666800    295.52639   -1465.3046    486.09943    354.48955    -148.3996    36812.755 
  666900     294.3047   -1465.5979    494.15754    356.74096    173.67772    36812.755 
  667000    305.72128   -1426.8759    490.80212    443.62995    493.34102    36812.755 
  667100    303.76536   -1429.5636    470.84232    412.15555    91.364369    36812.755 
  667200    293.69602   -1448.6752    489.99149    366.75065    24.938128    36812.755 
  667300    304.98677   -1484.0579    445.48955    337.82065   -146.82227    36812.755 
  667400    292.46078   -1453.2846    496.56836    363.14354   -269.10888    36812.755 
  667500    291.18959   -1463.4296    466.57527    317.26871   -436.78049    36812.755 
  667600    298.32389   -1436.3162     488.5442     398.5477     13.48315    36812.755 
  667700    292.36158    -1466.815    480.67202    333.26915    344.65553    36812.755 
  667800    303.61292    -1456.543    494.75271    408.39855    298.81996    36812.755 
  667900    308.60718   -1436.1476    499.16591    455.74595    160.39419    36812.755 
  668000    293.62897   -1430.5094    491.57003    386.19246    174.74633    36812.755 
  668100    299.21208   -1463.8255    473.46023    359.96288    -99.13328    36812.755 
  668200    305.85077   -1472.9102    467.27318    374.65116    484.23928    36812.755 
  668300    296.01468   -1513.4827    469.12104    291.53672    956.13241    36812.755 
  668400    297.06424    -1480.162    494.06253    354.53549    796.78248    36812.755 
  668500    307.05648   -1462.5342    445.64079      368.836    891.31347    36812.755 
  668600    296.61133   -1470.1535    475.58965    344.02716    1070.4815    36812.755 
  668700    300.55886   -1478.5211    484.09632    361.98128    708.54657    36812.755 
  668800    310.51149   -1465.3582    465.13971    401.10326    1386.1752    36812.755 
  668900    311.57764   -1512.2244    476.62307    370.53187    1331.3954    36812.755 
  669000    305.87549   -1493.2858    488.84564    375.95951    1187.7364    36812.755 
  669100    291.46186   -1446.9544     480.7391    349.13642     906.8164    36812.755 
  669200    299.32166   -1500.2048    477.74147    328.35928    510.52186    36812.755 
  669300    296.57333   -1512.4219    467.43297    293.43068    657.03253    36812.755 
  669400    295.23869   -1536.2148    463.41096    259.59252    192.90404    36812.755 
  669500    309.18982   -1476.7484    506.56337    425.17212    46.573414    36812.755 
  669600     300.0428   -1449.8879    470.88945    375.07859   -517.87804    36812.755 
  669700    302.91588   -1441.3942    453.86359    379.51255   -5.8253568    36812.755 
  669800    302.87624   -1460.5373    459.94492    366.27186    93.422949    36812.755 
  669900    306.22881   -1458.9301    479.67543    402.73958    156.98473    36812.755 
  670000    311.11347   -1499.1187    482.03497    386.95465   -626.68968    36812.755 
  670100     300.7395   -1508.0315    449.77979    298.96952   -109.61011    36812.755 
  670200     309.6372   -1460.0251    478.43822    415.78922   -24.229177    36812.755 
  670300    292.72735   -1447.6033    461.39984    334.85944   -102.17981    36812.755 
  670400    303.76218   -1470.7615    495.24622    395.34711   -336.99236    36812.755 
  670500    293.53775   -1471.5709    488.11379    341.26303     732.7842    36812.755 
  670600    300.05605   -1544.9162    456.85073    266.07143   -31.506292    36812.755 
  670700    304.46015   -1494.4665    480.45711    360.00295   -370.05809    36812.755 
  670800      300.433   -1536.0938    473.75446     293.4987   -125.36399    36812.755 
  670900    305.36008   -1499.4246    464.96987    343.61893   -728.71183    36812.755 
  671000    290.22786   -1487.8423    483.67693    305.61747   -381.76136    36812.755 
  671100    292.42648   -1490.3253    496.16101    325.54075    -679.4105    36812.755 
  671200      305.668   -1481.0945     464.6713    363.04013   -967.03431    36812.755 
  671300    295.06785   -1493.0121    490.25389     328.8672   -811.89141    36812.755 
  671400    295.33412   -1483.4663    479.03923    328.40002    407.14185    36812.755 
  671500    301.70692   -1514.0234    485.42478    332.98849    256.03678    36812.755 
  671600    307.67455   -1503.5578    475.99359    360.95453    144.04755    36812.755 
  671700    300.26958   -1464.2178    490.98881    381.87149    111.16077    36812.755 
  671800    301.59971   -1426.3314    474.94424    409.71616   -46.025364    36812.755 
  671900    307.90818   -1422.7398    492.73254    459.56586   -214.03825    36812.755 
  672000    304.07394   -1423.6715    494.48523    443.08314    186.69001    36812.755 
  672100    304.91415   -1414.3647    466.85781    428.55431   -749.21908    36812.755 
  672200    294.87493   -1421.9999    504.70853    413.46339   -249.60633    36812.755 
  672300    308.90945   -1430.1087    478.35772    442.34079    148.69659    36812.755 
  672400    306.66169   -1444.7659     497.5336    436.71552    389.47436    36812.755 
  672500    303.55128   -1414.9175    515.11069     470.1038    324.43661    36812.755 
  672600    303.33671   -1399.6985    508.19088    477.43467   -87.483072    36812.755 
  672700    298.59782   -1465.0162     487.1805     369.7203   -338.34768    36812.755 
  672800    294.89144   -1477.1958    500.07865    353.71214   -650.12953    36812.755 
  672900    290.78067   -1463.2335    441.03263    290.07674   -346.65042    36812.755 
  673000    299.58502      -1489.7    505.63096    367.94207   -191.37733    36812.755 
  673100    299.85713   -1468.1108    486.60061    371.72897   -252.95762    36812.755 
  673200    293.39141   -1411.2001     493.6339    406.49349    215.71643    36812.755 
  673300    304.68959   -1444.6703    485.63646    416.01398   -554.44884    36812.755 
  673400     300.9108   -1442.6879    501.79634    417.10275    479.68217    36812.755 
  673500    298.96633    -1457.594     490.5138    382.13879    179.85989    36812.755 
  673600    315.79656   -1471.6122    488.04633    441.60703    459.81196    36812.755 
  673700    306.93918    -1454.631    494.30198    424.87109   -75.891008    36812.755 
  673800    305.10065   -1479.4857    483.19972     380.6169   -533.31196    36812.755 
  673900    300.36442   -1457.7882    473.78886    371.52919   -524.59572    36812.755 
  674000    290.39849   -1471.5532    495.55145     334.5511   -1353.3031    36812.755 
  674100    303.29383   -1468.5867     500.3957    400.55777   -207.93612    36812.755 
  674200    291.87078   -1463.6596    473.83237    327.36993    220.76301    36812.755 
  674300    296.99192   -1476.6935    500.28091      363.896   -301.53263    36812.755 
  674400    307.65738    -1515.012    481.48241    354.91163   -93.085114    36812.755 
  674500    317.50196   -1466.6376    472.54128    438.77299    369.57727    36812.755 
  674600    294.84233   -1488.9788      502.645    344.27382    50.164665    36812.755 
  674700    303.54292   -1469.0279    475.16482    376.00989    781.80684    36812.755 
  674800    294.69283   -1456.6222    491.27513    364.58589    35.515875    36812.755 
  674900    297.69125   -1425.8613    478.32093    395.92428   -391.17653    36812.755 
  675000    300.56243   -1430.0192    512.51431    438.91721    312.01133    36812.755 
  675100    295.82722   -1445.6559    483.79135    373.18781   -217.20644    36812.755 
  675200    300.56214   -1452.0044    458.41831    362.83473    -49.51851    36812.755 
  675300    292.30853   -1400.4484    493.95482    412.67914   -98.923374    36812.755 
  675400    294.20738   -1415.0877    496.49076    409.14517   -71.715699    36812.755 
  675500    298.24416   -1459.7656     464.2247    350.41898   -43.322498    36812.755 
  675600    300.98334   -1457.5223    469.38553    370.18494   -383.56627    36812.755 
  675700    288.86048   -1460.2754    479.93832     323.2748   -269.00276    36812.755 
  675800    313.44992   -1480.5858    476.62726    410.62416   -403.16447    36812.755 
  675900    307.41663   -1403.0384    483.51906    467.83539   -678.45285    36812.755 
  676000    264.77959   -1438.0884    525.89416    282.74192   -1329.8329    36812.755 
  676100    266.08116   -1468.2554    472.65552    205.21016   -691.11156    36812.755 
  676200    356.96763    -1451.163    484.39131     644.2041   -151.96707    36812.755 
  676300     293.5827   -1484.2419    469.20666    309.88772   -401.02199    36812.755 
  676400      308.259   -1453.7014    512.06589    449.52088   -226.73588    36812.755 
  676500    292.98941   -1446.8007    467.03826    342.48302   -470.26379    36812.755 
  676600    299.89947    -1438.299    489.15231    404.28353   -16.070524    36812.755 
  676700    310.53797   -1486.0556    499.58416    414.96978    275.43958    36812.755 
  676800    296.05136   -1475.6059    479.95077    340.40881    361.31154    36812.755 
  676900    292.96136   -1466.6516    484.34933    339.81663    155.16501    36812.755 
  677000    304.87984   -1479.6101    475.91478     372.2111    388.77154    36812.755 
  677100    293.28022   -1477.6358    458.80244    304.72453    475.61699    36812.755 
  677200    305.12676   -1452.7025    505.92703    430.24521    289.28128    36812.755 
  677300    303.58311    -1428.096    469.34175    411.30001     521.4409    36812.755 
  677400    306.33478   -1471.6255    480.27925    391.12619    570.96084    36812.755 
  677500    291.80906   -1438.6667    515.19982    393.45178    240.33577    36812.755 
  677600    308.00286   -1452.7499    499.18003    436.43049    205.74331    36812.755 
  677700    296.50518   -1433.7585    484.85973    389.21323    174.80214    36812.755 
  677800    303.04633   -1487.5672    495.75173    375.81641    842.70168    36812.755 
  677900    296.37882   -1469.1792    494.09974    362.46227    223.69828    36812.755 
  678000    297.44093   -1457.6696     478.8645    363.52988    237.14107    36812.755 
  678100    308.55974   -1458.3088    478.27018    412.47494    432.20858    36812.755 
  678200    293.64175   -1467.5988    464.55605    322.14675    180.32616    36812.755 
  678300    303.13019   -1431.4511    501.75364     438.3128    271.75082    36812.755 
  678400    290.13864   -1493.7473    492.66418    308.29699   -153.66685    36812.755 
  678500    289.50273   -1479.6916    487.66702    314.48574    560.29217    36812.755 
  678600    298.73582   -1444.5775    472.47169    376.07292    336.38298    36812.755 
  678700    293.10556    -1499.275    480.62692    304.12162    580.95696    36812.755 
  678800    304.43003   -1474.2422    468.00069    367.63491   -174.02788    36812.755 
  678900    298.36885   -1470.4202    448.92388    325.02634     24.57457    36812.755 
  679000    300.11798   -1432.7872    473.50683    395.13603    -59.20821    36812.755 
  679100    304.57548   -1462.7123    473.67203    385.49255   -182.11658    36812.755 
  679200    293.00415   -1480.7549    463.92896    305.48615   -311.17795    36812.755 
  679300    293.93645   -1455.8608    495.30396    365.96259    83.949657    36812.755 
  679400    308.23168    -1456.109     479.2387    414.16271     234.0373    36812.755 
  679500    298.65913   -1456.7013    467.22453    358.35593    493.64308    36812.755 
  679600    302.75201   -1455.4356     494.5943    405.46224   -71.612129    36812.755 
  679700    305.87348    -1481.976    461.54142     359.9561    39.492067    36812.755 
  679800     301.8107   -1456.1855    485.16936    391.03941    203.02291    36812.755 
  679900    298.70117   -1523.1911    478.51158    303.34279    177.06145    36812.755 
  680000    301.56548   -1456.8629    461.44776    365.53368    253.85473    36812.755 
  680100    300.65905   -1435.2118    462.00689     383.6533    291.19746    36812.755 
  680200    294.97978   -1505.8614    482.07144    307.43796    307.14795    36812.755 
  680300    296.80517   -1452.5892    469.89208    356.76872    588.64254    36812.755 
  680400    300.71233   -1506.2177    452.37717    303.25809    463.81301    36812.755 
  680500    296.12131   -1482.7052    472.96907    326.64349    267.88423    36812.755 
  680600    303.22919    -1481.636    484.29428    371.11539      212.256    36812.755 
  680700    303.63508   -1452.3034     478.3564    396.34187   -120.33445    36812.755 
  680800    293.74055   -1448.2056    501.83908    379.26882    169.02823    36812.755 
  680900    293.12838   -1467.8004    471.32302    326.39533   -249.94348    36812.755 
  681000    303.72594   -1458.8702    483.43683    395.26551   -129.22204    36812.755 
  681100     295.1285   -1489.4176    483.21979    325.70128   -719.97015    36812.755 
  681200    291.55823   -1469.5025    467.52481      313.809    93.733389    36812.755 
  681300     296.8119   -1493.6014    466.69546    312.59026    163.27185    36812.755 
  681400    286.08959    -1497.978    510.87417    304.00312   -146.51016    36812.755 
  681500    312.35686   -1541.1642     492.3954    360.88103     44.32622    36812.755 
  681600    302.00044   -1520.9297    474.39409    316.37625    339.75219    36812.755 
  681700    303.73527   -1487.3033    467.02559     350.4633    340.61567    36812.755 
  681800    298.86081   -1546.5518    482.48658    284.67761    452.77439    36812.755 
  681900     298.0222   -1522.9279    461.80976    283.84014    701.93594    36812.755 
  682000    303.43826   -1462.6245    496.30133     403.0774    177.84604    36812.755 
  682100    301.53229   -1525.3251    453.21659    288.69056   -380.83011    36812.755 
  682200    304.26886   -1523.7856    504.36076    353.72427   -158.55363    36812.755 
  682300    304.55244   -1471.3792     479.2509    382.30055    -4.174508    36812.755 
  682400    319.20737   -1509.9948    480.82292    411.39392    -469.5521    36812.755 
  682500    302.48933   -1450.3561     486.4548    401.21683    99.107276    36812.755 
  682600    293.25293   -1484.9208    499.10846    337.62241   -169.03994    36812.755 
  682700    288.59387    -1486.542    506.34705    322.21372    86.128532    36812.755 
  682800      304.519   -1482.1384    491.93946    384.07894    258.74987    36812.755 
  682900    298.70044    -1503.901    482.31741    326.43551   -51.188114    36812.755 
  683000    312.10318   -1476.4944    485.05041    417.06096    64.437384    36812.755 
  683100    305.69839   -1527.9711    498.41145    350.04079    70.740246    36812.755 
  683200    304.26789   -1513.0729    470.01884    330.09058    380.73544    36812.755 
  683300    303.71845   -1497.8006    507.94805    380.81259    440.43956    36812.755 
  683400    297.84404   -1488.7608    474.97474    330.36819    374.59262    36812.755 
  683500    302.75215   -1509.2488     507.8404    364.89585    658.57326    36812.755 
  683600    298.04863   -1509.1117    493.87467    329.84048    729.27985    36812.755 
  683700    296.75515   -1510.3823    473.62708     302.4849    533.14066    36812.755 
  683800    295.41799   -1498.7085    471.47525    305.97228    282.97299    36812.755 
  683900    295.59641   -1521.4359    472.34282    284.91765    301.09996    36812.755 
  684000    306.88797   -1515.9814     474.4036    343.39114    803.17626    36812.755 
  684100    310.51537   -1495.4089    506.18443    412.11479    567.16101    36812.755 
  684200    293.89061   -1468.1416    489.17892    347.34991     461.6077    36812.755 
  684300    295.18734   -1482.5376    500.31061    349.93768    423.13658    36812.755 
  684400     301.0042   -1501.2089    494.67123    351.87815     937.2887    36812.755 
  684500    292.23696   -1535.6433    498.59711    281.80358    824.94288    36812.755 
  684600     299.3109   -1562.3081    490.84362    279.30958    530.22079    36812.755 
  684700    301.85862   -1563.5643    473.32909    272.03653    575.52072    36812.755 
  684800    292.45363   -1537.2083    466.85811    249.47734    395.94365    36812.755 
  684900    309.59777   -1506.7048    478.20265    368.69604    653.57742    36812.755 
  685000     303.3821   -1531.9523    471.01197    308.20682    130.92138    36812.755 
  685100    301.90177   -1497.6227    493.43658    358.28035    234.70665    36812.755 
  685200    298.69267   -1471.1637    476.94314    353.76346    193.94664    36812.755 
  685300    309.74068   -1464.1346    491.74015    425.44864    580.55792    36812.755 
  685400    300.05336   -1475.5921    484.64431    363.17697    177.72012    36812.755 
  685500    311.22712   -1454.0661    482.78465    433.26987   -218.30276    36812.755 
  685600    307.77885   -1483.0074    482.91726    388.89928   -188.59768    36812.755 
  685700    302.42697   -1494.2722    481.90699    352.47151   -157.64736    36812.755 
  685800    297.39959   -1475.6807     478.8091     345.2768    159.23132    36812.755 
  685900    309.10652   -1477.6676    480.37671    397.69032      -203.89    36812.755 
  686000    308.27656   -1455.2921    465.56774    401.51127    334.35183    36812.755 
  686100    300.18973   -1492.4157    465.11296    327.43743      325.867    36812.755 
  686200    307.66667   -1473.8214    478.66873    393.33047    59.008279    36812.755 
  686300    303.31026   -1477.7537    509.31287    400.38209    -234.9321    36812.755 
  686400    293.69405   -1487.1475    515.00119    353.27924    267.95325    36812.755 
  686500    290.26499   -1489.6199    491.73027     312.0607   -109.97266    36812.755 
  686600    295.08613   -1442.8053    501.32865    390.23124    371.51447    36812.755 
  686700    294.52777   -1496.9359    474.20081    306.45295   -335.46913    36812.755 
  686800     297.5757   -1472.9597    498.06806    368.05151   -365.27885    36812.755 
  686900    292.59883   -1476.6421    510.65806    354.49877   -882.23571    36812.755 
  687000    312.49943   -1514.9377    463.57732     358.9328   -381.67334    36812.755 
  687100    302.72201   -1487.6808     499.3148    377.80222   -420.75127    36812.755 
  687200    293.70104    -1515.974    494.83351    304.31656   -454.18377    36812.755 
  687300    299.87532    -1544.737    468.64859    277.23284   -64.773507    36812.755 
  687400    284.24199   -1496.7262    480.22989    266.27253   -538.74339    36812.755 
  687500    308.44046   -1523.3856    494.62238    363.21202   -452.83195    36812.755 
  687600    311.56904   -1464.1844    451.84722    393.75719   -88.855131    36812.755 
  687700     295.5453   -1489.7576    512.08179    356.10427    148.03287    36812.755 
  687800    294.00106   -1469.2542    521.86964    379.42654    16.945398    36812.755 
  687900    300.68652    -1439.986    517.15748    434.15369    506.34552    36812.755 
  688000    296.60582    -1531.168    484.76271    292.16095    375.07213    36812.755 
  688100    297.12554   -1504.4616    501.74459    338.19459    416.05024    36812.755 
  688200    297.31647   -1479.1936    513.99546    376.57516     136.8287    36812.755 
  688300    294.65927   -1486.1987    482.25705    325.83985   -20.233842    36812.755 
  688400     293.0381    -1464.162    475.27648    333.57972    131.06894    36812.755 
  688500    307.71313   -1492.2352    498.21012    394.66777    -12.04581    36812.755 
  688600    291.59712   -1501.4603    504.16347    318.66535    278.01076    36812.755 
  688700    300.04052   -1492.1533    528.21396    390.12746    213.65624    36812.755 
  688800    296.29159   -1498.4459    489.56748    328.26965   -30.279903    36812.755 
  688900    300.72175   -1466.9624     499.8645    390.04323   -308.42433    36812.755 
  689000    304.38623   -1501.2766    498.96607    371.36821    26.516325    36812.755 
  689100    299.94364   -1472.6723    489.15776    370.11502   -526.93522    36812.755 
  689200    296.62783   -1428.2149    505.42869    415.87928    132.76434    36812.755 
  689300    313.07514   -1469.6929    485.32708    428.52555    434.48285    36812.755 
  689400    303.09552   -1495.3631    494.17528    366.66597    75.517692    36812.755 
  689500    307.54522   -1496.7348    474.95648     366.1568   -80.779253    36812.755 
  689600    303.27833   -1461.4086    520.85205    428.12232    451.48226    36812.755 
  689700    296.04225   -1500.4447    514.73869    350.31683    232.45819    36812.755 
  689800    301.85802   -1504.4856    531.09686    388.88036    933.44556    36812.755 
  689900    299.25826   -1509.0611    475.75897    317.23433    601.78972    36812.755 
  690000    293.21298   -1518.4787    513.53299    318.30874     625.0702    36812.755 
  690100    286.34341   -1463.6805    490.56357    319.13553    903.71825    36812.755 
  690200    303.52109   -1555.0687    483.85911    298.56484   -73.385943    36812.755 
  690300    301.33707   -1531.9911    478.98433    306.91124   -32.088229    36812.755 
  690400    300.44445   -1497.5299    475.60288    333.96272    279.79966    36812.755 
  690500    301.14671   -1506.0068    509.59125    362.64346    375.89352    36812.755 
  690600    314.18944   -1483.7031    504.22481    438.44184    485.40903    36812.755 
  690700    312.21722   -1483.4637    517.34571    442.90156    635.91477    36812.755 
  690800    296.09311   -1502.4404    486.85731    320.66922    215.05854    36812.755 
  690900     308.0973   -1512.1907    498.64545    376.88138    602.06279    36812.755 
  691000    302.76496   -1453.7929    487.20778    399.77697    262.53398    36812.755 
  691100    291.05832   -1465.7969    507.33815    355.07182   -487.36139    36812.755 
  691200    296.36159   -1512.6243    526.96672     351.8064   -515.36165    36812.755 
  691300    304.22679   -1491.5703    502.74591    384.13487   -317.19503    36812.755 
  691400     291.5443   -1481.6619    497.36264     331.4245   -51.752575    36812.755 
  691500     306.3692    -1468.205    496.32961     410.7524    -88.97627    36812.755 
  691600    296.42898   -1478.5379    526.94471     386.1749    419.97076    36812.755 
  691700    296.91702   -1466.5723    519.55044    392.94877   -312.03257    36812.755 
  691800    290.86055    -1480.108    514.39645    346.92649   -1103.5866    36812.755 
  691900    292.55869   -1463.6171    512.65645    369.34107   -647.25015    36812.755 
  692000    308.87912   -1445.4785    530.35859    478.83496     216.1448    36812.755 
  692100    292.82224   -1475.6981    494.86084    340.65386   -99.772087    36812.755 
  692200    302.48953    -1484.215    494.40902    375.31305    313.68311    36812.755 
  692300    308.13432   -1521.3598    490.05614    359.29004    250.11665    36812.755 
  692400    298.31437   -1473.0181    526.58566    399.84427    808.39887    36812.755 
  692500    315.04507   -1508.1016    499.03518    412.71513    549.62907    36812.755 
  692600    301.84536   -1455.4973    513.71922    420.43382    428.87218    36812.755 
  692700    299.54482    -1475.681    526.05584    402.20457    420.52783    36812.755 
  692800    291.80908   -1471.7789    547.90144    393.04125    310.53088    36812.755 
  692900    298.39203   -1521.1866    481.26309    306.70375   -162.82261    36812.755 
  693000    294.66139   -1527.7158    477.58468    279.65989   -688.29542    36812.755 
  693100    294.31504   -1476.0396    491.53552    343.72394   -824.94629    36812.755 
  693200    297.07845   -1495.6436    469.74016    314.79566    13.858184    36812.755 
  693300    299.13518    -1516.697    500.77287    334.05691   -194.80077    36812.755 
  693400     298.2846    -1532.112    505.82072    319.85109    35.772692    36812.755 
  693500    299.94928   -1484.4968    521.52569    390.68394     632.9579    36812.755 
  693600    305.53925   -1510.6289    504.98453    373.23788    423.33329    36812.755 
  693700    293.78302   -1523.9489    497.43634    299.31452    886.11829    36812.755 
  693800    301.02858   -1562.8782    481.45355    277.10118    216.37319    36812.755 
  693900    297.85557   -1541.6547    493.56429    296.11578    444.50754    36812.755 
  694000     309.8567   -1570.7908    494.49165    322.06757   -17.522599    36812.755 
  694100    299.41432   -1546.3928    489.90838    294.75634    -83.99087    36812.755 
  694200    293.59309   -1528.4779    501.51489    298.00686    278.25255    36812.755 
  694300    294.69072    -1553.537    466.76431    243.15078    346.66035    36812.755 
  694400    296.51401     -1527.12    489.91883    300.95069    332.83907    36812.755 
  694500    297.09809   -1527.2549    519.82853    333.36145    91.895223    36812.755 
  694600    298.61872   -1468.9819    508.29195    386.96033    13.339879    36812.755 
  694700    300.19735   -1489.0226    474.54077    340.29272     251.4746    36812.755 
  694800    298.31546   -1483.3206    508.54053    371.50156    386.01996    36812.755 
  694900    308.97814   -1468.4222    514.13282     440.1124    257.21251    36812.755 
  695000    302.74412   -1491.4013    500.28094    375.14761   -68.456509    36812.755 
  695100    310.12769    -1472.191    484.96318    412.36189   -82.887872    36812.755 
  695200    293.62325   -1459.7098    500.67658     366.0728   -830.02456    36812.755 
  695300    313.25934   -1441.1115    517.17082     489.7819   -287.86984    36812.755 
  695400    309.91196   -1467.5458    484.75833    415.82861   -228.29286    36812.755 
  695500    305.25742   -1461.6253     511.8694    427.85447    54.041561    36812.755 
  695600     291.2993   -1525.0643    476.22005    265.77393   -299.71321    36812.755 
  695700    300.46002   -1480.7656    512.30236    387.49671   -211.76776    36812.755 
  695800    302.69163   -1546.4368    492.16118    311.75547   -451.38829    36812.755 
  695900    306.56928   -1539.9022    496.79441    340.42299   -143.71865    36812.755 
  696000    311.21943   -1509.6436    506.41746    401.29042   -509.53183    36812.755 
  696100    302.63007   -1479.2115    512.14225    398.68401   -129.84567    36812.755 
  696200    304.61596   -1530.0205    493.38657    338.08158    -438.1832    36812.755 
  696300    297.16311   -1528.5744    505.07273    317.57956   -874.41683    36812.755 
  696400     298.8098   -1496.5396    536.58888     388.5619   -187.24875    36812.755 
  696500    283.87438   -1521.9197    485.65446    244.84461    483.75156    36812.755 
  696600    311.11332   -1542.4017    496.87959    358.51565   -119.48174    36812.755 
  696700    290.38496   -1475.2901     511.5762    346.77785   -112.33549    36812.755 
  696800    298.96147   -1496.7131    514.28501    366.76903   -419.23659    36812.755 
  696900    299.04848   -1483.7816    506.07676    371.88496   -343.88882    36812.755 
  697000    297.74689   -1481.9393    502.56806    364.34453    -123.9909    36812.755 
  697100    307.48335   -1517.3081    509.39127    379.73905    390.24134    36812.755 
  697200    298.55383   -1532.4625     483.2989    298.19381    473.97792    36812.755 
  697300    290.04382   -1538.4852    498.64012    269.10717    21.921417    36812.755 
  697400    299.43103    -1546.058    490.29318    295.55138    319.17421    36812.755 
  697500    307.30455   -1561.2187    479.29314    304.92336    155.13097    36812.755 
  697600     297.4874   -1522.3923     509.2647    329.41715   -203.59505    36812.755 
  697700    301.74721   -1486.0069    489.53129     365.2934     135.2134    36812.755 
  697800    302.10274   -1470.3724     470.2082    363.20924    225.40135    36812.755 
  697900    304.81288   -1453.6862    510.63124    432.54922    41.340793    36812.755 
  698000    303.34488   -1491.7395    494.35005    371.58979    196.20509    36812.755 
  698100    296.70288   -1476.2785    481.50644    344.23215    402.80335    36812.755 
  698200    300.78702   -1523.1389    494.22068    328.51745   -211.13866    36812.755 
  698300     294.8505   -1524.1231    518.00124    324.52265    262.53452    36812.755 
  698400    294.72286   -1488.7894    513.52875    354.80786    699.90278    36812.755 
  698500    306.15324   -1510.9191      489.446    360.18009    415.51494    36812.755 
  698600    300.21206   -1522.2134    478.54578    311.17329    559.61458    36812.755 
  698700    291.15979   -1483.8521    475.90505    306.04146     154.8896    36812.755 
  698800    305.72308   -1533.2465    506.29327     352.7587    339.46949    36812.755 
  698900    303.11689   -1497.5191    501.39008    371.82129    51.793239    36812.755 
  699000    307.74811    -1554.159    484.91834    319.61011    59.467332    36812.755 
  699100    292.06927   -1562.6752    476.15219    231.56996    97.794491    36812.755 
  699200    295.62939   -1513.7221    499.61793    320.05548    91.219062    36812.755 
  699300    304.88708   -1541.3801    497.10999    331.66891    296.73815    36812.755 
  699400     300.4647   -1497.6793    505.03762    363.33936    1017.0186    36812.755 
  699500    311.24399   -1469.7954     503.4861    438.31811    1236.9394    36812.755 
  699600    295.19423    -1500.651     492.2173    323.76206    908.98188    36812.755 
  699700    294.95276   -1486.0998    511.17548    356.18165    677.77505    36812.755 
  699800    300.91349    -1507.689    482.52216    332.83964    340.19476    36812.755 
  699900    300.66177   -1556.9242    475.88448    275.83071    209.07879    36812.755 
  700000    298.65986   -1532.0887    482.17482    297.92203    179.53168    36812.755 
  700100    305.17287   -1531.0173    478.86142    325.07297    -352.1925    36812.755 
  700200    302.89497   -1537.6492    474.78208    304.08163   -425.28934    36812.755 
  700300    294.17737   -1532.3981    484.50528    279.71385   -203.25738    36812.755 
  700400    308.45302   -1532.3026    498.63491    358.36425   -371.27512    36812.755 
  700500    302.09345   -1530.4498    492.41332    325.29507   -307.80758    36812.755 
  700600    301.74926   -1479.1021    484.97399    367.65014   -142.94091    36812.755 
  700700    293.95084   -1489.8521    500.59446    337.32673    -438.2224    36812.755 
  700800    295.18671   -1466.3266    475.68863    341.52379    -752.1092    36812.755 
  700900     296.5278   -1504.5233    499.82363    333.51442   -937.67945    36812.755 
  701000    295.87869   -1493.5551    499.01525    340.74484   -802.74249    36812.755 
  701100    311.93911   -1480.9235    489.38525     416.2263   -657.27237    36812.755 
  701200    303.50756   -1483.5932    496.18677    382.30698   -504.48272    36812.755 
  701300    299.81204   -1475.8092    509.36343    386.58994   -50.550453    36812.755 
  701400    290.71122   -1503.5498    518.80991    327.22426   -337.58964    36812.755 
  701500    304.76717   -1486.9637    474.13346    362.56769   -61.629784    36812.755 
  701600    303.40421   -1543.1586    503.20954    329.29788   -114.28067    36812.755 
  701700    294.13341   -1539.9959    482.66972    270.08212   -315.02138    36812.755 
  701800    292.19232   -1521.9852    488.49187    285.15491   -526.17241    36812.755 
  701900    303.26382   -1529.9118    471.36338    310.06489   -863.24249    36812.755 
  702000    304.02171   -1479.1937    492.52299      385.363   -1172.1123    36812.755 
  702100    305.38853   -1476.5121     486.1494    387.83936   -1093.0243    36812.755 
  702200    306.75177   -1502.8801    499.49512     380.9693   -845.93701    36812.755 
  702300    293.35711   -1457.9417    519.56459    385.52784    -521.5759    36812.755 
  702400     298.1887   -1469.8169    473.73082    349.62353   -160.57917    36812.755 
  702500    293.26002   -1486.1916    496.18787    333.46302    445.79558    36812.755 
  702600    305.68579   -1484.0485    502.48348    397.97862   -245.76766    36812.755 
  702700    310.41859   -1461.4483    521.32192    460.77602    145.15897    36812.755 
  702800    298.04795   -1452.4011    507.40467    400.07802    164.71823    36812.755 
  702900    302.78943   -1463.0814    504.30011    407.69116    116.82273    36812.755 
  703000    298.73691   -1439.5426    525.06357    433.70466    521.92961    36812.755 
  703100    303.18555   -1452.9197    503.37118    418.71159    93.156848    36812.755 
  703200    299.23479   -1464.6044     530.9533    416.77944   -743.19718    36812.755 
  703300    309.44061   -1476.2661    489.93213    410.15496    99.199163    36812.755 
  703400    301.27173   -1497.0286    511.11211    373.70666   -376.99106    36812.755 
  703500    300.99595   -1520.0485    486.91538    325.24545   -431.43527    36812.755 
  703600    297.61316   -1536.8582    478.46543    284.71946   -757.38362    36812.755 
  703700    306.94732   -1499.4324    479.70642    365.51084   -150.81759    36812.755 
  703800     289.1538    -1527.519    497.85749    275.27413   -308.58338    36812.755 
  703900    298.96879   -1503.6019     510.0851    355.71335   -351.57317    36812.755 
  704000    296.40706   -1524.0136    472.13382    285.78941    70.242079    36812.755 
  704100    293.03568   -1547.1707       499.87    275.15362    649.17365    36812.755 
  704200    290.78827   -1514.7488    487.47144    285.03451    129.70142    36812.755 
  704300    298.75448   -1494.6673    478.64811    332.24374     109.4591    36812.755 
  704400    305.44754   -1486.2537    507.03028    399.24495    580.51422    36812.755 
  704500    299.83201   -1471.9535    498.11256    379.28484    37.032353    36812.755 
  704600    294.95566   -1498.6116    535.15877     367.6663   -1.8650368    36812.755 
  704700     305.2992   -1515.3759    501.46036    363.88343    320.68494    36812.755 
  704800    292.14267   -1477.3746    497.43217    338.48179   -40.363171    36812.755 
  704900    311.12957   -1449.9509    504.54845    458.70859   -388.41809    36812.755 
  705000    297.61488   -1444.5386    497.08981    395.67123   -430.43869    36812.755 
  705100    312.86984   -1492.5005    514.76608    434.23035   -651.97781    36812.755 
  705200    292.73541   -1521.5662    472.01472    271.54769    126.58199    36812.755 
  705300    305.47175   -1536.5378    489.84567    331.88556    188.65281    36812.755 
  705400    308.14085    -1533.286    510.83215     368.1693   -45.736019    36812.755 
  705500    307.36032   -1520.7457    485.54748    351.90245    -280.6899    36812.755 
  705600    300.22121    -1486.839    491.79953    359.84278    164.25801    36812.755 
  705700    301.18328   -1498.5332    497.69944    358.39022    199.75921    36812.755 
  705800    294.32754   -1532.4477    484.52883    280.36554    427.10576    36812.755 
  705900    311.62953    -1550.477    515.14799    371.03842    778.06062    36812.755 
  706000    297.17328   -1520.3564    528.88043    349.65115     421.7069    36812.755 
  706100    301.56578   -1528.6656    508.58379    340.86844    206.54668    36812.755 
  706200    309.49206   -1539.1816     495.2366    352.77612    206.96109    36812.755 
  706300    293.46125   -1565.5254    511.18889    270.03838   -299.73023    36812.755 
  706400    290.07904   -1532.1322    477.22276    254.20177   -248.59098    36812.755 
  706500    303.69788   -1510.0875    503.58944    364.07416    107.77932    36812.755 
  706600    303.78286    -1542.852    504.15095    332.25467    578.06925    36812.755 
  706700    304.18362   -1560.6512    497.62495    309.73806    191.12641    36812.755 
  706800    310.86703    -1546.896    530.77058    386.80086     714.1324    36812.755 
  706900    303.27921   -1527.5935     482.7878    323.87707    540.95153    36812.755 
  707000    301.71475   -1571.4031    528.54846    318.76791    248.18481    36812.755 
  707100    295.57847   -1596.0387    499.64338    237.53446    121.93534    36812.755 
  707200    303.35456   -1519.5752    507.54013    356.98777    288.40797    36812.755 
  707300    297.55184   -1519.2905    496.80308    320.34807   -385.84178    36812.755 
  707400    299.96573   -1539.7388    515.29794    329.28839    329.64151    36812.755 
  707500    302.35194   -1566.9825    501.28083     298.7964     172.0841    36812.755 
  707600    305.71979   -1566.9717    510.23076     322.9561    126.14917    36812.755 
  707700    301.75426   -1582.6538      505.514    284.66102    93.844469    36812.755 
  707800    290.53533    -1546.216    514.71222    279.66662    194.43008    36812.755 
  707900    297.42228   -1514.5411     489.7727    317.48244    170.50714    36812.755 
  708000    295.73701   -1512.0846    520.87423    343.43494   -50.443224    36812.755 
  708100    291.52985   -1510.6275    499.59296      304.624   -373.95055    36812.755 
  708200    303.62531   -1524.5475    493.05873      338.756    102.32443    36812.755 
  708300    302.99798   -1528.5038    495.32891     334.2388    78.467883    36812.755 
  708400    297.29471   -1560.5615    483.17787     264.2915   -315.58883    36812.755 
  708500    291.34712   -1515.8495    490.58222    289.56661    -190.1635    36812.755 
  708600    309.09934   -1483.9295    521.34956    432.36879    355.11314    36812.755 
  708700    304.88437   -1501.5917    511.11636    385.45151    207.54625    36812.755 
  708800    311.33857   -1511.0323    495.72662    389.74855    463.99604    36812.755 
  708900    294.63142   -1504.6337    485.85674    310.87885    277.37966    36812.755 
  709000    292.97793   -1504.2801    503.56365    321.47727    226.71939    36812.755 
  709100    304.95133   -1533.7283    485.52603    328.02668    43.289344    36812.755 
  709200     300.3571   -1542.0898    487.35718    300.76287    125.24106    36812.755 
  709300    303.11195   -1525.3243    499.60041    342.20408     28.04761    36812.755 
  709400    297.76799   -1541.9176    508.07526    309.96863   -152.01067    36812.755 
  709500    308.93802   -1553.6039    498.88733    339.50416    61.610816    36812.755 
  709600    304.31186    -1510.672    489.20251    351.87363    9.5783119    36812.755 
  709700    307.71634   -1530.5324    478.29731    336.47228    17.823092    36812.755 
  709800    314.49357   -1557.4453     488.7249    350.57219   -138.97072    36812.755 
  709900     304.7263   -1537.8534    487.61071    324.97072   -98.945776    36812.755 
  710000    296.94814   -1516.0891     501.2875    325.30943    454.40394    36812.755 
  710100    294.03181   -1553.0186    528.27843    302.20965    437.34338    36812.755 
  710200    309.34287    -1509.638    498.55151    384.96126    747.73513    36812.755 
  710300    301.78558   -1484.3324    508.06522    385.67499    1042.2064    36812.755 
  710400     301.2161   -1520.1194    508.29569    347.54844    271.59275    36812.755 
  710500    297.04364   -1481.0597    504.42205    363.90439    160.02247    36812.755 
  710600    298.01547   -1482.2292    532.11504    394.81367   -223.28622    36812.755 
  710700    301.98663   -1448.6744    518.79585    432.97098   -910.74102    36812.755 
  710800    312.95687   -1448.5184      483.411    447.25017   -452.45914    36812.755 
  710900    294.16474   -1456.7449    512.46076    383.26561    -704.6178    36812.755 
  711000     294.7495   -1447.1861    519.45989    402.46247   -303.42791    36812.755 
  711100    295.90044   -1470.0104    479.88264    345.25503    95.063763    36812.755 
  711200    294.48431   -1456.0596    499.37246    372.30483   -82.110569    36812.755 
  711300    297.55814    -1467.468    508.40079     383.7967   -139.53602    36812.755 
  711400    291.74469   -1476.8745    489.69699     329.4506   -118.97667    36812.755 
  711500    290.40544   -1422.2838    518.62897    406.92939     70.31847    36812.755 
  711600    293.61343   -1462.8702    507.50581     369.6973   -233.69213    36812.755 
  711700     294.5121   -1445.8104    480.79306    364.10002   -684.39323    36812.755 
  711800    311.35609   -1508.6116    508.77707    405.29884   -654.99153    36812.755 
  711900    298.25995   -1497.3516    500.06516    348.74469   -611.22678    36812.755 
  712000     302.8583   -1501.2797     482.5151    348.01864   -247.47119    36812.755 
  712100    299.12097   -1471.1618    502.69303    381.44817   -92.667329    36812.755 
  712200    306.88018   -1486.2871    477.77117    376.41791    301.09519    36812.755 
  712300    293.14253    -1499.383    498.94267    322.49623     165.7071    36812.755 
  712400    299.76005    -1510.623    495.87733    338.05541   -28.285241    36812.755 
  712500     304.5182   -1497.7295     503.3163    379.86109   -116.36212    36812.755 
  712600    306.46064   -1502.7749    488.47354    368.73908    158.68516    36812.755 
  712700    303.75572   -1470.1351    485.95902    386.65724    -390.8594    36812.755 
  712800    299.51594   -1454.4646     492.6289    389.86371   -401.47608    36812.755 
  712900    293.83198   -1450.6916    496.79064    372.14699   -89.936705    36812.755 
  713000    293.35473   -1496.0488     481.5337    309.37905   -348.28901    36812.755 
  713100    293.70324   -1507.4543    494.17482    312.18749   -426.68457    36812.755 
  713200    299.19064   -1474.1784    461.61431    337.66722   -191.98765    36812.755 
  713300    300.85025   -1512.0774    454.67837    300.32203   -332.74166    36812.755 
  713400    301.02106   -1500.1908    479.50949    337.81066   -879.83998    36812.755 
  713500    297.31641   -1491.2572     514.0243    364.54015   -251.43796    36812.755 
  713600    297.33279    -1514.586     477.5236    304.78455   -85.919822    36812.755 
  713700    304.74905   -1512.5869    482.74803     345.4772   -45.370529    36812.755 
  713800    292.63949   -1547.9322    481.20222     253.9364    89.724623    36812.755 
  713900    302.78291   -1551.5755    512.01021    326.87775    437.34368    36812.755 
  714000    297.14551   -1544.2633    498.31791    295.05633    84.217111    36812.755 
  714100    304.47137   -1528.7144    484.05779    329.40636    540.90169    36812.755 
  714200    293.56093   -1538.8677    482.88741    268.84449    259.97397    36812.755 
  714300    305.33585   -1560.2585    476.10209    293.80795   -473.46843    36812.755 
  714400    303.45175   -1540.0389    491.73108    321.15361   -102.42364    36812.755 
  714500    294.51436   -1524.5065    461.36522    265.98622   -147.95235    36812.755 
  714600    300.69714   -1528.6218    490.09775    318.50599   -161.84783    36812.755 
  714700    299.76403   -1506.7743    503.82653    349.87123   -185.78407    36812.755 
  714800    292.62628   -1520.6388    485.60745    285.57534   -305.97151    36812.755 
  714900    298.89813   -1540.0879    481.51064    290.33396   -282.94078    36812.755 
  715000    291.70214   -1529.1128    461.51836    248.84169    -744.3052    36812.755 
  715100    308.19043   -1547.1035     495.3049    339.04831   -174.77996    36812.755 
  715200    293.40184   -1494.7651    495.68211    325.02375    71.875241    36812.755 
  715300     296.0953   -1485.3914    482.08431    332.95511     197.6555    36812.755 
  715400    301.24069   -1531.2745    500.68913    328.89774    764.90423    36812.755 
  715500    297.00136   -1546.9125    484.95236    278.39104    958.54399    36812.755 
  715600    300.17019   -1522.2252    525.71332    358.14013    449.38407    36812.755 
  715700     307.3181   -1493.8299    478.31349    371.39366    694.22524    36812.755 
  715800    301.14217   -1526.3398    484.57496     317.2736    454.27805    36812.755 
  715900    292.44455   -1522.1768    495.90837    293.51821    23.950883    36812.755 
  716000    301.29152   -1516.1075    500.89612     344.5011    105.94424    36812.755 
  716100    305.03557   -1520.5981    505.69963    361.71073    883.66273    36812.755 
  716200    299.96534   -1485.1687    494.47992    363.03866    270.02872    36812.755 
  716300    315.17579   -1484.7893    471.69277    409.27495    196.64346    36812.755 
  716400    303.02723   -1498.5939    494.37116    363.32294    8.2780362    36812.755 
  716500    306.23037   -1542.5763    507.01494    346.43995    31.862671    36812.755 
  716600    300.09749   -1512.3473    488.13939    330.11602   -366.33891    36812.755 
  716700    293.17913   -1530.8239    481.35467    273.63247    329.77184    36812.755 
  716800    298.05764   -1480.9209    482.34954    346.54674    149.54901    36812.755 
  716900    303.65343   -1535.5236    505.63358    340.48159    337.61115    36812.755 
  717000    294.57409   -1524.6071    496.55645    301.34642   -122.62183    36812.755 
  717100    302.59336   -1497.4633    486.62792    354.75225    -104.1228    36812.755 
  717200    331.82035   -1507.5983    479.89667    469.78579    20.107063    36812.755 
  717300    293.40659   -1507.7148    483.42203    299.83542   -209.01734    36812.755 
  717400    304.99968   -1464.1466    527.92896    440.22962   -427.38747    36812.755 
  717500    297.53021   -1501.3399    498.21144     339.6094   -30.139574    36812.755 
  717600     306.4183   -1506.0483    471.98945    348.79054     466.2318    36812.755 
  717700    308.65256   -1500.7278    514.98113    407.18576    536.68667    36812.755 
  717800    308.71652   -1479.2688    492.27963    406.23196    682.17966    36812.755 
  717900    297.99153   -1501.8772    498.24472    341.18736    157.63744    36812.755 
  718000    293.91773   -1502.5057    508.56576    332.49499    250.02448    36812.755 
  718100     300.3819   -1508.0181    486.91387     334.5032   -252.23926    36812.755 
  718200    316.44804   -1504.4647     508.2353     431.8836   -90.350126    36812.755 
  718300    283.43497   -1507.7147    477.07048    248.48259    45.942618    36812.755 
  718400    296.30791   -1538.9893    490.62867    288.86106    -311.9192    36812.755 
  718500    290.99673   -1540.7022     493.5434    266.09381   -139.23287    36812.755 
  718600    293.18795   -1561.4916    493.85119    255.50106    14.672217    36812.755 
  718700    300.81143   -1537.8122    493.75881    313.49252    -619.3303    36812.755 
  718800    301.85403   -1519.4757    461.31272     304.0881   -929.83558    36812.755 
  718900    293.11786   -1557.6152    473.29791    238.50794   -1242.3284    36812.755 
  719000    294.96504   -1461.6339    536.50489    406.03246   -918.01515    36812.755 
  719100    290.98304   -1496.8923    478.13757    294.43613   -457.10161    36812.755 
  719200    296.62895   -1557.7655    504.99669    285.90174    745.15754    36812.755 
  719300    301.68698   -1557.3277    476.24918    280.41867    38.341627    36812.755 
  719400    303.63867   -1525.1897    483.84038    328.95571    492.02246    36812.755 
  719500    308.49103   -1557.3856    492.41293    327.23086   -127.82399    36812.755 
  719600    294.62724   -1547.2677    521.64994    304.01925   -340.85511    36812.755 
  719700     297.2427   -1508.2968     515.5368     348.6804    361.33981    36812.755 
  719800    294.65661   -1575.4597    474.85694    229.16673   -131.62932    36812.755 
  719900    294.88844   -1515.5852    469.50194    284.73243   -312.91958    36812.755 
  720000    305.97595   -1473.1926    518.27626    425.93672    95.519208    36812.755 
  720100    291.33199   -1532.5489    488.75547    270.97223   -0.7036036    36812.755 
  720200    294.03225   -1520.6382    516.18824    322.50183    394.80025    36812.755 
  720300    303.88257   -1534.6838    483.62639     320.3484    638.98815    36812.755 
  720400    302.91737   -1560.5287    486.50533    293.02647    474.18704    36812.755 
  720500    290.76419   -1570.6447    484.22212    225.78068     57.20755    36812.755 
  720600    290.92753   -1517.1268    494.25016    290.06367    447.70644    36812.755 
  720700    305.78375   -1513.0981    488.95804    355.84556   -196.01534    36812.755 
  720800    307.64346   -1533.3858    503.71741    358.71006    241.55513    36812.755 
  720900     306.4096   -1514.5115    515.79402    384.09257    292.40476    36812.755 
  721000    295.44809   -1509.3362     508.5568    332.56198   -187.71586    36812.755 
  721100    296.46906   -1496.8861    497.61444    338.67736   -510.41084    36812.755 
  721200    289.62797   -1511.1146    503.12528    299.08622   -202.69312    36812.755 
  721300    299.90033   -1518.3921     491.1556    326.19761    241.79607    36812.755 
  721400     287.4494    -1494.977    512.40641    314.67313   -35.172697    36812.755 
  721500    301.81224   -1532.0249    493.31995    323.35752    76.219219    36812.755 
  721600    296.92326   -1500.2984    488.64543    328.34579    53.274946    36812.755 
  721700    303.89108   -1468.4296    476.75247    379.76697    54.644454    36812.755 
  721800    300.91671   -1514.8946    487.67227     330.7986    746.96565    36812.755 
  721900    301.51848   -1471.8504     466.3636    355.24992    120.80102    36812.755 
  722000    305.03032   -1488.1478    463.04187    351.47954   -149.61157    36812.755 
  722100    292.58769   -1492.6476    495.14971    322.93472   -50.237902    36812.755 
  722200    300.40325      -1517.8    500.45242    338.35618   -271.51682    36812.755 
  722300     302.2863   -1447.7497     489.0561    405.50824    244.13977    36812.755 
  722400    299.37001   -1451.0829     487.5238    387.48169     382.6793    36812.755 
  722500    296.98437    -1465.287    477.50527    352.49283    88.148042    36812.755 
  722600    294.62273   -1470.3336    502.08283    361.36587    370.86874    36812.755 
  722700    287.44732   -1490.7965    513.94109    320.37895    574.43411    36812.755 
  722800    296.72195   -1497.6455    521.67065    363.11538    187.72333    36812.755 
  722900    292.86791   -1484.5708    492.84607    329.97246    826.96359    36812.755 
  723000    300.95817   -1465.1885    508.42885    401.44848    644.30981    36812.755 
  723100    309.96611   -1462.9281    513.19767    449.12999    310.88382    36812.755 
  723200    298.67787   -1506.1604    490.01058    331.76736   -192.16803    36812.755 
  723300    294.63115   -1458.4431    487.46161    358.67306   -515.90106    36812.755 
  723400    311.79602   -1491.5424    465.16747    380.74375    -306.4079    36812.755 
  723500    295.87529   -1499.0411    497.82656    334.05481   -284.75351    36812.755 
  723600    305.85007    -1537.506    480.84262    323.62164   -75.310969    36812.755 
  723700    294.67896   -1542.7521    488.92163     276.0399   -14.485624    36812.755 
  723800    307.01813    -1527.648    492.50143    350.40977    382.14547    36812.755 
  723900    301.99368   -1501.9409    471.34014    332.28051    319.28082    36812.755 
  724000    288.78393   -1491.6641    485.57012    297.17245    133.88466    36812.755 
  724100    301.96457   -1489.9723    494.88853    367.66616    378.70267    36812.755 
  724200    305.92105   -1471.9338    484.54961    393.22112    333.46945    36812.755 
  724300    313.94709   -1577.0486    497.24903    337.02677    212.36208    36812.755 
  724400    299.74803   -1531.2269    497.78456    319.30448    985.38069    36812.755 
  724500    289.21885   -1529.9877    505.35663    280.59814    170.85206    36812.755 
  724600    301.28623   -1505.7397    476.02544    329.97436   -173.88056    36812.755 
  724700    292.64104   -1541.8615    498.29846    277.11024    -714.1958    36812.755 
  724800    301.38162    -1539.196    449.69446    270.61756   -714.84157    36812.755 
  724900    290.17838   -1533.6268    497.34052    273.27319   -733.51014    36812.755 
  725000    299.56478   -1512.1003     507.5389    347.35842    -409.5276    36812.755 
  725100    297.86497   -1538.6261    467.34594    272.96848   -65.168593    36812.755 
  725200    298.55356   -1504.4474    500.09959    343.00838    206.73105    36812.755 
  725300    305.71072   -1452.9275    473.64178    400.37044    55.395857    36812.755 
  725400    292.86566   -1465.6419    490.90909    346.95423    229.11257    36812.755 
  725500    304.00901   -1487.6461    495.58764    379.91794    284.28183    36812.755 
  725600    304.11042   -1457.6623    496.09367    410.86537    709.93252    36812.755 
  725700    301.15473    -1498.348    500.87977    361.62692    302.87181    36812.755 
  725800     299.4431   -1479.3592    495.06454    367.07601    691.63626    36812.755 
  725900    299.21463   -1460.6142    496.55963    386.28499     260.3097    36812.755 
  726000    304.81384   -1489.4491    511.33127    397.49065    12.743048    36812.755 
  726100    296.00212    -1499.625    463.75049    299.96717    203.20219    36812.755 
  726200    299.27827   -1485.0087    481.20414    346.82222    158.12373    36812.755 
  726300    290.66324   -1463.1324    507.08251    355.69779   -17.518233    36812.755 
  726400     303.6557   -1524.4748    489.86352    335.77061     -51.3606    36812.755 
  726500    296.57583   -1513.8265    486.39134    310.99573     236.5046    36812.755 
  726600     294.1961   -1545.3791    478.72658    261.03873   -7.2604437    36812.755 
  726700    284.50654   -1483.4636    515.55926    316.05844    281.27981    36812.755 
  726800    302.36535   -1497.7091    477.62695    344.47645     736.3992    36812.755 
  726900    296.70158   -1506.6282    524.02829    356.39838     246.6505    36812.755 
  727000    300.55627   -1465.1772     495.1067    386.32384    701.98383    36812.755 
  727100    308.73114   -1473.8364    508.01933       427.47    109.50533    36812.755 
  727200    303.71245   -1490.8824    511.27735    391.03297   -48.159087    36812.755 
  727300     294.3487   -1482.2762    483.77766    329.88137   -497.42604    36812.755 
  727400    304.14189   -1467.4298    466.89156    372.03781   -266.74585    36812.755 
  727500    310.86819   -1493.1757     533.3758    443.13159   -65.700507    36812.755 
  727600     293.7458   -1489.7922    491.52248    327.38937   -346.76544    36812.755 
  727700     310.1199   -1510.3044     504.9979    394.24801   -131.28974    36812.755 
  727800    299.43079   -1538.8394     483.0252     295.5009   -41.885205    36812.755 
  727900    309.81778   -1504.8966    489.82709    383.12149   -719.88184    36812.755 
  728000    305.69868   -1494.6489     503.2241    388.17695   -34.291711    36812.755 
  728100    303.92536   -1489.5811    479.19868     361.2165   -265.34761    36812.755 
  728200    295.64914   -1508.7805    483.14511    308.61333   -285.96822    36812.755 
  728300    294.07983   -1505.8472    484.76925    306.08862   -312.60973    36812.755 
  728400    304.09651   -1546.9747    473.90855    299.30504    112.54186    36812.755 
  728500    298.50816   -1563.6906    490.81367    274.27444    471.31836    36812.755 
  728600    298.46977   -1491.6111    502.32566    357.69264     494.8354    36812.755 
  728700    302.16001   -1487.9597    485.06545    360.73766    27.699566    36812.755 
  728800    302.74756   -1497.4108     479.5554    348.42817    308.67861    36812.755 
  728900    309.42424   -1526.3911    534.55258     404.5765    472.12726    36812.755 
  729000    297.85025   -1479.7189     469.7154     334.1787    184.78713    36812.755 
  729100     299.4861   -1491.6876    492.76374    352.64086   -8.7494755    36812.755 
  729200    288.27588   -1496.5263    516.58464    321.03191   -400.89249    36812.755 
  729300    298.80615   -1535.8616    470.16206    282.79662    206.44402    36812.755 
  729400     290.8418   -1545.8577    468.15427    234.84999   -451.64825    36812.755 
  729500    308.05061   -1537.8208    479.08953    331.48464    366.56789    36812.755 
  729600    305.83073   -1542.3565    522.15319    359.99439    874.37219    36812.755 
  729700    306.80434   -1531.9439     478.2531    330.90076    279.17156    36812.755 
  729800    300.71993   -1538.2604    455.67132    274.54385   -110.92097    36812.755 
  729900    303.74265    -1529.253    498.18121    339.70251    231.41986    36812.755 
  730000    293.90375   -1541.0334    502.33393    287.67239    160.35576    36812.755 
  730100    298.28358   -1508.0735    479.84806    317.91232    38.626471    36812.755 
  730200    297.30101   -1527.1201    496.86974    311.45314   -26.190034    36812.755 
  730300    292.71387   -1528.3681    498.85972    291.49364    791.03048    36812.755 
  730400     298.9061   -1525.2755    475.37969    299.05136   -228.13137    36812.755 
  730500    297.65422   -1517.7507    460.49768    286.04456    723.67495    36812.755 
  730600    290.29305   -1500.6643    501.20969     310.6224    655.96755    36812.755 
  730700    302.62763   -1514.4392    480.53483    331.83789      446.798    36812.755 
  730800     296.7171   -1493.9482    493.66045    338.78061     181.7532    36812.755 
  730900     283.4432    -1559.507     514.5525    234.20944   -152.55604    36812.755 
  731000    297.77784   -1556.9834    460.79459    247.66658    165.60594    36812.755 
  731100    304.28889   -1517.2141    477.80834    333.83373    724.06602    36812.755 
  731200    303.46323   -1525.5887    510.88379    354.80838    1043.1308    36812.755 
  731300    294.81777   -1511.2669    493.00413    312.23405    829.72809    36812.755 
  731400    297.76883   -1538.6323    499.70808    304.89059    517.45704    36812.755 
  731500    293.99722   -1537.3365    501.39544    290.85259    311.02922    36812.755 
  731600    303.21987   -1553.3112    474.17038    289.27418    684.14588    36812.755 
  731700    292.86951   -1563.8691    500.62891    258.46417    508.66811    36812.755 
  731800    300.99718    -1577.988    497.48114    277.87729    705.19422    36812.755 
  731900    288.68706   -1563.3291    457.10202     196.6021    393.62461    36812.755 
  732000    296.61732   -1554.2981    474.97825    259.29816    786.03741    36812.755 
  732100    307.42154   -1572.0007    461.42504    276.80132    645.67501    36812.755 
  732200    298.88684   -1566.5951    482.43792    264.70312    985.74369    36812.755 
  732300    304.06464   -1543.3719    519.38663     348.2421    742.88937    36812.755 
  732400    302.79393   -1550.5846     500.9872     316.8954    750.80389    36812.755 
  732500    299.92606   -1541.4268    461.81508    273.93852    376.09606    36812.755 
  732600    305.23459   -1510.9123    475.42927    342.02434    460.61709    36812.755 
  732700    293.65171    -1555.392    499.92512    269.76757    389.09546    36812.755 
  732800    305.17672   -1521.6855    506.85632    362.41701    365.47345    36812.755 
  732900    302.89346   -1518.7835    499.19096    347.34944    270.15718    36812.755 
  733000    294.82634   -1523.5131    514.53956    321.56196   -112.22005    36812.755 
  733100     289.5068   -1521.3825    518.91464    304.06081   -446.51455    36812.755 
  733200    286.98755   -1546.9529    495.21634    243.42287   -30.560671    36812.755 
  733300    303.68328   -1522.8329    505.58465    353.25817   -532.25921    36812.755 
  733400    298.64033   -1522.4684    471.87145    297.15085   -324.00606    36812.755 
  733500    308.47951   -1543.1091    499.10123    348.14366   -146.70035    36812.755 
  733600    303.59665   -1537.1199    492.30537    325.30084   -413.00254    36812.755 
  733700    307.89499   -1517.8767     462.7415    334.37834    -265.7549    36812.755 
  733800    300.79045   -1510.3838    499.82661    346.89393   -75.533231    36812.755 
  733900    309.13476   -1521.2201    491.76557    365.65405   -191.62949    36812.755 
  734000    302.17496   -1526.8425    500.83342    337.69034    530.56946    36812.755 
  734100    289.45142    -1508.618    490.25794    287.91869     155.0301    36812.755 
  734200    287.41282   -1494.2768    490.78139    293.58323    377.54323    36812.755 
  734300    292.29489   -1482.0739    506.75991    343.79721    484.09451    36812.755 
  734400    296.69226    -1496.249    498.54967    341.25696    167.35593    36812.755 
  734500    308.24446   -1488.6993    496.69989    399.09132    81.945059    36812.755 
  734600    304.08299   -1467.5271     512.5719      417.355    133.96034    36812.755 
  734700    301.28426   -1483.8847    481.65737    357.45239   -79.706574    36812.755 
  734800    291.59726   -1515.6756    487.94455    288.23177    238.15119    36812.755 
  734900    307.28803   -1518.9451    494.73009    362.55937    1067.1682    36812.755 
  735000    293.15686   -1546.3594    514.58892    291.23074     582.3867    36812.755 
  735100    302.44345   -1500.9334    477.51701    341.49465    128.07595    36812.755 
  735200    294.44767   -1524.7535    487.45728    291.53034     260.4998    36812.755 
  735300    295.04327   -1515.1879    491.65251    307.97906   -65.694865    36812.755 
  735400    303.52441   -1493.2834    481.84995    358.35591   -94.170959    36812.755 
  735500    299.13675   -1461.6316    512.20132    400.55779    231.76652    36812.755 
  735600    292.87746   -1503.8864     502.1722    320.02609   -627.40244    36812.755 
  735700    304.54784   -1486.3676    526.92828     414.9688   -518.00918    36812.755 
  735800    305.05102   -1499.2065    472.81438    350.28678   -440.33543    36812.755 
  735900    300.31912   -1457.1419    511.09113    409.27335   -793.84652    36812.755 
  736000    292.66619   -1438.3547    501.47878    383.91087    195.65817    36812.755 
  736100    297.12334   -1484.9548    489.37041    345.31727    561.74674    36812.755 
  736200    305.15175   -1448.9378    503.77454    431.97028    488.54379    36812.755 
  736300     301.0985   -1505.4233    480.09219     333.5103    354.89059    36812.755 
  736400    303.61111   -1469.0501    507.11794    408.24852    463.10695    36812.755 
  736500    306.64768   -1500.1725    495.26088    378.97294     241.2499    36812.755 
  736600    291.10502   -1450.8506    511.02544    373.91617    145.34416    36812.755 
  736700    293.49837   -1442.1976    491.42287    373.76762   -132.77907    36812.755 
  736800    305.05594   -1519.6296    505.58439    362.65593    56.787754    36812.755 
  736900    300.87006   -1507.9695    497.33091    347.17184     328.7591    36812.755 
  737000    298.85946    -1513.504    469.95947    305.19222    13.773346    36812.755 
  737100    313.80598   -1551.2027    489.13513    354.12201    257.85899    36812.755 
  737200    294.57893   -1517.8968    505.09559    316.61771    555.51928    36812.755 
  737300    293.76337   -1510.9045    522.63414    337.46797    554.33348    36812.755 
  737400    297.95607   -1482.7356    510.93117    372.85534    876.67748    36812.755 
  737500    297.82776   -1524.3338    483.84793    303.59488    707.57322    36812.755 
  737600    297.03845   -1517.1594    466.45112    289.81033    -26.89243    36812.755 
  737700    301.19233   -1540.6971    498.28862    316.85635    5.0156984    36812.755 
  737800     311.6065   -1522.6982    505.84972    389.41495    943.42221    36812.755 
  737900    299.97357   -1540.5877    476.28676    289.46368    244.33338    36812.755 
  738000    308.90994   -1553.1037    477.43899    318.42933    354.41802    36812.755 
  738100    294.72702   -1527.7121    476.15865    278.53384    133.04792    36812.755 
  738200    303.21714   -1535.5589    478.68221    311.52604     646.1376    36812.755 
  738300    297.27456   -1539.0548    497.85057    300.37993    306.85914    36812.755 
  738400    302.90069   -1535.4968    467.75559    299.23336    101.38559    36812.755 
  738500    295.38589   -1530.3352    480.47595    283.20145   -72.701088    36812.755 
  738600    296.82647   -1546.5867    482.06923    275.04446    239.90211    36812.755 
  738700    296.64156   -1529.3385    476.24173    285.63067   -446.22907    36812.755 
  738800    323.14236   -1502.2756    476.27914    432.32771    2.3867317    36812.755 
  738900    297.75433   -1563.2907    483.03825    263.49689    147.02251    36812.755 
  739000    300.00392   -1565.3691    480.75067    269.28322    621.19175    36812.755 
  739100    299.79822   -1529.4905    517.24472    340.72755    773.00458    36812.755 
  739200    299.04101   -1561.0267    494.35837    282.88773    303.19499    36812.755 
  739300    295.23952    -1547.789    453.96356    238.57463    420.16867    36812.755 
  739400     292.6311   -1569.2992    482.96017    234.28942    38.377534    36812.755 
  739500    291.80087   -1508.4538    505.24015    313.66805    295.58914    36812.755 
  739600    303.67617    -1519.925    472.65527    323.20455    747.10258    36812.755 
  739700    297.18522   -1482.9396    502.13972    360.38109    376.30481    36812.755 
  739800    294.12779   -1517.4318    462.42134    272.37249    468.24326    36812.755 
  739900    306.36629   -1533.3885    483.91324    333.13942    438.87673    36812.755 
  740000    304.78418   -1567.8056    513.69278    321.36186    362.35526    36812.755 
  740100    300.61982   -1537.2759    480.18641    299.59168    230.77494    36812.755 
  740200     297.1526   -1548.4527    489.03331    281.61434   -10.191558    36812.755 
  740300    305.78952   -1521.7962     477.0464    335.26189   -309.42943    36812.755 
  740400    291.06804   -1522.8713    501.16754    291.87068    39.663742    36812.755 
  740500     300.2323   -1496.6361    466.55509    324.85131   -208.48853    36812.755 
  740600    304.17421   -1508.7945    497.92064    361.84805    -384.8713    36812.755 
  740700    291.28649   -1509.6197    517.18223    322.12283     223.6679    36812.755 
  740800    301.99039   -1549.7866    473.72213    286.80196    144.33848    36812.755 
  740900    292.23246   -1548.0493    489.03958    259.81971   -286.15886    36812.755 
  741000    301.01301   -1501.9479     469.3938    325.90151   -235.67912    36812.755 
  741100    296.94285   -1478.7647    517.38871    378.71118   -233.79162    36812.755 
  741200    299.58333   -1525.8637    494.47448    320.61431    295.88367    36812.755 
  741300    309.79745   -1531.5288    479.55421    346.12467    459.26031    36812.755 
  741400    295.65078   -1529.7941    493.69352    298.15559    40.824063    36812.755 
  741500     284.3079   -1545.0026       510.96    249.02376   -294.34988    36812.755 
  741600    303.27446   -1501.4234    509.42116    376.65912   -230.46699    36812.755 
  741700    305.75151   -1513.2798    460.95379    327.51415   -605.77736    36812.755 
  741800    296.81924   -1545.1387    469.62753     264.0182   -1274.9358    36812.755 
  741900    299.13492   -1493.8174    521.58868    377.75118   -1716.8569    36812.755 
  742000    302.20332   -1571.0364    491.28178    284.07277   -916.90273    36812.755 
  742100    292.38031   -1550.1559    485.88758    255.22837   -49.248714    36812.755 
  742200    297.83732   -1587.8284    490.74151    247.03695   -117.89571    36812.755 
  742300    311.88418   -1586.0469    497.94546    319.41513    144.79394    36812.755 
  742400    305.86274   -1556.5302    502.33939    326.15137    776.70141    36812.755 
  742500    290.19858   -1546.6845     499.5152    262.48132    385.69555    36812.755 
  742600    302.24523   -1544.3909     487.7816    307.40721    480.64436    36812.755 
  742700    301.58164   -1554.4177    494.60126    301.20533   -128.48281    36812.755 
  742800    295.68218    -1594.299     478.6217    218.72048   -198.64441    36812.755 
  742900    295.36761    -1582.977    493.37894    243.38016   -669.61922    36812.755 
  743000    296.26718   -1536.2593    482.69624    283.47487   -689.00171    36812.755 
  743100    292.24571   -1583.1429    472.09433     207.8407   -589.28038    36812.755 
  743200    286.20318    -1532.866    491.48093    250.23456   -734.65582    36812.755 
  743300    289.04435   -1517.7654    476.12071    262.79693   -490.20431    36812.755 
  743400    308.50026   -1539.3575    474.21813    327.10584   -796.29358    36812.755 
  743500    299.53241   -1558.2847    476.95155    270.44056   -426.50234    36812.755 
  743600    299.23855   -1525.8783    481.58282    306.15208   -14.316503    36812.755 
  743700     305.7513   -1537.2899    499.93415    342.48354   -326.92476    36812.755 
  743800    299.14644   -1560.3398    486.54447    276.23655   -335.60439    36812.755 
  743900    295.82034   -1551.9962    493.69535    276.72053    -1125.334    36812.755 
  744000    296.10514   -1522.6671    512.61328    326.25287   -899.23477    36812.755 
  744100    292.56141   -1534.2886    514.61474    300.64017    -243.7356    36812.755 
  744200    302.00481   -1527.2497    493.16078    328.84253   -211.70469    36812.755 
  744300    308.65083   -1532.0008     494.1924    355.11629   -137.85909    36812.755 
  744400    302.37976   -1579.7398    481.68622    266.57006   -132.76538    36812.755 
  744500    298.96459   -1524.2068    497.50262    322.50701   -125.23511    36812.755 
  744600    289.48664   -1536.6593    477.58272    247.36108    56.126329    36812.755 
  744700    297.30088   -1521.6645    506.85395    326.89241    212.54103    36812.755 
  744800    306.07772   -1543.5667     484.6449    322.39057    247.82389    36812.755 
  744900    289.67244   -1509.2001    521.30875    319.38486   -202.85747    36812.755 
  745000    290.87906   -1574.9244    481.82043    219.61763   -177.77076    36812.755 
  745100    304.40461    -1515.571     484.2254    342.41605   -376.44114    36812.755 
  745200    297.33948   -1538.5576    520.13595    323.45551   -178.44887    36812.755 
  745300    298.29499   -1554.1694    487.81752    279.83744    60.116523    36812.755 
  745400    294.04419   -1548.2242    481.15781    259.93925    273.70197    36812.755 
  745500    293.30743   -1536.6271    504.09685    291.15048   -62.641067    36812.755 
  745600    305.61544     -1532.55    495.59436     342.2705    366.96518    36812.755 
  745700    293.19585   -1524.6657    485.49056    284.00205    76.226995    36812.755 
  745800    298.96344    -1500.151    475.73454    324.78952     637.3871    36812.755 
  745900    310.87753    -1544.416    508.26071     366.8183    615.52579    36812.755 
  746000    291.17335   -1574.2867    466.44341     206.2064   -275.14357    36812.755 
  746100    309.12676   -1541.9361    513.00157    366.13802    179.14669    36812.755 
  746200    301.69391    -1589.839    485.19426    256.88364    236.78003    36812.755 
  746300    289.09459   -1511.2981     504.0428    297.41312    27.365045    36812.755 
  746400    301.34317   -1536.0242    494.48659    318.40802   -130.31825    36812.755 
  746500    294.23027   -1531.0723    496.70305    293.47616    6.4425323    36812.755 
  746600    306.12048   -1584.2125    496.94707    294.23987   -139.93621    36812.755 
  746700    295.49909   -1554.6027    503.44404    282.41291    33.129971    36812.755 
  746800    298.86602   -1555.4862    487.83228    281.11239      44.5097    36812.755 
  746900    304.92937   -1550.4061    484.99048    310.71428    579.93635    36812.755 
  747000    290.71868   -1511.6668    495.33221    295.66323    379.41491    36812.755 
  747100     302.8342   -1505.4144     502.1424    363.40254   -25.167326    36812.755 
  747200    299.78624   -1484.0097    481.74083     350.6504   -180.13707    36812.755 
  747300    291.28455   -1495.9435     506.6785    325.28651   -292.31608    36812.755 
  747400    308.84798   -1526.3828    506.07834    373.50994   -683.85433    36812.755 
  747500    289.94093   -1522.8299     498.8303    284.48834   -258.09438    36812.755 
  747600    297.06056   -1513.6155    493.09345    320.09636   -158.76912    36812.755 
  747700    300.26123   -1500.7065    517.75665    372.11301    32.561882    36812.755 
  747800    309.08204   -1507.0875    482.97886    370.76206    115.16997    36812.755 
  747900    300.61146    -1573.892    501.05612    283.80747     184.2636    36812.755 
  748000    298.95218   -1526.3896    505.09944    327.86499    286.91916    36812.755 
  748100    297.87734   -1509.8276     492.4069    326.88382    198.20191    36812.755 
  748200    308.74381   -1526.4166    486.55367    353.48136    127.55211    36812.755 
  748300    285.80158    -1521.208    508.02318    276.62237   -213.57697    36812.755 
  748400    295.58834   -1509.0634    510.54691    335.45788    348.93711    36812.755 
  748500    300.15942    -1502.911     486.4538    338.14616    364.67302    36812.755 
  748600     292.5226   -1543.7512    482.76223    259.14982    504.03481    36812.755 
  748700    307.27785   -1541.2416    511.21584    356.70272   -346.69214    36812.755 
  748800    302.13989   -1527.5117    475.44373    311.47313    26.384969    36812.755 
  748900    310.81328   -1526.8125    491.10282    366.97396    814.82721    36812.755 
  749000    302.18056   -1500.4833    493.42213    356.66353    184.34854    36812.755 
  749100    297.51935   -1525.4798    500.26797      317.477    137.00495    36812.755 
  749200    292.85038   -1561.0733    489.19193    249.73668     222.2378    36812.755 
  749300    302.98297   -1543.2858    486.66086    310.72094    426.17381    36812.755 
  749400    302.41586   -1537.6532    464.70246    291.83581    74.975574    36812.755 
  749500    300.01545   -1518.5425    496.30527    331.71643    212.97182    36812.755 
  749600      300.551   -1536.6799    507.95504    327.64569   -498.99855    36812.755 
  749700    301.01623    -1533.544    477.17366    302.09974   -231.16966    36812.755 
  749800    303.41425   -1529.6347    515.50194    355.15946    134.81654    36812.755 
  749900    292.76323   -1558.2284    482.00982    245.00621    135.64698    36812.755 
  750000    309.02115   -1532.6919    492.85148    354.75544    214.76508    36812.755 
  750100    294.26305   -1534.9329     512.7256    305.78607   -211.98149    36812.755 
  750200    303.75484   -1520.0025    475.91543    326.74224   -112.85097    36812.755 
  750300    300.93001   -1512.2801    468.23558    314.03646   -521.14791    36812.755 
  750400    299.69963   -1518.6402    522.98456     356.8727   -580.19548    36812.755 
  750500     300.3777   -1507.7532    499.08836    346.92368   -288.90094    36812.755 
  750600     296.6884   -1558.9792    471.89039    251.84997   -580.04105    36812.755 
  750700    297.27662   -1530.7281    479.28964    290.15504   -330.64478    36812.755 
  750800    295.61262   -1505.4719    517.70785    346.31984   -105.03794    36812.755 
  750900    308.13925   -1585.0479    504.09529    309.66328    163.93544    36812.755 
  751000    286.03543    -1591.304    496.53216     196.0907    876.09511    36812.755 
  751100    292.15221   -1548.5259    480.04098    249.98238    1001.1021    36812.755 
  751200    296.41839   -1511.5068    532.93452    359.14803    1130.3007    36812.755 
  751300    315.59741   -1555.1333    509.14476    378.28561    927.14231    36812.755 
  751400    299.07652   -1512.4153    488.56243    325.86339    477.38797    36812.755 
  751500    308.33752   -1540.6846    489.66264    340.48872   -572.51777    36812.755 
  751600    297.95718    -1509.065     510.4615    346.06124   -87.241833    36812.755 
  751700    301.47023   -1491.3742    500.29405    369.43886   -178.39992    36812.755 
  751800    298.58063   -1517.9367     516.3886    345.93026   -366.30414    36812.755 
  751900    290.05757     -1520.21    504.82604    293.63033   -577.87321    36812.755 
  752000    304.27184   -1502.0368    494.51828    365.64401   -631.61435    36812.755 
  752100    300.25511   -1506.6435    511.52294    359.91465   -416.21927    36812.755 
  752200    295.62983   -1505.0875    508.02031    337.09432    -7.944543    36812.755 
  752300     293.3881   -1533.4655    492.88429    283.46354   -353.96934    36812.755 
  752400    298.27171   -1517.1991    476.87588    305.76099    155.34912    36812.755 
  752500    307.67686   -1538.4597    514.27521    364.34473    -237.2742    36812.755 
  752600     296.7552   -1556.7134    506.49656    289.02347    100.33471    36812.755 
  752700    298.26822   -1502.9914    511.97111    355.04817   -230.11716    36812.755 
  752800    301.01499   -1490.1174    516.25221    384.59934    -46.04742    36812.755 
  752900    287.95166     -1526.54    514.61032    287.58073    50.555988    36812.755 
  753000    292.45291   -1525.6851    490.51473    284.65397    734.12311    36812.755 
  753100    306.86624   -1499.3216     530.3588    415.90812   -124.87345    36812.755 
  753200    302.11396   -1484.4314    513.41623    392.40896    264.54497    36812.755 
  753300    303.74067   -1479.1419    543.22644     434.8499    481.68986    36812.755 
  753400    301.72299   -1506.4149    529.34212    384.58689    68.122684    36812.755 
  753500    306.44899   -1475.8352    514.40847    421.56117    752.53313    36812.755 
  753600    287.56478   -1509.0406    526.28794    315.01181   -100.34791    36812.755 
  753700    299.69316   -1508.2516    517.23867    361.48622   -451.15667    36812.755 
  753800    307.67438   -1525.1807     511.3574    374.69475    296.55148    36812.755 
  753900    308.02798   -1520.3632       526.12    395.87058    489.32006    36812.755 
  754000    288.41659   -1501.3601    501.16254    301.41107    784.92196    36812.755 
  754100    303.89773   -1550.3352     538.8233    359.96224    499.96748    36812.755 
  754200      305.199   -1543.5737    499.66827    333.44131    747.01783    36812.755 
  754300    302.52355   -1600.0622    506.71046    271.92088    216.30879    36812.755 
  754400    299.27648   -1518.3471    523.72752    355.99908    -600.0269    36812.755 
  754500    289.66438   -1555.2201    506.63817    258.65793   -178.33295    36812.755 
  754600    292.65348   -1568.3052    529.24063    281.66495     401.5224    36812.755 
  754700    298.30651   -1607.0588    519.38229    258.56475    522.03648    36812.755 
  754800    297.22971   -1579.3024    508.98955    271.06893    585.16171    36812.755 
  754900    306.09559   -1596.5319    482.66022     267.5213   -90.182205    36812.755 
  755000    307.26134    -1550.411    530.74719     366.9901   -167.12632    36812.755 
  755100    304.77388   -1538.2851    489.48453    326.62763   -425.15098    36812.755 
  755200    299.18007   -1552.0763    475.02133    273.12862   -382.47595    36812.755 
  755300    310.90329   -1546.7738    505.67252    361.98866   -28.664981    36812.755 
  755400    301.59692   -1567.3432    515.26846    309.01605      306.512    36812.755 
  755500    291.59314   -1549.3319    501.17174    267.78404    211.82606    36812.755 
  755600       307.03   -1551.7424     501.3796    335.24712    517.41962    36812.755 
  755700    306.96698   -1565.6088    499.22602    318.94274    432.67944    36812.755 
  755800    293.52321   -1573.8237    478.37977    229.21062    420.97907    36812.755 
  755900    303.06367   -1512.0564    542.43064    398.08442   -19.978913    36812.755 
  756000     296.9118   -1520.1691     503.4511    323.22908    206.12287    36812.755 
  756100    290.98941   -1540.3703    495.22905    268.07837    289.08032    36812.755 
  756200    305.13297   -1530.5813     531.2692    377.73668    353.59937    36812.755 
  756300    299.25388   -1550.0584     519.3496    319.80797    435.26935    36812.755 
  756400     305.6904   -1544.9976    490.79229    325.35906    583.59748    36812.755 
  756500    293.71387   -1555.5369    545.48731    315.46536    531.63821    36812.755 
  756600    296.66104   -1546.2588    517.14221    309.69879    22.441717    36812.755 
  756700    304.14041   -1583.1783    540.51657    329.90767     57.50717    36812.755 
  756800    304.63637   -1550.3514    508.46187    332.91808    -401.7352    36812.755 
  756900    310.14655   -1510.3084    501.45549    390.82187    66.556882    36812.755 
  757000     288.9516   -1567.6595    517.03678    253.40032   -198.64742    36812.755 
  757100    291.92503   -1563.3844    498.16352    252.22117   -342.46318    36812.755 
  757200    298.54531   -1568.6068    531.63607    310.34829   -149.04732    36812.755 
  757300    302.60281   -1508.3158    536.53233    393.84685   -401.08953    36812.755 
  757400    298.66495   -1558.4333    518.97424    308.39988   -480.75736    36812.755 
  757500    297.85369   -1601.5304    537.43587    280.10323   -231.94065    36812.755 
  757600    296.85738   -1554.6039    480.85346    265.95101   -227.76457    36812.755 
  757700    284.63621   -1598.9181    504.22815    189.85801    24.380511    36812.755 
  757800    313.83888   -1565.3912    533.89321    384.84008   -235.20859    36812.755 
  757900    293.54065   -1563.0033    486.80006    248.53002   -312.64873    36812.755 
  758000    306.99951   -1535.7973    493.34898    343.02408   -115.32669    36812.755 
  758100    290.51685   -1550.7144    508.26849    268.64104    167.19517    36812.755 
  758200    290.90044   -1516.9245    541.71591     337.6095    169.85156    36812.755 
  758300    311.40803   -1543.9904    519.94163    381.31904   -69.072453    36812.755 
  758400    297.08213   -1545.3743    512.91466     308.2561   -186.98101    36812.755 
  758500    312.80834   -1538.8868     525.5972    398.39768     247.6915    36812.755 
  758600    294.04962   -1558.2342    525.02734    293.82328    256.68961    36812.755 
  758700    300.13176    -1545.954    504.64532    313.16989   -283.39954    36812.755 
  758800    301.09422   -1537.3909    536.21074    357.64192    -790.3372    36812.755 
  758900    301.58949   -1582.5409    490.71276    269.22905   -1035.4838    36812.755 
  759000    303.88897   -1554.3167     508.5349    325.65283    -239.0063    36812.755 
  759100     308.8703   -1534.8356    507.44879    366.52833   -590.83366    36812.755 
  759200    301.21664   -1518.4745    507.73965    348.63965   -591.78357    36812.755 
  759300    295.26233   -1485.8304    510.44684    357.11946    384.18429    36812.755 
  759400     299.4428   -1512.8385     523.5999    362.13068   -42.902588    36812.755 
  759500    305.98134   -1528.2422    517.53092    370.16612    112.20486    36812.755 
  759600     301.0543   -1534.0118    518.21991    342.85002   -147.26319    36812.755 
  759700    286.10468   -1573.9658    534.37443     251.5837   -330.88637    36812.755 
  759800    299.13427   -1545.1534    492.45048    297.27397   -375.19472    36812.755 
  759900    295.05382   -1504.8095    506.99433    333.74691   -302.14064    36812.755 
  760000    289.87075   -1536.7298    525.05857    296.49991    343.15345    36812.755 
  760100    301.93865   -1539.2106    508.67495    332.09725    492.13509    36812.755 
  760200    301.13241   -1546.0534    499.80366    312.74474    633.73909    36812.755 
  760300    295.14392   -1552.4459    513.09919    292.62204    252.28138    36812.755 
  760400    299.64906   -1557.1004    484.76686    279.96662     181.3925    36812.755 
  760500    302.55246    -1529.167    505.82041    342.05642   -81.866331    36812.755 
  760600    292.57948   -1521.1141    517.15724    316.43867   -252.23025    36812.755 
  760700    298.96201   -1491.6525    507.25838    364.80539   -845.28881    36812.755 
  760800    301.24303   -1486.4749    528.86784    401.88664    9.2265532    36812.755 
  760900    297.56408   -1547.7375    500.90207    296.05529    372.37494    36812.755 
  761000     296.6645   -1529.9425    514.94615     323.8346    287.63185    36812.755 
  761100    303.13338   -1556.3407    517.63516    329.31914   -408.59276    36812.755 
  761200    311.03683   -1533.7228    503.09693    373.06662   -522.29048    36812.755 
  761300    287.18323   -1554.3192    533.78641    275.50974   -593.94687    36812.755 
  761400    298.22798   -1531.1573    490.90072    305.63029   -369.03726    36812.755 
  761500    307.12537    -1569.234     502.6054    319.41178   -372.64396    36812.755 
  761600    303.85564   -1559.3311    500.01742    311.97052   -830.62838    36812.755 
  761700    310.88932   -1566.6092    514.50087     350.9185    213.66274    36812.755 
  761800    296.00682   -1558.2781    520.60733    298.19218    68.956218    36812.755 
  761900    302.37977   -1520.4637    531.64197      375.802   -107.44598    36812.755 
  762000    306.43845   -1529.6132    516.93408     370.2612   -69.855721    36812.755 
  762100    299.71755   -1542.3453    519.66201    329.92599   -360.35611    36812.755 
  762200    302.15117   -1568.7281    518.55958    313.42349   -149.44676    36812.755 
  762300    293.66106   -1550.5133    513.11578    287.87914    285.67747    36812.755 
  762400    294.31034   -1548.8543    509.64774    289.00028   -349.10365    36812.755 
  762500    295.53931   -1516.5175     519.6294      336.865   -32.800695    36812.755 
  762600    302.63417   -1563.4375    513.54238    315.87669    83.277257    36812.755 
  762700    305.13702   -1556.0724    532.55311     353.5477     343.7831    36812.755 
  762800     299.8642   -1567.1814     511.5356    297.62525    69.820876    36812.755 
  762900    301.13512   -1526.4879    533.46457    365.98332    204.89943    36812.755 
  763000    292.56993   -1536.7564     515.0128    298.60884   -182.28548    36812.755 
  763100    299.65513   -1546.4036    521.73768    327.66156    71.353932    36812.755 
  763200    300.22209   -1584.7453    506.18975    276.33064   -197.57076    36812.755 
  763300    298.76545   -1580.4775    512.77827    280.61323     33.46654    36812.755 
  763400    313.04058   -1578.5569    525.37467    359.55315    361.03783    36812.755 
  763500    308.52286   -1549.6307    509.96908    352.68557    177.36493    36812.755 
  763600     306.8046   -1539.6851    523.09184    367.99952    375.86145    36812.755 
  763700    292.46188   -1562.6441    506.17887    263.39956   -123.90695    36812.755 
  763800    304.97741   -1575.4476    530.47181    331.37092    1168.5339    36812.755 
  763900    291.28658   -1535.3913     543.6505     322.8199    774.52002    36812.755 
  764000     289.9117   -1563.0123    530.36733    275.71098    223.38847    36812.755 
  764100    304.04696    -1503.482    522.69547    391.36109    231.69958    36812.755 
  764200    292.24275   -1539.1232    527.08223    306.83489    582.92891    36812.755 
  764300    303.85123   -1565.1392    519.74593     325.8711    680.54772    36812.755 
  764400    298.55757   -1578.2095    497.07226    266.23709    537.90209    36812.755 
  764500    315.30836   -1583.1919    517.04028    356.81811    1044.0073    36812.755 
  764600    310.52196   -1548.5915    515.85293    368.63038    1214.7855    36812.755 
  764700    301.86502   -1579.3646    511.21756    294.15368    770.51998    36812.755 
  764800     295.5573   -1579.0439    526.07365    280.86407    695.00605    36812.755 
  764900    302.61083   -1572.0181    484.71864    278.36701    603.85015    36812.755 
  765000    305.57322   -1598.5903     505.2752    285.72048   -461.62186    36812.755 
  765100    294.47574   -1614.7764    484.06818    198.24497    204.37297    36812.755 
  765200    302.73805   -1602.5166    493.12343    256.84746    -436.2223    36812.755 
  765300    288.97341   -1568.9987    511.04514    246.16798   -982.47312    36812.755 
  765400    289.00228   -1566.7825    482.36059     219.8299   -1002.3313    36812.755 
  765500    297.97358   -1555.1454    481.89012    271.48353   -901.13161    36812.755 
  765600    295.34694   -1587.5066    503.36143    248.73972   -819.39787    36812.755 
  765700    307.66499   -1554.1611    484.11549    318.43005   -346.89539    36812.755 
  765800    300.19075   -1552.3602    493.53704     295.9216    739.83439    36812.755 
  765900    306.36459   -1583.9793    500.62165    299.24931   -99.159402    36812.755 
  766000    296.42574   -1596.3799    498.95242      240.326    440.74242    36812.755 
  766100    299.81262   -1552.5933    499.66402    300.10898    67.569594    36812.755 
  766200    291.81229   -1608.3362    508.26626    216.86328    640.38068    36812.755 
  766300    297.31474   -1607.6466    485.57112    219.68995    264.68368    36812.755 
  766400    291.24796   -1560.9431    507.56263    261.00593   -128.82177    36812.755 
  766500    309.18003   -1584.7952    491.82805    302.34575   -133.34071    36812.755 
  766600    299.20244   -1605.9839    474.99396     219.2947    426.95934    36812.755 
  766700    302.92746   -1613.4826    474.87855    228.49133    -9.738227    36812.755 
  766800    296.68754    -1600.335    471.67084    210.27076   -626.21922    36812.755 
  766900    296.46346     -1539.27    482.59879    281.25251   -692.46879    36812.755 
  767000    288.80542   -1589.2219    491.99353    206.13496   -191.61281    36812.755 
  767100    294.92414   -1601.9369    480.98696    210.02692   -53.064732    36812.755 
  767200     295.9011   -1589.0149    503.38164    249.75252   -329.63503    36812.755 
  767300    298.66941   -1560.7628    489.93272    277.04896   -407.53919    36812.755 
  767400    290.61721   -1563.8976    495.84069    243.48294   -31.968114    36812.755 
  767500    301.13671   -1553.8953    513.64659    318.76512    535.01426    36812.755 
  767600    299.08652   -1582.1411    463.78627    231.40658    510.83458    36812.755 
  767700    307.54785   -1572.4363    506.19352    321.70421   -132.39398    36812.755 
  767800    309.38329   -1573.8854    486.30011    308.64489    730.66848    36812.755 
  767900    309.17205   -1525.0343    508.59073    378.83339    870.54726    36812.755 
  768000    298.36759   -1534.6984    497.83168    309.65027    333.39437    36812.755 
  768100    292.24131     -1557.06    534.42356    296.23292    413.92026    36812.755 
  768200    294.61011   -1544.2514    481.13053    266.43881    210.27106    36812.755 
  768300    300.91154   -1555.5713    497.59005    300.01643   -153.28402    36812.755 
  768400     301.3683   -1557.8252    508.50796    310.74176    -444.3411    36812.755 
  768500    315.34313    -1544.414    481.91185     360.6245   -528.21667    36812.755 
  768600    301.24953   -1563.8326    487.59384    283.28423   -269.55345    36812.755 
  768700    298.96262   -1545.6588    532.79827    336.34171    -313.2621    36812.755 
  768800    306.82273   -1580.3098    498.25597     302.6207   -457.55039    36812.755 
  768900    293.08591   -1571.3816    505.01287    256.31234   -41.061646    36812.755 
  769000    298.07296   -1544.9095     523.9388    324.21657   -393.66727    36812.755 
  769100    297.68459   -1549.2172    504.67227    298.88968    61.928554    36812.755 
  769200    295.42056   -1554.2764    504.61948    283.56018    180.83868    36812.755 
  769300     293.2198   -1547.8955    499.64292     275.0327    306.76814    36812.755 
  769400    303.66132   -1542.8685     490.9334    318.47217   -251.39947    36812.755 
  769500    310.89284   -1514.0356    485.77744    374.78457   -356.85161    36812.755 
  769600    305.43349   -1511.1319    493.08255    360.35566   -146.42033    36812.755 
  769700    298.07674   -1518.9132    505.57612    331.86725   -473.16322    36812.755 
  769800    306.82573   -1528.8611    512.79395    368.62094    47.971354    36812.755 
  769900    302.06061    -1559.042    506.04671    310.18805    284.61554    36812.755 
  770000    306.30926   -1559.1713    536.03549    359.22144    621.29667    36812.755 
  770100    298.49874   -1537.8783    510.06677    319.29725    218.04326    36812.755 
  770200    308.23556   -1557.1578    516.88133     350.7741   -217.55942    36812.755 
  770300     311.6999   -1592.5332    479.10922    293.26097   -52.543169    36812.755 
  770400    296.13932      -1580.5    512.94759    268.90844   -284.24075    36812.755 
  770500    303.75683     -1574.93    521.58822    317.49656   -676.77728    36812.755 
  770600    305.70154   -1560.9211    520.79125    339.48484    138.34835    36812.755 
  770700    305.36665   -1572.8944     500.9402    306.14912    136.28979    36812.755 
  770800    299.07369   -1561.6618    488.36386    276.40561   -471.27263    36812.755 
  770900     295.2888   -1518.0967    493.10108    307.62695     -278.211    36812.755 
  771000    308.89558   -1512.1325    517.10593    399.00261   -430.51912    36812.755 
  771100    301.52332   -1541.7606    499.06375    318.06177   -460.25688    36812.755 
  771200    304.30519   -1543.7541    507.70219    337.26106   -335.95706    36812.755 
  771300    301.85725   -1543.9246    498.64643    316.98741    -469.4151    36812.755 
  771400    293.06658   -1500.5028    501.52671    323.61761   -279.38168    36812.755 
  771500    298.34705   -1519.1268    503.62562    330.92311   -67.773592    36812.755 
  771600     305.2687   -1543.5373    500.87325    334.99724   -337.26846    36812.755 
  771700    301.01175   -1581.4032    505.90119    282.94791   -342.09723    36812.755 
  771800    303.32526   -1570.4862    498.31429     296.7187    19.550801    36812.755 
  771900    288.72681    -1521.194    520.44031     302.2549    284.06547    36812.755 
  772000    289.96891   -1571.4678    500.96701    238.11336   -231.75268    36812.755 
  772100    306.30694   -1590.7149     504.1659    295.79778   -226.98435    36812.755 
  772200    305.31785   -1565.9619    520.34379    332.26494    46.477223    36812.755 
  772300    300.59517   -1584.8311    486.15707    257.89585   -463.84873    36812.755 
  772400    300.65766   -1590.4393    510.72165    277.13429   -603.17549    36812.755 
  772500    295.22795   -1531.7025    479.91574    280.56116   -688.98759    36812.755 
  772600    301.73574   -1557.7647    513.93091     317.8834   -717.21057    36812.755 
  772700    299.48824   -1540.0926    487.07847    298.56026   -295.56572    36812.755 
  772800    296.89352   -1511.1855    513.96144    342.64048    60.179357    36812.755 
  772900    299.37062   -1520.0797    533.87086    364.83472    516.28785    36812.755 
  773000    294.58098   -1484.4948     527.4983    372.43167    612.34337    36812.755 
  773100    306.28004   -1504.5408    520.94889    398.63351    11.567235    36812.755 
  773200    309.70999   -1530.0143    502.66411    370.35437    106.45197    36812.755 
  773300    298.75122   -1548.0515    523.31894    323.51572    1.5311846    36812.755 
  773400    305.06076   -1529.3225    503.41635    350.81675    266.39269    36812.755 
  773500    298.93615   -1536.9603    511.89962    324.02216    76.186296    36812.755 
  773600    303.57347   -1527.6916    492.52516    334.84442     110.6861    36812.755 
  773700    297.81946    -1543.734     514.0388    314.34807    276.04611    36812.755 
  773800     293.5677    -1550.337    502.53987    277.05818    307.36377    36812.755 
  773900    300.21268   -1559.8905    508.71854    303.67181    209.74276    36812.755 
  774000    297.98126   -1544.3836    508.29317    308.68305   -461.88487    36812.755 
  774100    298.36674   -1496.7024    502.17661    351.98729   -110.96433    36812.755 
  774200    306.29393   -1511.7072    515.07854    385.65941    197.57623    36812.755 
  774300    300.48618   -1532.3971    526.19597    349.87689   -148.01602    36812.755 
  774400    300.79066   -1546.7468    504.08422    314.78959    174.25289    36812.755 
  774500    292.10656   -1567.9262     555.0901    305.42519   -17.525767    36812.755 
  774600    294.45428   -1561.1055    489.10234    256.85321   -170.19395    36812.755 
  774700    301.14253   -1540.0393    514.31498    333.31581   -644.58107    36812.755 
  774800     297.0748   -1522.4771    525.32097     343.5265   -985.85399    36812.755 
  774900    294.07935   -1540.8083    497.48198    283.83798   -982.76492    36812.755 
  775000    298.03454    -1506.401    501.51012    340.12304    -582.9229    36812.755 
  775100    291.86563   -1521.5124    535.52924    331.19078   -460.49296    36812.755 
  775200    288.71566   -1490.9525    515.57249    327.57828   -440.30754    36812.755 
  775300    306.10138   -1530.5577    541.05309    391.91452    242.58204    36812.755 
  775400    298.88822   -1516.9664    521.42423    353.32435    317.96494    36812.755 
  775500    305.79466   -1532.8381    547.86802     395.0648    351.80463    36812.755 
  775600    296.95909   -1509.6099    500.19476    330.74535     134.6155    36812.755 
  775700    299.92874   -1575.8468    503.46931    281.18482   -46.453518    36812.755 
  775800    299.46994   -1531.0125    514.56783    335.04709    449.74475    36812.755 
  775900    303.07853   -1517.2674    529.53301    380.04279    340.79236    36812.755 
  776000    297.90669   -1534.0153    549.30893    359.73057    443.25525    36812.755 
  776100    300.00549   -1544.5521    507.23027    316.58689     283.8456    36812.755 
  776200    296.92603   -1549.6977    507.30511    297.61868   -169.59087    36812.755 
  776300    300.76149   -1564.2649    506.91136    299.96698    -343.2756    36812.755 
  776400    313.54956   -1562.2551    518.43765     371.2149    392.04923    36812.755 
  776500    291.92972   -1555.2156    497.52753    259.77515    339.12666    36812.755 
  776600     294.4751   -1545.6348    499.38341     282.6989     746.6879    36812.755 
  776700    299.73883   -1540.3164    552.38838    364.77731    600.25756    36812.755 
  776800    305.57582   -1562.2319    511.29488     328.1103    625.30102    36812.755 
  776900    301.85751   -1558.9323    494.63243    297.96693    924.17248    36812.755 
  777000    305.22133   -1599.8538    499.11554     276.7092   -78.618237    36812.755 
  777100    300.94308    -1578.781    528.69033    308.04935   -471.34844    36812.755 
  777200    298.35002   -1570.0193    497.87393    274.29229   -2.7919333    36812.755 
  777300    299.08058   -1594.6962    511.95288    266.99128  0.097415698    36812.755 
  777400    292.59979   -1576.6128    533.61417    277.48849   -312.38418    36812.755 
  777500    293.00302   -1553.7397    488.09544    256.66264    73.930006    36812.755 
  777600    300.39906   -1579.2088    481.48004    257.95607    184.11719    36812.755 
  777700    295.86629   -1596.4686     494.8799       233.64    141.26592    36812.755 
  777800    298.83404   -1627.1407    483.27682    204.75816    321.96254    36812.755 
  777900     308.9743   -1555.6908    492.00496    330.69862    605.56513    36812.755 
  778000    313.59659   -1625.9061    485.37803    274.71653   -343.54881    36812.755 
  778100     306.6573    -1608.795    487.73166    262.86465    71.555449    36812.755 
  778200    286.64885   -1615.2442    511.56858    189.95527   -202.73828    36812.755 
  778300    295.66647   -1563.5506    518.29644    289.07278    541.68824    36812.755 
  778400    304.36654   -1565.7572    526.90553    334.73823    533.99227    36812.755 
  778500    297.15877   -1575.1378    517.09351    283.01732    -343.5046    36812.755 
  778600    292.70968   -1573.3324    525.94497    273.59563    381.36353    36812.755 
  778700    305.88105   -1521.0852    531.95733    391.29696    316.58645    36812.755 
  778800    302.10865   -1576.1436    519.11111    306.36761    425.51313    36812.755 
  778900    301.17058   -1545.3643    531.32038     345.1228    537.81749    36812.755 
  779000    301.45321   -1550.5437    515.02642    324.92484    53.894703    36812.755 
  779100    306.56209   -1558.6274    526.62422     351.4951   -62.804634    36812.755 
  779200    295.18183    -1556.314     507.9006    283.72632   -329.32102    36812.755 
  779300    293.15121    -1568.688    522.03575    276.32348   -322.91685    36812.755 
  779400    299.46303   -1569.0219    518.39304    300.83173   -264.36238    36812.755 
  779500    302.00861   -1596.2411    482.34305    249.05061   -483.48738    36812.755 
  779600    307.23147   -1586.9906    539.36116    338.88969    342.74084    36812.755 
  779700    300.49625   -1584.9013    494.27973    265.50187   -169.23062    36812.755 
  779800    298.24005   -1551.8449    518.26159    312.35809    231.49556    36812.755 
  779900    299.16163   -1566.0953    522.31104     306.3161   -558.85256    36812.755 
  780000    294.07539   -1631.8239    516.42715    211.74969   -160.88934    36812.755 
  780100    306.00709   -1573.8783    533.68186    340.79721   -261.17192    36812.755 
  780200    290.02829   -1567.2041    510.33314    252.01114   -26.348263    36812.755 
  780300    299.70473   -1567.5986    527.20888    312.16165   -232.33381    36812.755 
  780400    290.72466   -1556.5071    517.66145    273.17916    103.83431    36812.755 
  780500    305.97909   -1561.5904    487.01932    306.29618    199.04762    36812.755 
  780600    303.23936     -1569.19    540.31096     339.6239    343.57371    36812.755 
  780700    304.54887     -1560.73    525.43378    339.11648    77.587304    36812.755 
  780800    299.43683   -1567.1033    511.71045    295.94956   -207.26507    36812.755 
  780900    305.31261   -1566.7354    503.90731    315.03132    250.11284    36812.755 
  781000    298.88632   -1532.1227    511.01512    327.75042    336.16706    36812.755 
  781100    289.24084   -1574.7008    511.98467    242.61231   -193.83117    36812.755 
  781200    290.54761   -1574.7742    505.97726    242.42881    138.77774    36812.755 
  781300    289.44518   -1524.2845    515.75824    297.72437    125.33456    36812.755 
  781400    300.59914   -1560.0501    524.10552    320.64324    52.592191    36812.755 
  781500    309.17679   -1545.4929    496.68141    346.48681   -90.426623    36812.755 
  781600     300.2758   -1559.5127    508.27866    303.89461   -55.261481    36812.755 
  781700    292.21721   -1511.7887    509.86599    316.83789   -464.15801    36812.755 
  781800    293.85788   -1502.6592    521.72338    345.22898   -518.24141    36812.755 
  781900    302.49319    -1515.086    509.99933     360.0489     206.6764    36812.755 
  782000    292.80058   -1544.4452    519.45718     296.4053    102.36683    36812.755 
  782100    297.86031    -1560.923    521.38807    304.69266    147.96627    36812.755 
  782200     291.6283     -1522.66    515.36854    308.81149    89.878546    36812.755 
  782300    314.25378   -1517.3136    504.93255    405.82942    836.11734    36812.755 
  782400    296.68029   -1565.0714     514.1429    287.97374    469.74615    36812.755 
  782500    294.95398   -1542.9886    501.49733    289.62019    421.62457    36812.755 
  782600    311.47651    -1565.755    509.74596     349.6678    489.65244    36812.755 
  782700    304.95061   -1611.5271    496.04755     260.7462    359.91152    36812.755 
  782800    306.27325   -1576.2759    500.24594    306.16479    196.49828    36812.755 
  782900    305.66332    -1563.138    512.02544    328.32963    136.48688    36812.755 
  783000    306.70958   -1537.7056    493.14451    339.60282   -341.12118    36812.755 
  783100    305.86679   -1544.5786    552.69949    388.48132    34.543936    36812.755 
  783200     301.4937   -1538.0718    507.09434    329.64743   -18.591179    36812.755 
  783300    296.71302   -1553.7472    510.47704    295.77979   -412.32743    36812.755 
  783400    304.72789   -1577.2134    483.77602    281.78328    -44.09523    36812.755 
  783500    296.35462   -1539.7976     520.3119    317.94676   -35.571341    36812.755 
  783600    294.42923   -1596.0352    507.55536    240.26348    13.835882    36812.755 
  783700    305.06089   -1584.0166    473.32169    266.02854    140.77581    36812.755 
  783800    305.11252   -1565.1786    479.55826    291.33608   -105.41791    36812.755 
  783900    297.35954   -1553.9025    512.35704    300.42215   -246.51257    36812.755 
  784000    291.75466    -1580.355    489.41458    225.73276   -187.75328    36812.755 
  784100    298.06314   -1603.1159    484.63921    226.66629     39.93486    36812.755 
  784200     301.0785   -1630.6974    501.47176    229.52549    112.64181    36812.755 
  784300     301.8527   -1621.6408    484.15751    224.76179   -204.53314    36812.755 
  784400    294.48733   -1593.4488    487.67632    223.23306   -270.92417    36812.755 
  784500    303.10043   -1587.2882    502.96495    283.55272   -182.90485    36812.755 
  784600    291.06722   -1572.2135    485.63625    226.99349   -6.6280474    36812.755 
  784700    301.97606   -1572.1795    518.30968    308.93189   -346.95127    36812.755 
  784800    305.39905   -1579.1253    496.23004    295.35431    93.478556    36812.755 
  784900    302.59461   -1590.4494    498.50638    273.65023    266.40634    36812.755 
  785000    306.81845   -1562.6521    522.69422    344.69736    257.48058    36812.755 
  785100    294.37616   -1562.0603    495.30219    261.74574   -475.47793    36812.755 
  785200    299.69207   -1601.0971    508.07019    259.46737    193.40181    36812.755 
  785300    313.38367   -1604.4283    502.86033     312.7157     319.5704    36812.755 
  785400     297.2325   -1564.1032    492.28607    269.57721   -98.637026    36812.755 
  785500    306.47687   -1597.2928    493.90373    279.72464     5.920649    36812.755 
  785600    308.92307   -1576.7114     500.7599    318.20179     408.8676    36812.755 
  785700    308.19652   -1598.8396    500.95581    292.99059    282.97137    36812.755 
  785800    297.21071   -1620.1952     502.1393     223.2401    390.26633    36812.755 
  785900    304.34958   -1613.0452    485.05881    245.52697    508.68408    36812.755 
  786000    292.37267   -1594.2017    486.66124    211.92174    467.03797    36812.755 
  786100    300.58852   -1600.9378    497.05967     252.6617    29.953849    36812.755 
  786200    300.48486   -1595.8897    495.14084    255.32324   -104.21732    36812.755 
  786300    296.96683   -1579.4293    503.80802    264.57415   -131.91719    36812.755 
  786400    299.72318    -1553.866    498.85523    297.62388   -124.91888    36812.755 
  786500    305.23001   -1572.4288    527.07507    332.13299    -97.58363    36812.755 
  786600    310.62599   -1592.8959    500.67938    309.62198    404.14706    36812.755 
  786700    292.12915   -1575.3865    513.48766    256.46433    299.68917    36812.755 
  786800    293.09713   -1561.1067    506.55564    268.18054    337.62361    36812.755 
  786900    296.59446   -1566.2686    501.29127    273.53753    433.13843    36812.755 
  787000    305.20772    -1580.026    526.90287    324.26299    355.42123    36812.755 
  787100    302.02435   -1570.4765    479.12239     271.6656    273.05703    36812.755 
  787200    312.22187     -1599.69    490.50993     299.8605    25.242064    36812.755 
  787300    315.63424   -1592.7042    484.05216    315.78839    381.49534    36812.755 
  787400    298.28109   -1561.6976    496.95218    281.38113    171.95674    36812.755 
  787500    307.50079    -1565.493    499.43071    321.67226   -267.50615    36812.755 
  787600    303.29539   -1581.0231    523.73836    311.47106   -300.15509    36812.755 
  787700    298.60389   -1585.4492    486.96337    249.09748    -367.3193    36812.755 
  787800    298.69605   -1622.4297    487.51853    213.08805    21.441653    36812.755 
  787900    304.64394    -1547.044    508.91471    336.71244     556.0499    36812.755 
  788000    294.15176    -1520.834    525.07625     331.7334    431.75927    36812.755 
  788100    301.39068    -1531.752    524.23165    352.63964    238.93145    36812.755 
  788200    304.32121   -1580.2806    484.56357    277.66828    -152.8268    36812.755 
  788300    292.01529   -1565.4415    493.39883     245.8067    164.58386    36812.755 
  788400     298.7119   -1616.4888    482.19454    213.77653   -74.024216    36812.755 
  788500    294.97932   -1559.9122    511.95836    283.27201    226.17086    36812.755 
  788600    302.50928   -1572.5381    502.93687    295.60695    325.57996    36812.755 
  788700    301.14577   -1555.2214    485.17021    289.00357     49.13803    36812.755 
  788800    298.33407   -1518.5312    498.98812    326.82256     733.4004    36812.755 
  788900    288.02477   -1514.7198    507.75284    292.87342    912.44408    36812.755 
  789000    297.11341   -1503.0914    487.72234    325.48783     354.6697    36812.755 
  789100    302.16915    -1534.869    501.95298    330.75715     304.4144    36812.755 
  789200     291.3519   -1544.6506    479.75668     249.9616   -530.99223    36812.755 
  789300    294.87097   -1516.2478    497.66825    312.15732   -616.85515    36812.755 
  789400    307.19504   -1499.7322    509.99269    396.61524   -679.39553    36812.755 
  789500    299.30264   -1511.6258    493.68758    332.79859   -834.87679    36812.755 
  789600    298.93946   -1493.1331    480.98544    336.95008   -680.67406    36812.755 
  789700    300.69048   -1499.2163    532.94763    390.73136    88.022239    36812.755 
  789800    306.55798   -1533.5893    509.57233    359.46277   -599.42914    36812.755 
  789900    298.89136   -1565.4189    482.43944    265.90127   -72.094981    36812.755 
  790000    293.79297   -1539.3836    496.31946     282.8078   -536.04413    36812.755 
  790100     298.3912   -1548.6968    499.93308    297.85979    -337.6577    36812.755 
  790200    292.67812   -1545.5956    501.06838    276.31344    87.791657    36812.755 
  790300     312.2778   -1515.4796    494.52604    388.33946   -202.55517    36812.755 
  790400    296.78605    -1530.243     500.2406    309.37713   -99.550652    36812.755 
  790500     302.2336   -1523.5808    492.77676       333.16   -420.37974    36812.755 
  790600    299.80719   -1485.0207    527.78983    395.78294   -615.18634    36812.755 
  790700    305.41302    -1513.231    499.14514    364.22675   -458.47785    36812.755 
  790800    303.52805   -1521.7209    481.57754    329.66246   -472.73156    36812.755 
  790900    291.56342    -1499.956    505.51684    321.37099   -399.77324    36812.755 
  791000    296.07111   -1502.6733    498.03893     331.5187   -879.87593    36812.755 
  791100     296.6587   -1534.5535    495.01085    299.26218   -156.80576    36812.755 
  791200    294.65553   -1547.4492    506.54032    288.85579   -387.78135    36812.755 
  791300    309.23489   -1591.7003    505.45678    309.31696   -125.93816    36812.755 
  791400    295.56676   -1582.4434    480.64032    232.07381   -23.563271    36812.755 
  791500    304.25013   -1587.0405    490.38829    276.41229    11.890311    36812.755 
  791600    299.28567   -1544.7027    483.56962    289.52712    67.183506    36812.755 
  791700    300.70908   -1529.2404    508.67722    336.52075    247.23169    36812.755 
  791800    307.75121   -1528.6189    505.17164     365.4175    338.68951    36812.755 
  791900    304.01271    -1506.008    495.17987    361.16495    610.37359    36812.755 
  792000    297.86841   -1535.5453    494.51552    303.23435    545.57413    36812.755 
  792100    305.62473   -1529.4248    500.86536    350.70863    446.87739    36812.755 
  792200    300.61867   -1530.5706    512.97236    339.07775    246.09516    36812.755 
  792300    286.04502   -1532.4673    523.61921    282.05773    155.55889    36812.755 
  792400    291.78673   -1554.1452    495.49632    258.16903    480.13754    36812.755 
  792500    299.28579    -1527.523    512.52481    335.66257    19.808335    36812.755 
  792600    293.62884    -1521.132    480.34716    284.34633   -507.41178    36812.755 
  792700        304.9   -1520.2277    518.32213    374.09178    51.053565    36812.755 
  792800    291.48177   -1517.9432    485.90688    283.40525   -348.99633    36812.755 
  792900    303.41792   -1538.1355    497.09655    328.26991   -41.934198    36812.755 
  793000    294.62049   -1576.1947    502.22383    255.63565   -745.84037    36812.755 
  793100     306.6606   -1516.3307    496.99096    364.60312   -151.19189    36812.755 
  793200    290.86991   -1570.4478    487.11214     229.3447    24.356037    36812.755 
  793300    302.03621   -1558.8058    532.47674    336.74416    411.23571    36812.755 
  793400    302.79105   -1554.5521    493.79979    305.72751     786.2816    36812.755 
  793500    301.28359   -1557.2627    500.52006    302.93401    753.51681    36812.755 
  793600    302.01403   -1548.4602    517.25333    331.76633    238.32635    36812.755 
  793700     298.5585   -1533.6882    506.06288     319.7532   -62.139301    36812.755 
  793800    308.10889   -1566.1549    507.69327    332.01729    594.69203    36812.755 
  793900    296.09422   -1519.7751    515.30823    331.79045    348.84527    36812.755 
  794000    303.31265   -1514.1543    495.37069    350.05016    421.95677    36812.755 
  794100    301.06959   -1533.2565    507.69967    333.15405    634.16873    36812.755 
  794200    300.06972   -1514.8942    515.33209    354.63649    460.03143    36812.755 
  794300    297.83934   -1550.3127     473.9316    267.75187    946.70369    36812.755 
  794400    313.21721   -1580.7738    509.52107    342.27976    751.78534    36812.755 
  794500    300.04985   -1498.4619     494.2186    349.86555    556.48743    36812.755 
  794600    297.69602   -1510.5944    485.27569    318.16746   -30.381105    36812.755 
  794700     300.1997   -1470.0486    509.84279    394.57932    -522.2627    36812.755 
  794800    300.91889   -1479.5664    509.91952    388.38393   -178.58256    36812.755 
  794900    302.09099    -1448.892    525.31792    439.74643   -145.95688    36812.755 
  795000    304.27451   -1496.4888    504.52124    381.20698    -181.6508    36812.755 
  795100    295.28701   -1544.2115    512.94741    301.35038    312.40314    36812.755 
  795200    292.22498   -1534.8808    524.84662    308.76153    197.19023    36812.755 
  795300    306.89599    -1544.344    514.79407    355.45524    87.826072    36812.755 
  795400    296.45451   -1538.2472      466.608     266.2441    199.52658    36812.755 
  795500    295.88041   -1551.9479    497.82578    281.17033   -191.71053    36812.755 
  795600    295.43584   -1537.6697    478.85622    274.47258   -40.118912    36812.755 
  795700    310.20856   -1547.5004    496.63061    349.08479    9.1374823    36812.755 
  795800    296.88852   -1548.4112    524.90487    316.33567     57.53152    36812.755 
  795900    298.43729   -1554.8179    471.84937    263.86294   -258.66991    36812.755 
  796000    299.47005   -1535.5478    494.52383    310.46834    418.43026    36812.755 
  796100     299.6142   -1543.2153    513.60867    322.53618    266.10639    36812.755 
  796200    301.49554   -1512.8475    495.30645    343.09212    57.001865    36812.755 
  796300    306.54525   -1488.2575    478.62429    373.78905   -668.14885    36812.755 
  796400    301.50523   -1482.4454    514.19901    392.43057   -656.73454    36812.755 
  796500    293.41772   -1490.2016    500.47337    334.45027   -749.81527    36812.755 
  796600    300.68423   -1482.6749    520.82064    395.11759   -577.70294    36812.755 
  796700    299.24469   -1472.9013    493.77168    371.34564   -648.54073    36812.755 
  796800    310.17158   -1529.0612    463.29754    334.02405   -1148.0905    36812.755 
  796900    297.25591   -1470.4568    505.00798    376.05118   -334.48484    36812.755 
  797000    295.08985   -1466.9753    473.24493    337.99427   -347.57047    36812.755 
  797100    303.83982   -1523.9908    510.30448     357.5265   -400.31769    36812.755 
  797200      298.515   -1528.7201    500.08667     318.5488     271.6552    36812.755 
  797300    298.86145   -1542.4079     486.5295    292.86736    175.46577    36812.755 
  797400    298.08658   -1502.4567    499.33533    342.12739    55.967356    36812.755 
  797500    306.97001   -1494.1575    503.52929    394.71105   -402.39663    36812.755 
  797600    305.55069   -1520.3226     503.8866    362.49788   -263.86516    36812.755 
  797700    301.30544   -1523.6552    472.47456     308.5947   -967.40192    36812.755 
  797800    304.79024   -1506.5104    498.59568     367.5873   -974.34294    36812.755 
  797900    290.39827   -1502.5876    495.73454    303.69882   -653.07708    36812.755 
  798000    292.64019   -1472.5644     483.2547    331.35981    239.56453    36812.755 
  798100    299.61985   -1440.7878    490.65743    402.03798    52.104885    36812.755 
  798200    297.26825   -1472.1823    492.15465    361.52806    48.020103    36812.755 
  798300    300.54915   -1470.2097    528.00007     414.1526    338.98173    36812.755 
  798400     304.6285   -1482.0239    507.16043    399.90864   -210.05854    36812.755 
  798500    302.83061   -1474.8875    482.05207    373.82293    262.69875    36812.755 
  798600    296.68595   -1518.4764      487.057    307.50834    196.47054    36812.755 
  798700    300.00964    -1512.115    494.43924    336.25167    869.20477    36812.755 
  798800    309.01695    -1497.435     486.5853    383.72724    376.29826    36812.755 
  798900    314.71577   -1443.3966    533.57499    510.47379    63.971262    36812.755 
  799000    299.87912   -1513.1319    468.79199    308.99846    168.48133    36812.755 
  799100    294.11615   -1546.6584    494.93686    275.60893   -384.81363    36812.755 
  799200    302.21137   -1502.6549     486.4401    347.64889    320.56853    36812.755 
  799300    298.10224   -1540.2773    485.12737    290.16949   -85.412359    36812.755 
  799400    305.83441    -1540.687     477.1671     316.6944   -264.47531    36812.755 
  799500    301.34105   -1493.6863    493.79778    360.04746   -61.911535    36812.755 
  799600     303.5003   -1518.9053    483.83218     334.6075   -76.312966    36812.755 
  799700    304.67203   -1537.0858    470.16502    308.04777   -214.13041    36812.755 
  799800    303.07263   -1509.2098    490.73621    349.27695    -78.89671    36812.755 
  799900    285.05672   -1459.9612    503.47411    329.95862   -379.48929    36812.755 
  800000    308.05788   -1468.3934    470.12321     391.9785    574.25791    36812.755 
  800100    296.51335   -1471.1256    496.90948     363.9327    219.95824    36812.755 
  800200    300.14508   -1511.5378    499.42838    342.42924    495.79558    36812.755 
  800300      316.144   -1520.0143     490.4569    397.18355   -52.868469    36812.755 
  800400    298.21533   -1505.7073    489.05411    329.17657    149.92204    36812.755 
  800500    296.39959   -1515.5665    467.11702    289.18602   -226.29001    36812.755 
  800600    281.40582   -1520.0058    507.80953    257.77315   -239.96976    36812.755 
  800700    300.11519   -1481.3243     481.9532    355.03261    48.089768    36812.755 
  800800    297.42594   -1503.2567    484.41459    323.42527    23.737461    36812.755 
  800900    299.34063   -1495.1723    483.90882    339.64477   -690.05262    36812.755 
  801000    303.75265   -1476.0432    472.86791    367.64413   -256.54038    36812.755 
  801100    303.69719   -1487.0242    484.45836    368.00334   -288.42715    36812.755 
  801200    304.38207   -1495.8361    480.86746    358.69138   -529.16784    36812.755 
  801300    294.88995   -1507.8975    504.47076    327.39578    205.73092    36812.755 
  801400    300.80666   -1499.8266    490.22168    347.91942   -75.253048    36812.755 
  801500    300.30225   -1459.3168    512.31126    408.24242   -131.86555    36812.755 
  801600    296.79936    -1500.657    466.80798    305.59058   -120.66994    36812.755 
  801700     305.7689   -1477.4284    510.61315     413.1034   -832.28732    36812.755 
  801800    299.70073   -1486.5972    474.85401    340.79011   -618.01766    36812.755 
  801900    306.01703   -1453.6224    482.74654    410.16263   -612.09021    36812.755 
  802000    297.53513   -1491.2061    489.67636    341.23037   -582.58006    36812.755 
  802100    305.55891   -1453.2262    490.93002    416.67485    373.79877    36812.755 
  802200    288.59196   -1458.7182    508.29063    351.97245   -325.08997    36812.755 
  802300    293.70304   -1441.2442    504.18126    388.40312   -29.391381    36812.755 
  802400    299.30367   -1460.9902    498.44281    388.19408   -141.44671    36812.755 
  802500    307.56067   -1472.1268    486.58589    402.46392   -97.650937    36812.755 
  802600    294.09523   -1480.6532     506.7728    353.35561   -209.87845    36812.755 
  802700    298.71017   -1490.1645    467.94663    325.84507   -59.944948    36812.755 
  802800    297.15361   -1477.6552     492.4502    355.83331   -357.15048    36812.755 
  802900    307.34788   -1478.3212    479.95127     388.6746   -297.88308    36812.755 
  803000    300.48329   -1468.6892    502.88106    390.25678   -161.51725    36812.755 
  803100    315.03279   -1456.9274    506.38441    471.18315   -133.38206    36812.755 
  803200    298.51314   -1452.3419     518.2679    413.09985    66.993492    36812.755 
  803300     301.0958   -1463.5832     474.5459    369.79195    481.68098    36812.755 
  803400    304.36804   -1465.8165    473.81658    381.59681    470.76851    36812.755 
  803500    296.84507   -1449.6537    498.37519    388.36741    325.00339    36812.755 
  803600    295.72531    -1473.176    503.12689    364.54335   -105.23868    36812.755 
  803700    294.78095   -1514.4768    498.36694    314.22076    584.76516    36812.755 
  803800     310.5139   -1464.8265    494.19202    430.69815    296.26301    36812.755 
  803900    288.19507   -1450.1265    499.04409    349.52652   -212.35829    36812.755 
  804000    294.94083   -1501.3308    489.42853    319.14992   -271.27654    36812.755 
  804100    292.69193   -1480.1177    475.51953    316.30483   -17.942159    36812.755 
  804200    297.53677   -1487.5983    488.27067    343.43983     340.2018    36812.755 
  804300    320.03819   -1475.8084    500.99137    469.49814    306.97653    36812.755 
  804400    288.75616   -1514.1051    486.36904    275.40506   -184.85937    36812.755 
  804500    288.37336   -1527.7388    499.49162    273.16634   -365.80321    36812.755 
  804600    301.09286     -1509.37    475.74477    325.19073   -169.35915    36812.755 
  804700    314.17751   -1465.0537    488.93525    441.74781     556.0059    36812.755 
  804800    289.33756   -1494.9161    508.97608    319.82486   -313.71002    36812.755 
  804900    296.18633    -1477.649    485.82844    344.85243   -139.18586    36812.755 
  805000    301.62558   -1490.1082    475.41981    346.53168    132.94282    36812.755 
  805100    299.45653   -1490.3671    492.89877    353.96293    143.01295    36812.755 
  805200    298.02894   -1497.4974    482.63102    330.12225   -240.35293    36812.755 
  805300    296.82935   -1479.3171    504.37015    364.62797    221.27178    36812.755 
  805400    299.01703   -1485.6786    480.94761    344.71679    156.77653    36812.755 
  805500    303.64678   -1479.1999    498.29391    389.43565    395.73232    36812.755 
  805600    313.51235   -1480.4367    466.75063    401.17839    82.871646    36812.755 
  805700     301.4187   -1467.3582    503.80032    396.72854    24.965926    36812.755 
  805800    298.09259   -1447.6617    508.30788    405.92208     259.3617    36812.755 
  805900    296.68581   -1480.0065    511.04837    369.96901    295.32631    36812.755 
  806000    295.00785   -1515.1366    497.05952     313.2776   -57.028073    36812.755 
  806100    296.53016   -1528.3994    485.68823    295.51359     335.9068    36812.755 
  806200    290.01146   -1483.6588     474.4966    299.64392    311.44879    36812.755 
  806300    296.33075   -1469.6131    480.03124    347.74293    222.54792    36812.755 
  806400    305.80068   -1460.6221    490.38604    409.82601    491.83916    36812.755 
  806500    304.81925   -1480.3267    510.44946    405.75576    963.86378    36812.755 
  806600     296.9687   -1450.2623    484.44975    374.39131    839.44223    36812.755 
  806700     303.1384    -1462.061    522.79366    428.77998    774.79215    36812.755 
  806800    288.34394   -1418.1464    503.17392    386.30829    271.50998    36812.755 
  806900    303.27421   -1477.3774    500.64056    391.92344    489.75052    36812.755 
  807000    298.29519   -1482.9681    498.14854     361.3707    828.61251    36812.755 
  807100    304.42401   -1481.6426    490.82441    383.03103    416.73226    36812.755 
  807200    293.33052   -1447.9754    507.25778    383.06732    404.06666    36812.755 
  807300    301.65021   -1485.9026    503.81062    379.23926    94.925238    36812.755 
  807400    308.67342   -1458.3562    505.93514    440.60548   -865.01954    36812.755 
  807500    300.01345    -1484.913    516.83034    385.86195   -83.211158    36812.755 
  807600     302.0516   -1485.1782    486.22071     364.1852    123.00788    36812.755 
  807700    300.74621    -1505.948    490.67272     341.9762   -20.818001    36812.755 
  807800    295.92318    -1481.093     509.6953    364.08778    300.68956    36812.755 
  807900    295.68368   -1450.4608    498.70385    382.64761   -175.13065    36812.755 
  808000    306.74965   -1478.8934    500.71614    406.16753   -151.60127    36812.755 
  808100    296.04106   -1442.3204    476.12631    369.82339   -262.94111    36812.755 
  808200    288.62929   -1483.7699    532.77062    351.56926   -222.80297    36812.755 
  808300    305.12177    -1459.523    487.48187    404.95705   -193.30537    36812.755 
  808400    295.27277   -1477.7243    495.98716    350.81306   -205.28782    36812.755 
  808500    307.70654   -1463.3939    481.54817    406.81736     335.1567    36812.755 
  808600    297.95465   -1480.7785    492.59524    356.47011    222.13285    36812.755 
  808700    301.23431   -1477.6488    509.80086    391.60634    199.86155    36812.755 
  808800    305.73014   -1411.1902    509.65495    478.20851    2.2116968    36812.755 
  808900    300.91719   -1436.3084    485.31862    407.03334    267.61441    36812.755 
  809000     293.3346    -1450.984    463.82235    336.64171   -214.15195    36812.755 
  809100    292.57455    -1436.594    514.70744    398.48669   -282.27821    36812.755 
  809200    300.16485   -1482.3648    484.91154    357.17458    -101.0203    36812.755 
  809300    298.83367   -1420.2038    524.70038    453.11698    145.52377    36812.755 
  809400    300.64015   -1439.4223    500.55635    417.90692    75.708837    36812.755 
  809500    302.71221   -1430.5058    496.01778    431.63598   -183.33553    36812.755 
  809600    294.40065   -1493.6097    476.37799    311.38267    184.87537    36812.755 
  809700    304.41787   -1491.1111    518.35347    401.06392     -410.143    36812.755 
  809800    301.68832   -1496.7194    492.46161    357.24544    37.183749    36812.755 
  809900    291.02965   -1482.2355    467.30506    298.47077    -165.9504    36812.755 
  810000    309.59684   -1492.3876    487.00276     391.8091   -229.97771    36812.755 
  810100    298.64342   -1498.2184    494.16796    343.71132   -198.99175    36812.755 
  810200    302.84523   -1502.8512    520.71978    384.59291    437.89338    36812.755 
  810300    287.99672   -1497.0213     483.6342    286.32664    95.167219    36812.755 
  810400    308.06865   -1467.3658    484.10362    407.03516    126.92413    36812.755 
  810500    299.49219    -1460.531    522.05997    413.12119    153.61777    36812.755 
  810600    303.62125   -1535.5357     505.6493    340.34006    390.49906    36812.755 
  810700    294.97144   -1517.1777    484.12509    298.13771    445.42039    36812.755 
  810800    297.22202   -1509.7776     489.0266    320.59607     37.94563    36812.755 
  810900    301.68828    -1530.395    501.95893      333.067   -44.958965    36812.755 
  811000    305.60551   -1514.8539    505.79192    370.11931     820.5968    36812.755 
  811100      311.167   -1515.2701    515.71452    404.72443    346.86443    36812.755 
  811200    293.92596    -1512.912    476.82485    290.38496    -154.2248    36812.755 
  811300    311.21219   -1521.9902    498.85044    381.34416   -400.48299    36812.755 
  811400    304.06834   -1537.7802    504.93347    339.39739   -195.36819    36812.755 
  811500    296.85319   -1533.9999    466.52288    272.20547    68.899587    36812.755 
  811600    298.20368   -1530.2984    477.32883    292.80763    654.39993    36812.755 
  811700    305.13728   -1537.0878    497.39191    337.37236   -132.42733    36812.755 
  811800    304.33261   -1512.2174    491.09792    352.31728   -365.90676    36812.755 
  811900    302.82272   -1512.9965    470.76607    324.39222     105.0451    36812.755 
  812000     297.3998   -1547.7169    493.01275    287.44526   -392.85173    36812.755 
  812100    294.85171   -1497.3155    488.17553    321.51001    34.038198    36812.755 
  812200    288.12204   -1498.7637    485.12202     286.6376    163.93724    36812.755 
  812300    286.96948   -1510.4644    510.70434    295.31778     158.6841    36812.755 
  812400    299.79621   -1478.4329    473.62894    348.16024    168.59172    36812.755 
  812500    294.79393   -1437.5773    511.08084    403.89276    -405.6927    36812.755 
  812600    292.68066   -1514.1979    509.33704    315.99123    -298.3138    36812.755 
  812700    303.59481   -1463.5316    489.66728    396.24275    130.35079    36812.755 
  812800    306.96582   -1499.7215    495.59689    381.19568    449.54682    36812.755 
  812900    294.69139   -1487.5131    497.71547    340.12878    497.47391    36812.755 
  813000    285.37851   -1474.7347    493.99256    307.15577   -104.24833    36812.755 
  813100    293.55312   -1512.1559    515.14145    327.77505    414.88588    36812.755 
  813200    308.35546   -1493.0306    495.72417    394.28523    127.12768    36812.755 
  813300    292.76644   -1517.3348    496.11577    300.02021    109.68787    36812.755 
  813400    305.29938   -1534.8648    483.49119    326.42617   -42.390985    36812.755 
  813500    305.80171   -1506.3751    471.28904    344.98068   -379.75562    36812.755 
  813600    304.03849   -1492.6965    492.62831    372.04127   -98.116569    36812.755 
  813700    305.40813   -1488.9811    494.20596    383.51536    79.043591    36812.755 
  813800    296.72834   -1475.0661    506.48361    370.53661    -65.56544    36812.755 
  813900    289.84007   -1510.1909    501.89277    299.73463   -486.59003    36812.755 
  814000     298.1809   -1569.4524    471.68356    247.90559   -269.42164    36812.755 
  814100    299.25339   -1482.7811    500.41021     368.1436   -358.21365    36812.755 
  814200    297.79191   -1473.0679    500.52845    371.37945   -162.14931    36812.755 
  814300    300.06992   -1483.8704    519.21925    389.54838   -248.47339    36812.755 
  814400    312.92209   -1513.9739    498.56374    396.79044    316.90865    36812.755 
  814500    291.12553    -1489.723    462.61962    286.73048   -1.8610597    36812.755 
  814600    297.42708     -1490.08    516.90506    369.09752   -566.99711    36812.755 
  814700     297.7901   -1479.0275    504.05258    368.93585   -416.71355    36812.755 
  814800    296.39602   -1478.8304    468.22312    327.01203    -267.2733    36812.755 
  814900    306.73414   -1501.2126    497.70309    380.76518   -502.27179    36812.755 
  815000    306.47066   -1476.7282    490.79161    397.14905   -1041.2794    36812.755 
  815100    297.56461   -1480.6811    494.05195    356.26397   -931.29135    36812.755 
  815200    294.49179    -1525.443    480.65306    284.23574   -128.33252    36812.755 
  815300    296.86963   -1501.5641    497.53584    335.72847    81.249028    36812.755 
  815400    294.40371    -1501.463    522.09024    349.25537   -78.677988    36812.755 
  815500    304.12108   -1505.8421    497.27226    363.91227   -523.98981    36812.755 
  815600    308.76123   -1513.1443    470.92804    351.20666    125.77865    36812.755 
  815700    296.35498   -1484.6225    505.20508    358.01677    136.13194    36812.755 
  815800    296.20004   -1454.4056    503.03136    385.36062   -167.04795    36812.755 
  815900    294.88761   -1484.3488    489.91319    336.37635    133.61828    36812.755 
  816000     307.8266   -1484.3138    492.90122    397.79234    -112.5728    36812.755 
  816100    303.89175   -1494.0074    512.95048    390.39026   -93.152664    36812.755 
  816200    303.87768   -1484.0747    457.65265    344.96169   -194.42456    36812.755 
  816300    299.07446   -1522.0789    502.42028    330.04842   -395.13311    36812.755 
  816400    308.37628   -1480.1876    475.45057    386.94863   -590.34881    36812.755 
  816500    291.40399   -1538.7691    466.51544    242.83697     203.8813    36812.755 
  816600    290.92949   -1484.9905    487.54373    315.50245    399.31599    36812.755 
  816700    294.83846   -1478.3625    505.79938    358.02705      841.535    36812.755 
  816800    301.90338   -1524.2223    474.42656    312.67806     952.2449    36812.755 
  816900    292.30083   -1512.5159    465.12988    271.75197    651.80572    36812.755 
  817000    301.99142   -1509.7164    466.67436    319.82907    56.303776    36812.755 
  817100    298.35563   -1488.9181    511.45786    369.00269    179.89301    36812.755 
  817200    299.28692   -1555.8165    474.38591    269.23524    305.29422    36812.755 
  817300    297.05825   -1543.1029    525.68995    323.19501    212.88982    36812.755 
  817400    300.07521    -1518.841    449.12196    284.50427    135.65173    36812.755 
  817500    297.33934   -1554.2556    479.30244    266.92334   -102.89599    36812.755 
  817600    301.67632   -1545.0178    488.66138     305.0926   -152.93119    36812.755 
  817700    309.11898   -1506.4153    490.92306    379.54511    102.52749    36812.755 
  817800    293.85296   -1522.6117    460.22577    263.75673   -172.80377    36812.755 
  817900     307.5105   -1512.7408    494.03407    369.07167   -55.932914    36812.755 
  818000    312.36168   -1483.5968    476.53596    402.61064   -583.54769    36812.755 
  818100    304.64477   -1493.4835     502.2895    383.65153    362.35741    36812.755 
  818200    289.50827   -1495.4139    467.38012    278.50154    8.1289165    36812.755 
  818300    298.57916   -1482.1293     488.5142    353.85665    251.81741    36812.755 
  818400    307.78314   -1540.4474    476.29682    324.85819    582.57708    36812.755 
  818500    295.44309   -1508.1215    535.62121    360.81857    1104.3424    36812.755 
  818600    306.65734   -1556.5742    487.79344    315.14741    543.96549    36812.755 
  818700    289.35472   -1495.8707    483.11982    293.09145    212.96054    36812.755 
  818800    304.25025   -1505.3032    496.91157    364.67349    -869.1863    36812.755 
  818900    305.50984   -1522.3409    481.91869    338.32731   -914.14203    36812.755 
  819000    290.91626   -1498.4731    485.51148    299.92788   -322.66074    36812.755 
  819100    299.01606   -1518.1304    478.01901    309.33206   -679.72067    36812.755 
  819200    295.54027   -1526.3597    473.97006    281.36774   -485.38916    36812.755 
  819300    296.12885   -1500.6011    520.49911    356.31164   -273.42768    36812.755 
  819400     293.6237   -1486.5617    483.10625    321.65258   -542.74423    36812.755 
  819500    311.70325   -1488.8501    502.89061     420.7406   -251.99556    36812.755 
  819600    297.01704    -1503.026    483.23284    320.62884    580.07379    36812.755 
  819700    303.27149   -1490.4213     496.2236    374.45027    748.32853    36812.755 
  819800    303.79968   -1462.8821    490.46413    398.61367    395.46602    36812.755 
  819900    309.13118    -1459.711    501.83435    437.21585    43.483377    36812.755 
  820000    298.70729   -1496.4584    468.63018    320.22175   -592.93064    36812.755 
  820100    308.08039   -1412.3546    547.79834    525.79401   -217.68168    36812.755 
  820200    305.15836    -1442.886    500.75515    435.03247    230.66709    36812.755 
  820300     291.9287   -1495.9464    494.09099    315.60321    141.52218    36812.755 
  820400    299.74795   -1487.3707    530.47513    395.85091    895.49327    36812.755 
  820500    312.59469   -1500.3653     491.2448    401.60264     699.1901    36812.755 
  820600    294.68244   -1529.1248    492.64336    293.40465    4.6570596    36812.755 
  820700    290.38512   -1521.0076    501.17053    290.65543    207.93678    36812.755 
  820800     302.5758   -1506.2905    483.72184    342.93974    410.20745    36812.755 
  820900     311.0697   -1534.3732    499.95221    369.41988    154.18381    36812.755 
  821000    298.30097   -1486.5643    493.92687    353.57883   -506.12403    36812.755 
  821100    296.98358   -1487.3318    480.09322    333.03236   -407.04257    36812.755 
  821200    305.13694   -1477.8986    505.38666    404.55476   -178.41593    36812.755 
  821300    289.65822   -1530.4256     522.3675    299.15388    258.69252    36812.755 
  821400    292.67986   -1474.1809    527.21482    373.88246    236.28919    36812.755 
  821500    299.47664   -1503.7434    519.83129    367.60998    72.894022    36812.755 
  821600    297.41317   -1523.9167    495.22845    313.52144    362.06794    36812.755 
  821700    288.28515   -1500.3363    481.14939    281.82856    35.287588    36812.755 
  821800    304.92325   -1536.5874    508.52362    348.03849   -159.19127    36812.755 
  821900     309.5086   -1554.0562    499.99577     342.7353    38.205133    36812.755 
  822000    286.90152   -1507.6155    496.56695    283.72263   -314.27463    36812.755 
  822100    294.76085   -1526.1494    486.09739    290.18793   -204.69671    36812.755 
  822200    305.61715   -1527.7513    498.73454    350.21701    325.91183    36812.755 
  822300    296.53292   -1549.7174    492.38476    280.90453    392.05873    36812.755 
  822400    309.98373   -1510.2897    506.88476    395.53507    410.78729    36812.755 
  822500    295.84535   -1523.2403     509.9256     321.8195   -268.89864    36812.755 
  822600    302.78511   -1553.9839    484.71696    297.18607    239.42481    36812.755 
  822700     294.6414   -1540.7229    478.07795     267.0559    37.731205    36812.755 
  822800    297.14548   -1511.1202    505.51492     335.3963    215.50596    36812.755 
  822900    305.55666   -1535.8883    509.79007    352.86259   -721.34558    36812.755 
  823000    296.26768   -1454.3785     492.4431    375.10478   -758.97969    36812.755 
  823100    307.68857   -1547.5689    504.67748    345.69061   -329.79618    36812.755 
  823200    302.16993   -1534.7422    511.25012    340.18457    44.092759    36812.755 
  823300    297.06777   -1548.2602    505.68046    298.07117   -485.20686    36812.755 
  823400    295.13445   -1498.1547    495.99713    329.76836    86.703194    36812.755 
  823500     304.9634   -1511.2334    503.93085    368.98092    30.665492    36812.755 
  823600    306.39832   -1504.9396    520.97021     398.7898   -192.58624    36812.755 
  823700    299.00006     -1510.04    469.61348    308.94474    391.90635    36812.755 
  823800    309.42811   -1543.5675    534.18517    387.05017    568.81439    36812.755 
  823900    295.68135   -1569.0789    515.54376    280.85897    545.53304    36812.755 
  824000    298.27228   -1508.1744    480.46512    318.37758    614.31028    36812.755 
  824100    307.50243    -1503.757    510.64559    394.63057    996.30969    36812.755 
  824200    296.35851   -1542.5504    499.10189    294.00155    359.04303    36812.755 
  824300    298.34012     -1517.22    491.47122    320.64423   -83.112064    36812.755 
  824400    317.75564   -1531.8461    490.66395    392.83205   -169.31567    36812.755 
  824500    303.42597   -1497.8546    517.18576    388.67631     182.6386    36812.755 
  824600      300.528   -1521.6484    509.76495    344.38325   -40.650725    36812.755 
  824700    304.62566   -1507.0297    507.10191     374.8315    192.45033    36812.755 
  824800    302.81857   -1516.8544    515.72461    365.47419    871.79717    36812.755 
  824900    296.35194   -1548.4624     499.4829    288.44092    641.70022    36812.755 
  825000    309.32534   -1502.8518    487.58936     380.7062    1102.2973    36812.755 
  825100    298.13033   -1523.7032    496.79801    318.54106    414.75511    36812.755 
  825200    295.45223   -1506.2423     497.5927    324.71051    134.11463    36812.755 
  825300    299.57122   -1489.0368       496.83    359.74211   -239.33644    36812.755 
  825400    292.59529   -1474.7067    505.60575    351.36593   -835.27181    36812.755 
  825500     292.3871   -1517.5174    488.01703     290.0269   -1254.6608    36812.755 
  825600    305.00277   -1533.3483    491.42949    334.54236   -1314.7782    36812.755 
  825700    299.45323   -1519.6145    492.28633    324.08825   -749.68931    36812.755 
  825800    307.24735   -1494.2005    530.61926     423.0096   -587.92053    36812.755 
  825900    315.14618   -1515.9452    509.74448    416.03709    -333.1212    36812.755 
  826000    293.16335   -1570.3291    504.60106    257.30247   -818.43902    36812.755 
  826100     298.1575   -1529.1923    482.80136    299.17792   -645.91569    36812.755 
  826200    309.39932   -1551.3265    476.45451    321.43058   -377.76602    36812.755 
  826300    306.98118   -1521.3394    492.32918    356.37941   -176.36866    36812.755 
  826400    290.91179   -1528.6206    508.73783    292.98655   -361.94407    36812.755 
  826500     293.9163   -1501.9571    501.20817    325.67956    30.988903    36812.755 
  826600    305.62124   -1536.9112    500.34581    342.68684    41.500172    36812.755 
  826700    306.87142   -1554.1798       493.83    324.54448    184.73669    36812.755 
  826800    310.15931   -1526.2608    489.75933    363.23082    406.52312    36812.755 
  826900     297.7909   -1553.8186     478.6769    268.77272    433.88356    36812.755 
  827000    288.52046   -1553.2414     501.9407    250.77664   -230.41244    36812.755 
  827100    293.36242   -1563.2789    520.52517    281.17519   -529.63761    36812.755 
  827200    295.01652   -1538.0232    503.38454    296.75509   -293.76599    36812.755 
  827300    293.73836   -1524.1802    507.93811    309.38342   -75.118869    36812.755 
  827400    300.05271   -1549.8415    488.02698    292.30729   -341.43832    36812.755 
  827500    297.80768   -1569.7303    494.09199    268.35181   -508.78825    36812.755 
  827600    298.74136   -1542.0212    501.76577    307.94831   -170.90043    36812.755 
  827700    304.78836   -1499.1161    511.86883    388.24623   -119.18594    36812.755 
  827800    293.86382   -1527.4246    491.23471    290.00179    200.19106    36812.755 
  827900    310.25941   -1555.3133    527.21394    372.08474    512.37172    36812.755 
  828000    300.45361   -1510.2582    505.46537    351.13816    228.93219    36812.755 
  828100    296.08856   -1507.1091    493.86468    322.98741   -304.41516    36812.755 
  828200    294.67292   -1530.2384    490.42504    290.02973   -119.36113    36812.755 
  828300     298.8096   -1513.6796    500.77461    335.60671   -205.38311    36812.755 
  828400    300.28442   -1547.4771    487.43119    295.12158   -141.40816    36812.755 
  828500    305.33207   -1545.3104    470.72456    303.36142    -51.70669    36812.755 
  828600    296.62973    -1531.012    529.84712    337.50916   -85.908677    36812.755 
  828700     295.8745   -1560.6691    483.60333    258.20001    162.54231    36812.755 
  828800    301.55305   -1531.0135    508.13375    338.01299   -69.082497    36812.755 
  828900    290.41251    -1568.758    500.54512     242.4032   -212.31538    36812.755 
  829000    304.29792   -1520.7722    522.85025    375.35829    59.272007    36812.755 
  829100    291.16661    -1544.954    500.57776     269.6431   -15.289172    36812.755 
  829200    298.53556   -1568.6979    491.53375    270.11083   -106.07629    36812.755 
  829300    302.42419   -1522.3788    488.98062    331.42598   -453.45879    36812.755 
  829400    301.57989   -1492.2524    507.60205    376.36357   -427.28878    36812.755 
  829500     305.1566   -1492.3311    489.15766    373.98199   -84.188614    36812.755 
  829600    297.39952    -1544.355    508.46202    306.25512   -766.84219    36812.755 
  829700    294.32732   -1524.8849    494.81799    298.21649   -161.16297    36812.755 
  829800    301.48376   -1551.7936    464.75276     273.5392   -428.46656    36812.755 
  829900     302.1018    -1517.678    505.19524    350.88649   -238.22084    36812.755 
  830000    297.78801   -1498.9548    490.88718    335.83373     373.9611    36812.755 
  830100    296.51056   -1552.8882    490.96436    276.21242   -99.413987    36812.755 
  830200    304.65705   -1572.0456    494.83084     297.6862    381.67104    36812.755 
  830300    296.39367   -1539.6414    486.69875    284.66605    1.7558078    36812.755 
  830400    302.29402   -1524.4676    470.11755    309.88664    568.02516    36812.755 
  830500    306.93878   -1479.0851    531.81102    437.92418   -284.95914    36812.755 
  830600    296.11999    -1522.367    464.28596    278.29264    35.323424    36812.755 
  830700    289.35199    -1535.641    485.03408    255.22307    -392.3143    36812.755 
  830800    304.72648   -1525.8757    491.72525    341.06379   -371.86285    36812.755 
  830900    309.11706   -1532.9113    481.41562    343.53301   -422.09127    36812.755 
  831000    298.31799   -1521.4621    500.17628    325.00723    2.7856222    36812.755 
  831100    298.32278   -1569.3331    504.06744    281.04912    471.33058    36812.755 
  831200    298.49403   -1578.1793    494.06854    262.97682   -422.13053    36812.755 
  831300    295.46637   -1513.1243    502.20752    322.50711   -469.89155    36812.755 
  831400     305.5782   -1481.1149    477.61619    375.55932   -373.80928    36812.755 
  831500    307.05056   -1516.6135    477.62849    346.71774   -269.64557    36812.755 
  831600     293.1464    -1515.176     517.2877    325.06568   -332.69628    36812.755 
  831700    290.35721   -1505.5702     496.2071    301.00346   -215.82828    36812.755 
  831800    300.85344   -1569.3338    495.61337    284.01509   -2.6653223    36812.755 
  831900    296.07337    -1509.318    471.99787     298.8431   -223.29057    36812.755 
  832000    300.60763     -1527.92    503.09059    331.79675    -305.0934    36812.755 
  832100     299.0859   -1513.8807    480.60558    316.48351   -563.17014    36812.755 
  832200    289.90436   -1504.0866    499.87433    304.11057   -441.70005    36812.755 
  832300    299.80715   -1529.7147    482.30986    305.60877    289.48121    36812.755 
  832400    299.29476   -1503.1258    485.26903    332.84448    403.21168    36812.755 
  832500    304.41262   -1473.5513    487.52753    387.77403    12.251887    36812.755 
  832600    304.85613   -1465.8586    520.52437    430.46512   -811.09633    36812.755 
  832700    303.29277   -1470.0712    510.59447     409.2673   -838.58279    36812.755 
  832800    290.90403   -1535.8442    459.61034    236.60047   -71.013127    36812.755 
  832900    310.24634   -1507.5262    543.52616    436.12509    920.74539    36812.755 
  833000    295.85218   -1500.8887    504.27236    338.54871    296.95216    36812.755 
  833100    303.57802   -1509.0723    485.77269    346.73175    332.35799    36812.755 
  833200    301.35206   -1509.0393    514.59785    365.54429    15.406916    36812.755 
  833300    309.26855   -1499.2009    467.16934    363.68081   -136.99274    36812.755 
  833400    305.95784    -1467.297    519.26309    432.73738    272.81483    36812.755 
  833500    301.46866    -1494.227    488.37669    354.66166    548.87172    36812.755 
  833600    295.08342   -1528.5598     500.9764    304.11228    58.203953    36812.755 
  833700    289.19784   -1528.2119    506.70587    283.62828    406.21617    36812.755 
  833800    292.56679   -1482.3739    494.30853    332.27286    332.19787    36812.755 
  833900    297.95066   -1536.2526    479.76668    288.14945    403.28939    36812.755 
  834000    290.28609   -1530.4664    493.71382    273.29301   -348.79705    36812.755 
  834100     292.7674   -1518.6789    500.85753    303.42225    -670.9615    36812.755 
  834200    306.69905   -1484.5911    519.32731    418.85261    185.01172    36812.755 
  834300    299.35836   -1492.6122    505.26973    363.64577     766.5893    36812.755 
  834400    305.43933   -1512.1151    496.39479    362.71108    565.51377    36812.755 
  834500    302.11179   -1509.1284    486.90296    341.18885   -332.41868    36812.755 
  834600    293.97194   -1469.0996    518.00136    375.58143   -393.93538    36812.755 
  834700     298.2746   -1485.9754    509.17845    369.30032   -539.49111    36812.755 
  834800    307.55506   -1514.7043    484.38547    357.66069    -201.5643    36812.755 
  834900    297.67213   -1529.6199    491.24892    305.00742   -195.85539    36812.755 
  835000    300.49354   -1538.1724    494.64184    312.58063   -334.48662    36812.755 
  835100    308.36124   -1531.7667    477.82413    337.67518   -429.85359    36812.755 
  835200    295.29702   -1512.9573    497.89731    317.59961   -137.72744    36812.755 
  835300    300.92487   -1524.7703    499.99077    333.27827    341.58957    36812.755 
  835400    300.68665   -1506.6938    531.96354    382.25249    387.97013    36812.755 
  835500    307.82834   -1463.6102    501.58982    427.19246    421.25456    36812.755 
  835600    295.67308   -1470.3799    498.65303    362.62989    654.12564    36812.755 
  835700    300.22395    -1465.539    510.24578    399.60133    350.95995    36812.755 
  835800    305.66617   -1489.0653    509.83892     400.2287    619.24626    36812.755 
  835900    306.61151   -1467.3816    498.94422    415.28393    427.37741    36812.755 
  836000    301.44214     -1502.63    502.46543    360.22763   -100.58684    36812.755 
  836100    297.48523   -1481.9424    502.85952    363.45201   -374.04413    36812.755 
  836200    294.66483   -1517.0424     489.0514    301.81553   -127.81195    36812.755 
  836300    307.22915   -1503.3813    486.49172    369.61908    -80.28046    36812.755 
  836400     290.3807   -1482.4927    494.88101    322.86088   -899.34579    36812.755 
  836500    296.94642   -1456.0921    479.84139    363.85252   -664.60812    36812.755 
  836600     300.5067   -1458.7491    509.58683     407.0084   -105.38425    36812.755 
  836700    293.69944   -1472.2359    507.87353    361.08752   -402.20351    36812.755 
  836800    300.36238   -1477.3876    500.13268    378.26445    76.338068    36812.755 
  836900    295.59728   -1458.3849    526.23845    401.86824    -789.1229    36812.755 
  837000    299.01449   -1463.2512    496.71148    382.89662   -475.40592    36812.755 
  837100    300.16743   -1465.6982    468.52414    357.46542   -259.78693    36812.755 
  837200    292.81678   -1482.1472    498.68637     338.0056   -789.64358    36812.755 
  837300    293.01301   -1530.4644    474.34533    266.23293   -436.93155    36812.755 
  837400    300.40732   -1514.3796    489.92074    331.26332   -412.36199    36812.755 
  837500    304.96711   -1519.9671    484.66483    340.99796   -378.05347    36812.755 
  837600    292.62053   -1533.0738    484.15414    271.66106   -391.59153    36812.755 
  837700    291.21875    -1510.304     475.7703     279.7209   -178.42678    36812.755 
  837800    303.09945   -1527.4481    522.62254    363.04597   -461.73433    36812.755 
  837900    287.86042   -1544.7167    498.83464    253.21663    318.63176    36812.755 
  838000    297.60556   -1510.5411    502.95038    335.48725     602.9407    36812.755 
  838100    298.33511   -1494.7287    500.35655    351.99825   -71.567452    36812.755 
  838200    293.27333   -1498.4965    485.87641    310.90675   -452.12078    36812.755 
  838300    291.43427   -1493.2284    482.90278    304.90164    1.0104768    36812.755 
  838400    297.53787   -1519.1737    497.81686    321.41562   -151.25551    36812.755 
  838500    295.50926   -1466.9566    500.21863    366.87947   -326.68985    36812.755 
  838600    313.57719   -1498.1261      510.506    427.53695   -55.958544    36812.755 
  838700    302.78098   -1495.8549    501.21116    371.79066   -154.25995    36812.755 
  838800    299.21136   -1467.0749     523.5075    406.75749    249.35843    36812.755 
  838900    291.52817   -1447.3425    529.31268    397.62121    278.10459    36812.755 
  839000    293.32358   -1467.5783    502.59701    358.77234     67.74359    36812.755 
  839100    302.63465   -1479.8126    505.85849    391.81981    189.70312    36812.755 
  839200    298.09663   -1457.6806    493.28598    380.89946    218.88251    36812.755 
  839300    295.33402   -1447.1719     515.6544    401.30907   -726.48741    36812.755 
  839400    300.06544   -1452.8715    505.48208    406.78979    336.03349    36812.755 
  839500    298.76411    -1486.606      502.331    364.03145    46.035641    36812.755 
  839600    305.02081   -1426.8484    514.02124    463.71544   -397.70524    36812.755 
  839700    287.59854    -1434.593    512.07829    375.40207   -206.72095    36812.755 
  839800    289.66233   -1447.5934     525.8697    385.50691    237.51496    36812.755 
  839900     308.4599   -1408.7805    522.46671     505.7492    402.29021    36812.755 
  840000     296.2359   -1444.7449    479.55755    371.70936    192.60639    36812.755 
  840100    309.72217    -1454.382    508.42869    451.80621     325.9832    36812.755 
  840200    308.90745   -1479.6757    529.92777    444.33485   -93.605592    36812.755 
  840300    303.93821   -1454.2235    503.33868    420.77201    633.91056    36812.755 
  840400    301.29683    -1396.555    493.01186    456.19331   -83.893355    36812.755 
  840500    293.78567   -1403.2409    504.99167    427.58974    305.19167    36812.755 
  840600    300.22177    -1433.665    521.32366    442.54348    248.13328    36812.755 
  840700    288.96265    -1394.362    513.30908    423.02003   -98.365554    36812.755 
  840800    308.97381   -1436.2186    502.98004    461.14371     309.8726    36812.755 
  840900    293.36174   -1423.0838    522.70481    423.54686    208.86879    36812.755 
  841000    302.63633   -1426.4892    497.73796    437.03027    39.356501    36812.755 
  841100    305.00594   -1461.9724    469.27999     383.7831   -169.68034    36812.755 
  841200    298.06046   -1474.1989    478.11407     349.0461   -3.7206324    36812.755 
  841300    294.76211   -1462.3012     495.9232    363.86762    191.84163    36812.755 
  841400    306.73993   -1457.5252    492.37523    419.15092    648.34219    36812.755 
  841500    300.57699   -1436.6736    474.25299    394.06722    176.08736    36812.755 
  841600    293.80492    -1454.623    484.08012    355.38296   -150.13847    36812.755 
  841700    299.18435   -1456.8322    498.98453    392.35528   -88.174541    36812.755 
  841800    292.55252    -1453.293    491.55001    358.53089    167.57741    36812.755 
  841900    296.40901   -1457.5237    509.99842     390.1527    -14.59839    36812.755 
  842000     307.0305   -1494.5854    478.43561    369.46241    719.24532    36812.755 
  842100    288.34689   -1463.2527    490.82009     328.8615    719.73749    36812.755 
  842200    299.22283   -1481.6912    496.95244    365.63784    664.44022    36812.755 
  842300    318.48767   -1494.9662    494.52575    436.87738    1036.9054    36812.755 
  842400    305.60153    -1501.484    474.93433    352.61367    858.36213    36812.755 
  842500    296.73975   -1458.9933    515.18188    395.35914    593.20711    36812.755 
  842600    309.52916   -1447.6703    502.69058    451.90879    101.87142    36812.755 
  842700    304.25738   -1448.8396    497.09778    421.35547    38.222728    36812.755 
  842800    310.71799   -1470.9701    497.79239    429.07593    286.01354    36812.755 
  842900    296.60428   -1474.3357      499.584    363.80751   -280.45855    36812.755 
  843000    291.97375   -1452.3597     484.9911    350.29325    133.97578    36812.755 
  843100    300.10026   -1505.0537    489.77303    339.05571   -251.39339    36812.755 
  843200    294.65674   -1476.9721    496.15565     348.9536    228.27759    36812.755 
  843300    305.18594   -1473.3959    490.53748    394.42939    410.36429    36812.755 
  843400    304.13414   -1484.4384     487.1016    375.20426    392.78168    36812.755 
  843500     302.4694   -1523.9688    495.61368    336.67305    285.21658    36812.755 
  843600    299.77902   -1533.9665    515.12289    334.04308    37.406422    36812.755 
  843700    304.09356   -1504.3569    486.82932    354.83032    575.26705    36812.755 
  843800    293.43883   -1508.3468    495.20883    311.13579    574.00321    36812.755 
  843900     303.2868   -1467.1507     500.5546    402.12092    513.08205    36812.755 
  844000    299.71231   -1486.1035    484.00619    350.48822    566.20768    36812.755 
  844100    300.20597   -1501.9273    490.51427    343.40039    250.96435    36812.755 
  844200    305.82731   -1522.5725    500.69385     358.3036   -20.255714    36812.755 
  844300    297.86557     -1530.33    462.40863    276.33002    271.62878    36812.755 
  844400    300.63606   -1583.1038    488.47836    262.12903    -111.7941    36812.755 
  844500    304.91349   -1535.1235    459.93947    300.87422   -119.03394    36812.755 
  844600    298.36926   -1526.6168    478.52434    298.43205   -247.40179    36812.755 
  844700    294.98164   -1502.8568    509.17041    337.54998   -33.976772    36812.755 
  844800    307.56612   -1518.6454    486.96692    356.35088    155.90441    36812.755 
  844900    294.31743    -1501.174    504.95018    332.01495    -696.9845    36812.755 
  845000    292.22929   -1446.3706    494.03872    366.48321   -509.33224    36812.755 
  845100    310.00338   -1478.7459     488.2204    408.50313   -61.178345    36812.755 
  845200    303.32892   -1528.3476    508.42112    348.98074    12.316378    36812.755 
  845300    304.41678   -1561.6813    480.10428    292.23956   -48.663364    36812.755 
  845400    300.77912    -1553.389     485.3087    289.31979    122.73927    36812.755 
  845500    297.81679     -1534.27    499.65299    309.41416     264.0713    36812.755 
  845600    311.51371   -1538.1043    468.85826    336.59866   -430.59769    36812.755 
  845700    307.76445   -1585.8265    474.75302    277.85094    58.128969    36812.755 
  845800    292.64429   -1551.0522    475.91923    245.55504    761.56357    36812.755 
  845900    293.01581   -1544.8936    472.96091    250.43198    750.53207    36812.755 
  846000    296.68715    -1540.064    487.76998    286.63917    582.42142    36812.755 
  846100    297.64383   -1552.0862     497.6694     288.8339    1008.2814    36812.755 
  846200    301.10156   -1524.0604    495.85951    330.65436    489.66371    36812.755 
  846300     308.1077   -1529.3964    488.21544    349.29256     720.1197    36812.755 
  846400     291.3833   -1534.8515    517.69631    297.84206    630.90051    36812.755 
  846500     305.6976   -1537.2808    469.26942     311.5855    60.559999    36812.755 
  846600     294.2119   -1525.0967    494.25938    296.92519   -136.65396    36812.755 
  846700    298.08626   -1482.9078    499.75037    362.08992   -288.68515    36812.755 
  846800    306.02506   -1498.0819    493.41307    376.40588   -418.83561    36812.755 
  846900    291.96161   -1521.5941    497.95456     293.9676   -213.58866    36812.755 
  847000    293.83114   -1513.3849    480.67455    293.33378   -150.32379    36812.755 
  847100    292.20172   -1514.2187    486.13338    290.60537   -632.82588    36812.755 
  847200     301.3026   -1487.6677    500.68819    372.78294    161.54502    36812.755 
  847300    302.88087   -1515.8337    508.22342    359.27485    364.12024    36812.755 
  847400    300.02485   -1470.2597    496.05489    379.79131    752.57429    36812.755 
  847500    299.06218   -1496.1262    513.28192    366.80733    98.970624    36812.755 
  847600    301.24766   -1483.6331    487.36339    363.24483    344.16008    36812.755 
  847700     299.5394   -1502.1048    487.98649    337.68693    701.26134    36812.755 
  847800    298.63776   -1519.6173    478.76031    306.87916     596.3565    36812.755 
  847900    304.21138   -1506.1901    489.05231    355.75186    836.97111    36812.755 
  848000    298.82397   -1525.3759    510.74613    333.94684    400.00789    36812.755 
  848100    299.54635   -1529.3083    473.93631    296.46465    120.38744    36812.755 
  848200    295.00668    -1514.999    512.68768    329.03801    49.821778    36812.755 
  848300    301.74346   -1493.1956    501.63569    370.19213   -347.88309    36812.755 
  848400    300.79118   -1479.1881    495.57607    373.84248   -541.48919    36812.755 
  848500    304.05437   -1503.0366    490.04541    359.18987   -187.18704    36812.755 
  848600     303.7843   -1494.5353    485.49469    361.92163   -67.712228    36812.755 
  848700    303.61412    -1500.192    504.52593    374.52818    169.41129    36812.755 
  848800    293.20721   -1516.0753    478.94791    286.10104    348.14012    36812.755 
  848900    303.34656   -1489.1758    473.73164    353.54262    645.13644    36812.755 
  849000    310.17737   -1512.8727    487.28646    374.22766    944.73777    36812.755 
  849100     300.9803   -1531.3842    503.06612    329.98992    800.00347    36812.755 
  849200    299.58516   -1517.7102    507.28511    341.58666    568.42466    36812.755 
  849300    300.20832   -1540.5692    481.29928    295.55414    560.38263    36812.755 
  849400    302.36547   -1511.1029    493.21444    346.67073    336.73278    36812.755 
  849500    297.84266   -1532.2859    492.08173    303.94375     50.44344    36812.755 
  849600    301.51481   -1552.1625    486.49859    295.05624    340.88824    36812.755 
  849700    307.85531   -1539.5183    483.41929    333.23553    419.35553    36812.755 
  849800    310.24061   -1502.8099    503.59527    400.88466   -404.56661    36812.755 
  849900    292.68746   -1497.8224    485.48321    308.54363   -356.77363    36812.755 
  850000    303.85784    -1515.705    524.40532     379.9945    126.06493    36812.755 
  850100    289.28718   -1507.0554    488.69145    287.17358   -331.70604    36812.755 
  850200    295.54379   -1481.9246    519.91331    371.76201   -89.279614    36812.755 
  850300    299.37244   -1515.8913    508.80843     343.9689   -780.27851    36812.755 
  850400    304.29651   -1521.5628    506.74709    358.45818   -382.56424    36812.755 
  850500    300.46029   -1488.4525    485.92431    353.43298   -287.60175    36812.755 
  850600    307.66891   -1502.6852    481.23833     367.0464    140.82801    36812.755 
  850700    299.10856   -1518.5905    488.37921    319.64964    129.23206    36812.755 
  850800    294.43368   -1514.9559    498.68776    312.49533     314.6936    36812.755 
  850900    295.95464   -1518.7097    471.14078    288.05849     507.5469    36812.755 
  851000    311.17757   -1543.3736    477.28117     338.2353    198.72278    36812.755 
  851100    301.67078   -1567.9655    484.24442    277.70292    60.922398    36812.755 
  851200    294.71611   -1512.9077    494.93135    312.06169    368.47124    36812.755 
  851300    290.11926   -1539.2721     461.9733    231.99388    62.748013    36812.755 
  851400    306.77386   -1511.0747    519.50363    392.88294   -267.49242    36812.755 
  851500    296.13519   -1473.1561    482.34827    345.63439    263.55129    36812.755 
  851600     315.1468   -1504.3451    442.61173    360.50724   -166.96591    36812.755 
  851700    298.66356   -1502.0011    487.33345    333.18497   -268.91302    36812.755 
  851800    305.82718   -1469.0538    489.87749    401.00533     326.0213    36812.755 
  851900    299.07809    -1467.047    493.43949    376.11591   -171.52176    36812.755 
  852000    303.45693   -1475.2591    477.55895    371.78469    -286.1611    36812.755 
  852100     296.6395   -1472.8062    509.70044     375.6124   -122.65067    36812.755 
  852200    312.17586    -1498.914    492.85097    402.76986    83.046046    36812.755 
  852300    295.36043   -1505.4981    492.95286    320.40054    790.28904    36812.755 
  852400    300.67204   -1483.9883     500.3793    373.30779    392.51651    36812.755 
  852500    308.12351   -1469.9573    496.46458    417.05222    973.24677    36812.755 
  852600    320.71493    -1466.126    472.99093    454.23424    569.28293    36812.755 
  852700    297.58941   -1515.1537    480.18053    308.03184   -365.31238    36812.755 
  852800    304.56012   -1511.1015    480.97024    344.33221    664.56216    36812.755 
  852900    306.36705   -1515.5463    488.16521    355.23697    78.530727    36812.755 
  853000    288.46021   -1512.9698    499.73186    288.56758   -193.43281    36812.755 
  853100    298.19409   -1513.0326    472.34035    305.04169   -242.15733    36812.755 
  853200    298.45634   -1501.3599    489.00254     334.5601   -667.09839    36812.755 
  853300    300.70828   -1538.8682    479.20337    297.41546   -383.16945    36812.755 
  853400    307.11096   -1531.1855    489.67104    344.46088   -504.63855    36812.755 
  853500    301.52579   -1497.2354    461.28757    324.82195   -439.58149    36812.755 
  853600    297.90799   -1486.4703    492.62268     350.5952    -893.2286    36812.755 
  853700    297.73492   -1499.1182    508.64788    353.19141   -419.75743    36812.755 
  853800    305.27626   -1507.4445    502.24732    372.49825   -127.98704    36812.755 
  853900    299.53006   -1531.5038    454.54186    274.80113   -67.706045    36812.755 
  854000    296.15594   -1515.9168    486.13258    306.75169    370.74817    36812.755 
  854100    295.19844    -1488.637    494.13523    337.71296    70.724976    36812.755 
  854200    301.09844   -1501.0154    497.58429    355.41005   -531.71913    36812.755 
  854300    320.06122   -1455.6545    504.13262    492.89728    -309.0237    36812.755 
  854400    301.91779   -1476.1438    504.57038    390.96537   -545.33697    36812.755 
  854500    300.01151   -1457.1661    492.29575    389.06557   -364.37691    36812.755 
  854600    297.40078    -1435.858    508.83695    415.13272   -609.91772    36812.755 
  854700    296.03808   -1443.2827     478.9823     371.7036    174.09441    36812.755 
  854800    302.46753   -1469.8985    510.14409    405.26529    93.907453    36812.755 
  854900    300.54413   -1506.6433    499.74206    349.43833    388.40653    36812.755 
  855000    297.11409   -1469.2189    510.07263    381.71371    410.81306    36812.755 
  855100    313.05941   -1484.7393    502.25587    430.33691    828.63951    36812.755 
  855200    300.15552   -1504.9069    501.88176    351.56065    906.33509    36812.755 
  855300    305.72753   -1491.3529    507.61423    395.99326    639.33934    36812.755 
  855400      301.969   -1521.8625    493.64912    334.55654    647.01419    36812.755 
  855500    289.25712   -1474.8069    478.07998    308.67493      185.527    36812.755 
  855600        309.3   -1466.8094    495.12744    424.17234    107.95657    36812.755 
  855700    299.24816   -1429.7696    509.81646    430.53777   -230.16758    36812.755 
  855800    304.73388   -1455.6756     480.6892    400.26122    274.41652    36812.755 
  855900    302.21321   -1450.8596    511.33134    424.34371    46.541779    36812.755 
  856000    288.56245   -1498.9938    473.05819    276.33121     689.0526    36812.755 
  856100    301.46671   -1459.5828    524.45684     425.3771    591.70834    36812.755 
  856200     308.0814   -1436.5075    522.70003    476.54741    263.52018    36812.755 
  856300    296.46959   -1447.6825    464.28893    354.55785   -205.67415    36812.755 
  856400     301.5991   -1452.4155    511.77305    420.45815   -212.29661    36812.755 
  856500    294.22354   -1463.0993    497.71351    362.42933    -871.3594    36812.755 
  856600    296.96732   -1456.9474    475.34635    358.59657   -352.18849    36812.755 
  856700    309.85236   -1520.3564    484.18963    362.18034   -400.10869    36812.755 
  856800    289.36644   -1540.8021    483.77048     248.8636   -453.52342    36812.755 
  856900     304.3083   -1566.4317    458.90708     265.8024   -90.294472    36812.755 
  857000    303.11115   -1495.0367    499.74727    372.63491   -150.36418    36812.755 
  857100    299.74239    -1540.807    492.95993    304.87425   -56.702451    36812.755 
  857200    305.59739   -1547.0331     456.3556    288.46716    558.62381    36812.755 
  857300    297.12847   -1500.3973    487.42614    327.95375    404.78126    36812.755 
  857400    299.31308    -1522.705    479.88063    307.95947   -123.49667    36812.755 
  857500    290.51461   -1514.1799    466.89363     263.7906   -246.41518    36812.755 
  857600    303.42537   -1491.3465    454.03322     332.0291   -378.72054    36812.755 
  857700    301.43994   -1518.4565    473.17155    315.09731   -522.51763    36812.755 
  857800     299.6235   -1543.6738    474.05888    282.56987   -206.31259    36812.755 
  857900    293.35816   -1550.1333    476.47271    250.24908   -579.35379    36812.755 
  858000    306.59701   -1480.0019    477.35523    381.00918   -480.87607    36812.755 
  858100    298.77281   -1477.4789     477.8543    348.72114   -313.02837    36812.755 
  858200    307.20206   -1516.7162    489.01081    358.68105   -193.96997    36812.755 
  858300     302.2038   -1544.7637    496.01718    315.08304    435.05488    36812.755 
  858400    294.84863   -1529.6919    473.75106    274.69523    161.95234    36812.755 
  858500     298.8478   -1506.3672    456.65633     298.9732   -34.143634    36812.755 
  858600    299.09466   -1519.2435    479.55607    310.11076    154.72781    36812.755 
  858700    297.83905   -1564.1165    461.97398    241.98916    578.02686    36812.755 
  858800    304.79333    -1510.055    475.25023    340.71126    875.99106    36812.755 
  858900    306.30691   -1519.0662    472.05009    335.33055    105.66828    36812.755 
  859000    299.33688    -1500.258    476.41529     327.0486   -637.00862    36812.755 
  859100    309.69623   -1481.6257    469.15114    385.16792   -666.29478    36812.755 
  859200    304.15139    -1493.198    481.30624     360.7272   -1122.1595    36812.755 
  859300    298.71382   -1478.8631    478.90575     348.1221   -76.036101    36812.755 
  859400    295.76015   -1497.1509      481.451    319.04982   -80.116243    36812.755 
  859500    304.21462   -1531.1131    480.28489    322.07604    -183.1959    36812.755 
  859600    304.36361   -1529.8721    481.82214    325.52672     139.2453    36812.755 
  859700    291.66318    -1455.218    494.77181    355.81418   -189.50107    36812.755 
  859800    306.12545   -1538.3813    464.58871    307.73514    319.97408    36812.755 
  859900    292.95574    -1530.699    474.46233    265.85691   -5.7573432    36812.755 
  860000    304.63438   -1529.2741    452.42952    297.95403    141.81993    36812.755 
  860100    305.87015   -1531.0322    470.90018    320.24357    215.71513    36812.755 
  860200    300.15887   -1518.5619    488.65926     324.6983   -289.45156    36812.755 
  860300    309.24197   -1507.8571    473.63173    361.36709    366.63007    36812.755 
  860400    299.82992   -1523.6057    472.03964    301.55035    539.98139    36812.755 
  860500    298.36625   -1498.7067    478.55574    326.35996   -522.77421    36812.755 
  860600    299.06285   -1500.3512    465.85009    315.15356   -54.306144    36812.755 
  860700    302.77941   -1471.2246    492.07796     387.2806    136.59691    36812.755 
  860800    306.56129   -1472.3528    496.90088    408.04274   -35.785069    36812.755 
  860900    301.33545   -1453.9529     482.9353    388.89311   -372.09154    36812.755 
  861000    313.40011    -1454.512     458.9565    418.80247    -191.8783    36812.755 
  861100      308.691   -1501.5647     451.9738    343.51504   -579.81534    36812.755 
  861200    293.69247   -1449.3502    476.69403    352.76219   -746.61395    36812.755 
  861300    305.08691   -1468.1886    486.34077    394.99304   -269.17521    36812.755 
  861400     300.0391   -1469.2018    491.68754    376.54611   -295.71874    36812.755 
  861500    301.71285   -1440.7481    463.06615    383.93196    186.02111    36812.755 
  861600    299.98546   -1481.2202    475.26712    347.86526    108.36854    36812.755 
  861700    296.47442   -1502.1233    461.98174    297.83161   -862.04551    36812.755 
  861800      301.882   -1471.2137    459.44509    350.60872    -291.2566    36812.755 
  861900    307.45767   -1464.3412    486.44397    409.64281   -231.24485    36812.755 
  862000    298.11401   -1461.6508    469.58319    353.30494   -411.67482    36812.755 
  862100    290.13107   -1453.8335    508.47274    363.98519   -305.81101    36812.755 
  862200     295.6282   -1500.0049    502.34564      336.495   -533.13021    36812.755 
  862300    304.62176   -1441.2464    514.37431    447.86963    198.46975    36812.755 
  862400    305.56853   -1464.6548    474.47598    388.83559    40.721934    36812.755 
  862500    304.72924   -1421.9063    486.32876    439.64917   -142.40217    36812.755 
  862600    300.58846   -1451.1516    491.91179    397.29976   -217.24943    36812.755 
  862700    295.92798   -1494.6488    465.95454    306.81281    -238.6355    36812.755 
  862800    300.23145   -1528.6515    481.44351     307.7205   -37.342011    36812.755 
  862900    301.51435   -1499.8877    478.44028     339.2707    124.63471    36812.755 
  863000    294.07877   -1495.9303    470.91823    302.14969    400.67661    36812.755 
  863100    295.25926   -1509.9678    486.53285    309.05425   -514.81239    36812.755 
  863200    293.31759   -1512.0075    507.95419    319.67324   -215.47232    36812.755 
  863300    296.73028   -1523.8449    484.66542    299.94843   -310.89246    36812.755 
  863400    297.28597    -1515.692    460.12028    286.06392   -213.07608    36812.755 
  863500    306.24744   -1534.1768    524.45824    372.35977    -470.5056    36812.755 
  863600    298.38387   -1492.6045    473.32969    327.31555   -457.45456    36812.755 
  863700    293.66438    -1453.486    482.72933    354.53496   -478.11359    36812.755 
  863800    288.67421   -1529.8442    492.42937    265.35641   -571.01842    36812.755 
  863900    298.24421   -1504.0116    476.01712    317.96563   -297.55472    36812.755 
  864000    296.91898   -1512.5939    510.49662    337.88219   -103.93677    36812.755 
  864100    299.45075   -1533.4104    466.85846    284.85328   -198.83006    36812.755 
  864200    301.74319    -1499.638    475.58215    337.69497    438.79251    36812.755 
  864300    298.41962   -1514.6975    476.36718    308.42137   -51.388997    36812.755 
  864400    306.76421   -1515.9069    483.62959    352.13316   -133.39752    36812.755 
  864500     302.4724   -1511.4953    494.07071    347.61716   -387.62241    36812.755 
  864600    296.81696   -1569.3958    495.79819    265.92145   -370.73599    36812.755 
  864700    280.19952     -1536.42    467.56274    195.66814   -25.096911    36812.755 
  864800    306.38021   -1561.4275    486.30976    307.55971   -63.211743    36812.755 
  864900     293.5237   -1522.8307    485.39998    287.22602    -136.6295    36812.755 
  865000    309.91244   -1506.2664    511.98724    404.33904    788.22991    36812.755 
  865100    299.92148    -1507.173    477.09352    323.45011   -120.19764    36812.755 
  865200    297.88741   -1442.1948    505.18147    407.33657   -33.554394    36812.755 
  865300      298.901   -1452.7429    491.99416    388.17553    856.73982    36812.755 
  865400    299.93264   -1496.4734    505.22327    362.32984    67.420624    36812.755 
  865500    296.45298   -1516.9143    489.29401    310.25616   -283.47831    36812.755 
  865600    302.17943   -1512.3614     486.8591    338.21732   -50.764995    36812.755 
  865700    306.71014   -1499.8711     497.7341    382.02939   -140.75963    36812.755 
  865800    302.12811   -1515.2247    483.96487    332.22812   -51.766994    36812.755 
  865900    297.43023   -1470.6196    483.06993    354.73702    248.55319    36812.755 
  866000    302.80626   -1546.1623    505.90959    326.29571   -132.88529    36812.755 
  866100    301.01201   -1517.3641    475.43258     316.5196   -449.84851    36812.755 
  866200    297.25069   -1499.3691    486.23413    328.34148   -382.65943    36812.755 
  866300    305.69956   -1502.1803    505.01519     382.4406   -349.83887    36812.755 
  866400    300.84432   -1509.5512    496.37935    344.52242   -371.55885    36812.755 
  866500    302.78053   -1589.8665    494.36861    270.93441   -329.97384    36812.755 
  866600    297.24933   -1590.8009    458.69868    209.36804   -92.642721    36812.755 
  866700    308.57302   -1540.2743      475.796    328.09519    305.62922    36812.755 
  866800    300.15628   -1549.2348      467.127    272.48142   -68.995244    36812.755 
  866900    291.33553   -1583.8389    477.87326    208.81605    189.56745    36812.755 
  867000    302.24013   -1558.1536     480.0987    285.93862     -67.6181    36812.755 
  867100    295.75347   -1533.6158    516.66206    317.76576   -582.59714    36812.755 
  867200    300.20901   -1544.3716     484.5994    295.05495     75.14638    36812.755 
  867300    292.56982   -1561.4584    497.52754    256.42105    333.82687    36812.755 
  867400     306.4696   -1554.6035    492.78023    321.25758    332.49704    36812.755 
  867500    302.62478   -1526.9186    490.87652    329.68732    63.023386    36812.755 
  867600    293.87782   -1474.4274    489.20216     341.0296    -784.9426    36812.755 
  867700    307.47869   -1477.7839    485.37024     395.2212   -271.88741    36812.755 
  867800    293.92831   -1504.6388    496.31228    318.15617   -192.09128    36812.755 
  867900    291.22968   -1501.8789    500.72188    313.14692   -682.70097    36812.755 
  868000     291.8907   -1495.0664     487.0724    309.29312   -887.20461    36812.755 
  868100    289.28472    -1538.313    502.08948    269.30294   -599.87908    36812.755 
  868200    293.27107   -1533.9507    487.75726    277.32321    186.31651    36812.755 
  868300    291.33802   -1527.6626     498.9451    286.07539    443.66881    36812.755 
  868400    304.47693   -1558.0326     469.3004    285.35589    341.58908    36812.755 
  868500     307.6924   -1542.6195    466.44827    312.42808    212.95268    36812.755 
  868600    302.76914   -1520.0488    485.90748    332.23954   -312.96235    36812.755 
  868700    298.73975   -1504.8231    480.53865    323.91206   -64.288051    36812.755 
  868800    300.51483   -1557.4075    479.55887    278.35872   -1.7352882    36812.755 
  868900    295.50973   -1551.0072    463.52982    246.14215      561.939    36812.755 
  869000    309.48646   -1530.8209    478.70477    344.57965    97.573594    36812.755 
  869100    297.22014   -1535.8211    476.04678    281.56427    23.421821    36812.755 
  869200    302.51207    -1550.281    476.15095    291.09075   -26.422237    36812.755 
  869300     294.3248   -1517.8197    478.52084    288.97315    618.79935    36812.755 
  869400    304.17392     -1534.83    479.85421    317.74482    429.86261    36812.755 
  869500     298.8782   -1567.1558    495.77939    277.44495    229.67974    36812.755 
  869600    302.39409   -1525.3982    496.04221    335.33237    502.58854    36812.755 
  869700    305.71537    -1480.305    486.78254     386.1546    133.68345    36812.755 
  869800    317.31563   -1504.7244    488.14381    415.44782    324.35171    36812.755 
  869900     289.8881   -1479.6162    504.23171      332.865    203.39265    36812.755 
  870000    295.41737   -1483.4403    509.08342    358.84593    154.09541    36812.755 
  870100    309.49649   -1529.1832    483.45655    351.01443   -391.20724    36812.755 
  870200    297.08034    -1545.435     488.1791    283.45179    -234.3938    36812.755 
  870300    292.28307   -1542.5115     478.2635    254.80982   -123.41499    36812.755 
  870400    302.20502   -1511.9412    485.92357    337.81744   -324.06607    36812.755 
  870500    292.49687   -1496.9104    494.31752    317.42987   -433.79433    36812.755 
  870600    306.31339   -1487.1748    479.76231    374.96341    183.79904    36812.755 
  870700    299.50342   -1466.3934    504.03598    389.28542   -378.29869    36812.755 
  870800    297.93287   -1481.0754    498.28497     361.7647    49.905435    36812.755 
  870900    300.55993   -1492.9437    513.35247    376.81964    452.06189    36812.755 
  871000    304.43397   -1502.8235    495.31087    366.38158    36.104331    36812.755 
  871100    301.11079   -1522.2133    498.97418    335.65769   -513.71722    36812.755 
  871200    292.87392   -1450.8169    521.68837    392.59573    -308.7661    36812.755 
  871300    308.03688     -1488.16     491.3628    393.35672    207.84762    36812.755 
  871400     304.7697   -1502.4361    509.97287    382.94612   -69.338712    36812.755 
  871500    308.08639   -1470.2097    495.07142    415.23908   -72.311718    36812.755 
  871600    306.51986   -1518.9626    480.39605    344.74118   -635.03608    36812.755 
  871700    307.51097   -1541.0091    468.74251    315.51392   -492.10316    36812.755 
  871800    297.76918   -1497.2297    506.96145    353.54815    -309.5655    36812.755 
  871900    294.54728   -1476.5934    504.53842    357.22116   -343.58702    36812.755 
  872000    292.14503   -1476.0236    471.13841    313.54972    -70.11636    36812.755 
  872100    301.50486   -1530.1284    483.26907    313.81592   -383.52899    36812.755 
  872200    300.88817   -1528.5444    482.22063     311.5684   -276.30481    36812.755 
  872300    289.48061   -1535.2424    490.59049     261.7586   -487.33425    36812.755 
  872400    301.72231   -1500.4893    490.47414    351.64142   -739.88408    36812.755 
  872500    293.18202   -1530.9053    478.99509    271.20448    -532.1397    36812.755 
  872600    304.61202    -1522.494    485.42427    337.62801    -303.4727    36812.755 
  872700     295.9677   -1481.7868    464.96622    318.86578    67.113736    36812.755 
  872800    284.04442   -1509.3006    467.07259    239.64925   -596.86537    36812.755 
  872900     288.4446   -1530.2045    500.49635    272.02684    180.42566    36812.755 
  873000    292.10235   -1473.9645    490.78245    335.06023    214.55677    36812.755 
  873100    297.93011   -1507.6969    499.05273     335.8984   -124.88065    36812.755 
  873200    307.63906   -1538.1666    484.12014    334.31218    215.63316    36812.755 
  873300    299.35257   -1586.1019    460.12686     224.9871    173.70354    36812.755 
  873400    307.18386   -1528.0247    487.05439    345.33396     89.23901    36812.755 
  873500    304.79207   -1513.1405    486.81438    349.18421   -867.82409    36812.755 
  873600    309.49635   -1501.0412    462.05782    357.75708   -542.72594    36812.755 
  873700    302.73496   -1507.9581    510.02378    368.29232   -592.07983    36812.755 
  873800    292.23132    -1466.632    485.02807    337.22033    9.6995856    36812.755 
  873900    305.83866   -1519.6355    490.43417    351.03212    100.37306    36812.755 
  874000    295.33407   -1499.5528    496.85173    330.12574   -443.09007    36812.755 
  874100      304.538   -1467.0252    460.44611    367.78456   -371.11976    36812.755 
  874200    301.41846   -1495.2653    481.78495    346.80498    287.79388    36812.755 
  874300    295.94487   -1463.0452    502.79674    375.33486    523.55811    36812.755 
  874400    312.25707    -1473.023    483.58651    419.76291    487.10651    36812.755 
  874500    301.63119   -1466.6847    485.19778    379.75851    270.21307    36812.755 
  874600    296.87222   -1464.0715    511.77676    387.47363    587.33172    36812.755 
  874700    314.01624   -1439.9924    511.26515    488.41118    685.43261    36812.755 
  874800    289.76076    -1456.751    466.38412    317.30787    1139.0606    36812.755 
  874900    298.19448   -1457.0597    487.91618    376.59221    1071.9341    36812.755 
  875000     305.7249   -1424.4378     486.2588    441.54108    398.19193    36812.755 
  875100    298.49709   -1430.9933    514.62727    430.73533    106.87445    36812.755 
  875200    300.54683   -1443.1831    485.60634    398.77494    240.30373    36812.755 
  875300    296.85512   -1454.9924    495.85679    380.55567    25.059023    36812.755 
  875400    303.85063    -1470.543     509.6534    410.37201   -244.59885    36812.755 
  875500    291.58132   -1497.7492    497.71111    315.85273   -335.97482    36812.755 
  875600     306.0744   -1539.6791    467.86481    309.48303    518.51203    36812.755 
  875700    303.26658   -1533.2974    472.97333    308.30178    69.149439    36812.755 
  875800    304.38097   -1481.0764    501.08163     393.6603   -11.508669    36812.755 
  875900    293.29105   -1486.2228     476.4216    313.80554   -282.39278    36812.755 
  876000    300.51132   -1481.2415    495.24394    370.19398   -130.39582    36812.755 
  876100    290.36582   -1475.7564    504.17288    338.82186   -125.00968    36812.755 
  876200    290.62514   -1488.8642     479.7723    302.48382    25.909655    36812.755 
  876300     291.7904   -1490.7385    504.22524    330.32123   -413.55642    36812.755 
  876400    289.12648   -1459.5043    496.57184    341.87981   -816.94189    36812.755 
  876500    301.02237   -1507.2005     480.6137    331.91099   -604.42842    36812.755 
  876600    293.19612   -1510.1644    494.15823    307.17221   -411.44689    36812.755 
  876700      300.237   -1549.5474    470.34645    275.75254   -147.69165    36812.755 
  876800    302.33171   -1505.9642    495.67196    354.11455   -59.406249    36812.755 
  876900     303.5902   -1483.8661    490.56945    376.78968    255.16387    36812.755 
  877000    296.93032   -1513.9531    477.08075    303.15827    533.20797    36812.755 
  877100    301.48989   -1510.3774    481.42689    331.65726   -353.91886    36812.755 
  877200    299.69761   -1489.9742    478.35461    340.89964    280.40135    36812.755 
  877300    298.93523    -1461.508    486.34469    373.91542    -470.4162    36812.755 
  877400     300.9878   -1472.0415    482.19663    368.49692   -222.18222    36812.755 
  877500    291.49305   -1522.5664    482.00497     274.9311   -257.20232    36812.755 
  877600    298.64639   -1440.5064    499.19361    406.46239   -722.10037    36812.755 
  877700    289.63053   -1428.1214    465.83348    344.79916   -576.99851    36812.755 
  877800    298.06892   -1446.5407     504.7915    403.41984   -1057.0136    36812.755 
  877900    307.34624   -1459.6352    501.93381    429.33578   -263.95615    36812.755 
  878000    294.13095   -1450.5039    511.29063    388.18394   -538.08654    36812.755 
  878100    298.07876   -1490.0173    472.54142    327.73759   -315.70351    36812.755 
  878200    308.82991   -1457.6875    474.13012    410.17545   -285.57429    36812.755 
  878300    301.56189   -1544.6291    515.48916    331.79275   -226.04506    36812.755 
  878400    301.50392   -1493.4164    482.06378    349.31839    262.54668    36812.755 
  878500    307.15622   -1541.4643    479.39317    324.10839    493.12671    36812.755 
  878600    296.36541   -1546.8857    484.44141    275.03689     490.0181    36812.755 
  878700    309.52115   -1519.6823    481.09612    358.26621    688.87041    36812.755 
  878800    311.12419   -1538.5288    469.70029    335.25831    -42.95568    36812.755 
  878900    300.70975   -1509.4778    499.82679    347.43595    101.24662    36812.755 
  879000     294.9321   -1531.5097    492.94316    292.44619    518.30112    36812.755 
  879100     300.2435   -1497.3785    497.67066    355.27498    34.338331    36812.755 
  879200    306.62335   -1485.5634    504.42245    402.63379   -59.873492    36812.755 
  879300    283.12937   -1491.8812    489.62113    275.48763   -911.63428    36812.755 
  879400    304.85106   -1485.8265    463.90042    353.85041   -578.24423    36812.755 
  879500    296.87066   -1449.7477    478.96554    368.97927   -443.64056    36812.755 
  879600    300.98168   -1479.7946    484.94734    363.46696     -275.399    36812.755 
  879700     306.3305   -1465.3016    476.10094    393.25243   -224.68744    36812.755 
  879800    301.57909   -1473.0373    497.31314    385.28616   -441.42434    36812.755 
  879900    297.83373   -1492.1274     493.3121    345.29232    119.74668    36812.755 
  880000    304.89713   -1488.0929    496.69916    384.59064   -657.01894    36812.755 
  880100    313.02929   -1511.5653     469.9806    371.09973   -341.91753    36812.755 
  880200     297.2409   -1487.4286     455.2439    309.24757    -278.4527    36812.755 
  880300    292.79902   -1474.5474    477.50497    324.34391   -799.14168    36812.755 
  880400    302.00113   -1512.5351    481.71419    332.09395   -736.27942    36812.755 
  880500    305.22386   -1465.7926    480.58669    392.25303   -655.07627    36812.755 
  880600    302.79505    -1474.391    488.10012    380.20694   -596.18152    36812.755 
  880700    299.61563   -1498.0114    475.23805    329.37589   -163.18039    36812.755 
  880800    286.67717   -1457.6116    471.66823    307.81535    746.79871    36812.755 
  880900    296.00032   -1512.2408    498.96114     322.5539    230.66532    36812.755 
  881000    305.61572   -1548.8622    487.83775    318.20294    562.04226    36812.755 
  881100    308.04078   -1552.6838    470.50993    307.99763    361.39222    36812.755 
  881200    297.24147   -1515.7388    487.08404    312.78002   -99.820018    36812.755 
  881300    284.78468   -1538.2876    479.74573    226.67614   -208.90483    36812.755 
  881400     306.0566   -1519.7291    481.01532    342.50332    253.26047    36812.755 
  881500    295.62529   -1520.4703    497.06931     310.7401    49.409942    36812.755 
  881600    306.24941   -1465.9668    506.36293    422.48332    1.5945347    36812.755 
  881700    299.20577   -1530.8124    463.30604    282.79324    272.42812    36812.755 
  881800    298.29349   -1487.2985    482.12594    341.00995   -166.53939    36812.755 
  881900    282.03995   -1484.6981    522.83985    310.97291    120.78197    36812.755 
  882000    301.44107    -1505.956    492.83374    347.26518    1089.2219    36812.755 
  882100    313.45169   -1497.6657    469.96529    386.89026    690.40422    36812.755 
  882200    289.81083   -1497.9159    500.77002    310.75485    514.84416    36812.755 
  882300    300.77824   -1413.7952    492.83962    436.44047    868.29855    36812.755 
  882400    301.49658   -1483.6626    497.05942     374.0348   -134.72649    36812.755 
  882500    305.44237   -1502.0199    495.10056    371.52575   -17.021345    36812.755 
  882600    294.97667   -1505.4751    483.58271    309.32155   -252.71295    36812.755 
  882700    302.10892   -1501.9901    478.15809    339.56935    513.27486    36812.755 
  882800    295.87008   -1508.7241    483.76361    310.28528   -783.62712    36812.755 
  882900    300.89242   -1479.5617    487.28352     365.6332    131.89166    36812.755 
  883000    300.29344   -1519.0176    482.51275    318.70337   -68.826637    36812.755 
  883100    295.55023    -1507.901    478.46414    304.36544     303.9409    36812.755 
  883200    295.37988    -1506.548    485.64842    312.13398    88.737631    36812.755 
  883300    287.15409   -1493.9294    496.41474    298.39632    197.81461    36812.755 
  883400    298.00932   -1497.7503    465.25977    312.40958    -282.9235    36812.755 
  883500    302.13839   -1531.7058     483.0825    314.91103   -695.31856    36812.755 
  883600    290.69357    -1511.768    484.50997    284.62649   -817.92524    36812.755 
  883700    303.60298   -1519.2739    489.21534    340.08548   -126.62827    36812.755 
  883800    289.13393   -1531.6277    493.89537    267.11362   -223.18827    36812.755 
  883900    304.24663   -1499.3269    464.59976    338.32162    65.604533    36812.755 
  884000    296.22253   -1478.9267     499.2264    357.13608    -779.6595    36812.755 
  884100    296.45411    -1467.042    503.70392     374.5434   -149.80279    36812.755 
  884200    301.10303   -1490.0055    478.10403    346.96032   -76.309975    36812.755 
  884300    289.39922   -1428.3917     513.9684    391.61988   -520.79165    36812.755 
  884400    290.17973   -1423.1497     493.4371    379.85298    -478.4449    36812.755 
  884500     294.8601   -1429.2276    487.56077    389.02099    -179.7553    36812.755 
  884600    292.63538   -1434.7872    516.59723    402.45778   -167.63725    36812.755 
  884700    310.95932   -1444.7276    502.62763    461.24278   -242.93254    36812.755 
  884800    294.98194   -1485.4285    503.59449    349.40366   -479.99318    36812.755 
  884900    296.06035   -1482.5041     496.6095    350.20986   -151.75825    36812.755 
  885000    298.94096   -1468.5176    473.50684    354.09382    36.969952    36812.755 
  885100     291.6776   -1479.6856     482.2689    318.90866   -230.09215    36812.755 
  885200      296.055   -1447.1061    474.10977    363.08405    271.66386    36812.755 
  885300    301.63318   -1429.8291    482.64605    414.07133   -225.10835    36812.755 
  885400    299.49969   -1429.9019    513.66853    435.39271   -311.17246    36812.755 
  885500    308.21985   -1406.1678    490.37701    475.18886   -146.51918    36812.755 
  885600    302.44658    -1431.585    505.00106    438.34125    132.20746    36812.755 
  885700    307.57722   -1388.5246    487.99112    487.54611   -355.00896    36812.755 
  885800    311.91029   -1407.7168     493.5587    493.47628   -490.19681    36812.755 
  885900    296.55334   -1422.3313    506.13871     422.1367   -542.06898    36812.755 
  886000     291.7453   -1454.2841    473.11682    335.46363      332.056    36812.755 
  886100    301.73096   -1453.7667    510.04463    417.97359    382.94655    36812.755 
  886200    302.06723    -1456.347    505.73026    412.59644    37.143892    36812.755 
  886300    296.52135   -1429.8629    477.26755    385.58962   -259.05496    36812.755 
  886400     293.0273   -1495.9648    490.91568     317.3674   -580.65972    36812.755 
  886500     303.3648   -1446.2549    473.93225    396.74639   -9.2658198    36812.755 
  886600    297.77737   -1475.4239    478.39839    346.82777   -60.213235    36812.755 
  886700    301.23698    -1429.656     502.0018    431.81219    110.07691    36812.755 
  886800    297.16521     -1445.89    477.16208    372.36276    362.90173    36812.755 
  886900    308.76872   -1471.1435    459.81385    382.12699    125.49494    36812.755 
  887000    299.09858   -1438.2522    497.13929    408.70295     220.5414    36812.755 
  887100    296.29778   -1464.1857    487.30615    360.29645    557.04767    36812.755 
  887200      304.293   -1443.0041    504.04957    434.30344    147.46334    36812.755 
  887300    297.29632   -1507.4899    489.89245    324.08492    374.53028    36812.755 
  887400    308.04049   -1446.7875    481.39472    424.77745   -35.476494    36812.755 
  887500    307.51924   -1506.9993    481.32437    362.14294      233.474    36812.755 
  887600    305.17846   -1483.2529    489.37165     383.3728   -389.98136    36812.755 
  887700    301.74333   -1467.7041    495.28618    389.33352   -369.67971    36812.755 
  887800    300.45981   -1483.9293    472.50499    344.53475   -155.69003    36812.755 
  887900    299.19148   -1480.1996    496.27256    366.30813   -64.219178    36812.755 
  888000    307.04948   -1504.0354    510.33427    391.99671    361.10805    36812.755 
  888100    298.27741   -1516.2275    470.12338    300.00589    210.21425    36812.755 
  888200    295.15271   -1523.6048    512.97805    321.38161    330.60513    36812.755 
  888300    306.92681   -1540.2094    473.51237    318.44726   -114.21015    36812.755 
  888400    305.08686   -1527.2222    466.97645    316.59493   -65.710408    36812.755 
  888500    305.77446   -1523.8357    477.76649    333.87457    82.494415    36812.755 
  888600     310.4973   -1497.8922    486.15915    389.52461    176.42454    36812.755 
  888700    306.70504   -1498.7462    478.33072    363.72789    294.43331    36812.755 
  888800    292.53917    -1506.275    473.75604     287.6946    309.01164    36812.755 
  888900    298.78911   -1485.4067    536.83943    399.85202    635.30988    36812.755 
  889000    296.57513   -1491.1301    451.09858    298.39609    458.19066    36812.755 
  889100    303.95095   -1445.2738    516.70087    443.14144   -29.318082    36812.755 
  889200    298.57285   -1465.8709    489.09199    370.66435   -159.90747    36812.755 
  889300    309.17331    -1487.842    491.58293    399.02348   -384.00598    36812.755 
  889400    292.92575    -1495.192    498.12337    324.88956   -132.32558    36812.755 
  889500    307.71633   -1496.2478    516.49572    408.95521   -205.12381    36812.755 
  889600    304.70368   -1469.9963    508.42123    413.53638   -237.88039    36812.755 
  889700    292.18265   -1465.1451    498.73754    352.19705   -103.65347    36812.755 
  889800    301.74167   -1497.0455    506.99013    371.68859    348.23945    36812.755 
  889900    300.69443   -1531.3389    492.96686    318.64577    268.08331    36812.755 
  890000    303.69486   -1556.0843    498.29098    312.76535   -190.42209    36812.755 
  890100    304.29813   -1520.0245    509.11455    362.37115   -785.42909    36812.755 
  890200    301.54179   -1552.1431    490.59802    299.29685   -1180.4716    36812.755 
  890300    300.48258   -1547.0834    501.90166    310.88007   -597.90934    36812.755 
  890400    297.77113   -1511.9152    506.23703    338.14696    132.94113    36812.755 
  890500    298.24998    -1537.114    511.73252    320.60469    7.7584425    36812.755 
  890600    294.30304   -1538.3039    481.27067    271.14062    200.77464    36812.755 
  890700    294.58295   -1467.4648    475.61601    337.58829    201.31031    36812.755 
  890800    303.15141   -1503.0155    506.61945    371.70998     84.64875    36812.755 
  890900    299.89232   -1511.8697    522.63857     364.1668   -331.86235    36812.755 
  891000    310.03282   -1493.6241    519.57685    425.11423   -143.17775    36812.755 
  891100    307.57146   -1562.4014    489.05519    314.70732     329.8033    36812.755 
  891200    301.94527   -1548.6395    504.55261     318.5759   -257.18365    36812.755 
  891300    299.07732   -1543.5923    476.64492    282.77255   -695.87988    36812.755 
  891400     307.5197   -1545.8819    514.80563    356.74368   -152.95411    36812.755 
  891500    293.07487   -1561.5255    499.78387    260.88953   -682.84539    36812.755 
  891600     312.4434   -1578.5816    494.16376    325.62249   -1042.7389    36812.755 
  891700    305.56157   -1516.1005    481.55099    344.43348   -1099.3824    36812.755 
  891800    297.12371   -1561.8323    498.83865    277.90976   -969.13366    36812.755 
  891900      298.057   -1554.6779    477.62579    268.06318    -1174.576    36812.755 
  892000    301.54868   -1525.8396    508.99623    344.02971   -607.75437    36812.755 
  892100    309.86236   -1517.1669    498.75933    379.98468   -354.15044    36812.755 
  892200    296.73498   -1533.0951    515.52187     321.5758    104.86332    36812.755 
  892300    285.76174   -1525.9974    510.60758    274.23753    149.50334    36812.755 
  892400    299.03512   -1558.4621    514.72715    305.79454     239.1692    36812.755 
  892500    289.72389   -1574.6968    493.97784    226.78944    -158.6615    36812.755 
  892600    310.78724   -1593.8231    466.60695    275.34996   -54.912445    36812.755 
  892700    304.87868   -1580.3864    497.84692    293.36168   -56.597122    36812.755 
  892800    299.23245   -1580.5793    478.98325    248.82397    308.42727    36812.755 
  892900    304.90303   -1558.4322    497.12988    314.70871    319.79775    36812.755 
  893000    304.95962    -1488.568    524.57552    412.27397   -252.73453    36812.755 
  893100    295.34868   -1526.4797     501.9164    308.32941   -62.103896    36812.755 
  893200    289.87521   -1549.8347    513.30431    271.66089    392.44505    36812.755 
  893300    291.86748   -1545.7508    513.11869    284.55018    448.03709    36812.755 
  893400    297.67133   -1543.9136    498.86388    298.32505     212.2325    36812.755 
  893500    290.77104   -1549.8722    498.80159    261.16355    282.07908    36812.755 
  893600    301.48005   -1543.4797      510.374    327.45762   -41.280206    36812.755 
  893700    292.33162   -1495.5755    528.43568    352.13714   -354.60543    36812.755 
  893800    300.68982   -1547.1266    509.08418    318.95464   -268.88674    36812.755 
  893900    294.68617   -1541.4529     512.9791    301.42915    35.474687    36812.755 
  894000    305.21985   -1543.1413     497.0325    331.33205   -274.37307    36812.755 
  894100    295.85879   -1562.3999    451.47243    224.26736   -523.28227    36812.755 
  894200    292.77365   -1559.7175    534.75962    296.31389    543.64631    36812.755 
  894300    302.32127   -1581.3733    467.64153    250.62795    226.09401    36812.755 
  894400      306.753   -1579.6911    507.11363     311.7824    -19.99072    36812.755 
  894500    296.82535   -1549.3289    500.45568    290.68366    305.86942    36812.755 
  894600    292.96662   -1587.8536    497.34917    231.63825    285.17048    36812.755 
  894700    302.09119   -1563.9878    505.38637     304.7199    526.59573    36812.755 
  894800    309.76447   -1567.5887    497.37274    327.73455    223.83256    36812.755 
  894900    305.88436    -1593.879    474.15142    260.71216   -466.53722    36812.755 
  895000    307.42483   -1612.1437    471.77501    247.02311    332.36563    36812.755 
  895100    303.29391   -1600.6763    509.11283    277.18568   -44.748016    36812.755 
  895200    302.68026   -1541.3776    458.53016    283.13239    80.887498    36812.755 
  895300    309.19301   -1533.3859    496.47124     358.4568   -427.14222    36812.755 
  895400     301.4729   -1533.7045      527.926    354.75251   -104.23899    36812.755 
  895500    301.20316   -1587.7826    475.63874    247.16989   -88.961799    36812.755 
  895600    301.08284   -1550.4785    496.23022    304.52242   -372.74398    36812.755 
  895700    298.49698   -1536.7886    522.81035    333.12264   -398.77113    36812.755 
  895800    297.49758   -1531.7302    479.38903    290.24948   -227.69047    36812.755 
  895900    308.57964    -1552.217    498.56461    338.95097   -90.488382    36812.755 
  896000    298.44976   -1565.7193    479.46919    260.63764   -299.57384    36812.755 
  896100    292.12886   -1546.9118    506.58687    278.03703   -202.61025    36812.755 
  896200    305.33475   -1552.9611    501.79627    326.79451    38.690703    36812.755 
  896300    317.86034   -1560.3711    467.02735    341.14293   -353.25727    36812.755 
  896400    298.34095   -1569.6034    492.38156    269.17493   -248.15007    36812.755 
  896500    302.48917   -1514.1536    479.75671     330.7205   -715.18729    36812.755 
  896600    294.82263   -1526.6682    500.77286    304.62334   -753.28989    36812.755 
  896700    292.89806   -1504.8108    515.03956    332.06199    -380.3979    36812.755 
  896800    315.50951    -1508.399    501.51026    416.98876    126.29064    36812.755 
  896900    302.04098   -1483.3725    518.34908    398.07138    341.35695    36812.755 
  897000    301.89848   -1503.2779    521.95846     381.1322    324.56162    36812.755 
  897100    298.81857   -1528.4974    495.82639    315.88117    338.99451    36812.755 
  897200    300.34171   -1543.4877    496.58064    308.51903    48.586698    36812.755 
  897300    295.97914   -1542.7968    508.25938    301.20055   -389.20699    36812.755 
  897400    297.73709   -1550.3678    494.29104     287.5948    293.28306    36812.755 
  897500    304.92776   -1567.1844    483.77936    292.71758    321.65813    36812.755 
  897600    308.36443   -1552.8426    489.97261    328.76213    521.74979    36812.755 
  897700    291.59947   -1499.9148    508.08689    324.14486    125.48238    36812.755 
  897800    297.04314   -1527.6205    478.74107    291.66039    47.091148    36812.755 
  897900    309.05836   -1535.2797    503.98633    363.47051    752.47802    36812.755 
  898000    299.56605   -1555.2947    500.93173    297.56252   -5.0241886    36812.755 
  898100    296.34177   -1534.4396    481.14579    284.08069    493.44954    36812.755 
  898200    297.74661   -1511.6249    496.91376    329.00333    496.88381    36812.755 
  898300    293.40103   -1482.7218    527.19991    368.58123   -218.95415    36812.755 
  898400    296.04967   -1507.3979    523.20755    351.86592    65.185546    36812.755 
  898500     300.7876   -1463.3131    515.69372    409.81896    450.95798    36812.755 
  898600     309.8577   -1582.7105    479.13426    294.79495    657.54479    36812.755 
  898700    300.85285   -1565.0825    502.74198    295.39225    610.87249    36812.755 
  898800    301.01756   -1532.1648    520.19607    346.50744    1035.6595    36812.755 
  898900    289.89009   -1548.1203    504.08559    264.22373    967.42064    36812.755 
  899000    298.50918   -1558.3217    499.60364    288.43786    837.66259    36812.755 
  899100    309.25377   -1512.6904    526.02205    408.97733    362.07985    36812.755 
  899200     301.0883   -1569.4989    493.04717    282.34363    36.951729    36812.755 
  899300    310.22743   -1523.2574    491.58195    368.36435    176.18138    36812.755 
  899400    293.72656   -1546.5825    505.68878    284.67855   -281.45197    36812.755 
  899500    305.88778   -1515.3808    504.04342    369.11772    17.772445    36812.755 
  899600    306.65346   -1503.9393    538.93742    418.90877    341.09258    36812.755 
  899700    304.28566   -1540.0192    491.61947    324.82509    316.74463    36812.755 
  899800    301.88344   -1542.0848    492.93321    313.23224    284.82874    36812.755 
  899900    306.21136   -1554.3666    515.92024    343.46912    541.75445    36812.755 
  900000    301.77864   -1560.8056    485.86344     286.9687    284.49841    36812.755 
  900100    306.01505   -1541.6181    525.76703     365.1785    266.45072    36812.755 
  900200    299.88213   -1538.4621    483.16698    298.05686    256.32151    36812.755 
  900300    286.32558   -1510.2767    503.46077    285.35602   -56.098434    36812.755 
  900400    306.51473   -1558.3467    485.68058    310.61843   -300.18399    36812.755 
  900500    294.05622   -1528.7141    467.90267    266.24849    810.16187    36812.755 
  900600    300.77995   -1544.2829    498.94595    312.06688    564.15037    36812.755 
  900700    298.01279   -1485.7202    522.90504    382.10056    192.81783    36812.755 
  900800    313.00548   -1529.9102    482.44159    365.10837    101.32709    36812.755 
  900900    295.40422   -1491.7158    506.86525    348.29289    401.44177    36812.755 
  901000    294.48479    -1540.717    518.13184    306.40894    268.30336    36812.755 
  901100     301.3264      -1540.9    501.80156    320.77149    198.57304    36812.755 
  901200     295.4575   -1546.7617     495.1371    281.75931   -233.10409    36812.755 
  901300    306.27461   -1592.3589    475.28987    265.13186   -147.40719    36812.755 
  901400    301.43258   -1552.8727     509.2174    316.69381   -160.51365    36812.755 
  901500    291.70876   -1521.7309    511.48663    306.22173    367.15468    36812.755 
  901600    297.41563   -1555.4153    521.63383    308.43936    68.306371    36812.755 
  901700    296.24913   -1531.6685    515.64217     320.9301    76.971064    36812.755 
  901800    299.06487   -1494.6603    496.32135     351.3248   -24.028065    36812.755 
  901900    301.93767   -1517.4191    496.45315    341.66253    151.20305    36812.755 
  902000    304.29071   -1533.5717    482.47471    322.15073    27.442643    36812.755 
  902100    291.94739   -1479.6521     538.6665    376.55732   -19.912601    36812.755 
  902200    295.38356    -1497.997     492.4046    327.45776     -125.403    36812.755 
  902300    309.98279   -1506.6551    499.01235    391.29293   -99.366926    36812.755 
  902400    305.97699   -1472.0596    491.82351     400.6217   -785.93353    36812.755 
  902500    297.48594   -1446.4508    520.77679    416.86407   -331.90915    36812.755 
  902600    300.30682    -1478.322    520.30133    397.24793    66.305697    36812.755 
  902700    309.35719   -1492.5725    498.32486    401.86479    421.12767    36812.755 
  902800    303.23099   -1476.3475    499.92978    392.04748    439.48826    36812.755 
  902900    294.52103   -1432.4878    540.68852    437.35838    583.33482    36812.755 
  903000    305.65978   -1480.3711    500.81194    399.86705    360.33905    36812.755 
  903100    298.83509   -1476.6207    512.62881    384.63486    278.94858    36812.755 
  903200    300.63121   -1498.0967    491.75354    350.38939    545.40302    36812.755 
  903300    291.20779   -1515.2072    490.80036    289.79828    23.074632    36812.755 
  903400    296.44855   -1525.3443    522.33497    334.84709    310.72888    36812.755 
  903500    301.41757    -1480.543    504.51753    384.25593     281.4798    36812.755 
  903600    311.61401   -1525.5788    498.79268    379.51117    617.43354    36812.755 
  903700    296.34817   -1547.8093    500.84091      290.435    307.46901    36812.755 
  903800     302.2415   -1510.2444    494.14751    347.90276    201.40145    36812.755 
  903900    293.27665   -1514.4953    491.72283    300.76934    474.70688    36812.755 
  904000    314.25801   -1494.1462    507.38164    431.46505    360.03034    36812.755 
  904100    306.29752   -1513.7244    505.97297     374.5529   -68.432147    36812.755 
  904200    290.54192   -1512.9338    478.81822    277.08448    18.457517    36812.755 
  904300    297.53377   -1470.8541    529.82761    401.72751    113.20413    36812.755 
  904400    293.31764    -1511.371    515.56372    327.91953    92.893051    36812.755 
  904500    298.98139   -1515.6317    487.52286    321.17818   -674.05581    36812.755 
  904600    301.39479   -1468.1213    509.69916    401.75643   -1076.4741    36812.755 
  904700    305.10909   -1518.1394    478.15585    336.95742   -453.78394    36812.755 
  904800    309.69034   -1501.4382    470.51306    366.69076   -317.32817    36812.755 
  904900    305.01538   -1494.0621     477.7756    360.23163   -310.34774    36812.755 
  905000    297.87243   -1490.5929    481.54559    335.23497   -206.47348    36812.755 
  905100    296.23569   -1516.6346    531.03667    351.29783    52.447137    36812.755 
  905200    297.53209   -1485.0927    508.84324    366.49691   -503.86191    36812.755 
  905300    291.02762   -1484.1403    499.12288    328.37464   -549.48169    36812.755 
  905400    294.32882   -1468.5883    485.48016    345.18207   -963.83055    36812.755 
  905500    298.13482   -1475.3399    492.11437    362.24095   -587.94002    36812.755 
  905600     293.0208   -1482.2196    487.80267    327.97023   -675.06765    36812.755 
  905700    299.36925   -1478.8579    503.03398    375.21349   -700.10039    36812.755 
  905800    292.78579   -1468.3629    501.40835    354.37203    -208.9263    36812.755 
  905900    300.07861   -1484.2377    494.30937    364.31037    37.157962    36812.755 
  906000    294.93053   -1453.0624    508.53051    386.47379   -470.82571    36812.755 
  906100    304.93966   -1474.0387    502.09677    404.23446   -539.53408    36812.755 
  906200    307.54072    -1480.622    510.72268    418.01546   -99.474132    36812.755 
  906300    306.89741   -1525.0878    516.42138    376.34517   -689.64716    36812.755 
  906400    299.87144   -1515.1985    483.42127    321.52655   -672.96371    36812.755 
  906500    295.43162   -1506.5469    535.64926    362.36944   -223.86728    36812.755 
  906600    291.72281   -1476.4344    513.75035    353.84538   -292.20317    36812.755 
  906700    296.66867   -1483.2675    499.25916    354.84143    -384.9419    36812.755 
  906800     298.9678   -1507.4238    522.16519    363.96711    11.142745    36812.755 
  906900    297.11913   -1504.1989    516.85388    353.53764   -370.73495    36812.755 
  907000    299.34324   -1516.6972    498.98903    333.21183   -112.10004    36812.755 
  907100    301.03678   -1523.5382    512.29898    347.32369     132.8182    36812.755 
  907200    301.98386   -1531.0081    487.46767    319.29653    558.45059    36812.755 
  907300    296.78497   -1511.5318    505.91281    333.75571   0.50144245    36812.755 
  907400    306.76177    -1525.721    493.49627    352.17468   -48.111501    36812.755 
  907500    303.07006   -1499.2074    517.09248    385.62401   -323.23543    36812.755 
  907600    301.96786   -1507.5651    506.28357    361.48327    -729.1238    36812.755 
  907700    303.36034   -1490.1308    472.87914    351.79727   -613.21437    36812.755 
  907800    297.70076   -1460.1994    515.33384    398.64206    -917.1622    36812.755 
  907900    306.95175    -1521.081    535.70093     399.8767     -586.171    36812.755 
  908000     303.3791   -1492.9097    513.52988    389.75382    414.01408    36812.755 
  908100    292.16263   -1516.1756    533.43073    335.76944   -162.83643    36812.755 
  908200    294.83118   -1469.3477    513.38237    374.59199    39.781154    36812.755 
  908300    303.03446   -1448.2574    534.73473    454.05557    321.06855    36812.755 
  908400     305.5483   -1474.5082    523.30166    427.71658   -138.08985    36812.755 
  908500    300.29041    -1501.937    507.32819    360.58576   -122.08959    36812.755 
  908600    298.51946     -1484.68    513.46193    375.98427    37.743138    36812.755 
  908700    304.64493   -1476.6841    507.90805    406.07021   -376.67989    36812.755 
  908800    308.10562   -1489.3406    512.44183    413.56537   -389.16052    36812.755 
  908900    299.81285   -1477.1357     509.4159    385.31948    126.08409    36812.755 
  909000    297.45311   -1538.4761    497.77987    301.69374    536.63985    36812.755 
  909100     303.3183   -1525.5236    538.99996    382.33554     74.46225    36812.755 
  909200    295.61535   -1547.0086    511.09742      298.185     205.3403    36812.755 
  909300    294.63522   -1503.0729    485.85325    312.45336    22.362882    36812.755 
  909400    303.48888   -1526.1884    513.37016    356.81077    18.304275    36812.755 
  909500    308.63715   -1464.0457    530.51567    459.33291   -18.871169    36812.755 
  909600    309.38693   -1469.0525    497.08043    424.27453   -323.67401    36812.755 
  909700    315.47551   -1474.5318    509.52623     458.7185   -521.27342    36812.755 
  909800    310.67229   -1478.3925    497.32402    420.97892   -20.881336    36812.755 
  909900     304.3009   -1551.1435    509.56939    331.71956   -70.631165    36812.755 
  910000    304.56329   -1516.1324    495.82227    354.16765   -11.583158    36812.755 
  910100    300.68002   -1534.1328    518.98475    341.80479    406.23872    36812.755 
  910200    296.67033   -1528.3287    484.50914    295.03776    139.50133    36812.755 
  910300    309.97419   -1515.5294    495.82911    379.19663    870.79029    36812.755 
  910400    309.59953   -1510.2527    529.74026    416.69368    969.35161    36812.755 
  910500    305.97836   -1513.2121    506.42196     374.0738    770.76158    36812.755 
  910600    300.82866   -1550.6595    497.58156    304.54566    516.67607    36812.755 
  910700    300.68648   -1531.3915     486.4056    311.99605    331.37351    36812.755 
  910800    297.37691   -1525.8507    510.70545    326.90081   -44.923382    36812.755 
  910900    298.87586   -1545.8319    511.47732    314.45613   -40.283517    36812.755 
  911000    293.23463   -1566.5541     470.5114    227.30951     66.88421    36812.755 
  911100    308.37242   -1541.6375    490.70487    340.73552    188.34403    36812.755 
  911200    303.98009   -1554.6782    477.65935    294.82696    671.94813    36812.755 
  911300    293.95549   -1503.3221    517.18057    340.46387    205.26225    36812.755 
  911400    302.96113   -1499.0772    518.86632     387.0365    75.468936    36812.755 
  911500    296.79829    -1534.297    471.38697    276.52474    587.43843    36812.755 
  911600    299.73835   -1527.8459    511.03404     335.8913    307.43781    36812.755 
  911700    299.82484   -1512.1125    497.51652    338.49739    395.71689    36812.755 
  911800    303.34586   -1493.2541     480.5457    356.27525    251.98356    36812.755 
  911900    295.18135   -1510.7946    503.75183    325.09485    133.00243    36812.755 
  912000    312.27441   -1510.5689    497.28212    395.99092    76.379699    36812.755 
  912100    292.89467    -1498.451    498.24344    321.61036   -95.499115    36812.755 
  912200    297.05288   -1503.9471    506.74086    343.37745   -177.23107    36812.755 
  912300    301.56974   -1482.9364    487.44077     365.4724   -209.68623    36812.755 
  912400    296.62862   -1502.1092      484.823    321.38284    151.05191    36812.755 
  912500    302.27838   -1531.6948    492.87389    325.34518    110.69406    36812.755 
  912600    309.82148   -1464.1037    533.22912    467.33314    4.6508652    36812.755 
  912700    295.76199   -1506.2402    505.78164    334.29944    400.05752    36812.755 
  912800    286.90875   -1548.8336    489.66118     235.6314    217.27094    36812.755 
  912900    305.98257    -1534.104    515.69984    362.47874    207.48273    36812.755 
  913000    308.44889   -1524.7512    483.48197     350.7441    40.672093    36812.755 
  913100     301.6146    -1517.667    508.51068    352.01425    96.692518    36812.755 
  913200    292.48324   -1540.2364    496.38246    276.10727   -30.521427    36812.755 
  913300    307.54268   -1494.5618    523.97003    417.33185   -78.984955    36812.755 
  913400    299.80147   -1488.4271    488.97963    353.54053    88.372356    36812.755 
  913500    296.84566   -1494.8724    520.64194    365.41812   -151.96101    36812.755 
  913600    300.61502   -1497.7459    498.09139    357.00499    427.06403    36812.755 
  913700    308.60853   -1557.3669    511.83426    347.20109   -99.550921    36812.755 
  913800    303.51349   -1549.0116     507.4081    328.13664    372.68552    36812.755 
  913900    294.06969    -1580.771    493.10952    239.45922    137.55082    36812.755 
  914000    303.65007   -1564.8957    506.11711    311.57784    136.03994    36812.755 
  914100    300.85473   -1562.5476    505.60526    300.79891   -377.98802    36812.755 
  914200    296.96976   -1574.0198    502.58808    268.77691   -239.70794    36812.755 
  914300     299.3826   -1512.5649    524.78082    363.31354   -469.27663    36812.755 
  914400     298.2567   -1518.3733    500.56948    328.21272   -453.08248    36812.755 
  914500    298.72757    -1536.925    491.20899    302.42548    -682.2663    36812.755 
  914600    300.64071   -1511.3718    496.64896    342.05256   -833.83206    36812.755 
  914700    297.05739   -1542.1655     491.3432    289.78183    167.34973    36812.755 
  914800    302.90796    -1567.941    532.78891    331.85528   -651.86123    36812.755 
  914900    298.67748   -1546.7463    484.90937    286.07853   -752.41327    36812.755 
  915000    300.86549   -1521.8382    495.20404    331.15569     107.0167    36812.755 
  915100    300.44131   -1502.4731    518.67644    372.07887    -283.6477    36812.755 
  915200    291.27922   -1521.8635    495.68284    288.34684   -818.55397    36812.755 
  915300    302.39991   -1519.4645    507.11715    352.36725   -488.58264    36812.755 
  915400    295.52676   -1512.0677    495.28603    316.91481   -977.78847    36812.755 
  915500    306.02443    -1493.607    509.00022    396.46504   -761.10986    36812.755 
  915600     299.5447   -1498.5786    471.04398    324.29451   -748.66167    36812.755 
  915700    291.69611   -1491.0032    485.92139    311.32713   -551.70703    36812.755 
  915800    295.74059   -1522.3766    494.40881    306.69362   -10.900963    36812.755 
  915900    291.09634   -1524.5394    488.54768    277.71044    156.44846    36812.755 
  916000     299.2203    -1544.546     492.5072    298.32636     199.9595    36812.755 
  916100    309.87829   -1534.9051    505.31974    368.87871    235.58296    36812.755 
  916200    289.32796   -1516.4531    509.97879    299.24731    187.38851    36812.755 
  916300    298.07134   -1570.1208    500.61562     275.6748   -174.07532    36812.755 
  916400    293.81794   -1546.2491    522.81842    302.55396   -119.84625    36812.755 
  916500    309.47984   -1542.1946    502.44028    356.91161   -73.872845    36812.755 
  916600    309.08419   -1534.7083    471.47518    331.64724   -368.35302    36812.755 
  916700     306.4552   -1547.9056    515.34813    350.45843   -487.11156    36812.755 
  916800    295.85815   -1517.1183    490.45537    308.52907   -255.03627    36812.755 
  916900     306.9139   -1499.0789    504.54561    390.55275    -448.8482    36812.755 
  917000    290.67608   -1490.2756    522.63232    344.16229   -484.61477    36812.755 
  917100    301.33041   -1483.2665    524.59058    401.21211   -764.93334    36812.755 
  917200    301.32814   -1499.7342    508.67569    368.81926    -188.9761    36812.755 
  917300    294.28988   -1546.9556    497.78459    278.94344   -127.01417    36812.755 
  917400    289.74658   -1509.8208    517.13161    314.92154    278.16105    36812.755 
  917500    298.79694    -1470.816    528.87679    406.51537   -431.25514    36812.755 
  917600    295.80809   -1513.7015    507.09443    328.35896   -599.58051    36812.755 
  917700    300.87434   -1516.1897    489.67061    331.31071    180.82464    36812.755 
  917800    295.68504   -1490.8863    518.27217    361.79663   -337.14367    36812.755 
  917900    311.59929   -1474.0134    518.85325    451.07077   -258.90341    36812.755 
  918000    296.59529    -1484.848    494.43083    348.10153    72.501449    36812.755 
  918100    295.50261   -1471.7847    535.95929    397.76201    487.66526    36812.755 
  918200    299.33844   -1461.0449    499.91057    389.76397    19.595507    36812.755 
  918300    295.72767   -1485.6531    512.75801    361.70807   -257.23064    36812.755 
  918400    295.81374   -1477.2309    500.41849    358.17918   -283.82836    36812.755 
  918500    300.06917   -1490.2238    506.97161    370.94392   -399.30755    36812.755 
  918600    312.59548   -1497.9914    511.02764     423.7629    227.56108    36812.755 
  918700    299.05841   -1504.1638    473.06225    318.53302    293.56196    36812.755 
  918800    291.65664    -1494.768    531.56716    353.02996    146.51638    36812.755 
  918900    307.72675   -1516.0789    481.34752    354.02295   -32.210455    36812.755 
  919000    299.83452   -1533.1791    474.52619    294.48422   -193.73714    36812.755 
  919100    300.30349   -1485.7488    506.92909    376.43384   -120.72625    36812.755 
  919200    293.31337   -1506.5661    484.21913    301.36054   -194.95903    36812.755 
  919300    303.07655   -1509.6064    530.38944     388.5513   -114.57564    36812.755 
  919400    298.26118   -1465.0973    485.27834    366.21782     444.1205    36812.755 
  919500    295.60127   -1485.5809    535.10348    383.55531      79.1916    36812.755 
  919600    290.78346   -1479.2679    494.83517    327.85745    26.284667    36812.755 
  919700      302.315   -1484.4199    510.96096    390.87251    279.12352    36812.755 
  919800    297.43869   -1510.2858    487.15806    319.19713    312.69199    36812.755 
  919900    298.05434    -1490.671     520.6279     375.0602    -162.8471    36812.755 
  920000    297.81101   -1473.7702    490.81925    361.05417    110.21374    36812.755 
  920100     296.4883   -1516.7347    512.90045    334.20158    6.1759113    36812.755 
  920200    303.08842   -1511.9063    486.40763    342.32312    614.48721    36812.755 
  920300    297.34916   -1458.5203     492.8069    376.20748   -51.607739    36812.755 
  920400    302.53287    -1547.057    505.91306    324.17076    653.51375    36812.755 
  920500    291.30004   -1519.3004    484.15699    279.47811    368.76653    36812.755 
  920600    295.27764   -1548.5809    508.37171    292.36297    293.43286    36812.755 
  920700     302.0227   -1534.3679    477.83112    306.47548    60.885203    36812.755 
  920800    299.82497     -1537.17    510.42891    326.35296    411.89219    36812.755 
  920900    293.95428   -1506.6669    479.00562    298.93863   -82.233512    36812.755 
  921000    303.40114   -1498.1246    505.04409    376.15264   -238.34922    36812.755 
  921100    300.53302    -1516.779    493.58954    333.09998   -56.704241    36812.755 
  921200    307.26583   -1567.0347    487.22118    306.86075    442.48214    36812.755 
  921300    309.91542   -1541.2371     496.0614    353.45603    15.904356    36812.755 
  921400    305.32091   -1541.4986     490.4616     326.8599    -89.83696    36812.755 
  921500    305.91633   -1542.7895    458.95134    296.74582    193.20449    36812.755 
  921600    300.26172   -1523.1192    500.01942    331.96526    382.13828    36812.755 
  921700    301.24681   -1496.9504    494.00948     356.5698    294.48069    36812.755 
  921800    304.65165   -1537.3982    476.31507    313.79349    716.79615    36812.755 
  921900    294.44385    -1547.261    478.82501    260.37331    720.51429    36812.755 
  922000    304.83371   -1574.2239    506.03435    307.50864    284.02986    36812.755 
  922100    299.04663    -1586.086    475.03551    238.53089    269.82078    36812.755 
  922200    310.81409   -1591.0491    479.41657    291.05478    321.05679    36812.755 
  922300    294.86309   -1547.8083    472.58632     255.4793    145.05655    36812.755 
  922400    310.89929   -1550.5747    478.16787    330.66501   -91.977916    36812.755 
  922500    305.04589   -1474.5155    500.44656    402.58677   -160.52621    36812.755 
  922600    295.51901   -1513.8516     493.6876    313.49745    118.33953    36812.755 
  922700    290.90284    -1513.931    487.38275    286.28063    47.549134    36812.755 
  922800    313.28825   -1503.2203    510.72299    421.35574    202.56121    36812.755 
  922900    301.05908   -1544.0476    494.96902     309.5849    466.04701    36812.755 
  923000    298.25815   -1528.9455    476.12155    293.19913    72.083875    36812.755 
  923100     291.9243   -1524.2933    496.86557    290.01099   -104.94611    36812.755 
  923200    288.55134    -1497.651    506.89352    311.45929    59.898498    36812.755 
  923300    296.84401   -1514.1356    481.11782    306.62331     210.7226    36812.755 
  923400    299.58623   -1492.7822    511.57499    370.80936    313.79879    36812.755 
  923500    298.65044   -1486.6941    476.63336    337.73272   -136.08629    36812.755 
  923600    294.04155   -1472.0753    520.09979     375.0183    9.1175517    36812.755 
  923700    299.40984   -1421.0865    501.72773     431.8618   -378.59096    36812.755 
  923800    312.54917   -1429.2721    494.43141    475.67697    399.94081    36812.755 
  923900    297.62722   -1443.8036    496.81128    396.18342   -551.08462    36812.755 
  924000    306.72344   -1471.8547    524.19927    436.57106   -357.87994    36812.755 
  924100    305.73877   -1450.6472    487.94324    417.07873    189.81499    36812.755 
  924200    303.98742   -1439.1078    478.46299    411.23416    402.85609    36812.755 
  924300     297.5317   -1495.5908    490.94607    338.09986    120.13217    36812.755 
  924400    303.55379   -1459.1256    481.87556    392.67188   -498.59921    36812.755 
  924500    305.32149   -1460.8694    492.24137    409.27149    436.51425    36812.755 
  924600    303.61935   -1460.4116    483.62463    393.43091   -339.96654    36812.755 
  924700    296.60832   -1457.1905    485.93869    367.32561   -702.24173    36812.755 
  924800    297.68661   -1487.5432    497.36451    353.26502   -221.80456    36812.755 
  924900    304.40919   -1558.0552    472.96392     288.6911   -366.78414    36812.755 
  925000    294.46681   -1504.1845    487.30624    312.03472   -206.29526    36812.755 
  925100    297.94998    -1464.261    499.15885    379.53013   -257.23294    36812.755 
  925200    303.30744   -1483.2689    491.68618     377.2275   -267.58975    36812.755 
  925300     304.3166   -1480.6927    492.25066    384.92242    207.58091    36812.755 
  925400    307.90679   -1481.4233    509.31937    417.46294    371.18503    36812.755 
  925500    296.69893   -1522.0099     508.7751    325.75162    93.186891    36812.755 
  925600    310.84844   -1478.1236    488.65646    413.37518    737.34197    36812.755 
  925700    300.73274   -1479.2412     478.2952    356.24475   -39.295604    36812.755 
  925800    296.88261   -1501.4159     476.2316      314.631   -280.58359    36812.755 
  925900    305.29927   -1487.8539    506.24592    396.19122    229.43657    36812.755 
  926000    298.41087    -1448.551    456.72218    354.88347   -755.12599    36812.755 
  926100    309.85341   -1461.6518    515.11679    451.81677   -661.49217    36812.755 
  926200    306.90928   -1454.7407    483.32869    413.65315   -69.287272    36812.755 
  926300    296.39883   -1490.7231    496.50854    343.41748   -854.01782    36812.755 
  926400    311.49157   -1508.4567    482.67122    379.95925   -858.51439    36812.755 
  926500    293.10478   -1484.6458    472.49076    310.61106   -729.37831    36812.755 
  926600    291.83586   -1469.3785    492.61739    340.27844   -416.22122    36812.755 
  926700    306.59874   -1462.4498     512.6971    433.91096    569.81147    36812.755 
  926800    305.50433   -1494.8836     473.7896    357.63067    275.57643    36812.755 
  926900     296.1906   -1482.4946    498.43215    352.62987    185.62731    36812.755 
  927000    300.40612   -1494.6698    497.30111    358.34806    302.42465    36812.755 
  927100    302.30326   -1490.9834    489.14299    362.43802    742.57802    36812.755 
  927200    298.34145      -1516.4    486.88513    316.88407    390.49663    36812.755 
  927300    300.05938   -1510.8799    485.54551    328.81749    162.78439    36812.755 
  927400    300.07505   -1524.2897    518.18083    348.11373    228.58016    36812.755 
  927500    298.52366   -1548.2892     508.5663    307.49841    376.36554    36812.755 
  927600     299.3678    -1572.071     507.4845    286.44437   -92.516548    36812.755 
  927700    297.04285   -1527.9568     481.6109    294.19256   -217.33541    36812.755 
  927800    304.64788   -1506.0436    509.79165    378.60761   -391.64048    36812.755 
  927900    309.34775   -1507.2367    481.01772    369.85081   -425.13646    36812.755 
  928000    293.32582   -1507.9585    492.39949     308.2047    630.04566    36812.755 
  928100    299.78636   -1535.2902    510.95662    328.58616   -108.88361    36812.755 
  928200    293.46326   -1536.3746    482.61335    270.62272    357.14979    36812.755 
  928300    288.69348   -1509.7519    513.43147    306.53779   -128.62186    36812.755 
  928400    293.25311    -1529.601    506.39518    300.22972    -384.2474    36812.755 
  928500    299.77692   -1484.9185    524.24071    392.19943    313.37341    36812.755 
  928600    295.08072   -1493.0079    504.11148    342.78701   -32.718836    36812.755 
  928700    289.99028   -1506.0214    501.87364     304.5628   -173.49661    36812.755 
  928800    300.83642   -1515.2773    490.29848    332.67984    435.76779    36812.755 
  928900    299.44422   -1522.2843    494.35088    323.44237    265.83518    36812.755 
  929000    301.09785   -1500.6189    499.97942    358.19901    106.12162    36812.755 
  929100    305.02281   -1517.0789    498.16806    357.64073   -511.58015    36812.755 
  929200    298.54558   -1525.1685    489.89622    312.04791    -109.7634    36812.755 
  929300    298.96544   -1530.6761    475.08115    293.62003   -213.87271    36812.755 
  929400    299.96524   -1525.9322    476.19118    303.98606   -307.38653    36812.755 
  929500     310.7818   -1493.8817     475.6236    384.28353   -402.95604    36812.755 
  929600    304.59812   -1509.1651    480.65448    346.12442   -130.98874    36812.755 
  929700    293.82117   -1536.4689    482.71169    272.24197   -30.200263    36812.755 
  929800    300.94753   -1551.8905    496.96371     303.2333    44.525491    36812.755 
  929900    293.46507   -1557.9457    467.09482    233.54123    449.74914    36812.755 
  930000    306.45588   -1541.5963    526.47595    367.89861     332.3889    36812.755 
  930100    305.81668   -1553.5963    479.31621    305.85415    333.91977    36812.755 
  930200    299.24832   -1546.2195    508.26443    312.53661   -220.31837    36812.755 
  930300     296.0382   -1547.8914    483.13293    271.24606   -371.59835    36812.755 
  930400    301.02173   -1521.6632    509.68695     346.5187   -436.64175    36812.755 
  930500    285.42742   -1522.6562    512.49237    277.95478   -268.60608    36812.755 
  930600    298.13901   -1455.9917    496.65664    386.15029   -149.21343    36812.755 
  930700    304.93074   -1533.0009    504.10247    347.23765   -392.84103    36812.755 
  930800    296.23931   -1528.6113    484.10354    292.40437    71.215517    36812.755 
  930900    309.52567   -1512.8934     467.7076    351.68693   -404.24672    36812.755 
  931000    296.77782   -1514.5319    497.71754    322.52801    43.413406    36812.755 
  931100    297.76947   -1536.6802    500.64286    307.78033    74.844652    36812.755 
  931200    297.67922    -1520.004    505.09836    328.50472    365.54005    36812.755 
  931300    299.03511   -1505.4629     501.3103    345.37682    459.43968    36812.755 
  931400    301.24259   -1517.3638    508.61953    350.74746    763.46061    36812.755 
  931500    306.46317   -1557.0855    464.44654    290.41285     366.1647    36812.755 
  931600     302.3701   -1508.5605    490.76242    346.78202   -232.13919    36812.755 
  931700    300.40919   -1511.1883    504.74876    349.29109   -164.42263    36812.755 
  931800    294.88576   -1508.2992    516.03488    338.53931    13.763717    36812.755 
  931900     305.6614   -1520.1892    471.67718    330.92152    268.45066    36812.755 
  932000    310.56219   -1492.2461    490.66412    399.96856    -177.4629    36812.755 
  932100    298.11744    -1546.972    479.92533    278.34131   -722.13285    36812.755 
  932200    285.93112   -1596.1845    486.67393    180.88129   -890.02005    36812.755 
  932300    296.76825   -1530.4808    488.66341    297.48182   -324.66913    36812.755 
  932400     309.2996    -1533.714    487.36426    349.50285   -743.51948    36812.755 
  932500     305.0817   -1541.4541    490.65643    326.01967   -312.81942    36812.755 
  932600    300.48601   -1586.7046    477.65935      247.032    506.35308    36812.755 
  932700    300.62621   -1557.1094    511.17747    310.77806    791.96507    36812.755 
  932800    294.20953   -1577.9422     485.9557    235.76537    539.83445    36812.755 
  932900    300.81439   -1526.6338    515.82934    346.75477    335.75149    36812.755 
  933000    309.95662   -1525.8963    479.00497    351.92627    349.95524    36812.755 
  933100    298.72471   -1508.6713    512.75375    352.21102    228.47582    36812.755 
  933200    298.14992   -1486.6094    490.47966    349.40486    423.27001    36812.755 
  933300    304.01357   -1496.4367    510.45721    386.01742    572.98449    36812.755 
  933400    308.03122   -1501.9905    509.38295    397.52084    125.84688    36812.755 
  933500    302.15762   -1485.5693    501.17565    379.22755    803.19467    36812.755 
  933600    306.97398   -1484.2789    491.31139    392.38967    1016.7509    36812.755 
  933700    304.00927   -1498.6598    505.16054    378.47833    777.31143    36812.755 
  933800    306.56954   -1493.1559    517.69106     408.0671    1025.4541    36812.755 
  933900    299.88396   -1473.1754    519.11317    399.29798    664.12205    36812.755 
  934000    303.64308   -1524.7952    497.49968    343.02942    275.91004    36812.755 
  934100    310.06031   -1507.0506    499.29793    391.53288    494.42329    36812.755 
  934200    292.82251   -1538.5087    484.87769    267.86129    565.04833    36812.755 
  934300    299.17653   -1535.8691    488.22984     302.5284   -189.54762    36812.755 
  934400     284.9103   -1528.0036    543.23783    301.01918    117.34518    36812.755 
  934500    299.54677   -1529.7556    502.24191    324.32486    165.39808    36812.755 
  934600     304.2716    -1513.869    494.64792    353.94034    503.48229    36812.755 
  934700    294.88817   -1542.1554     504.1982    292.85729   -36.012084    36812.755 
  934800    298.38824   -1509.4259    520.05415    357.23844    84.726224    36812.755 
  934900    301.45955   -1505.2561    502.34988     357.5646   -656.96112    36812.755 
  935000     291.1684   -1520.2837    477.25964    271.00337   -610.16335    36812.755 
  935100     296.6969   -1466.8965    500.86878    372.94945    83.485607    36812.755 
  935200    298.57953   -1491.3866    521.06178    377.14866   -285.67118    36812.755 
  935300    310.86985   -1504.3701    527.64344    426.21234    11.777183    36812.755 
  935400    306.97209   -1516.2801    516.97599     386.0445   -141.37159    36812.755 
  935500    302.89095   -1511.9936    510.93709    365.87409    234.88981    36812.755 
  935600    290.09211   -1486.4777    505.03072    327.72321   -165.51487    36812.755 
  935700    298.14875   -1498.2575    494.85731    342.12913   -761.84106    36812.755 
  935800    300.39489   -1523.2998    488.04075    320.40695   -160.21631    36812.755 
  935900    309.56166   -1546.0296    494.81094    345.81654    -712.2804    36812.755 
  936000    309.54028    -1537.534    503.36769    362.77237   -538.94488    36812.755 
  936100    295.38864    -1504.791    502.97246    331.25458   -895.82675    36812.755 
  936200    297.11475   -1526.9755    513.19688    327.08435   -1104.1788    36812.755 
  936300    291.15014   -1524.5562    479.33584    268.72468   -972.96739    36812.755 
  936400    296.77448   -1486.1838    504.65422    357.79779   -501.13115    36812.755 
  936500    307.21237   -1505.4949    515.43545    396.37356   -395.07132    36812.755 
  936600    301.66324   -1474.9929    512.07615    398.47329   -596.74322    36812.755 
  936700    300.22113    -1504.305    522.23157    372.80849    -1238.204    36812.755 
  936800    303.46551   -1491.8034    507.14919    384.86942   -1257.4888    36812.755 
  936900    308.13309   -1522.4748    481.09968    349.21299   -1136.5924    36812.755 
  937000    284.70875   -1516.2445    495.85436    264.48517   -588.27932    36812.755 
  937100    303.94743   -1503.0982    526.82133    395.42165   -767.03746    36812.755 
  937200    297.39162   -1479.4547    503.18206     365.8398     -539.828    36812.755 
  937300    300.69385   -1468.9457    525.34036     413.4099    -211.8154    36812.755 
  937400    302.11287   -1478.8612    493.39566    377.95364   -224.79021    36812.755 
  937500    294.95684   -1473.5012    529.12845    386.75168    4.6610283    36812.755 
  937600    309.74535   -1488.2132    519.47786    429.12882    479.40863    36812.755 
  937700    305.27502   -1498.7239    477.27672    356.24267    160.13224    36812.755 
  937800    305.57922   -1509.7744    498.58543    367.87365    9.0614884    36812.755 
  937900    292.40987   -1485.9429    499.13753    332.82469   -183.48383    36812.755 
  938000    308.05038   -1530.0186    512.80558    373.00188   -527.93201    36812.755 
  938100    289.84709   -1549.1194    512.56902    271.51395   -212.97342    36812.755 
  938200    306.52958   -1543.1396    490.51769    330.72963   -403.38486    36812.755 
  938300     303.2891   -1511.7453     489.1934    346.17557    421.81296    36812.755 
  938400    293.35573   -1509.7687    506.26145    320.39148    1006.4977    36812.755 
  938500     306.7225   -1510.2055    531.50461     405.5213    461.00466    36812.755 
  938600    296.22795   -1547.4129    492.65918    282.10717    309.51632    36812.755 
  938700    303.81551   -1549.1843     492.9615    314.88029    489.48317    36812.755 
  938800    305.93241   -1568.4716    512.40759    324.59253    483.94113    36812.755 
  938900    298.03614   -1561.0344     486.3891    270.37586    243.34944    36812.755 
  939000    308.60857   -1535.2135    509.75683    367.27727    469.93088    36812.755 
  939100    292.25693   -1557.3532    492.52599     254.1126      -141.21    36812.755 
  939200    294.76173    -1555.201    509.48858    284.53144   -265.15567    36812.755 
  939300     297.7742   -1502.2442    509.29642    350.89119    686.31202    36812.755 
  939400    301.37587   -1547.6131    483.81369    296.29373   -257.30712    36812.755 
  939500    303.42079   -1491.6507      503.207    380.87812   -497.21686    36812.755 
  939600    304.20319    -1471.582    516.19009    417.46083    373.96821    36812.755 
  939700    306.47883   -1508.4891    502.47672    377.11017    197.09688    36812.755 
  939800    297.25506   -1490.5661    520.40495      371.335    912.19505    36812.755 
  939900     298.8411   -1537.3631    511.12563    322.41644    662.57421    36812.755 
  940000    310.30496   -1473.5888    491.85708    418.65797    753.96892    36812.755 
  940100    296.68513   -1486.0789    494.00347     346.8487   -102.81846    36812.755 
  940200    305.48045   -1460.3037    513.69869     432.0119   -22.557859    36812.755 
  940300     294.4241   -1488.2364     495.4162    335.89993    113.20601    36812.755 
  940400    292.57128   -1436.4178    533.92753    417.86828   -366.41352    36812.755 
  940500      294.351   -1441.8341    524.71636    411.27257    -700.8869    36812.755 
  940600    294.62741   -1467.2268    509.64237    372.05324   -708.47484    36812.755 
  940700    299.10966   -1465.3775    528.66062    413.14901   -201.19744    36812.755 
  940800    294.62807   -1476.0455    502.24037    355.83557    169.91643    36812.755 
  940900    298.67717   -1457.0081    502.39651    393.30247   -471.80829    36812.755 
  941000     307.1651   -1488.2673    541.21322    439.16554   -28.304216    36812.755 
  941100    307.26948   -1468.8979    484.37677     402.1695   -328.92476    36812.755 
  941200    300.68288   -1466.1232    509.58075    400.42332    -275.7013    36812.755 
  941300    299.76564   -1471.6118    504.91748    386.13195    -181.4562    36812.755 
  941400    302.71897   -1459.7276    501.86103    408.28791   -103.25357    36812.755 
  941500    301.86591   -1442.2781    502.70845    422.73507    181.52142    36812.755 
  941600    299.20304   -1473.7968    503.30562    379.79608    659.57395    36812.755 
  941700    302.41489   -1461.7356    515.34149    418.38813    1193.4415    36812.755 
  941800    292.30607   -1485.4686      505.256    338.94898    870.45921    36812.755 
  941900    297.94833    -1466.989    512.58444    390.22029    411.50295    36812.755 
  942000    300.55242   -1469.4739    501.48543    388.38854    513.18063    36812.755 
  942100    301.92666   -1442.8774    507.49628    427.19774      37.4358    36812.755 
  942200    292.79673   -1457.1855    496.98991    361.18031   -110.76538    36812.755 
  942300    301.09974   -1507.8955    516.24982     367.2013   -460.32363    36812.755 
  942400    304.60619    -1496.765    506.57091    384.47732   -387.33661    36812.755 
  942500    296.53416   -1496.9294    506.56733    347.88067   -632.13805    36812.755 
  942600     302.9073   -1474.9167    501.98716    394.07492   -136.24384    36812.755 
  942700    291.61129   -1513.0816    506.40752    309.35206    157.15805    36812.755 
  942800    308.77241   -1465.1151    510.97407    439.33227   -276.06886    36812.755 
  942900    292.38066   -1455.6368    506.39685    370.25836    106.96162    36812.755 
  943000    287.38383   -1521.0368    471.65162    247.56264   -172.57513    36812.755 
  943100    311.28988   -1523.8626     511.3211    392.29303   -233.89655    36812.755 
  943200    300.45506   -1493.9276    472.60176    334.61172    280.78819    36812.755 
  943300    302.57661    -1527.542    492.22727    330.19728   -75.247735    36812.755 
  943400    299.82217   -1513.1634    479.07516     318.9932    286.67134    36812.755 
  943500    304.36973   -1493.7889    495.68183     375.4972     370.0098    36812.755 
  943600    298.54109   -1504.6373     516.7443    359.40698    396.16224    36812.755 
  943700    296.30873   -1531.7853    503.81139    309.25154   -161.33709    36812.755 
  943800    305.30653   -1529.6359    486.27569    334.47182    77.878874    36812.755 
  943900    301.17586   -1566.2121    475.68992    268.66836   -128.86402    36812.755 
  944000    303.09678   -1564.3771    487.92059    291.40297   -83.124843    36812.755 
  944100    299.83505   -1548.2049    464.56099    269.49562   -230.14438    36812.755 
  944200    303.32865   -1523.6321    501.11821    346.39203   -548.91973    36812.755 
  944300    292.72081   -1449.4459     487.1855     358.7729   -442.09989    36812.755 
  944400    303.97726    -1482.935    502.73498    391.63302   -20.210218    36812.755 
  944500    294.01871   -1493.2846    493.41521     327.0213   -21.930611    36812.755 
  944600    307.76327   -1483.7179    488.68696    393.88822   -84.895572    36812.755 
  944700    301.49198   -1476.4499    507.39914    391.56634    295.95058    36812.755 
  944800     299.1593   -1452.4847    501.48597     399.0912    150.45498    36812.755 
  944900    298.75708   -1512.3207    500.56832     336.5223   -67.797705    36812.755 
  945000    315.30469   -1495.3725    484.98595     412.5666    299.69633    36812.755 
  945100    308.54633   -1516.2377    484.07355    360.28887    94.819114    36812.755 
  945200    298.23976   -1523.8393    486.77212    308.87287    431.89381    36812.755 
  945300    292.85953   -1532.5796    508.15904    297.23883   -209.31934    36812.755 
  945400    301.03951   -1541.3982    503.90791    321.08486    374.42198    36812.755 
  945500    296.45643   -1513.1461    488.07295    312.81878    4.0441588    36812.755 
  945600    309.34223   -1498.3076    488.33469    386.07197    35.446012    36812.755 
  945700    295.73983   -1506.4052    504.66335    332.91619   -337.09262    36812.755 
  945800    291.12821   -1499.4574     518.0163    332.40491   -448.83058    36812.755 
  945900    291.86018   -1449.4977    498.40173     366.0534   -102.55682    36812.755 
  946000    298.61497   -1484.5214    535.02547    398.13738   -148.61958    36812.755 
  946100    305.37319   -1504.6484    506.98599    380.47045    425.73628    36812.755 
  946200    297.25615   -1464.4589    497.67378    374.71593     436.2065    36812.755 
  946300    308.65838   -1521.8909    522.05336    393.12125    310.87886    36812.755 
  946400    301.76263    -1566.228     482.7233    278.33394    574.16483    36812.755 
  946500    303.21036   -1555.2785    466.17855    279.27212    455.65831    36812.755 
  946600    298.05816   -1567.2606    470.46404    248.32391    14.015361    36812.755 
  946700    291.97192   -1574.8547    488.54524    231.34418   -92.704322    36812.755 
  946800    296.39092   -1509.6462    519.45284    347.40292    377.03614    36812.755 
  946900    304.03373   -1470.6906    515.96908    417.36641   -522.95874    36812.755 
  947000    295.35943   -1502.3086    460.39367    291.02637    1.4221675    36812.755 
  947100    293.38863   -1537.8038    494.89258    281.13593  -0.06770162    36812.755 
  947200    299.63024   -1543.5006     500.1691    308.88365    180.53398    36812.755 
  947300    294.51919   -1548.7578    495.83103    276.22249    538.02662    36812.755 
  947400    303.49858   -1514.6161    514.45665    369.51341    597.16886    36812.755 
  947500    297.75712   -1499.0164    484.47381    329.21938    345.09224    36812.755 
  947600    290.72907   -1526.4892    500.25455    285.81007    545.88274    36812.755 
  947700    307.58914   -1516.2694    491.88435    363.74828    815.09937    36812.755 
  947800    307.94479   -1501.9349    480.12589    367.92927    280.42495    36812.755 
  947900    293.04305   -1516.7597    473.91464    279.64249    196.86322    36812.755 
  948000     293.8058    -1480.243    505.44435    351.13121   -15.426909    36812.755 
  948100    305.27501   -1484.7498    514.39603    407.33596    599.29992    36812.755 
  948200    289.96533   -1472.2403    504.26198    340.61963    49.532355    36812.755 
  948300    309.38103   -1436.8026    491.59464    451.01204    209.46694    36812.755 
  948400    298.76155   -1456.8197    490.85489    382.33008   -125.71933    36812.755 
  948500    298.87988   -1450.3453    503.52667    402.01026     298.4295    36812.755 
  948600    301.16771   -1515.1166    490.62724    334.66432   -103.40887    36812.755 
  948700    293.20559   -1507.4617    488.73472    304.49409    56.170286    36812.755 
  948800    301.84214   -1472.9255    500.29748    389.56934    685.44104    36812.755 
  948900    306.13452   -1498.3425    494.49837    377.72451    179.13153    36812.755 
  949000    301.34844   -1515.3197    510.38654    355.03622    555.47887    36812.755 
  949100    301.42885   -1510.2281    476.50988    326.61406    145.72809    36812.755 
  949200     296.1507   -1498.9862    495.57722    333.10321   -434.73375    36812.755 
  949300    304.67185   -1501.1313    499.53103    373.36749    107.22372    36812.755 
  949400    291.90331   -1480.2316    478.74841    315.86079    139.85715    36812.755 
  949500    309.14351   -1511.3487    518.02018    401.81957    303.34387    36812.755 
  949600    307.23484   -1544.6392    490.38319    332.27838    201.47889    36812.755 
  949700    294.17826    -1539.871    476.91108    264.65085   -85.533142    36812.755 
  949800    296.85029   -1520.9498    515.28254    334.00218   -173.97974    36812.755 
  949900    297.63408   -1503.5673    467.38015    307.01954   -223.23498    36812.755 
  950000    297.38083   -1522.9845    460.28258    279.36177   -732.06821    36812.755 
  950100    293.39405   -1515.5996    515.26054    323.73259   -423.80965    36812.755 
  950200    302.75025   -1529.0091     466.4725    303.75899   -132.44371    36812.755 
  950300    299.80641   -1535.8929    493.04094    310.15836   -450.43191    36812.755 
  950400    308.41055   -1542.2412    465.91802    315.51713   -301.29617    36812.755 
  950500    307.54662   -1497.1116    524.04828    414.87807    153.83538    36812.755 
  950600    297.94661   -1519.0606    495.72911    321.28554   -241.39742    36812.755 
  950700    296.74557   -1454.1508    505.65908     390.7051    10.896376    36812.755 
  950800    306.36964   -1508.7035    521.30803     395.2343    306.84967    36812.755 
  950900    295.21783   -1487.3579    506.57098    351.51533   -200.79561    36812.755 
  951000    304.95432    -1487.673    490.91583    379.48533   -227.24353    36812.755 
  951100    296.35044    -1466.509    534.42971    405.33441    239.80016    36812.755 
  951200    287.98279   -1458.0274    515.04984    356.67332    707.34009    36812.755 
  951300    309.58369   -1503.0468    490.86996    384.95777    585.66305    36812.755 
  951400    296.32044   -1479.9336    485.12211    342.46673    273.21108    36812.755 
  951500    298.25472   -1440.7302    504.48707    409.76443   -444.54024    36812.755 
  951600    286.54602   -1506.0268    508.90922    296.04929   -43.908634    36812.755 
  951700    295.01923   -1547.9971    483.76883     267.1777   -456.01058    36812.755 
  951800    308.24636   -1531.5547     500.9837    360.52835    276.87266    36812.755 
  951900    293.16864   -1540.1343    498.71549    281.63552    9.2100099    36812.755 
  952000    314.05404    -1532.792    496.42039    380.93744    833.32221    36812.755 
  952100    294.21609   -1543.0203      482.099    266.86017   -4.8635602    36812.755 
  952200    302.13869   -1545.9046    484.16125    301.79234   -375.74388    36812.755 
  952300    299.56627   -1528.5734    497.08109    320.43423   -541.87064    36812.755 
  952400    300.24856   -1510.3258    503.29402    347.97392   -931.60652    36812.755 
  952500    298.41847   -1446.3855    490.75811    391.11913   -696.26348    36812.755 
  952600    292.89868   -1495.7905    503.83194    329.87746    -949.7494    36812.755 
  952700    304.51934     -1513.65    499.25585     359.8853   -662.17246    36812.755 
  952800    304.83344    -1443.074    504.51222    437.13516   -706.33938    36812.755 
  952900    303.43974   -1470.3659    496.43948    395.48087   -461.74557    36812.755 
  953000    301.63668   -1510.1332    527.28112    378.41809   -763.44066    36812.755 
  953100     301.5562   -1531.2501    502.96371    332.62063   -207.63618    36812.755 
  953200    295.29301   -1518.2934    513.76668    328.11477   -436.14223    36812.755 
  953300     306.0081   -1497.0015    462.55235    346.54904    49.362182    36812.755 
  953400    305.24208   -1534.4147    528.51992    371.64638     134.9043    36812.755 
  953500     299.2611   -1552.4146       494.66    292.79469   -166.84049    36812.755 
  953600    292.01998   -1520.0998    481.61797    279.38865    380.58074    36812.755 
  953700    302.05899   -1511.7338    543.59867    395.04091   -200.02031    36812.755 
  953800     295.1906   -1510.4573    506.99907    328.72116   -148.16433    36812.755 
  953900    302.67434   -1527.2214    479.46242    318.19405   -241.53158    36812.755 
  954000    291.14453   -1509.4781    498.36066    302.80225    100.68873    36812.755 
  954100    302.21723   -1535.0778    477.65988    306.47222    16.997581    36812.755 
  954200    301.65562   -1509.4919    499.25681    351.12056     62.19465    36812.755 
  954300    300.99448   -1554.6712    487.56089    291.26167    36.861304    36812.755 
  954400    305.18326    -1527.702    499.70826      349.282    711.74606    36812.755 
  954500    296.16868   -1569.9541     490.1765    256.81578    847.70728    36812.755 
  954600    292.58042    -1537.294    501.53386    284.63962     753.1125    36812.755 
  954700    305.15049    -1540.234    496.28173    333.17551    870.04846    36812.755 
  954800    305.74333   -1504.9452    502.32559    377.18369    373.23447    36812.755 
  954900    304.35409   -1491.2559    506.93347    389.21124    398.06276    36812.755 
  955000     294.2703   -1503.2239    503.60989    328.41205    512.00859    36812.755 
  955100     300.9544   -1463.4481    465.42801    360.17097    -150.1061    36812.755 
  955200    302.84897   -1453.2158    507.43077    420.95616    440.45866    36812.755 
  955300    306.90559   -1524.2656    485.54822    346.33109   -2.0060024    36812.755 
  955400    305.85151   -1471.3009    502.57224    411.56286   -232.11386    36812.755 
  955500    298.23549   -1479.6749    485.03993    351.28586    311.77438    36812.755 
  955600    287.03057   -1533.0321    513.37864    275.70007     630.3497    36812.755 
  955700       292.49   -1542.8408    502.40479    279.55573    731.37241    36812.755 
  955800    305.42505   -1504.1465    484.36281    358.58313    260.49429    36812.755 
  955900    307.56703   -1509.3202     499.1362    377.84948   -13.816468    36812.755 
  956000    295.57975   -1520.8425    476.15631    289.24938    195.45151    36812.755 
  956100    306.58154   -1495.3573    493.05073    381.27952   -21.181876    36812.755 
  956200    292.35547   -1492.4704    479.98581        306.9   -231.29947    36812.755 
  956300    306.30335   -1512.9598    484.03907    353.40984    221.68606    36812.755 
  956400    296.29486   -1496.6141     511.9592     352.5079    213.88912    36812.755 
  956500    297.90769   -1523.0035    504.50615    325.94407    115.46057    36812.755 
  956600    289.60297   -1512.4251    501.82649    296.36411   -624.42794    36812.755 
  956700    306.76123   -1466.8611    503.10851    420.64437   -699.40789    36812.755 
  956800    308.94277   -1519.0021    502.73158    377.97165   -839.83269    36812.755 
  956900    296.01848   -1527.3541    470.85237     279.4138   -85.367229    36812.755 
  957000    296.33472   -1528.9522    492.05103    300.44151    293.50479    36812.755 
  957100    293.27323   -1542.5087    466.17976    247.19746    -425.0998    36812.755 
  957200     305.0033   -1495.0967    496.09884    377.46567   -411.93442    36812.755 
  957300    304.44204   -1528.9447    493.48636    338.47231   -364.83264    36812.755 
  957400    287.01654   -1535.7119    456.35998    215.93829    43.236878    36812.755 
  957500    301.38843   -1517.8104    493.51461      335.854    347.86675    36812.755 
  957600    303.16115   -1565.2922    489.71111    292.56895    398.00065    36812.755 
  957700    303.37645   -1557.3079    465.96564    277.77938    602.57662    36812.755 
  957800    305.33679   -1539.5011    470.66737    309.13482    280.31932    36812.755 
  957900    302.04641   -1504.4173    510.08117     368.7831    298.94612    36812.755 
  958000    297.89355   -1515.6334    471.91674    300.66099   -499.21294    36812.755 
  958100    292.09547   -1493.2072    495.12825    320.13224   -242.51511    36812.755 
  958200    294.25849   -1529.3764    510.94853    309.54494    237.32345    36812.755 
  958300    294.26867   -1514.5528    507.30018    320.76615      215.965    36812.755 
  958400    302.88319   -1485.7235     491.9555    373.12758    360.59671    36812.755 
  958500    300.40675   -1521.5783    494.74468    328.88592   -394.45302    36812.755 
  958600    297.78113   -1515.3171    500.93205    329.48527   -691.65362    36812.755 
  958700    301.92215   -1494.3956    477.88922    346.05209   -407.75803    36812.755 
  958800    303.11917   -1485.3886    499.57985    382.15188   -427.38421    36812.755 
  958900    309.09276   -1471.2927    467.19739    390.82377    112.02438    36812.755 
  959000    297.87413   -1484.4084     490.0252    349.90674    623.81925    36812.755 
  959100    308.86293   -1438.9343    518.39428    473.34185     173.6805    36812.755 
  959200    298.06904   -1464.1904    520.77329    401.75251    74.413949    36812.755 
  959300    302.29495   -1473.4335    517.71448    408.52194    141.86718    36812.755 
  959400    298.87561   -1489.5153    492.46994    351.76425     303.0029    36812.755 
  959500    304.51393    -1535.544    485.20612    323.91719    654.63706    36812.755 
  959600    304.40318   -1542.7397    527.48596    358.50152    898.70505    36812.755 
  959700    310.74404   -1528.5859    489.06932    362.85462    1113.1412    36812.755 
  959800    303.42801   -1527.0868    518.56885    360.83642    701.81382    36812.755 
  959900    311.60204   -1540.6857    472.79567     338.3533    1008.4434    36812.755 
  960000    294.60717   -1569.7783    478.87248    238.64051     443.7024    36812.755 
  960100    301.59183   -1565.0119    498.97819    295.03409    614.21173    36812.755 
  960200    291.17064   -1547.2606    491.45573    258.23264    612.29636    36812.755 
  960300    304.48493   -1553.8877    485.80729    306.04376   -452.43787    36812.755 
  960400    308.32874   -1501.7371    497.45384    387.18787     202.2244    36812.755 
  960500    301.18134   -1508.0872    483.37898    334.50706    34.110413    36812.755 
  960600    293.44205   -1520.2889    490.50635    294.50566    85.800622    36812.755 
  960700    305.04054   -1535.5699     498.2768    339.33846    69.346186    36812.755 
  960800    292.24869   -1583.1177    495.28214    231.06708    3.9864299    36812.755 
  960900     290.1504    -1548.526    501.07787    261.98504    256.38528    36812.755 
  961000    301.42199   -1563.8125    503.49535     299.9842     12.71428    36812.755 
  961100    308.41179   -1581.4093    473.53826    283.97484    331.17324    36812.755 
  961200    304.26952   -1558.2322    494.20177    309.12155   -326.84865    36812.755 
  961300    307.19674   -1558.5574    479.99864    307.80367   -27.814571    36812.755 
  961400    302.61351   -1607.1923    471.13399    229.62029     274.5308    36812.755 
  961500    300.53352   -1626.3564    477.63729    207.57252    -302.4502    36812.755 
  961600    303.82921   -1579.3786    509.38739    301.17377   -38.459705    36812.755 
  961700    300.30059   -1537.8162    475.12358    292.54786   -791.97379    36812.755 
  961800    298.62659   -1520.5692    492.85516     319.9718    242.56994    36812.755 
  961900    290.37953    -1536.289    494.18719    268.36548    145.23281    36812.755 
  962000    291.59047    -1548.436    512.02574    279.52191    425.92761    36812.755 
  962100     299.7084   -1497.7256    514.42224    369.26459    240.22313    36812.755 
  962200    304.06513   -1516.5707    510.28491    365.94388     360.8064    36812.755 
  962300    291.42975   -1527.3497    511.78153    299.63866     824.3158    36812.755 
  962400    305.33125   -1561.0297    520.80415    337.71807    299.88953    36812.755 
  962500    293.56303   -1503.2785     489.8478    311.40356    101.79032    36812.755 
  962600    289.65158   -1504.4229    518.21726    320.97645    579.05029    36812.755 
  962700    296.18216   -1536.6438     504.9678    304.97825    308.27145    36812.755 
  962800    306.87309   -1527.1436     503.6398    361.39802    1322.4617    36812.755 
  962900    299.34902   -1533.7421    518.44451    335.64852    758.36569    36812.755 
  963000    292.73317    -1572.913    510.40099    258.57707    254.78432    36812.755 
  963100    306.12016   -1556.1117     493.3166     318.7088   -276.61617    36812.755 
  963200    302.44253   -1520.3715    501.61955    346.15499   -330.00008    36812.755 
  963300     295.1327    -1507.959    495.77282    319.73182   -53.391019    36812.755 
  963400    302.79833   -1530.0841    507.29922    343.72776    -110.9331    36812.755 
  963500    307.07093   -1538.1828    479.22061    326.83248     -72.4186    36812.755 
  963600    295.03178   -1528.1803    498.31206    301.59436    112.25942    36812.755 
  963700    305.88084   -1494.2915    524.09024    410.22255    182.99815    36812.755 
  963800    303.88159    -1517.703    488.10163    341.79996    280.87569    36812.755 
  963900    293.66222   -1539.9783    507.18095    292.48445    115.24398    36812.755 
  964000    296.61224   -1574.3465    510.24003    274.48867   -523.39592    36812.755 
  964100    295.49222   -1522.5684    490.59869    301.57085   -352.32682    36812.755 
  964200    305.23392   -1518.7426    510.42254    369.18424    -245.0343    36812.755 
  964300    296.91351   -1490.3084     515.3007    364.94707   -286.97175    36812.755 
  964400    294.21926   -1518.4634    508.03316     317.3655   -431.56305    36812.755 
  964500    301.09356   -1582.2321    487.68575    264.27276    -36.74695    36812.755 
  964600    303.95728   -1488.0824    508.74426    392.40472    161.44964    36812.755 
  964700    314.16797    -1508.674    487.61282    396.76198    368.72136    36812.755 
  964800    298.37493    -1462.399    511.92744    396.07853   -108.47142    36812.755 
  964900    298.55979   -1458.6374    497.05526    385.80224    274.70295    36812.755 
  965000    294.39953   -1493.7568    486.85074    321.70321    183.70982    36812.755 
  965100    303.50508   -1523.8987    538.24802    384.05146    568.97311    36812.755 
  965200    291.92619   -1483.7115    497.49824    331.23395    666.51095    36812.755 
  965300    293.55584   -1461.4932     528.1611    391.46971   -252.28717    36812.755 
  965400    293.42309   -1456.2427    496.61562    364.57555    104.40231    36812.755 
  965500    298.21372   -1495.3607    501.42363    351.88547   -444.65797    36812.755 
  965600    292.71711   -1496.7857    515.24947    339.48041     405.5386    36812.755 
  965700     300.5614   -1490.0627    483.92869    350.28351    215.12495    36812.755 
  965800    294.10506   -1455.8561    510.46517    381.88942    100.43506    36812.755 
  965900    301.99872   -1506.0843    493.89129    350.71099     290.4064    36812.755 
  966000    293.25513   -1466.7529    484.38683    341.07866    77.355702    36812.755 
  966100    293.05946   -1465.8935    517.14417     373.8123    102.75063    36812.755 
  966200    294.58547   -1480.0307    491.38539    340.80315    210.23551    36812.755 
  966300    296.42061   -1464.0156    498.64483    372.35956    -122.0685    36812.755 
  966400    296.95719   -1473.6006    530.72322    397.27449   -193.07295    36812.755 
  966500     299.9543   -1479.9124    515.83548    389.60077   -516.95625    36812.755 
  966600    295.35882   -1475.9581    502.70811    359.68851    14.646129    36812.755 
  966700    297.23511   -1494.5607    529.06485    375.91027   -565.45943    36812.755 
  966800    301.51779   -1473.1984    479.48637    367.02159    154.35026    36812.755 
  966900    296.29065   -1514.8761    496.77391    319.04163   -211.79453    36812.755 
  967000    305.22385   -1534.2263    480.98862     324.2212    10.513176    36812.755 
  967100    288.91246   -1480.9616    512.40658    335.29148   -221.68852    36812.755 
  967200    307.24938   -1498.8592     497.8235     385.5643   -351.93068    36812.755 
  967300    302.77731   -1528.5523     463.8047    301.67016    66.509835    36812.755 
  967400    306.67266   -1498.8191    497.76371    382.94187   -448.35624    36812.755 
  967500    290.23334   -1482.9602    472.78552    299.63285   -1350.7548    36812.755 
  967600    292.63407   -1500.9652    481.21029    300.88703   -913.11412    36812.755 
  967700    292.79258   -1490.5895    501.67336    332.44108   -429.43989    36812.755 
  967800    310.35668   -1496.0251    496.46127    401.05919    -447.1368    36812.755 
  967900    303.04554   -1418.3966    503.22218    452.45391   -210.14665    36812.755 
  968000    301.06327   -1466.1144    495.03782     387.6058   -52.583311    36812.755 
  968100    299.85576   -1505.2038    486.95661     334.9858    348.60473    36812.755 
  968200    297.04868    -1485.627    518.46097    373.39881   -226.09581    36812.755 
  968300    306.53962   -1490.4944    505.34891     398.2514   -92.415425    36812.755 
  968400    304.48845   -1471.5581    486.33945     388.9214   -480.63379    36812.755 
  968500    297.10002   -1444.7861    521.54021    417.55063   -358.21045    36812.755 
  968600    307.52557   -1493.7239    494.66253    388.78502    53.046839    36812.755 
  968700    303.50379   -1468.1231    486.74246    388.31571    537.84053    36812.755 
  968800    301.58382    -1429.421    505.96475     437.5754    58.320245    36812.755 
  968900    286.65608   -1416.0572    496.49177    374.09815   -156.84381    36812.755 
  969000    294.16783   -1482.3054    488.40437    333.66268   -226.25778    36812.755 
  969100    306.89599   -1496.9313    501.39564    389.46956   -9.0363577    36812.755 
  969200    284.59904   -1481.2718    485.95239    289.06073   -317.12676    36812.755 
  969300     298.2309   -1447.9261    506.59569    404.56968   -6.7958968    36812.755 
  969400    301.71348     -1475.27    464.66629    351.01308    537.75659    36812.755 
  969500    302.43515    -1508.432    528.80267    385.24424    392.65024    36812.755 
  969600    296.18836   -1494.6539    462.12495    304.15329   -103.86364    36812.755 
  969700    303.97861   -1481.3731    513.18432    403.65039    480.56031    36812.755 
  969800    300.77645   -1488.1219    484.61831    353.88443    168.66989    36812.755 
  969900    302.44339   -1451.7916    516.26348    429.38265    470.43309    36812.755 
  970000    290.48197    -1485.679    491.79561    317.04615     100.1029    36812.755 
  970100    298.26096   -1485.0549     492.2128    353.19366     656.3651    36812.755 
  970200    309.55556   -1514.2924    508.85096    391.56622    1071.2532    36812.755 
  970300     298.2198    -1527.932    477.76087     295.6789    351.87577    36812.755 
  970400    303.08382     -1521.62    495.14896    341.33001    65.388794    36812.755 
  970500    301.23768    -1496.486    503.48689    366.47037    421.92508    36812.755 
  970600    309.23643   -1497.0012    494.09208    392.65832    566.86524    36812.755 
  970700    293.15146   -1501.4481    470.17065    291.69937   -117.99651    36812.755 
  970800    303.59556   -1502.8219    492.14235    359.43094    -10.65965    36812.755 
  970900    301.76681   -1532.9466    488.20871    317.11956    -130.3893    36812.755 
  971000    292.21361   -1497.7197    477.12813    298.15279   -174.43009    36812.755 
  971100    291.08127   -1492.4749    493.46505    314.62438   -154.94778    36812.755 
  971200    302.97071   -1517.6997    483.78038    333.37119    267.96623    36812.755 
  971300    298.67625   -1475.9044    503.91281    375.91833   -17.478928    36812.755 
  971400    292.74666   -1506.2868    481.76687    296.63001    101.67837    36812.755 
  971500    291.50041   -1469.0612    508.52036    354.98487     235.0333    36812.755 
  971600    291.96052   -1475.9551    458.28254    299.92958   -202.80866    36812.755 
  971700     310.3525   -1469.9276    507.19026    437.86685    354.53805    36812.755 
  971800    294.41851   -1522.3027    499.60876    306.00106   -410.59883    36812.755 
  971900    299.64231   -1496.5779    481.63148    337.32326    387.77556    36812.755 
  972000    304.91237   -1498.4209    505.26346    382.89568    89.371013    36812.755 
  972100    299.22141   -1474.4801    503.82307    379.71314   -258.75021    36812.755 
  972200    304.95229   -1498.5867    464.19837    341.84505    269.64073    36812.755 
  972300    301.25356   -1496.7869    501.53071    364.28499   -171.88407    36812.755 
  972400    295.67619   -1475.8286    515.49314    374.03541   -620.69803    36812.755 
  972500    302.34899   -1472.4086      494.286    386.36221    -86.20524    36812.755 
  972600    302.01124   -1485.6235    478.43698    355.77408   -516.16592    36812.755 
  972700    295.21211   -1517.7704    501.78792    316.29389    8.6224947    36812.755 
  972800    296.38093   -1568.4097    486.50494    255.64647    433.55915    36812.755 
  972900     303.3386   -1579.2813     493.0881    282.75762    118.61066    36812.755 
  973000    295.34941   -1530.6402    494.60175     296.8576     245.9924    36812.755 
  973100    294.55007   -1521.9372    492.95244    300.30391   -637.94004    36812.755 
  973200    290.22026   -1502.9119    506.80045      313.637   -1111.8904    36812.755 
  973300      309.642   -1506.9144    466.40051    356.88387   -134.27813    36812.755 
  973400    309.10149   -1497.7352    514.61595    411.83927   -288.21555    36812.755 
  973500    295.44302   -1482.5756    482.46264    333.20562   -103.82156    36812.755 
  973600    295.22641   -1498.7568     498.2314    331.81553    341.22085    36812.755 
  973700    307.37526   -1485.2011     483.4157    385.38273    556.77447    36812.755 
  973800    295.17769   -1524.1067    475.57212    283.58651    135.79369    36812.755 
  973900    304.81293   -1519.1399    473.56914    330.03367    86.412408    36812.755 
  974000    295.38968   -1528.2263    475.54574    280.39724    268.43843    36812.755 
  974100     305.4786    -1518.233    495.15528     355.5308     392.2601    36812.755 
  974200     302.4234   -1533.1521    488.74178    320.41024    64.133299    36812.755 
  974300    307.16146   -1554.0931    473.40562    305.51578    670.84701    36812.755 
  974400    308.59255   -1565.2527    489.11746     316.5264     441.2723    36812.755 
  974500    305.64798   -1501.0571    487.02419    365.34005    -357.7427    36812.755 
  974600    302.36294   -1495.1039    484.51063    353.95446   -408.66941    36812.755 
  974700    294.91169   -1548.7071    495.06178    277.27536   -361.23312    36812.755 
  974800    301.54333   -1507.0365    491.25937    345.07175   -238.06335    36812.755 
  974900    312.05895   -1446.5864    496.70963    458.42854    132.54733    36812.755 
  975000    300.48779   -1509.4881    485.85276    332.44991    93.240972    36812.755 
  975100    299.78199   -1503.0061    506.67771    356.57171    382.91929    36812.755 
  975200    303.78284   -1522.1437    467.97079    316.78282    761.21642    36812.755 
  975300    296.26643   -1501.1923    478.92495    314.76724    526.47596    36812.755 
  975400    296.74787   -1510.5341    509.90923    338.58238   -288.89417    36812.755 
  975500    292.05362   -1486.2439    486.09749    317.87587    51.777819    36812.755 
  975600    307.72031   -1490.4754    471.64732    369.89718    11.684274    36812.755 
  975700    311.75453   -1458.4147    506.94714    455.46398   -131.19573    36812.755 
  975800    294.30483   -1466.6215    486.54022    348.10061   -63.189673    36812.755 
  975900    292.92359     -1480.84    510.20182    351.31028   -688.20665    36812.755 
  976000    305.98229    -1437.434    514.97757    458.42525   -383.96349    36812.755 
  976100    298.29859   -1489.0894    481.67305    338.78923   -160.33438    36812.755 
  976200    297.57052   -1469.6067     487.7224    361.03545    -275.1242    36812.755 
  976300    297.31393   -1480.8332    480.35745    341.28606    233.27727    36812.755 
  976400    299.37858   -1465.5195    496.01159    381.57162    235.89683    36812.755 
  976500    296.47845   -1525.0695    510.61368    323.53547    391.91056    36812.755 
  976600    294.94474   -1545.5327     477.1532    262.69033    365.09957    36812.755 
  976700    308.42025   -1514.9862    456.38858    333.28647    734.28896    36812.755 
  976800    300.88972   -1518.1465     481.3051    321.05781    622.59059    36812.755 
  976900    300.58404   -1571.4496    488.38778     273.4578    791.45706    36812.755 
  977000    289.29406    -1554.392    480.66831    231.84493    414.42542    36812.755 
  977100    297.51455   -1541.5364    493.02624    294.15705    677.94868    36812.755 
  977200    308.66008   -1519.7029    487.99648    361.26001    574.37611    36812.755 
  977300    300.73527    -1514.177    471.83428    314.85942    7.8681125    36812.755 
  977400     295.2528   -1503.8958    491.12754    319.69181    155.75169    36812.755 
  977500    291.64697   -1520.3124    500.33207    296.20684   -223.84192    36812.755 
  977600    311.22025   -1482.1765    488.48497    410.82881    -825.2512    36812.755 
  977700    297.23995   -1497.6299    471.45675     315.2548   -537.08849    36812.755 
  977800    295.24229   -1515.5731    488.48836    305.32796   -483.72239    36812.755 
  977900    297.89983   -1456.6226    493.23923    381.02258    -391.0238    36812.755 
  978000    303.97255   -1465.2448    499.06544    405.63242   -326.57811    36812.755 
  978100    306.59599   -1458.2773    483.62409    408.99804    -125.1864    36812.755 
  978200    312.10131    -1489.364     459.4601    378.59258    49.463984    36812.755 
  978300    298.67644   -1449.4228    512.11542    410.60337    400.10098    36812.755 
  978400    305.12228   -1473.0783     514.9345    418.85666    407.96393    36812.755 
  978500    297.07559   -1469.6694    497.88679    368.90363    282.95429    36812.755 
  978600    294.35456   -1475.5559    508.70655    361.55701   -58.895545    36812.755 
  978700     292.5225   -1497.5418    482.18245    304.77899   -16.849518    36812.755 
  978800    293.17761   -1453.7359    499.17376    368.53273    -87.38502    36812.755 
  978900    306.90702   -1463.8625    517.48455    438.67701   -266.12527    36812.755 
  979000    301.17812   -1464.7756    496.69271    391.11781    -179.2989    36812.755 
  979100     305.9819   -1435.2681    499.75686     445.3687   -216.23712    36812.755 
  979200    299.50746   -1462.5634     484.5143    373.61203    358.35323    36812.755 
  979300     310.3667   -1489.3333    511.38594    422.72092    470.36297    36812.755 
  979400    299.67006   -1455.0552    483.65327    380.99299    70.242467    36812.755 
  979500    291.95222   -1490.3645    491.35769    318.55788   -90.993833    36812.755 
  979600    305.10492   -1496.9325    476.82522    356.81488   -3.0372237    36812.755 
  979700    300.15768    -1510.471    496.13269    340.25725    350.35099    36812.755 
  979800    281.01001   -1521.7459    496.78225    243.21949    529.03241    36812.755 
  979900    294.34363   -1478.6687    515.51646    365.20481    381.41748    36812.755 
  980000    288.82964   -1455.8447    480.84938    328.47734    388.39821    36812.755 
  980100    285.17404     -1527.06    488.40337    248.31849   -665.64041    36812.755 
  980200     306.6367   -1498.4999    505.42142    390.75653    104.16951    36812.755 
  980300    302.47144   -1498.3192    473.61186    340.33006   -72.997164    36812.755 
  980400    291.33492   -1508.8522    486.73296    292.65959   -214.04204    36812.755 
  980500    301.55615   -1516.0305    478.41308    323.28932     -556.311    36812.755 
  980600    318.79176   -1537.0605    466.18365    367.81331    142.09813    36812.755 
  980700    297.64486   -1520.9491    493.32643    315.63264   -143.75364    36812.755 
  980800    306.88376   -1478.3494    499.25939    405.85994   -165.47088    36812.755 
  980900    294.98554   -1487.7052    479.24337    322.79213   -427.79425    36812.755 
  981000    284.11636   -1481.8436    500.91346    301.27172   -113.02924    36812.755 
  981100     296.3049   -1471.6079    499.86636    365.46663    618.78466    36812.755 
  981200    300.20794   -1539.6936    486.17599    301.30475    1121.2616    36812.755 
  981300    303.75928   -1531.3422    485.08902    324.59619    858.89756    36812.755 
  981400    297.13929   -1489.9441    492.16597    343.19557    837.39984    36812.755 
  981500     303.3171   -1528.9362    501.14412    341.06178    1412.4795    36812.755 
  981600    299.38313   -1516.1079    482.07428    317.06644    1502.5383    36812.755 
  981700    302.91935   -1547.9655     494.7798    313.87311    967.54465    36812.755 
  981800    302.78818   -1522.4172    507.12441    351.17401    1020.1493    36812.755 
  981900    296.35008   -1477.1993    477.94407    338.15676    685.80039    36812.755 
  982000    306.09412   -1496.1077    493.07979    378.35843    485.90331    36812.755 
  982100    294.71579   -1479.7803    460.78335     311.0396    118.75071    36812.755 
  982200    297.21251    -1445.223    526.79327     422.8744    235.81308    36812.755 
  982300    307.54447   -1504.1412    499.49738    383.28788   -3.1906938    36812.755 
  982400    304.36102   -1496.6414    503.70345      380.627    410.51477    36812.755 
  982500     300.8012   -1462.0465    487.66747    383.12063    290.48614    36812.755 
  982600    300.87561   -1473.9928    503.99367     387.8364    88.092431    36812.755 
  982700    303.10021   -1496.8482    512.56224    383.58903    36.710915    36812.755 
  982800    303.31568   -1509.7498    509.18659     368.2842    60.951087    36812.755 
  982900    295.13233   -1501.6341    493.68315    323.96547   -223.97745    36812.755 
  983000    297.73597   -1516.9967    499.92458    326.59433   -712.74059    36812.755 
  983100    303.66154   -1522.9602    476.67883    324.12682   -521.71343    36812.755 
  983200    308.19699   -1491.0549    524.24802    424.06963   -167.38282    36812.755 
  983300    314.02751   -1540.2053    474.87031    351.85431   -421.69376    36812.755 
  983400    299.60689   -1520.3753    489.35393    321.08844   -975.24623    36812.755 
  983500     309.2239   -1530.7728    487.26266    352.00073   -670.82006    36812.755 
  983600    298.27981   -1547.9014     486.3417    284.56106   -863.74086    36812.755 
  983700    303.12043   -1513.0839    455.64203    310.52442   -886.98834    36812.755 
  983800    297.51085   -1539.1916    506.70211    310.16097   -449.67151    36812.755 
  983900    307.88465   -1510.7908    468.57154    347.24772   -553.76756    36812.755 
  984000    299.49581   -1504.4079     474.5172    321.71784   -656.67696    36812.755 
  984100    292.43154   -1537.9361    512.58357    294.37529   -204.49035    36812.755 
  984200    302.85914   -1499.6817     497.4405    364.54588    257.93639    36812.755 
  984300    301.59226   -1542.5038    476.97356    295.53945   -180.12088    36812.755 
  984400    302.00994   -1545.2688    503.91097    321.59679    84.342101    36812.755 
  984500    300.86631   -1521.6256    476.40247    312.57036    -82.11306    36812.755 
  984600    309.48279   -1519.3965    505.93666    383.21937   -116.40807    36812.755 
  984700    305.14392   -1488.5187    474.66819    363.24759   -222.36675    36812.755 
  984800    312.12497   -1486.4687    488.26593    410.40047   -540.60604    36812.755 
  984900    302.88984   -1540.3129    470.70361    297.31631   -430.58266    36812.755 
  985000    312.33352   -1521.8969    479.87008    367.51766   -406.54882    36812.755 
  985100    294.78312   -1558.5013    479.49055    251.32964   -329.75526    36812.755 
  985200    294.50986   -1531.6694    484.56734    282.00521   -623.91823    36812.755 
  985300     308.7768   -1534.4403    447.90294    306.95577   -224.77741    36812.755 
  985400    311.77531   -1508.8103    522.02222    420.23714   -132.52944    36812.755 
  985500    303.65228    -1546.531    468.81152      292.647   -301.72322    36812.755 
  985600    303.70962   -1565.3854    498.90077    304.14057    89.540063    36812.755 
  985700    301.36889   -1515.0979    503.69283    348.65661     -396.905    36812.755 
  985800    301.53735   -1479.9405    489.50313    370.38451    55.447407    36812.755 
  985900    303.69751   -1454.5037    508.07085    424.13778   -415.49795    36812.755 
  986000    294.14402   -1451.1426    507.34442    383.65804   -490.91823    36812.755 
  986100    294.17054   -1474.4862    508.34319    361.43286   -53.284099    36812.755 
  986200    303.83088   -1525.6348    490.79691    336.33461    325.97935    36812.755 
  986300    300.40859    -1501.573    485.38339    339.53823    734.84216    36812.755 
  986400    303.35583   -1479.4993    503.56089    393.09021   -73.180341    36812.755 
  986500    289.51994   -1481.1207    499.77325    325.24054    85.202196    36812.755 
  986600    304.25369   -1484.5975    499.05242    387.53551     178.0154    36812.755 
  986700    314.70071   -1507.7072    522.63339    435.15366    387.98379    36812.755 
  986800     288.6305   -1502.6561    496.96309    296.88094    311.05566    36812.755 
  986900    305.53394    -1463.888    510.46723    425.43757   -157.36924    36812.755 
  987000    301.28041   -1495.0281    516.25007    380.88429    295.28656    36812.755 
  987100    313.60847   -1510.9359    476.18517    380.54748    138.78798    36812.755 
  987200    300.46833   -1475.6494    499.01355    379.36161    -292.5754    36812.755 
  987300    307.28258   -1519.0088    470.97198    338.71298   -527.99497    36812.755 
  987400     306.5787   -1515.9293     483.0468    350.69077    385.69899    36812.755 
  987500    296.50666   -1557.8758    489.48175    269.72461   -142.77983    36812.755 
  987600    295.30961   -1541.4021    484.77249    276.08683    175.04925    36812.755 
  987700    303.06228   -1566.6361    489.91156    290.97931   -116.01011    36812.755 
  987800    298.61387   -1525.9415    483.40458    305.09142    72.341138    36812.755 
  987900    302.58484   -1547.2681    480.40817    298.68923   -39.907956    36812.755 
  988000    308.35966   -1561.2473    482.87436    313.23771   -275.86604    36812.755 
  988100    303.38603   -1531.1624    452.59647    290.59896   -222.77474    36812.755 
  988200    296.05886   -1544.3117    463.38124    255.16727   -504.76616    36812.755 
  988300    308.73527   -1540.1528    487.91652    341.06944   -170.25216    36812.755 
  988400    298.15406   -1515.3901     461.3694    291.53262   -893.69729    36812.755 
  988500    293.42625    -1529.861    480.30359    274.65954   -1062.3196    36812.755 
  988600    301.95209   -1477.3362    469.40761    354.76508   -727.89854    36812.755 
  988700    301.58815   -1530.6713    491.20613    321.58599   -321.49566    36812.755 
  988800    307.20682   -1560.5485    490.76226    316.62171   -14.057419    36812.755 
  988900    305.51823   -1508.2867    485.90758    356.40826   -413.80458    36812.755 
  989000    301.81731   -1502.3741    467.75444    327.46571   -419.60197    36812.755 
  989100     299.9335   -1525.0751    460.31961    288.82834   -294.64279    36812.755 
  989200    300.35076   -1500.2572    494.59074    349.80044   -48.546299    36812.755 
  989300    302.37971    -1527.728    479.73997    316.63545   -244.77505    36812.755 
  989400    300.37384   -1570.4864    505.94476    291.02944   -121.37472    36812.755 
  989500    304.84199   -1564.3624    493.40984    304.78298    62.244599    36812.755 
  989600    299.27222   -1513.8761    473.71142    310.43483    -251.2541    36812.755 
  989700    301.92413   -1525.8806    500.59166     337.2785   -173.20467    36812.755 
  989800    308.07018   -1489.7218    478.56949    379.15191    -35.49675    36812.755 
  989900    305.88594   -1494.3855    501.06022    387.12158   -241.30581    36812.755 
  990000    296.55521    -1506.654    493.92247    325.60624   -473.44647    36812.755 
  990100    302.78912   -1549.4217     472.9923    290.04172   -692.08185    36812.755 
  990200    303.89461   -1525.3385    476.09025    322.21179   -845.59311    36812.755 
  990300    298.47478   -1511.3139    464.67503    300.36178   -638.01407    36812.755 
  990400    298.36171   -1519.9518    512.55839    339.09703   -636.75978    36812.755 
  990500    296.61498   -1557.4759    499.99657    281.12817   -579.90069    36812.755 
  990600     298.3187   -1481.9038    452.75632    317.14886   -424.77151    36812.755 
  990700    309.23275    -1460.346    524.29842    459.50326   -763.53024    36812.755 
  990800    295.13718   -1461.7496    481.81114    351.99988   -541.83361    36812.755 
  990900    294.03613   -1490.7456    496.76519     332.9889   -300.74723    36812.755 
  991000    295.86113   -1483.9898    489.40013     340.6158    382.22158    36812.755 
  991100    297.13074   -1542.4903    451.10158     249.5464   -201.88647    36812.755 
  991200    304.76587   -1498.9049    499.66878    376.15591   -92.833745    36812.755 
  991300    295.13223   -1450.4849    503.08629    384.51732    -270.0079    36812.755 
  991400    293.50054   -1464.9037    508.99139    368.63984    325.89633    36812.755 
  991500    305.72051   -1558.7536    486.66607    307.61281     -48.9941    36812.755 
  991600    300.20908   -1523.0073    495.64872    327.46892   -492.05108    36812.755 
  991700    295.08008    -1525.536     458.3348    264.47939    -870.7519    36812.755 
  991800    293.87566   -1526.3066    473.29363    273.23215   -849.50304    36812.755 
  991900    301.41318   -1526.4908    485.69264    319.46331   -209.24079    36812.755 
  992000    295.32812   -1486.3772    473.23498    319.65776    315.13247    36812.755 
  992100    302.25432   -1501.4944    495.50962    358.07276    165.07357    36812.755 
  992200    296.08417    -1504.664    469.28755    300.83559   -242.18199    36812.755 
  992300    291.25096   -1484.1464     499.1503    329.40384   -85.066015    36812.755 
  992400    294.90015   -1536.0087    491.94689    286.80675    377.93741    36812.755 
  992500    297.73829   -1550.6881    471.51993    264.50876    317.13084    36812.755 
  992600    298.52042   -1539.8657    504.12575    311.46665    119.88828    36812.755 
  992700    310.26972   -1512.1615    487.35765    375.42684   -98.115131    36812.755 
  992800    295.70062   -1540.9448    484.22492    277.76122   -242.73214    36812.755 
  992900     293.5323    -1511.511    488.73295    301.91753   -492.39398    36812.755 
  993000    295.58549   -1518.9868    521.72396    336.69869   -939.41807    36812.755 
  993100    292.62339   -1474.1915    497.14861     343.5508   -848.59178    36812.755 
  993200    303.93655   -1509.9488     493.8778    355.57831   -309.46867    36812.755 
  993300    296.06978   -1487.4436    488.85339    337.55682    -526.6115    36812.755 
  993400    291.53453   -1504.6943    522.16566    333.15107   -547.09801    36812.755 
  993500    299.59525   -1470.9737    508.43678    389.52041   -450.79181    36812.755 
  993600    300.91236   -1490.4405    487.06807    354.62896   -240.37146    36812.755 
  993700    307.65335   -1484.2644    491.04408    395.20272   -159.80374    36812.755 
  993800     308.0218   -1516.0265    500.24835    374.30774    -1.470414    36812.755 
  993900    288.82942   -1512.5279    511.75158    302.69535    659.51779    36812.755 
  994000    317.46684   -1507.0441    508.07493    433.74169   0.56668051    36812.755 
  994100    304.69347   -1431.9317    489.23766    432.37127    307.21835    36812.755 
  994200    299.17133   -1463.8195    478.96076     365.2854   -503.86161    36812.755 
  994300    301.83438   -1479.6415    481.20821    363.72912   -371.44214    36812.755 
  994400     295.1976   -1484.6427     487.5018    335.07004    54.938574    36812.755 
  994500    305.84263    -1473.186     519.6915    426.75686    359.33369    36812.755 
  994600    296.67031   -1463.2208    488.20552    363.84196    473.26646    36812.755 
  994700    300.71847   -1506.3494     476.8958    327.67274    7.3488875    36812.755 
  994800    294.07254   -1505.1898    510.48841    332.43227    161.66556    36812.755 
  994900    296.50336     -1535.37    502.08962    304.82341   -443.50795    36812.755 
  995000     294.1977   -1518.3143    473.41858    282.80277   -323.07681    36812.755 
  995100    294.35847   -1495.8777    492.55454     325.1008    20.939159    36812.755 
  995200    299.36031   -1502.3757    519.78674    368.40807   -133.85668    36812.755 
  995300    296.16159   -1517.9539    479.30212    297.90957   -701.62651    36812.755 
  995400    295.01727   -1514.6616    481.82828    298.56379    171.92255    36812.755 
  995500    300.62316   -1507.9556    497.30526    346.04584   -399.73947    36812.755 
  995600    300.54222   -1514.2004    489.97428    332.10477   -543.03492    36812.755 
  995700    307.63857   -1515.3503    497.97605    370.98211    49.689023    36812.755 
  995800    297.04877   -1505.3885    523.57028      358.747   -24.369969    36812.755 
  995900    295.71832   -1497.5147    525.99026    363.03652   -135.33819    36812.755 
  996000    305.99196   -1489.7519    473.46599     364.6394   -300.39783    36812.755 
  996100    300.13241   -1501.6659    481.05511    333.87074    133.25616    36812.755 
  996200    306.05748   -1508.5004    494.75424    367.47481    25.158765    36812.755 
  996300    307.59963    -1525.007     470.9177     334.0913    639.10373    36812.755 
  996400    301.90515   -1524.3576     481.8519    319.97609    184.52484    36812.755 
  996500    301.89959   -1526.1828    496.95382    333.22772    585.72782    36812.755 
  996600    299.33388    -1495.319     494.9469    350.50562    453.31269    36812.755 
  996700    300.50655   -1462.3573    507.41021    401.22288    103.59776    36812.755 
  996800    289.74548   -1508.1124    506.68835    306.18172    122.46669    36812.755 
  996900    307.27352   -1459.7336    490.96511    417.94044    468.23263    36812.755 
  997000    299.51279   -1512.9058    491.48422    330.26359    707.76875    36812.755 
  997100    313.50607   -1474.8075    510.32568    450.35428    384.34087    36812.755 
  997200    310.02257   -1516.7115    472.33387    354.73765    294.72377    36812.755 
  997300    303.93819   -1492.5986    494.83923    373.89745     234.1212    36812.755 
  997400    300.89927   -1511.4848    466.90955    313.36705   -633.70374    36812.755 
  997500    298.57579   -1491.4831    478.08166    334.05509    -743.8996    36812.755 
  997600    294.45185   -1467.1672     493.6901    355.36829   -1046.5108    36812.755 
  997700    291.18163   -1496.0535    501.43392    319.46748    22.846985    36812.755 
  997800    309.10084   -1504.0065    515.46503    406.41403   -241.02657    36812.755 
  997900    297.96661      -1485.7     465.6183    324.62564     47.45807    36812.755 
  998000    290.18372   -1487.4572    471.13848    293.26484    130.93707    36812.755 
  998100     299.9525   -1542.5248    482.56034    293.70511    968.33593    36812.755 
  998200    302.80473   -1507.1519     484.3233    343.71291    429.82729    36812.755 
  998300    290.71476    -1505.197    485.64322    292.42632    325.84265    36812.755 
  998400    294.90483   -1537.3085    468.90788    262.48905   -109.84496    36812.755 
  998500    307.31863   -1513.3896    489.33839    362.86132   -837.34719    36812.755 
  998600    311.27827    -1469.513    476.47722    411.74635   -398.37014    36812.755 
  998700    304.60589   -1517.3671    462.91212    320.21505   -69.148617    36812.755 
  998800    297.74781   -1505.7168    481.38176    319.38488    76.585769    36812.755 
  998900    295.74065   -1448.9063    512.20707    397.96251   -382.09319    36812.755 
  999000    299.67479   -1469.2562    474.87732    358.03741    102.90871    36812.755 
  999100    305.15151   -1447.8258    472.18619    401.49278    205.17091    36812.755 
  999200    293.17281   -1460.8605    507.34495    369.55761    514.22421    36812.755 
  999300    297.80979   -1477.5952    484.93375    351.33815    338.54086    36812.755 
  999400    293.83742   -1453.9389    518.03528    390.16887   -418.98263    36812.755 
  999500    302.47149   -1467.2697    502.15658    399.92446   -353.48315    36812.755 
  999600    302.92164   -1482.1222     490.4215    375.36847   -107.55664    36812.755 
  999700    302.14924   -1472.2902     489.9427    381.23578    103.88639    36812.755 
  999800    300.98943   -1486.0135    465.95677    338.29245    456.44838    36812.755 
  999900    301.23241   -1486.4186    476.09004    349.11714    365.80794    36812.755 
 1000000    309.11179   -1508.5638    520.78681    407.22795      528.775    36812.755 
 1000100    297.21274   -1486.8401    488.33793    342.80299    646.03199    36812.755 
 1000200    303.00146   -1507.2385    487.03889    347.22977    653.10796    36812.755 
 1000300    293.03635   -1490.2408    467.65423    299.87076    -558.1346    36812.755 
 1000400    295.95317   -1468.3661    484.95093    352.20559   -87.072986    36812.755 
 1000500    295.30582   -1478.2029    474.94917     329.4456   -91.601422    36812.755 
 1000600    305.81908    -1516.143    478.76999    342.77211   -393.36997    36812.755 
 1000700    297.08376   -1474.1394     496.0158     362.5995    -222.7198    36812.755 
 1000800    298.52389   -1510.0359    487.79331    324.97979    346.90295    36812.755 
 1000900    304.64971   -1508.2076    486.20835    352.86861    34.540345    36812.755 
 1001000    305.99889   -1468.5726    477.42783    389.81185   -574.12864    36812.755 
 1001100    303.82549   -1475.4267     476.8581    372.57953   -246.24338    36812.755 
 1001200    305.00654   -1558.0134    474.58691    293.05175   -601.21071    36812.755 
 1001300    297.02922   -1546.6088    478.94114    272.80932   -570.13853    36812.755 
 1001400    301.69369   -1534.1371    480.28536     307.6757   -704.08742    36812.755 
 1001500    306.82368   -1465.7252     485.0911     404.0447    57.701519    36812.755 
 1001600    305.39417   -1520.7807    483.89564    341.34245   -250.19515    36812.755 
 1001700    297.75264   -1473.0762    503.07812    373.74365   -259.48602    36812.755 
 1001800    297.97893   -1457.6071    480.54265    367.69853   -138.09684    36812.755 
 1001900    308.41284   -1512.7473    481.02929    360.13255   -114.00982    36812.755 
 1002000    304.01986   -1503.3954    508.38295    377.01289    285.65886    36812.755 
 1002100    305.08776   -1498.7877    503.64593    381.70296   -208.48564    36812.755 
 1002200    291.80993   -1475.0021    490.58459    332.50505    331.16708    36812.755 
 1002300    296.06672   -1521.8313     478.4972    292.79915    373.57665    36812.755 
 1002400    290.40912   -1528.7674    526.64023    308.47365    407.40211    36812.755 
 1002500    297.36372   -1512.4253    484.95412    314.51533    144.77593    36812.755 
 1002600    300.89449   -1504.5373    514.13803     367.5214    191.49849    36812.755 
 1002700    299.47711   -1492.1219    464.83828    324.24048    450.35668    36812.755 
 1002800    302.95617    -1491.989     516.8604    392.09637    -170.1057    36812.755 
 1002900    292.50238   -1502.1812    496.58285    314.44915   -210.92247    36812.755 
 1003000    292.99401   -1484.0884    486.44663    324.62452   -116.54041    36812.755 
 1003100    302.99966   -1502.9107    509.74118    374.25172   -35.319216    36812.755 
 1003200    308.86993   -1507.0191    498.02544    384.91976     617.9001    36812.755 
 1003300    301.64786   -1539.8758    509.54125    330.98611    162.12904    36812.755 
 1003400    303.49181   -1507.6127    486.58619    348.61577   -143.58359    36812.755 
 1003500    292.44038   -1526.7139    475.00866    268.06256   -222.31769    36812.755 
 1003600    293.72958   -1505.7331    489.61344    309.46619     208.5008    36812.755 
 1003700    286.48012   -1493.5583    503.27697    302.58813   -147.59399    36812.755 
 1003800    301.94018   -1482.9239    501.19422    380.91019    583.71349    36812.755 
 1003900     302.0739   -1469.4955    475.41164     369.1595    509.45023    36812.755 
 1004000    291.19701   -1491.1286    543.84786    366.87577    396.30342    36812.755 
 1004100    308.15132   -1485.4872    492.99226    398.17548    1012.2163    36812.755 
 1004200    309.60486   -1487.7413    501.07862    410.56752    750.58217    36812.755 
 1004300     305.9476     -1483.47    499.74592    397.00111    374.22472    36812.755 
 1004400    299.89387     -1486.37    498.50377    365.53875    462.93481    36812.755 
 1004500    305.93569   -1466.7735    541.91687    455.81475    51.412785    36812.755 
 1004600    302.21439   -1534.1876    484.60399    314.29375   -302.21512    36812.755 
 1004700    309.11117   -1532.6426    494.15871    356.51824   -84.830154    36812.755 
 1004800    295.96402   -1492.6143    479.36284    322.41827    16.444962    36812.755 
 1004900    302.45117   -1547.1709     488.0707    305.84568    -248.8262    36812.755 
 1005000    300.98555   -1526.7489    489.39267    320.97545    -591.4204    36812.755 
 1005100    295.27258    -1561.971    502.45083    273.02914    -499.2237    36812.755 
 1005195    300.21906   -1501.4451    510.33655    363.76403   -95.772868    36812.755 
Loop time of 596.917 on 32 procs for 1000000 steps with 1515 atoms

Performance: 144.744 ns/day, 0.166 hours/ns, 1675.275 timesteps/s
100.0% CPU use with 32 MPI tasks x no OpenMP threads

MPI task timing breakdown:
Section |  min time  |  avg time  |  max time  |%varavg| %total
---------------------------------------------------------------
Pair    | 236.68     | 276.94     | 311.81     | 122.4 | 46.40
Bond    | 1.3679     | 1.5728     | 1.7892     |   7.8 |  0.26
Neigh   | 38.749     | 38.836     | 38.91      |   1.0 |  6.51
Comm    | 231.94     | 266.66     | 306.64     | 124.2 | 44.67
Output  | 0.38125    | 0.40088    | 0.90771    |  14.4 |  0.07
Modify  | 9.008      | 9.3539     | 9.8331     |   7.1 |  1.57
Other   |            | 3.145      |            |       |  0.53

Nlocal:        47.3438 ave          74 max          18 min
Histogram: 1 2 2 3 7 4 6 3 3 1
Nghost:        2016.34 ave        2096 max        1930 min
Histogram: 1 3 1 5 6 3 4 5 2 2
Neighs:        5332.41 ave        9073 max        1846 min
Histogram: 2 1 5 3 8 4 1 5 1 2

Total # of neighbors = 170637
Ave neighs/atom = 112.63168
Ave special neighs/atom = 2.0303630
Neighbor list builds = 49693
Dangerous builds = 0

# Output the system volume
variable v equal vol
print 'The system volume is $v'
The system volume is 36812.7551308964

# Outputs
variable A equal xhi-xlo
variable B equal yhi-ylo
variable C equal zhi-zlo
variable D equal xy
variable E equal xz
variable F equal yz
print 'Lattice vectors'
Lattice vectors
print '$A 0 0'
33.2659124863126 0 0
print '$D $B 0'
0 33.2659124863126 0
print '$E $F $C'
0 0 33.2659124863126
Total wall time: 0:10:01
