LAMMPS (29 Sep 2021 - Update 1)
# Test LAMMPS input file for single DeFDe

# Initialize simulation

clear

units real
atom_style full
boundary p p p
dielectric 1
special_bonds dreiding

bond_style harmonic
angle_style harmonic
dihedral_style harmonic
improper_style umbrella
pair_style hybrid/overlay hbond/dreiding/lj 4 9.0 11.0 90 lj/cut 8.50000

# Read data file
read_data frag5.dat
Reading data file ...
  triclinic box = (0.0000000 0.0000000 0.0000000) to (15.000000 15.000000 15.000000) with tilt (0.0000000 0.0000000 0.0000000)
  2 by 4 by 4 MPI processor grid
  reading atoms ...
  1517 atoms
  scanning bonds ...
  2 = max bonds/atom
  scanning angles ...
  6 = max angles/atom
  scanning dihedrals ...
  15 = max dihedrals/atom
  scanning impropers ...
  1 = max impropers/atom
  reading bonds ...
  1016 bonds
  reading angles ...
  527 angles
  reading dihedrals ...
  32 dihedrals
  reading impropers ...
  3 impropers
Finding 1-2 1-3 1-4 neighbors ...
  special bond factors lj:    0        0        1       
  special bond factors coul:  0        0        1       
     4 = max # of 1-2 neighbors
     6 = max # of 1-3 neighbors
    10 = max # of special neighbors
  special bonds CPU = 0.002 seconds
  read_data CPU = 0.017 seconds

# Dreiding potential information

bond_coeff 1 350 1.53
bond_coeff 2 350 1.09
bond_coeff 3 350 1.375
bond_coeff 4 700 1.22
bond_coeff 5 700 1.275
bond_coeff 6 350 0.935
bond_coeff 7 350 0.98

angle_coeff 1 50 109.471
angle_coeff 2 50 120
angle_coeff 3 50 120
angle_coeff 4 50 104.51

dihedral_coeff 1 0.111111111111111 -1 3
dihedral_coeff 2 0.0833333333333333 -1 6
dihedral_coeff 3 5.625 -1 2

improper_coeff 1 40 0

pair_coeff 1 1 lj/cut 0.0951 3.8983
pair_coeff 1 2 lj/cut 0.0953995283007206 3.64309650983885
pair_coeff 1 3 lj/cut 0.0951 3.8983
pair_coeff 1 4 lj/cut 0.0857947550844456 3.77835472527395
pair_coeff 1 5 lj/cut 0.0380199947396104 3.52917391183829
pair_coeff 1 6 lj/cut 0.00308382878902186 3.52806914614779
pair_coeff 1 7 lj/cut 0.0953995283007206 3.64309650983885
pair_coeff 2 2 lj/cut 0.0957 3.4046
pair_coeff 2 3 lj/cut 0.0953995283007206 3.64309650983885
pair_coeff 2 4 lj/cut 0.0860649754545948 3.53100349192691
pair_coeff 2 5 lj/cut 0.0381397430510485 3.29813538230316
pair_coeff 2 6 lj/cut 0.0030935416596516 3.29710294046152
pair_coeff 2 7 lj/cut 0.0957 3.4046
pair_coeff 3 3 lj/cut 0.0951 3.8983
pair_coeff 3 4 lj/cut 0.0857947550844456 3.77835472527395
pair_coeff 3 5 lj/cut 0.0380199947396104 3.52917391183829
pair_coeff 3 6 lj/cut 0.00308382878902186 3.52806914614779
pair_coeff 3 7 lj/cut 0.0953995283007206 3.64309650983885
pair_coeff 4 4 lj/cut 0.0774 3.6621
pair_coeff 4 5 lj/cut 0.0342998542270955 3.42058613398347
pair_coeff 4 6 lj/cut 0.00278208554864871 3.41951536039831
pair_coeff 4 7 lj/cut 0.0860649754545948 3.53100349192691
pair_coeff 5 5 lj/cut 0.0152 3.195
pair_coeff 5 6 lj/cut 0.0012328828005938 3.19399984345648
pair_coeff 5 7 lj/cut 0.0381397430510485 3.29813538230316
pair_coeff 6 6 lj/cut 1e-04 3.193
pair_coeff 6 7 lj/cut 0.0030935416596516 3.29710294046152
pair_coeff 7 7 lj/cut 0.0957 3.4046
pair_coeff 2 4 hbond/dreiding/lj 6 j 9.50 2.75 4 9.0 11.0 90
pair_coeff 4 4 hbond/dreiding/lj 6 j 9.50 2.75 4 9.0 11.0 90
pair_coeff 4 7 hbond/dreiding/lj 6 i 9.50 2.75 4 9.0 11.0 90
pair_coeff 2 7 hbond/dreiding/lj 6 j 9.50 2.75 4 9.0 11.0 90
pair_coeff 4 7 hbond/dreiding/lj 6 j 9.50 2.75 4 9.0 11.0 90
pair_coeff 7 7 hbond/dreiding/lj 6 j 9.50 2.75 4 9.0 11.0 90

neighbor 2 bin
neigh_modify every 2 one 10000

# Gemoetric relaxation
fix 1 all box/relax iso 1.0 vmax 0.001
minimize 1.0e-4 1.0e-6 10000 10000
WARNING: Using 'neigh_modify every 1 delay 0 check yes' setting during minimization (../min.cpp:188)
Neighbor list info ...
  update every 1 steps, delay 0 steps, check yes
  max neighbors/atom: 10000, page size: 100000
  master list distance cutoff = 13
  ghost atom cutoff = 13
  binsize = 6.5, bins = 3 3 3
  3 neighbor lists, perpetual/occasional/extra = 3 0 0
  (1) pair hbond/dreiding/lj, perpetual, skip from (3)
      attributes: full, newton on
      pair build: skip
      stencil: none
      bin: none
  (2) pair lj/cut, perpetual, half/full from (3)
      attributes: half, newton on
      pair build: halffull/newton
      stencil: none
      bin: none
  (3) neighbor class addition, perpetual
      attributes: full, newton on
      pair build: full/bin
      stencil: full/bin/3d
      bin: standard
Per MPI rank memory allocation (min/avg/max) = 16.11 | 16.43 | 17.14 Mbytes
Step Temp E_pair E_mol TotEng Press Volume 
       0            0 8.8910887e+14    278.60401 8.8910887e+14 7.2254563e+16         3375 
    5329            0   -1022.0787    32.068603   -990.01013    104.07917    36500.952 
Loop time of 4.65543 on 32 procs for 5329 steps with 1517 atoms

100.0% CPU use with 32 MPI tasks x no OpenMP threads

Minimization stats:
  Stopping criterion = energy tolerance
  Energy initial, next-to-last, final = 
       889108874764832  -989.431823439361  -989.527023352585
  Force two-norm initial, final = 5.6938182e+16 105.85297
  Force max component initial, final = 2.7788968e+16 74.438126
  Final line search alpha, max atom move = 1.3436130e-05 0.0010001603
  Iterations, force evaluations = 5329 5330

MPI task timing breakdown:
Section |  min time  |  avg time  |  max time  |%varavg| %total
---------------------------------------------------------------
Pair    | 1.4688     | 2.6113     | 3.9286     |  41.4 | 56.09
Bond    | 0.0067414  | 0.011299   | 0.030547   |   3.9 |  0.24
Neigh   | 0.094491   | 0.094843   | 0.095308   |   0.1 |  2.04
Comm    | 0.27024    | 1.5909     | 2.7342     |  53.2 | 34.17
Output  | 0          | 0          | 0          |   0.0 |  0.00
Modify  | 0          | 0          | 0          |   0.0 |  0.00
Other   |            | 0.3471     |            |       |  7.46

Nlocal:        47.4062 ave          70 max          25 min
Histogram: 1 0 5 7 4 3 6 3 0 3
Nghost:        2033.84 ave        2077 max        1992 min
Histogram: 3 2 4 4 4 3 3 4 3 2
Neighs:        5246.31 ave        8752 max        2461 min
Histogram: 1 4 4 7 5 4 3 2 0 2

Total # of neighbors = 167882
Ave neighs/atom = 110.66711
Ave special neighs/atom = 2.0342782
Neighbor list builds = 88
Dangerous builds = 0

# MD simulation
velocity all create 300.0 12345 rot yes dist gaussian
timestep 1.0
fix 2 all nvt temp 300.0 300.0 1

# Compute interaction energy
group WAT molecule <> 2 501
1500 atoms in group WAT
group MOL molecule 1
17 atoms in group MOL

compute w WAT group/group MOL pair yes
fix 3 all ave/time 10 5 100 c_w file outa

# Outputs
thermo 100 # Output thermodynamic data every nth step
#dump mf1 all xyz 10000 mol_*.xyz

# Run
run 1000000
Neighbor list info ...
  update every 2 steps, delay 10 steps, check yes
  max neighbors/atom: 10000, page size: 100000
  master list distance cutoff = 13
  ghost atom cutoff = 13
  binsize = 6.5, bins = 6 6 6
  4 neighbor lists, perpetual/occasional/extra = 3 1 0
  (1) pair hbond/dreiding/lj, perpetual, skip from (4)
      attributes: full, newton on
      pair build: skip
      stencil: none
      bin: none
  (2) pair lj/cut, perpetual, half/full from (4)
      attributes: half, newton on
      pair build: halffull/newton
      stencil: none
      bin: none
  (3) compute group/group, occasional, copy from (2)
      attributes: half, newton on
      pair build: copy
      stencil: none
      bin: none
  (4) neighbor class addition, perpetual
      attributes: full, newton on
      pair build: full/bin
      stencil: full/bin/3d
      bin: standard
Per MPI rank memory allocation (min/avg/max) = 14.95 | 14.99 | 15.61 Mbytes
Step Temp E_pair E_mol TotEng Press Volume 
    5329          300   -1022.0787    32.068603    365.66228     1801.867    36500.952 
    5400     302.2186   -1101.4872    165.42616    429.63699   -166.17761    36500.952 
    5500    287.21157   -1120.6035    197.53522    374.81436   -294.65103    36500.952 
    5600    305.48273   -1130.1764    198.82388    449.09587    585.25161    36500.952 
    5700    298.77785   -1135.2111    173.08266    388.02118    700.87305    36500.952 
    5800    295.02358   -1153.1124    186.74733    366.81936    183.39604    36500.952 
    5900    298.44843    -1157.704    219.08807    410.04508    456.50229    36500.952 
    6000    305.98571   -1158.3076    191.94784    416.36149    621.37439    36500.952 
    6100    315.08829     -1110.61    199.35998    512.60499    911.31754    36500.952 
    6200    297.06736   -1098.1737    204.52483     448.7712    592.55349    36500.952 
    6300    298.01525    -1112.958    210.50425    444.24972    399.66051    36500.952 
    6400    298.84851   -1120.8239    211.63969    441.28469    520.69103    36500.952 
    6500    303.11466   -1159.1826    201.96719    412.53187    97.070971    36500.952 
    6600     296.4048   -1130.4691     222.1986    431.15551    75.581638    36500.952 
    6700    294.40806   -1137.9445    211.61604    404.07448    689.84285    36500.952 
    6800    296.83081   -1124.9162    217.52692    433.96182     469.1516    36500.952 
    6900    306.41665   -1153.7427    210.10599    441.03196    296.94573    36500.952 
    7000    306.47356   -1115.1147    216.46096    486.27208    58.646031    36500.952 
    7100    291.70812   -1128.7688     209.4918    398.92519    192.87207    36500.952 
    7200     314.0208   -1151.9548    215.58772     482.6641    393.15376    36500.952 
    7300    297.90215   -1140.7654    222.69748    428.12451    733.73379    36500.952 
    7400    308.74288   -1154.9988    209.65746    449.83936    489.05606    36500.952 
    7500    293.59847   -1208.6767    222.95746    341.02526    260.31289    36500.952 
    7600    295.48148   -1161.8861    222.06663    395.43416    513.14978    36500.952 
    7700    296.65922   -1171.9357     210.7008    379.34085    341.63928    36500.952 
    7800    299.97231   -1151.4395    217.32311    421.43094    488.36236    36500.952 
    7900    299.19424   -1165.9745    218.90966    404.96643    832.22154    36500.952 
    8000    300.65602   -1169.2559    227.71276    417.09374    257.85386    36500.952 
    8100    285.68756   -1163.8922      222.059    349.16258    261.66935    36500.952 
    8200    295.29644    -1168.626    239.77404    405.56546    626.06826    36500.952 
    8300    307.62939   -1132.4291    223.75165    481.47148    1011.6331    36500.952 
    8400    308.01223   -1176.3445    226.66088    442.19536    369.37968    36500.952 
    8500    304.26045    -1165.573    240.89519    450.24719    768.38944    36500.952 
    8600    289.24245   -1202.6337    225.17783    329.60416    721.64054    36500.952 
    8700    298.38201   -1201.0771    239.96149    387.24525    652.54667    36500.952 
    8800    293.39923   -1182.0345    227.87726    371.68689    319.07437    36500.952 
    8900    302.64837   -1159.9425     228.7888    436.48642    201.84809    36500.952 
    9000    296.55959   -1175.7071     238.8547    403.27314   -81.167591    36500.952 
    9100    303.68479     -1166.08    231.57625    437.81989    255.41254    36500.952 
    9200    301.24194   -1174.1324    245.92618    433.07835    386.50128    36500.952 
    9300    297.76845   -1161.3013    255.92008    440.20705    131.66933    36500.952 
    9400    299.77389   -1186.8972    247.19977    414.95322      92.8968    36500.952 
    9500     303.0821   -1222.1242    231.38761    378.86351   -147.86782    36500.952 
    9600     301.0858     -1162.02    240.10704    438.66606   -135.33803    36500.952 
    9700    298.96359   -1173.0344    247.99138    425.94599   -334.41833    36500.952 
    9800    300.24894   -1134.2521    252.90902    475.45427   -70.861822    36500.952 
    9900    307.39635   -1114.7906    251.59208    525.89732    520.93089    36500.952 
   10000    304.27518   -1137.0919    249.08433      486.984    547.53053    36500.952 
   10100    302.74513   -1111.0813    245.66143    502.65757    559.20962    36500.952 
   10200     306.1291   -1166.2397    244.64168    461.77125    305.43389    36500.952 
   10300    302.80019   -1155.6475    243.76974    456.44844   -24.738352    36500.952 
   10400    299.10074   -1139.0557    239.85771    452.41078   -13.827333    36500.952 
   10500     305.9493   -1168.5815    245.43971    459.41496    230.28617    36500.952 
   10600    296.59776   -1176.8523    250.50994    413.95568    236.31968    36500.952 
   10700    293.34886   -1187.8726    245.49642    383.24037    249.22188    36500.952 
   10800    299.37254   -1219.2463    257.23884    390.82951     99.78284    36500.952 
   10900    296.15511   -1184.4714    256.80804     410.6343    320.75941    36500.952 
   11000    302.53605   -1210.2894    245.07496    401.91813     178.9576    36500.952 
   11100    293.14103   -1178.2142     269.7778    416.24095    536.39531    36500.952 
   11200    297.97175   -1119.7559    261.66342    488.41445    406.28637    36500.952 
   11300     299.4428   -1162.0197    259.62183    450.75657    598.20653    36500.952 
   11400    302.49851   -1189.4517      246.001    423.51229    769.53966    36500.952 
   11500    301.21714   -1204.8783    278.04401    434.33831    335.26135    36500.952 
   11600    312.63199   -1186.0739     251.9137    478.59498    604.69463    36500.952 
   11700     290.7653   -1153.0504    265.23839    426.12964    243.93395    36500.952 
   11800    295.60442   -1176.5618    260.59068    419.83802    983.50927    36500.952 
   11900    302.94574   -1211.8726    255.63033    412.74167    462.68537    36500.952 
   12000    294.24512   -1202.8795    265.29815    392.08522    608.67727    36500.952 
   12100    307.30669   -1165.5375    275.67543    498.82862    846.11109    36500.952 
   12200    306.82269    -1175.006    266.94919    478.44675    787.20757    36500.952 
   12300    302.38613   -1177.9855    274.73847    463.20807    346.45306    36500.952 
   12400    293.82925   -1173.0024    261.73263     416.5176    509.23501    36500.952 
   12500     305.3497   -1154.3115    269.20856    494.74424    158.92963    36500.952 
   12600    298.61291   -1165.5757    268.35787     452.1865    102.88603    36500.952 
   12700     305.2958   -1159.9654    275.75178       495.39    179.57299    36500.952 
   12800     294.2809    -1159.031     279.9219     450.7192    39.790629    36500.952 
   12900    306.21072   -1161.3249    262.61166    485.02487    141.90463    36500.952 
   13000    304.39671   -1159.6975    285.26095    501.10419    284.75141    36500.952 
   13100    302.88761   -1183.7018    269.18153    454.20101    624.52261    36500.952 
   13200    308.00735   -1139.8692    279.63687    531.62459    459.93825    36500.952 
   13300    305.28351   -1166.4488    285.28778     498.3871    97.643831    36500.952 
   13400     303.0838   -1221.3639    258.05998    406.30392    247.93944    36500.952 
   13500    294.25659   -1246.5242    274.88598    358.08023    425.17495    36500.952 
   13600    296.27111   -1214.8886    278.77536     402.7086    350.32629    36500.952 
   13700    300.50953   -1196.0764    282.10597    444.00449    404.28013    36500.952 
   13800    300.83724   -1207.1418    288.71176    441.02575    650.43315    36500.952 
   13900    316.19606   -1180.3208    279.71646    528.25657    855.92794    36500.952 
   14000    304.75658   -1173.3508    274.29382    478.10999    685.73927    36500.952 
   14100    300.86183   -1175.9565    281.29809    464.90854    775.14849    36500.952 
   14200    306.95795   -1159.5153    281.57522    509.17467    404.74494    36500.952 
   14300    313.60074   -1216.7737    276.61554    476.97472    255.60729    36500.952 
   14400    300.42831   -1173.5651     282.0169    466.05967    198.81398    36500.952 
   14500    299.00828   -1145.9729    295.97433    501.19239   -486.45794    36500.952 
   14600    313.46724   -1146.8338    267.34991    537.04576     259.7462    36500.952 
   14700    301.13691   -1190.3192    288.20274    458.69349   -153.14518    36500.952 
   14800    291.39244   -1154.2712    289.65385    452.15831    144.10929    36500.952 
   14900    289.15896    -1163.834    310.10527    452.95398    268.41473    36500.952 
   15000    296.18199   -1152.1509    288.97505    475.24333    651.51188    36500.952 
   15100    305.69716    -1186.871    299.80242     494.3488   -160.93526    36500.952 
   15200    303.31622   -1194.6489    289.29059    465.29974   -4.5876195    36500.952 
   15300    300.59421   -1232.7265    290.59751    416.22864    98.497859    36500.952 
   15400    294.33673   -1231.2691    300.15144      398.963    125.10324    36500.952 
   15500    295.68175   -1227.4797    296.68721    405.36617    85.374327    36500.952 
   15600    296.35883   -1215.5961     307.7364    431.35857     444.5866    36500.952 
   15700    294.15933   -1253.9349    299.22368    374.56769     112.5921    36500.952 
   15800    291.97912   -1236.2681    285.97964     369.1384    467.02711    36500.952 
   15900    295.89297    -1216.617    282.08632    402.58245    408.56458    36500.952 
   16000    292.95461   -1276.6008    299.18024    346.41438    30.102064    36500.952 
   16100    307.71722   -1221.3852    300.02246    469.18307    285.38258    36500.952 
   16200    300.45018   -1216.5493    300.77672    441.93411    204.94029    36500.952 
   16300    301.16333   -1196.7147    296.28199    460.49669    76.519941    36500.952 
   16400    298.30084   -1196.9571    301.15239    452.18934   -252.90655    36500.952 
   16500    291.48663   -1188.0156    297.39679    426.58247   -65.408005    36500.952 
   16600    294.84668   -1208.4296    309.72413    433.67958    15.239026    36500.952 
   16700    297.88492   -1210.2051    299.21542    435.12485   -221.11904    36500.952 
   16800    307.35129   -1232.9777    304.46455    460.37908   -13.657367    36500.952 
   16900    289.36519   -1229.3712    302.41979    380.66328    348.69196    36500.952 
   17000    297.26535   -1255.1308    314.13801      402.322    133.56185    36500.952 
   17100    290.68226   -1273.2929    318.27877    358.55231    728.34301    36500.952 
   17200     293.7857   -1251.7522    301.90577    377.74418    297.21451    36500.952 
   17300    304.12084   -1229.2467    291.68991    436.73736    865.12445    36500.952 
   17400    299.81934    -1247.095     299.4211    407.18208    719.20842    36500.952 
   17500    302.19085   -1245.0369    316.71591    437.25166    249.87656    36500.952 
   17600    291.55286   -1270.9624    305.19334    351.73147    30.535259    36500.952 
   17700     309.0387   -1250.3351    304.55567    450.73806    573.64708    36500.952 
   17800    306.99078   -1195.4376    323.28291    515.10845    55.521324    36500.952 
   17900    316.60086   -1212.4587    337.78359    556.01507    149.66088    36500.952 
   18000    296.73622   -1267.8756       309.16    382.20805   -44.372767    36500.952 
   18100    289.71471   -1244.5064    317.78592    382.47361    191.57006    36500.952 
   18200    307.17646   -1211.8391    309.87007    486.13311    135.09424    36500.952 
   18300    293.97071   -1253.2669    322.45155    397.61126    129.00158    36500.952 
   18400     291.1762   -1258.8027    312.95838    369.95414    256.75914    36500.952 
   18500    302.92344   -1242.9301    322.63661    448.58971   -10.289118    36500.952 
   18600    292.91308   -1241.7335    316.23862    398.15236     185.4056    36500.952 
   18700    305.32855   -1263.6088    315.85965    432.00252    243.60848    36500.952 
   18800    297.93506   -1173.8672    341.42872    513.90268    344.46025    36500.952 
   18900    302.06582    -1185.363     314.6936    494.33829   -118.88162    36500.952 
   19000    296.12389    -1189.749    323.29717    471.70477    268.51918    36500.952 
   19100    298.19137   -1214.3152    327.71084    460.89502    250.34055    36500.952 
   19200    297.19906   -1238.3011    316.14341    420.85754    -105.5067    36500.952 
   19300    312.20814   -1236.4069    334.22275     508.6557    362.02949    36500.952 
   19400    295.88768   -1292.1685     316.5796    361.50033    247.48005    36500.952 
   19500    296.16585   -1220.8366    321.30558    438.81523   -182.31135    36500.952 
   19600    299.06749   -1247.9808    325.07771    428.55534    137.52135    36500.952 
   19700    297.12984   -1275.2277    317.81022    385.28491    259.16118    36500.952 
   19800    301.76132   -1247.3172    318.16046    434.47496    14.069362    36500.952 
   19900    292.15973   -1239.8372    348.72103    429.12673    303.39658    36500.952 
   20000    301.25498     -1278.82    324.09099    406.61454    169.76204    36500.952 
   20100    306.39329   -1244.9812    330.73949    470.32138     456.6123    36500.952 
   20200    299.89852   -1220.8392    311.76488    446.13952    103.80683    36500.952 
   20300    312.32406   -1194.8163    322.93235    539.47977    117.68733    36500.952 
   20400     297.2108   -1245.8327    328.39788    425.63344   -186.57408    36500.952 
   20500    296.55648    -1190.592     326.4274    475.94685   -44.344049    36500.952 
   20600    299.00079    -1244.995    330.37053    436.53257   -8.2287558    36500.952 
   20700    292.94325   -1217.8778    312.46523    418.37102    84.170352    36500.952 
   20800    288.46915    -1268.999    330.59972    365.16628    233.26232    36500.952 
   20900    302.21358   -1244.8641    318.95786    439.76913    320.12484    36500.952 
   21000    297.54395   -1255.5248    317.95142     407.0004     368.3271    36500.952 
   21100    308.90072   -1202.6095    339.72233    533.00673    563.72554    36500.952 
   21200    297.03394   -1231.1201    351.70403    462.85303    145.12633    36500.952 
   21300    299.70367   -1208.0693    344.68855     490.9526    399.70428    36500.952 
   21400    293.69469    -1227.946    335.07322    434.30649    289.15988    36500.952 
   21500    297.91902   -1245.9477    326.39263    426.71361      557.824    36500.952 
   21600    296.20864   -1210.3446    368.92226    497.11723   -115.01607    36500.952 
   21700    313.15995   -1259.4294    332.01179    487.72346    299.02898    36500.952 
   21800    293.89808   -1240.6376    329.21103    416.67183    328.66685    36500.952 
   21900    312.50957   -1254.1912    340.77685    498.78766    796.67431    36500.952 
   22000    301.28041   -1224.7554    340.58538    477.28844    458.37229    36500.952 
   22100    300.88151   -1245.4379    336.22847    450.44645    749.29395    36500.952 
   22200    297.43556   -1253.0788    329.89202    420.89719    210.29216    36500.952 
   22300    299.82277   -1278.4174    345.33346    421.78755    520.50376    36500.952 
   22400    292.64989   -1212.9383    331.40718    440.92682    329.92417    36500.952 
   22500    307.26062   -1234.2758    325.43059    479.63727    380.90958    36500.952 
   22600      296.341   -1217.2575    364.36386     486.2441   -110.63528    36500.952 
   22700    305.59967   -1220.8634    333.95375    494.06716    488.88311    36500.952 
   22800    294.10225   -1216.6003     340.6642    453.08494    408.83492    36500.952 
   22900    297.52031   -1166.1428    354.58553    532.90967    188.28974    36500.952 
   23000    311.41338   -1183.0145    351.50228    575.73618    555.64385    36500.952 
   23100    304.27615   -1206.0232    339.23526    508.20803    665.22855    36500.952 
   23200    298.58989   -1209.0259    370.48708    510.76141    298.97379    36500.952 
   23300    304.44944   -1194.5958    328.80424    509.98752    194.72969    36500.952 
   23400    295.43207    -1266.402    346.23732    414.86564    21.115929    36500.952 
   23500    295.10023   -1259.8282    345.63942      419.342   -192.30053    36500.952 
   23600    302.80739   -1269.7258    340.82799    439.46099     118.4666    36500.952 
   23700    308.49539   -1223.2359    357.13714    527.96352    529.41479    36500.952 
   23800     303.5074   -1188.0101    340.17456    523.68651    699.60777    36500.952 
   23900    303.58497   -1234.9473    337.51999     474.4453    330.38506    36500.952 
   24000    304.58152   -1230.4463    357.26396     503.1936    323.35713    36500.952 
   24100    291.84003    -1241.971    373.79311    450.62039    240.34786    36500.952 
   24200    305.67313   -1189.4084    362.28821    554.18856    781.45076    36500.952 
   24300    307.54962   -1209.6804    365.77905    545.88706    578.60753    36500.952 
   24400    302.58592   -1200.2229    365.30829    532.44333    717.01184    36500.952 
   24500     297.6486   -1241.3753    359.72869    463.40001    210.82493    36500.952 
   24600    304.08081   -1214.8032    357.57796    516.88793    822.32305    36500.952 
   24700    294.21901   -1246.6584    360.46831    443.35858    94.537227    36500.952 
   24800    295.81423    -1241.026    345.75199    441.48331   -110.78184    36500.952 
   24900    293.75106   -1208.4435    361.25061    480.24116   -245.69813    36500.952 
   25000    312.37066   -1211.0582    352.30401    552.82005   -256.47121    36500.952 
   25100    296.26768   -1177.7537     367.6761    528.72883   -123.89176    36500.952 
   25200     297.5995   -1171.8812    371.48938    544.43297    431.52943    36500.952 
   25300    307.34763   -1193.2484    366.07036    561.69769    345.14373    36500.952 
   25400    296.48901   -1206.8536    362.36244    495.31535    120.69686    36500.952 
   25500    303.45452   -1219.3133    349.66139     501.6311     150.0994    36500.952 
   25600     304.6198   -1205.9785     354.5115    525.08183   -179.57688    36500.952 
   25700    294.94915   -1231.9331    373.34128    474.25626   -131.97838    36500.952 
   25800    299.84394    -1251.271    348.21355    451.90971   -198.68905    36500.952 
   25900    296.40286   -1237.2022    346.00792    448.22301    36.082414    36500.952 
   26000    292.30566   -1259.2021    348.03025    409.73053    545.49372    36500.952 
   26100    296.78813   -1247.8326    343.04287    436.36849    367.27526    36500.952 
   26200    304.63785   -1235.7193    361.75994    502.67106    396.27993    36500.952 
   26300    299.89532    -1270.219    354.82903    439.80938    206.94297    36500.952 
   26400    294.51095   -1256.2218     365.0194    439.66556    118.14347    36500.952 
   26500    306.01938   -1277.1002    338.86617    444.63943   -747.11784    36500.952 
   26600    306.81335   -1233.4971     366.2009    519.16507    -410.8914    36500.952 
   26700    291.41781   -1226.9942    353.13757    443.03363    50.010034    36500.952 
   26800    301.10451   -1232.7216    353.49975    481.44176   -85.534137    36500.952 
   26900     304.6655   -1237.9138    365.47112    504.31272    -121.2287    36500.952 
   27000    297.91568   -1224.3214    352.67574     474.6079   -437.07001    36500.952 
   27100    300.77614   -1222.5562    360.73756    497.36104    271.12624    36500.952 
   27200    308.04424    -1251.824    358.70292    498.90247    151.97266    36500.952 
   27300    305.44913   -1245.3942    347.50702    482.40931    112.21147    36500.952 
   27400    296.31954   -1269.2416    361.94541    431.74452    24.717907    36500.952 
   27500    293.93012   -1281.0945    365.53352    412.68223   -251.23066    36500.952 
   27600    288.47793   -1271.0132    350.95735    383.54938   -154.35108    36500.952 
   27700    300.76312   -1227.0135    344.82665    476.93406   -170.23341    36500.952 
   27800    298.43146   -1244.3903    361.12273     465.3168   -496.55718    36500.952 
   27900    298.13236   -1262.6852    364.86918    449.41664     298.0744    36500.952 
   28000    295.11505    -1269.504     361.0581    425.15189    251.14552    36500.952 
   28100    287.44106   -1262.3637    393.43571    429.99169    136.19303    36500.952 
   28200    284.71459   -1293.6699    362.73381    355.66298    503.82466    36500.952 
   28300    292.94509   -1285.9001     356.4367    394.32849    355.11352    36500.952 
   28400    291.33204   -1290.0359      350.711    377.17781   -417.21889    36500.952 
   28500    296.86729   -1312.5771    359.37265     388.3115   -347.78659    36500.952 
   28600    295.11991   -1301.5734    372.51777    404.56408    220.96688    36500.952 
   28700    309.96782   -1292.4925    362.57149    470.79501    309.54121    36500.952 
   28800    296.69508   -1250.0328    345.52129    436.22622    241.06656    36500.952 
   28900    297.99372   -1277.2353    356.51474    425.88565    29.905058    36500.952 
   29000    313.81242   -1294.5014    373.82986    497.41788    354.23659    36500.952 
   29100    306.52823    -1234.604    376.70233    527.27123    500.55617    36500.952 
   29200    302.05705   -1238.2439    360.86739    487.59153    279.66705    36500.952 
   29300    304.35114   -1253.1335    373.68788    495.88921    78.974711    36500.952 
   29400    308.17152   -1249.9633    380.21346    522.84895   -234.91943    36500.952 
   29500    291.50952   -1243.3009    375.00663    449.01042    40.568762    36500.952 
   29600    293.02947   -1279.9181    355.65479    399.90998    428.40809    36500.952 
   29700    310.57685   -1280.2903     365.5986    488.77647    24.380183    36500.952 
   29800    302.27924   -1266.7396    365.90065     465.1331     38.67344    36500.952 
   29900    295.56565    -1292.949    364.26985    406.95482    13.627666    36500.952 
   30000    289.44822   -1278.9231    369.25747    398.32427    30.268209    36500.952 
   30100    304.65325   -1250.3049    360.34604    486.74112    185.12632    36500.952 
   30200    296.36815   -1258.9472    388.59592    468.90916    648.07003    36500.952 
   30300    298.18062    -1256.282    382.08731    473.25615    778.61757    36500.952 
   30400    305.79233   -1250.7732    379.09932    510.17355    508.46675    36500.952 
   30500    297.04223   -1228.1077    384.30716    498.50595    631.66295    36500.952 
   30600    288.55094    -1228.007     372.3033    448.23147    1367.1824    36500.952 
   30700    302.62386   -1267.4364    386.54132    486.63433    966.32508    36500.952 
   30800    302.13897   -1236.6247    380.28036     508.9939    455.62554    36500.952 
   30900    307.12906   -1224.4967    382.35687    545.74818    569.00638    36500.952 
   31000    298.26867    -1276.334    371.71762     443.2323    219.94663    36500.952 
   31100    302.66692    -1205.454    374.34159    536.61159    641.62356    36500.952 
   31200      294.365   -1250.2445    384.60516    464.56902   -77.285648    36500.952 
   31300    295.33008   -1301.3686    352.08947    385.29031   -397.23315    36500.952 
   31400    292.02468   -1281.9245    373.64228    411.35043    306.25647    36500.952 
   31500    306.32023   -1245.1492    371.23136    510.31505   -9.5067028    36500.952 
   31600    301.74667   -1289.0406    360.25191    434.77678    94.494266    36500.952 
   31700    299.21683   -1282.2639    369.33952    439.20897    -181.6859    36500.952 
   31800    324.45988    -1285.284    361.49322    542.41354   -23.540578    36500.952 
   31900    302.02908   -1262.2391    373.79949      476.402   -320.81705    36500.952 
   32000    298.46379   -1276.1868    377.64538    450.18902   -208.11197    36500.952 
   32100    293.84737   -1310.7476     388.3818    405.50344    355.04786    36500.952 
   32200    307.71128   -1286.5346    374.09028    478.07461    416.36962    36500.952 
   32300    298.83337   -1262.0308    379.16975     467.5395    344.34097    36500.952 
   32400     294.7784   -1253.9131    370.36607    448.52949   -260.35608    36500.952 
   32500    293.54982   -1283.3912    375.72092    418.85437     30.83252    36500.952 
   32600    298.75889    -1276.793    369.09276    442.36372    471.59204    36500.952 
   32700     302.8584   -1277.6202    379.31465    470.28368   -124.14283    36500.952 
   32800    303.07748   -1245.1323    373.81272    498.25974    429.20582    36500.952 
   32900    295.71229   -1286.7961    347.79602    397.29657    211.31106    36500.952 
   33000    291.93378   -1283.8814    380.02421    415.36467   -229.78699    36500.952 
   33100    301.02739    -1274.849    363.68685    449.15294   -499.28721    36500.952 
   33200    292.70733   -1283.2178    365.24798    404.74774   -62.551235    36500.952 
   33300    297.37201   -1264.9728    377.73406    456.55808    412.67847    36500.952 
   33400    294.46564   -1260.8368    402.48387    472.31024     488.4199    36500.952 
   33500    291.42001   -1248.8349    394.11589    462.18116    32.574039    36500.952 
   33600     294.4479   -1308.9635    368.73479    390.35426   -26.700012    36500.952 
   33700    302.37428   -1272.6214    366.49961    460.27976    308.86026    36500.952 
   33800    300.93526   -1290.2115     375.5036    445.19083    -545.0986    36500.952 
   33900     294.2739   -1322.1288    356.76601    364.43387    243.88972    36500.952 
   34000    299.93275   -1287.1105    362.33217    430.59018   -69.598249    36500.952 
   34100    296.67761   -1333.3196    361.62741    368.96669    77.691875    36500.952 
   34200    301.04387   -1293.5704    384.89168     451.7108    432.10058    36500.952 
   34300    294.81869   -1290.1611    371.17753    413.27497    169.05711    36500.952 
   34400     301.4562   -1308.8882    361.80563    415.17025   -28.300316    36500.952 
   34500    289.99864   -1298.4109    387.33587    399.40215    -299.9695    36500.952 
   34600    300.36112   -1288.0415    360.02219    429.28498    26.827936    36500.952 
   34700    290.58345   -1307.2762    391.57369    397.41742   -580.50737    36500.952 
   34800    305.81271   -1320.0487    378.13991    440.03066    248.48941    36500.952 
   34900    301.83663   -1310.9144    371.73402    424.79154   -221.71596    36500.952 
   35000    299.64747   -1320.0121     400.9933    435.06061   -580.92075    36500.952 
   35100    297.92424   -1271.7912    408.09737    482.59839    -220.3927    36500.952 
   35200    305.32873   -1277.6145    399.36921    501.50719    177.60613    36500.952 
   35300    298.75775   -1296.9433    406.33438    459.44985   -23.518779    36500.952 
   35400    307.28466    -1340.962    394.99837    442.62754    413.95121    36500.952 
   35500    288.37534   -1320.9728    422.55339    404.72227     455.4208    36500.952 
   35600    296.72123    -1327.911    419.99924    432.94422   -134.77579    36500.952 
   35700     298.7558   -1288.8071    401.09197    462.33492    365.84127    36500.952 
   35800    307.10536    -1389.698    391.39541    389.47831     633.6498    36500.952 
   35900    290.97507   -1339.3223     386.1103    361.67756    315.34204    36500.952 
   36000    298.67372   -1298.9458    380.88361    431.61688     268.6899    36500.952 
   36100     300.4003   -1321.8967    392.39331     427.9779    397.80829    36500.952 
   36200    293.81231   -1300.9747    403.70532    430.44147   -104.63204    36500.952 
   36300    295.79525   -1260.9423    399.60784    475.33708    325.89302    36500.952 
   36400    301.99108   -1258.4166    434.28809    540.54142     364.3816    36500.952 
   36500    304.60207    -1294.188    391.50601    473.78674   -367.27249    36500.952 
   36600     299.2219   -1288.9941     423.5651    486.72723    43.668328    36500.952 
   36700    292.62956   -1309.2388    396.60722     409.7345   -257.99177    36500.952 
   36800    292.83967   -1281.2707    414.08341    456.12831    8.4309601    36500.952 
   36900    298.23765   -1300.2956    398.42233    445.83527     538.8755    36500.952 
   37000    292.95595   -1370.6665    396.70606    349.88057    895.62366    36500.952 
   37100    295.28505   -1332.8727    392.78476      394.278    578.17542    36500.952 
   37200    303.58509   -1328.0764    400.60791    444.40463    557.67672    36500.952 
   37300    299.55894   -1313.2879    406.75958    447.15099    650.37369    36500.952 
   37400    297.12401   -1346.6208    397.29277    393.34806    459.18682    36500.952 
   37500    296.59852   -1304.9711      394.043    429.37332    496.08907    36500.952 
   37600    317.27704   -1321.8909     383.3374    495.19231    30.273862    36500.952 
   37700    305.90639   -1318.6165    429.62517    493.37148    377.56768    36500.952 
   37800    302.56356   -1368.0348    400.59187    399.81393    413.41248    36500.952 
   37900    294.45329   -1328.1272    403.69029    406.17041    287.29887    36500.952 
   38000    292.45156   -1327.4988    412.29039    406.35333   -166.05255    36500.952 
   38100    304.44663   -1354.1773    391.89138    413.48039    328.50869    36500.952 
   38200    299.33074   -1317.2392     413.4734    448.88228    278.12254    36500.952 
   38300    304.56555   -1360.2509    378.42322    394.47599    428.12097    36500.952 
   38400    305.29828   -1363.6514    390.93741    406.90087    284.85335    36500.952 
   38500    297.17393   -1371.0121    383.21344    355.10299    214.74348    36500.952 
   38600    291.97199   -1328.1489    417.24575    408.49147    209.37934    36500.952 
   38700    294.63345   -1328.1094    395.02327    398.33537    428.26869    36500.952 
   38800    296.50497   -1330.0333    417.14485    426.99025    232.85916    36500.952 
   38900    298.14296   -1311.6819    443.87986    479.47858    771.81229    36500.952 
   39000    303.66521   -1339.7187    408.91867    441.43515    375.05146    36500.952 
   39100    296.35952   -1380.3575    407.69028     366.5542    332.89001    36500.952 
   39200    297.57384   -1387.0414     397.2624     354.9298   -125.29395    36500.952 
   39300    299.20147    -1353.442    386.04237    384.66426    51.238875    36500.952 
   39400    298.72675   -1351.7681    408.88408    407.03475    -124.4117    36500.952 
   39500    292.40437   -1335.4811    393.54061      379.408    241.43478    36500.952 
   39600    303.79383   -1329.2729    408.58095    452.12443    652.69894    36500.952 
   39700    297.54869   -1348.2755     403.8136    400.13329    394.55126    36500.952 
   39800     294.6242   -1352.3351    411.80696     390.8515     192.7364    36500.952 
   39900    298.05654   -1403.7969    381.57031    324.66354   -218.55353    36500.952 
   40000     299.9661   -1403.8454     379.1088    330.78259    177.68789    36500.952 
   40100    299.71828   -1384.8433    403.27071    372.82672    551.56755    36500.952 
   40200    305.31134   -1367.7298    406.32603    418.27009    323.08911    36500.952 
   40300    306.07997   -1410.9099    364.21485    336.45217   -64.045736    36500.952 
   40400    305.51805   -1348.7773    400.69898    432.52969   -151.32579    36500.952 
   40500    299.45817   -1373.5195    404.64115    384.34561    211.12667    36500.952 
   40600    305.54451   -1354.9127    410.16153    435.97644   -174.03983    36500.952 
   40700    306.56052   -1319.6968    407.25997    472.88191    266.07631    36500.952 
   40800    292.72582    -1348.685    395.95059    370.06662    215.54576    36500.952 
   40900     298.3795   -1389.5679    397.84943    356.63107     205.5855    36500.952 
   41000    309.37943   -1347.5598    404.25774    454.75519    403.94329    36500.952 
   41100    308.53473    -1366.006    382.83891    411.07297    165.28687    36500.952 
   41200    290.00454   -1361.2172    381.79241    331.07909   -299.80118    36500.952 
   41300    305.71373   -1375.3955    367.31669    373.41346   -184.45515    36500.952 
   41400    281.65076    -1410.905    381.37231    243.22124   -441.22521    36500.952 
   41500    297.32109   -1398.4722    408.18955    353.28407     39.83402    36500.952 
   41600    303.18174   -1398.5413     378.6869    350.19599    4.7303524    36500.952 
   41700    295.52481   -1358.1648    415.42181    392.70641    2.1090325    36500.952 
   41800    293.51352    -1340.971    421.08455    406.47415   -489.42485    36500.952 
   41900    298.76514   -1383.4238    418.92613    385.59457   -90.835997    36500.952 
   42000     298.4815   -1406.9435    376.94853     318.8155    86.735804    36500.952 
   42100    304.95621   -1338.5432     366.4875    406.01332     228.8463    36500.952 
   42200    298.34737   -1336.9603    407.39196    418.63593    89.502581    36500.952 
   42300    297.72951   -1354.7728    403.83362    394.47311    447.65551    36500.952 
   42400    299.56205   -1344.8856    382.95898    391.76674    177.75543    36500.952 
   42500    299.00764   -1359.5168    406.80931     398.4806    604.87051    36500.952 
   42600    305.91444   -1366.9228    371.75297    387.22938     460.9077    36500.952 
   42700    306.67251   -1394.4049    374.38709    365.80701    456.34824    36500.952 
   42800     299.3393   -1385.2399    399.60162    367.04849    834.27004    36500.952 
   42900    280.69234   -1369.6706    413.06835    311.82066    846.29797    36500.952 
   43000    301.37217   -1386.2265    403.67326    379.31987    847.29542    36500.952 
   43100     294.6025   -1316.1776    406.29331    421.39732    854.59583    36500.952 
   43200    297.44915   -1364.2253    407.57051    387.49054    571.76143    36500.952 
   43300    301.91671   -1369.9223    425.79237    420.20391    686.19213    36500.952 
   43400    298.84268   -1412.7447    421.63572    359.33365    466.73815    36500.952 
   43500    300.64732   -1311.0733    418.28896    465.81325    1299.5029    36500.952 
   43600    312.74567   -1362.3389    387.25143    438.18147    1038.2108    36500.952 
   43700    309.76324   -1422.9158     411.1472      388.023     687.7714    36500.952 
   43800    296.59911   -1401.6266    398.52878    337.20629    435.98257    36500.952 
   43900    297.99797   -1378.2005    404.50094     372.9259     322.3335    36500.952 
   44000    299.25307   -1390.1697     399.9142    362.04162    289.43324    36500.952 
   44100    293.88801   -1373.5864    394.65929    349.12579     446.7637    36500.952 
   44200    303.45603   -1320.4073    424.47118    475.35379   -3.8604598    36500.952 
   44300    309.45721   -1377.2481    415.05431    436.21489   -274.43286    36500.952 
   44400    296.31399   -1394.9585    408.37989    352.43701   -651.39374    36500.952 
   44500    293.79763   -1366.9615    419.07873    379.76172   -898.22417    36500.952 
   44600    309.20025   -1368.0339    417.72873    446.94229   -71.339083    36500.952 
   44700     301.6321   -1364.9048    417.06696    415.20982   -495.26468    36500.952 
   44800    293.29425   -1335.5509    416.67173    406.49055   -65.699565    36500.952 
   44900      298.252   -1330.1441    404.55569    422.18496   -355.86241    36500.952 
   45000     295.5132    -1348.517    411.71857    398.59856    406.98584    36500.952 
   45100    311.93751   -1357.7117    411.20474    463.10999    487.84597    36500.952 
   45200    309.31529   -1353.7202    403.35711    447.40429    752.39486    36500.952 
   45300    303.95278   -1335.3913    403.52755    441.67092    736.32058    36500.952 
   45400    299.55917   -1337.7287    420.88307    436.83474    534.79823    36500.952 
   45500    296.94237   -1322.8473    381.87303    400.88095    330.11223    36500.952 
   45600     300.0122   -1321.8824    389.60338    423.44855    457.77267    36500.952 
   45700    299.27322   -1329.6436    399.51371    422.25827    72.977385    36500.952 
   45800    297.34863   -1298.2982    388.18607    433.57899    211.30593    36500.952 
   45900    294.31531   -1345.0553    381.91013    366.83867   -241.28548    36500.952 
   46000    301.60864   -1328.4382    408.82634    443.32988   -145.44606    36500.952 
   46100    303.89026   -1326.0046    411.38066    458.62821    319.63541    36500.952 
   46200     295.4147     -1343.91    405.11552    396.15742    174.75354    36500.952 
   46300    297.00127   -1333.8675    402.04619    410.30006     28.04721    36500.952 
   46400    301.14333    -1327.697    400.31776    433.45976   -360.45292    36500.952 
   46500    295.90007   -1353.4054     392.7018    376.44165   -182.34893    36500.952 
   46600     300.7723   -1331.2407    401.65516    429.57682    349.80202    36500.952 
   46700      311.973   -1344.4175    398.86794    464.22768    124.86407    36500.952 
   46800    296.96685   -1357.2197    415.95925    400.70543    560.80838    36500.952 
   46900    299.35444   -1357.8491     415.4267    410.33276     338.6413    36500.952 
   47000    299.13562   -1428.8963    389.63302    312.50307    463.17909    36500.952 
   47100    307.13356   -1357.8734    406.49273    436.52766    236.14375    36500.952 
   47200    302.68348   -1385.0534    422.87067     405.6161    159.25867    36500.952 
   47300    304.88685   -1398.4109    404.07574    383.42044    70.338319    36500.952 
   47400    300.56764   -1364.5157     417.2399    410.96174    474.35412    36500.952 
   47500    308.78181   -1351.7158    418.48171    462.12249    787.91545    36500.952 
   47600    295.03641    -1344.547    409.90291    398.59828     355.7481    36500.952 
   47700    297.87321   -1371.4924    409.31856    383.88775    501.23065    36500.952 
   47800    296.41873   -1369.3503    416.48448    386.62319    433.18785    36500.952 
   47900    304.50979   -1331.0064    408.32071    453.36602    421.13444    36500.952 
   48000    304.42038   -1299.5917    423.33167     499.3877    226.74208    36500.952 
   48100    301.79021   -1343.1797    417.27981    437.86232   -315.80623    36500.952 
   48200    305.57298   -1335.4531    408.82846    454.23155   -591.89762    36500.952 
   48300    307.33284   -1353.1872    404.53052    440.15217   -25.658328    36500.952 
   48400    302.92718   -1398.4438    399.95259    370.40884    395.35496    36500.952 
   48500    312.74971    -1368.587    413.57536    458.27554    288.43217    36500.952 
   48600    292.92974   -1367.8449     436.8092    392.68681   -360.83033    36500.952 
   48700    298.55164   -1360.9459    401.65943    389.84098   -15.071791    36500.952 
   48800    304.10669   -1406.4673    409.82573    377.58857   -264.21143    36500.952 
   48900    294.31656   -1377.4183    424.08601    376.65713   -92.527459    36500.952 
   49000    292.52893   -1343.0424    416.05057    394.91953   -468.21266    36500.952 
   49100     304.7389   -1339.0875    439.35767    477.35723    83.546768    36500.952 
   49200    308.22551   -1330.1113    441.88181    504.61326    82.865342    36500.952 
   49300    288.24774   -1324.3239    434.71003    412.95111      331.528    36500.952 
   49400    300.80839   -1350.2134    430.32226    439.43428    -744.8289    36500.952 
   49500    308.01707   -1323.9902    403.58302    471.49366     -275.941    36500.952 
   49600    308.62218   -1366.7291     407.3262    435.23232   -18.948406    36500.952 
   49700    307.55052   -1305.8458    410.99826    494.94495    88.042448    36500.952 
   49800    301.41848   -1305.9124    436.91806    493.08802   -386.28342    36500.952 
   49900    306.09375   -1360.4626     404.6374    427.38432    312.15303    36500.952 
   50000     303.5152   -1392.6692    434.29041    413.17844    687.95024    36500.952 
   50100    300.80468   -1396.4209    426.48577    389.37357    1058.9616    36500.952 
   50200    295.56306    -1364.017    419.17362    390.77888    650.18742    36500.952 
   50300    295.24694   -1357.1945    413.70398    390.70322    260.40317    36500.952 
   50400    291.05169   -1360.4683    450.90904     405.6766   -113.36502    36500.952 
   50500    300.87454   -1353.9142    438.10834    443.81853   -220.63992    36500.952 
   50600    284.83238   -1336.8979    412.52307    362.75648    -79.81365    36500.952 
   50700    309.29925   -1345.1538    426.94994      479.491   -192.89877    36500.952 
   50800    311.00093   -1366.3018    424.69083    463.77359   -125.16634    36500.952 
   50900    298.74874   -1332.0302    438.13281    456.12071    253.25359    36500.952 
   51000    295.26245   -1350.9678    426.30538    409.60143    202.17417    36500.952 
   51100    299.48455   -1320.7075    428.10948    460.74512    247.62552    36500.952 
   51200    299.67902    -1354.886    450.37413    449.71004    442.04858    36500.952 
   51300    295.12522   -1374.8445     433.9936    392.79276     284.8048    36500.952 
   51400    303.76155   -1388.4753    428.75077    412.94593   -5.0156644    36500.952 
   51500    292.81965   -1388.3124    421.75792    356.67058    438.27901    36500.952 
   51600    298.99468   -1374.5909    423.39538    399.93394    194.65667    36500.952 
   51700    302.17707    -1400.453    428.74584    393.80316   -173.33827    36500.952 
   51800    308.20073   -1382.6166    422.10673    432.22086    480.80147    36500.952 
   51900    305.98691   -1381.0474    419.16924    420.84857    167.87339    36500.952 
   52000    302.99783   -1386.9062    442.15984    424.47299    681.21742    36500.952 
   52100    296.93681   -1414.1627    440.47915    368.14656    815.49506    36500.952 
   52200    303.60209   -1421.9028    425.09309    375.14022     690.8925    36500.952 
   52300    296.47229   -1350.7754    426.46171    415.41736    1167.2774    36500.952 
   52400    306.94195   -1394.0737     412.5886    405.55733    615.64261    36500.952 
   52500    296.05415   -1366.1765     436.8799    408.54489    147.31526    36500.952 
   52600    298.98954   -1384.1637    437.98215    404.92467    821.62741    36500.952 
   52700     296.9858   -1426.4459    431.54535    347.15097    431.13151    36500.952 
   52800    288.98167   -1374.7289    416.80604    347.95868    544.57411    36500.952 
   52900    292.93353   -1405.5907    445.48048    363.62943    629.09001    36500.952 
   53000    303.36138   -1381.0931    440.46486    430.23398    175.42663    36500.952 
   53100    307.75211   -1343.2869    426.49367     473.9103    848.35439    36500.952 
   53200    300.75371   -1428.9798    429.39376     359.4923    567.28621    36500.952 
   53300    311.75635   -1383.5629    439.41582    464.65115    1044.2109    36500.952 
   53400    306.94244    -1361.713    452.84192    478.17363    336.11137    36500.952 
   53500     291.6309   -1372.9795    434.05358    378.92731    91.693776    36500.952 
   53600    303.46825   -1434.0829     395.0838    332.34601     686.5169    36500.952 
   53700    304.63799   -1461.0261    433.67443    349.27938    208.35115    36500.952 
   53800    308.60804   -1433.8875    440.37735    401.06118    410.94226    36500.952 
   53900    295.23893   -1403.3445    427.65691    358.46998    606.27536    36500.952 
   54000    295.18401   -1410.8737    451.64787    374.68357    485.86322    36500.952 
   54100    299.45351     -1424.41    433.95491    362.74778   -54.023815    36500.952 
   54200     306.3601   -1416.8193    429.70511    397.29896    205.84217    36500.952 
   54300    294.46286   -1363.9479     428.9987    395.70138    179.98282    36500.952 
   54400    305.05381   -1394.4321    441.51865    425.59664    358.96073    36500.952 
   54500    311.48542   -1378.3966    432.38397    461.56127    128.70004    36500.952 
   54600     310.0895   -1386.4731    458.81229    473.60513    86.888242    36500.952 
   54700    294.84205   -1407.1237     415.2784     340.5188    89.718113    36500.952 
   54800    310.98217   -1342.9648    418.49694    480.83192   -341.31164    36500.952 
   54900    301.23603   -1369.1564     424.4806    416.58209   -717.26418    36500.952 
   55000     302.3395   -1357.4291    456.17221    464.98753   -157.01372    36500.952 
   55100    298.12137   -1354.4312     417.0479    409.79978   -29.995862    36500.952 
   55200    304.54892   -1343.0245    423.25726    456.46126    508.03293    36500.952 
   55300    294.70862   -1362.0319    436.26036    405.98961    686.34427    36500.952 
   55400    315.83873   -1409.1206    441.63348    459.75907    276.88007    36500.952 
   55500    303.09221   -1408.0413    442.31925    403.92374     382.6943    36500.952 
   55600    295.36301   -1381.0938    444.87327    398.49773   -212.37372    36500.952 
   55700    292.60109   -1396.1014    449.90138    376.03743    602.12147    36500.952 
   55800    309.69692   -1354.2965    462.13917    507.33452    1166.6076    36500.952 
   55900    295.00139   -1335.2026    453.69743    451.57904    877.75855    36500.952 
   56000    301.81178   -1377.4819    450.41077    436.78857    284.33193    36500.952 
   56100     300.8629   -1415.5348    451.38165    395.41866   -126.83356    36500.952 
   56200    306.40225   -1381.7749    438.99735    441.82607    101.73268    36500.952 
   56300    295.85358   -1392.7529    429.75231    373.93452    173.06704    36500.952 
   56400     310.5966   -1401.3101    429.48057    431.72798    722.90102    36500.952 
   56500    295.28024   -1396.6741    415.75035     353.4205    370.47767    36500.952 
   56600    303.83518   -1446.0728    433.95812    360.88861    692.89733    36500.952 
   56700    300.82419   -1395.8151    454.91334    418.49513    475.11123    36500.952 
   56800    296.65245   -1418.2134    456.73214    379.06383   -274.24539    36500.952 
   56900    300.99319   -1447.6994    428.73606    341.19721   -204.98706    36500.952 
   57000    300.22979   -1407.0402    455.93228    405.60289    -331.9282    36500.952 
   57100    296.54366   -1372.0926    432.38807    400.34903   -15.732148    36500.952 
   57200    305.96522   -1416.9683    439.68578    405.34619    243.20462    36500.952 
   57300    296.18245   -1419.1264    445.75732    365.05218     163.5766    36500.952 
   57400    311.49434   -1437.7136    434.99077    404.89141    231.98053    36500.952 
   57500    297.77089    -1425.806    452.63263    372.42587   -183.82189    36500.952 
   57600    297.45406   -1399.6941    454.98038    399.45383    39.515546    36500.952 
   57700    295.07273   -1367.5312    464.92709    430.80245   -608.18316    36500.952 
   57800    287.19729   -1396.6428    433.91736    335.09269   -275.52685    36500.952 
   57900    309.10666   -1377.8731    449.18322    468.13467   -181.52157    36500.952 
   58000    286.20304   -1391.8822    442.62474    344.06773   -343.35529    36500.952 
   58100    293.69536   -1432.0263    445.38375    340.53978   -557.23654    36500.952 
   58200    301.33315   -1403.7699    473.32994    431.25685    -142.4627    36500.952 
   58300    305.04722   -1408.9099     442.1383    411.70875   -532.80398    36500.952 
   58400    294.43472   -1371.2571    468.32412    427.59043   -498.22184    36500.952 
   58500    300.12378   -1418.3558    445.63074    383.50673    1.1027455    36500.952 
   58600    315.78863   -1422.9298    460.13857    464.22849   -171.55441    36500.952 
   58700    302.31303   -1393.2958    450.81645    423.64541    119.71604    36500.952 
   58800    305.74229   -1391.3429    448.69549    438.97385   -126.55967    36500.952 
   58900     297.6159   -1453.9377    438.39068    329.35186     169.1282    36500.952 
   59000    308.75623   -1430.5135    430.70565    395.43311    267.11515    36500.952 
   59100    315.23446   -1403.8478    432.21447    452.88216    333.04195    36500.952 
   59200    292.66425   -1387.1892    448.74504    384.07862    668.72441    36500.952 
   59300    295.83192   -1399.9959    440.06316    376.90452    239.33329    36500.952 
   59400    301.90157   -1428.6853    445.15817    380.73825    82.251326    36500.952 
   59500    313.94496   -1467.5217    437.89019    389.05692    40.559696    36500.952 
   59600    299.10097   -1422.5858    439.54653    368.57054   -6.3873768    36500.952 
   59700     307.7918   -1428.0631    422.63908    385.45883   -346.60786    36500.952 
   59800    301.70013   -1404.9697    440.00603     398.3915   -160.79816    36500.952 
   59900    298.55575   -1427.3361    440.36881    362.17867   -160.22812    36500.952 
   60000     301.6852   -1413.3231    451.25228    401.21688    146.01757    36500.952 
   60100    297.13674   -1415.8047    429.98809    356.91699    243.07603    36500.952 
   60200    291.85828   -1425.8283    434.83733    327.88971    672.67928    36500.952 
   60300    300.46031   -1423.7238    474.34369    408.37241    507.06027    36500.952 
   60400    308.62622   -1401.6057    466.93754    459.98533    210.52462    36500.952 
   60500    303.38737   -1407.7162    442.92216    406.18557    220.25165    36500.952 
   60600     303.3605   -1449.9002    458.54446    379.50251    417.78496    36500.952 
   60700    293.23797   -1414.6945    452.63765    363.05861    445.67153    36500.952 
   60800    294.93441   -1451.6095    425.43401    306.60597    177.64687    36500.952 
   60900    298.27493   -1414.3042    462.10312    395.67589    253.19001    36500.952 
   61000    291.63363   -1423.5542    447.98723    342.29862   -72.884694    36500.952 
   61100    299.28331   -1432.0452    424.96816    345.35677    349.49008    36500.952 
   61200    308.65736   -1394.0429     455.3638    456.11509   -135.80309    36500.952 
   61300    308.20147    -1380.146    444.91523    457.50333   -462.52218    36500.952 
   61400    298.75432   -1359.2271    446.26281    437.07898   -749.61824    36500.952 
   61500     302.5743   -1414.1081     430.7936    383.99092   -302.29682    36500.952 
   61600    302.44949   -1429.1666    441.50774    379.08258   -464.49341    36500.952 
   61700    308.27439   -1438.7792    450.05865    404.34312    -133.9119    36500.952 
   61800     307.1961   -1480.6773    425.01321    332.52687    72.775323    36500.952 
   61900    294.02718   -1538.2757    412.25316    202.65928   -351.34923    36500.952 
   62000    296.55834   -1479.9748    428.27974    288.42476   -135.70915    36500.952 
   62100    306.23613   -1521.7508    443.30632    305.40841   -51.712297    36500.952 
   62200    300.38631   -1476.9708    418.63217    299.07944    -557.0528    36500.952 
   62300    304.74512   -1459.3993    415.04687    332.76272   -1084.0638    36500.952 
   62400     289.3895   -1430.0124    444.20503    321.91717   -668.82674    36500.952 
   62500    300.43104    -1460.954     446.3413    343.00755    -362.6066    36500.952 
   62600    298.52777   -1475.1224    451.81587    325.71303   -409.71992    36500.952 
   62700    304.02386   -1427.0818    448.74533    395.51944    65.534648    36500.952 
   62800    298.97385   -1491.2117    443.15119    302.97483    -172.0367    36500.952 
   62900    296.97008    -1439.883    435.24172    337.33917    416.51222    36500.952 
   63000    300.71755   -1416.1285    465.35429    408.14071    93.423699    36500.952 
   63100    306.38273   -1423.0151    445.25686     406.7571   -367.45682    36500.952 
   63200    311.47874   -1420.2298     445.3859    432.69987   -90.823951    36500.952 
   63300    312.93034   -1430.6367    463.46759     446.9343   -577.55238    36500.952 
   63400    297.54939   -1400.7809    454.90832    398.72577   -269.01317    36500.952 
   63500    311.84567   -1413.8973    472.95857    468.26315    89.734256    36500.952 
   63600    292.87539   -1358.9462    476.80692    441.33772   -334.28516    36500.952 
   63700    301.19965   -1357.5327    499.57234    503.13315    345.66816    36500.952 
   63800    309.53613   -1383.7988    463.29994    478.26646    106.01786    36500.952 
   63900    301.03059   -1361.4315    470.55337    469.45148    31.792123    36500.952 
   64000    300.48714   -1396.9551    445.92038    406.83899    6.7819034    36500.952 
   64100     300.5808   -1394.1571    449.73291    413.87278   -225.38805    36500.952 
   64200     294.1916   -1403.8396    445.75376     371.3389     568.6916    36500.952 
   64300    294.87896    -1397.575    454.97407       389.93   -82.747831    36500.952 
   64400    291.12023   -1386.5526     463.5553    392.54818      33.1999    36500.952 
   64500    288.54685   -1412.5293     451.8017    343.18909   -9.2706899    36500.952 
   64600    294.60213   -1433.9044    467.81569    365.19122   -229.46135    36500.952 
   64700    305.63331    -1395.229    451.21393    437.11375    41.797948    36500.952 
   64800    301.69944   -1396.8973    458.17871    424.63342    -759.0094    36500.952 
   64900    304.29594   -1400.2052    461.57177    436.45193   -1160.5898    36500.952 
   65000    306.68021   -1382.0008    436.79536    440.65419   -1166.6916    36500.952 
   65100    311.30922   -1400.8374    457.83193    463.77225   -373.04676    36500.952 
   65200    292.33022   -1393.8918    443.23895    370.36049     62.29016    36500.952 
   65300    303.97941    -1418.431    444.28991    399.51393   -426.08208    36500.952 
   65400    304.04325   -1398.5995    441.12447    416.46851   -553.84949    36500.952 
   65500    295.78325    -1391.166    451.97168    397.42294   -164.80595    36500.952 
   65600    302.47616   -1406.7299    474.25044    434.38252   -261.34121    36500.952 
   65700    296.04656   -1368.8469    436.90094    405.86124   -622.94669    36500.952 
   65800    297.42447   -1399.0304    406.88685    351.89031   -429.40913    36500.952 
   65900    295.07373   -1406.6258    439.53079    366.31607   -649.28632    36500.952 
   66000    306.59054    -1415.477    462.27378    432.25121   -616.16422    36500.952 
   66100    293.96949   -1438.1197    477.14534    367.44673   -909.98442    36500.952 
   66200    299.48374   -1435.4906    437.34227    355.19111     55.67236    36500.952 
   66300    308.33053   -1427.1727    456.54199    422.68659    775.96459    36500.952 
   66400    304.62305    -1413.687    455.33843    418.21497    1095.5979    36500.952 
   66500    296.38244   -1380.6508    453.13426    411.80851    718.40847    36500.952 
   66600    294.98587   -1427.6788    440.37805    345.71327    458.58478    36500.952 
   66700    299.60499    -1432.392    457.41912    378.91457   -57.875992    36500.952 
   66800    294.91653   -1425.3252    461.11153    368.48698    16.618121    36500.952 
   66900    298.92705   -1407.0908    437.91246    381.64547     93.97821    36500.952 
   67000    290.08212   -1397.8335    436.87023    349.89112   -206.33057    36500.952 
   67100     301.5237   -1384.2682    474.98196    453.27167   -268.74216    36500.952 
   67200    298.70118   -1374.2896    450.82311    426.33669    28.476924    36500.952 
   67300      303.294   -1367.3656    453.60261    456.79474    851.83672    36500.952 
   67400    304.00686   -1343.9905    447.88374    477.67232    380.31842    36500.952 
   67500    292.84565   -1351.3347    453.53081    425.53865    316.15163    36500.952 
   67600     302.4462   -1375.5877    442.70676    433.84558   -5.3182945    36500.952 
   67700    287.92341   -1330.8057    472.41326      442.707   -256.50924    36500.952 
   67800    299.86704   -1365.8139    454.96735    444.22496   -347.29851    36500.952 
   67900    305.85019   -1357.0303    456.35357    481.43221    199.30945    36500.952 
   68000    305.43593     -1371.35    449.94741    458.83434   -320.09323    36500.952 
   68100    290.76065   -1402.7013    454.37674    365.59602    4.6689818    36500.952 
   68200    305.73231   -1318.9865    449.58229      512.172   -59.301511    36500.952 
   68300     304.2679   -1348.2834    450.72404    477.39929    449.40768    36500.952 
   68400    299.87965   -1382.8701    445.63572    417.89422    396.84894    36500.952 
   68500    296.98544   -1355.8627    431.38338    417.57055   -85.853011    36500.952 
   68600    306.30897    -1406.664    430.41307    407.93114     244.6877    36500.952 
   68700    304.03267   -1417.7917     417.9081    374.01207    230.66246    36500.952 
   68800     305.6454   -1414.5837    439.84751    406.44725    395.29468    36500.952 
   68900    302.11945   -1368.1516    476.96224    474.06061     253.5211    36500.952 
   69000    294.83224   -1362.4553     457.2686    427.13308    -73.48435    36500.952 
   69100    297.35673   -1359.5754    443.63865    427.79096    119.76674    36500.952 
   69200    304.01689   -1370.8656    452.15631    455.11513    454.24679    36500.952 
   69300    283.51146   -1405.5077    414.17479    289.82931    451.40332    36500.952 
   69400    299.11607   -1371.0888     443.9712    424.56046    299.85544    36500.952 
   69500    300.73747   -1378.9223    450.56891    430.65161    181.61302    36500.952 
   69600     296.0588   -1404.8759    447.00418    379.99079    275.34127    36500.952 
   69700    301.17031   -1373.6878    459.52405    446.79717    635.18763    36500.952 
   69800    301.58872   -1401.1489    465.86787    427.57063    647.59603    36500.952 
   69900    302.71143   -1398.6498    433.88764      403.163       575.45    36500.952 
   70000     295.7982   -1370.1429    445.73906    412.28098    399.18399    36500.952 
   70100    309.85442   -1425.7197    448.64438    423.12832    902.23079    36500.952 
   70200    297.59708   -1434.8921    455.80527    365.72699    361.14659    36500.952 
   70300    296.05469   -1394.2049    454.31622    397.95527    697.05494    36500.952 
   70400    305.08009   -1398.5098    443.23473    423.35379     324.3478    36500.952 
   70500    306.25968    -1387.615    450.04094    446.38525    1219.9481    36500.952 
   70600    306.07795    -1377.206    456.90552    462.83756     674.4685    36500.952 
   70700    297.66579   -1382.7351    453.20813     415.5973    364.29176    36500.952 
   70800    298.46291   -1402.4753    462.54144    408.79263    14.693101    36500.952 
   70900    289.85128    -1396.542    428.46159    341.73084    377.62244    36500.952 
   71000    300.10666   -1383.9372    451.44653    423.66367    385.92934    36500.952 
   71100    307.02448   -1397.8267    446.36303    435.95168    650.47467    36500.952 
   71200    290.79105    -1417.484    448.49553    345.06953    287.51037    36500.952 
   71300    302.77586   -1432.2475    433.93248     369.9012    176.13249    36500.952 
   71400     299.4328   -1397.8004    456.09313    411.40202     299.4924    36500.952 
   71500    304.55687   -1429.1786     439.5689    386.65477    27.244029    36500.952 
   71600    296.37163   -1390.5968    461.69236    410.37166    10.514355    36500.952 
   71700    302.69665   -1393.1955    457.13678    431.79965    266.20299    36500.952 
   71800    297.71435   -1424.2593    432.49874    353.58326     481.4022    36500.952 
   71900    292.68392   -1418.2085    440.30237     344.7056    753.15232    36500.952 
   72000    297.01811   -1425.6755    448.91773    365.43977    744.45981    36500.952 
   72100    295.82016   -1418.3807     434.7999    353.20328    278.63369    36500.952 
   72200     301.2861   -1427.0397     446.4115      380.856    244.29906    36500.952 
   72300    299.18648   -1403.0776    450.66862    399.58716    801.67987    36500.952 
   72400    303.91875   -1410.3795    435.06043    398.06178    688.10745    36500.952 
   72500    303.92656   -1374.4359     444.3154    443.29566    233.22895    36500.952 
   72600    302.78931   -1362.4133     436.8519    442.71562    216.59508    36500.952 
   72700     305.7101   -1351.1515    453.07342    483.39774   -639.63032    36500.952 
   72800     290.1009   -1324.0175    452.15748    439.07923   -65.252912    36500.952 
   72900    309.29812   -1364.3128    471.21878    504.59572    -135.9165    36500.952 
   73000    300.47957   -1392.6175    412.02402    377.24604    2.2741564    36500.952 
   73100    299.65856   -1420.5935    464.45925    397.99521   -156.18662    36500.952 
   73200    303.72521   -1434.1158    458.94842    397.33886   -288.37955    36500.952 
   73300    297.77559   -1445.8842    450.83029    350.56653   -302.40635    36500.952 
   73400    293.10594   -1390.3664    448.89114    383.04347   -163.55446    36500.952 
   73500    290.43579   -1392.8849    443.27048    362.83824    300.15821    36500.952 
   73600    305.10145   -1409.8107    436.98069    405.89542    461.03722    36500.952 
   73700    303.53415    -1438.368    427.01761    360.29247   -227.12222    36500.952 
   73800    292.33694   -1400.2558    453.77424    374.56216    -205.8618    36500.952 
   73900    303.42137   -1446.9889    432.33697    356.48134   -96.150661    36500.952 
   74000    293.69053   -1414.0891    449.26311    362.33455   -151.00102    36500.952 
   74100    304.89315   -1411.3971    464.18638    430.57332    364.81231    36500.952 
   74200    300.77203   -1409.7356    434.81129    384.23684    608.87672    36500.952 
   74300    298.52598   -1406.7901    441.22281    383.44422    657.33612    36500.952 
   74400    300.17383   -1405.7063    454.02456    404.77618    619.18912    36500.952 
   74500    305.67396    -1428.878    471.15598     423.5905    59.398017    36500.952 
   74600    299.51249   -1437.4176    427.55308    343.60493   -136.77237    36500.952 
   74700     302.5763   -1461.6046    434.50446    340.21434   -237.92281    36500.952 
   74800    294.26215   -1444.6816    441.87634    326.93831   -11.997454    36500.952 
   74900    290.72801   -1469.2562    449.46974    293.98674   -35.093507    36500.952 
   75000    304.79185   -1475.1401    467.10167    369.28791    29.509926    36500.952 
   75100    309.84688   -1404.4477    443.15106    438.87297    332.73468    36500.952 
   75200    300.25548   -1427.0703    457.60829    387.36491     860.2805    36500.952 
   75300     298.2608   -1435.7179    448.06103    360.15628    251.98806    36500.952 
   75400    301.10077    -1443.117    472.99196    390.52168    222.17741    36500.952 
   75500    302.78536   -1423.3542    467.55909    412.46404    283.64507    36500.952 
   75600    296.30051   -1425.3634    450.12697    363.71837    618.08268    36500.952 
   75700    295.65033   -1401.8496    438.21998    372.38701    615.83796    36500.952 
   75800    305.85201   -1428.3754    456.42112    410.16283    352.01279    36500.952 
   75900    296.17677   -1463.4313    477.17132    352.13563    353.31024    36500.952 
   76000    301.93043   -1458.5101    450.28183    356.16759    699.48808    36500.952 
   76100    299.39112   -1442.1781    468.38726    379.13011    254.64209    36500.952 
   76200    300.23422   -1433.0642    451.15762    374.82422    520.39832    36500.952 
   76300    304.46639   -1409.5871    471.08236    437.35084    28.786017    36500.952 
   76400    296.94071   -1395.0284    472.85422    419.67355   -108.09897    36500.952 
   76500    306.81761   -1394.0323    452.34609    444.79432   -181.43495    36500.952 
   76600    290.26211   -1433.6515    467.06177    345.07803   -194.10013    36500.952 
   76700    305.45395   -1488.0843    469.52067    361.75466   -720.37476    36500.952 
   76800     298.5911   -1476.2336    462.66999    335.74212   -180.89336    36500.952 
   76900    301.83387   -1440.3472    431.09974    354.71204    297.25311    36500.952 
   77000    295.89669   -1413.8235    459.17154    382.47803    399.47514    36500.952 
   77100    291.00979   -1444.9523    458.71116    328.80533   -504.27529    36500.952 
   77200    298.98645   -1426.3558    461.15318    385.88964    78.955238    36500.952 
   77300    307.25061   -1463.2016    439.79872    365.03437    8.6199949    36500.952 
   77400    297.31103   -1424.8519    461.24628    379.91562    273.16983    36500.952 
   77500    300.79806   -1424.5721    468.06406    402.77077   -223.95334    36500.952 
   77600    297.23821   -1466.6922    442.78705    319.28696   -377.30292    36500.952 
   77700    307.49114   -1392.0841    463.07068    460.51072    382.26929    36500.952 
   77800    311.22668    -1362.412    478.39073    522.38342    73.064183    36500.952 
   77900    290.95871    -1404.115    466.63683    377.33752   -233.77846    36500.952 
   78000    291.13465   -1409.8751    462.21043    367.94601   -235.86328    36500.952 
   78100    298.28156   -1404.0388    444.36112    388.22927   -380.36947    36500.952 
   78200    305.16111   -1376.9371    488.01885    490.07674   -92.724382    36500.952 
   78300    291.91396   -1364.4508    459.43776    414.11925   -137.86596    36500.952 
   78400      295.396   -1415.4801    445.28694    364.67417   -33.412078    36500.952 
   78500    300.57897   -1449.4716    473.83647    382.65358   -901.77971    36500.952 
   78600    306.29294   -1418.0057    443.21808    409.32197   -318.40442    36500.952 
   78700    299.77079   -1395.6786    468.69199       427.65   -16.128972    36500.952 
   78800    295.98579   -1416.5886    468.71015    389.65406   -309.50191    36500.952 
   78900    304.66747    -1448.211    456.81116    385.36447    104.51558    36500.952 
   79000    296.45176   -1421.1601    470.68102    389.15916   -308.91834    36500.952 
   79100    302.80982   -1384.2618    481.49547    465.60339    45.297369    36500.952 
   79200     307.2927   -1388.4827    471.10126    471.24603   -152.34102    36500.952 
   79300    293.75813    -1370.732    488.75512    445.48913   -137.42742    36500.952 
   79400    290.31846   -1408.8111    492.26998    395.38126    -658.0668    36500.952 
   79500    311.19768   -1410.3719    455.96859    451.87043   -433.49553    36500.952 
   79600    297.51376   -1387.1847    463.50748    420.76007   -255.32656    36500.952 
   79700    288.35659   -1403.1864    474.07486    373.94541   -745.10243    36500.952 
   79800    300.54151   -1419.0201    492.02698    431.12633   -158.23225    36500.952 
   79900    294.67846   -1416.5772    472.63993    387.68765    397.44366    36500.952 
   80000    299.39728   -1457.1877    448.66569    344.42676   -53.281112    36500.952 
   80100    299.96405   -1437.5293    456.89098    374.87162   -180.23454    36500.952 
   80200    292.85197   -1426.7753    469.79062    366.38648    -386.3182    36500.952 
   80300    294.52112   -1401.1439     492.7085    422.47847   -12.875857    36500.952 
   80400    290.85863   -1410.0796    449.84386    354.12768     144.8667    36500.952 
   80500    290.88812   -1429.2893    453.13431    338.34161    306.35201    36500.952 
   80600    300.59155    -1430.309    463.35851     391.3951    167.57658    36500.952 
   80700    296.40194   -1439.2357     449.0303    349.20766   -311.16108    36500.952 
   80800    303.86814   -1389.4935    479.16813    462.82682    121.02008    36500.952 
   80900    301.13824   -1388.4344    471.04659    443.42824    291.81888    36500.952 
   81000    293.29147   -1373.2654    461.58702    413.67876   -244.41805    36500.952 
   81100    290.89144   -1392.2289    472.16606    394.44881    -375.8958    36500.952 
   81200    290.75903   -1446.0236     477.7331    345.62278   -217.09713    36500.952 
   81300     311.1389   -1451.7609    462.93897    417.18612    274.97107    36500.952 
   81400    302.53461   -1449.7943    466.88198    384.21378   -733.69601    36500.952 
   81500    298.16086   -1395.1008    449.11126    401.37199   -655.44081    36500.952 
   81600    297.46243   -1415.8646    441.93922    370.27996   -703.59759    36500.952 
   81700    308.73141   -1422.5021    459.85782    432.48461    -125.9089    36500.952 
   81800    297.53624   -1408.2675    474.04734     410.3187   -38.297661    36500.952 
   81900     300.8023   -1442.7922    455.71781    372.22357   -41.501109    36500.952 
   82000    295.57296    -1446.631    449.45019     338.4862   -74.771609    36500.952 
   82100    294.85325   -1418.1731    510.46773    424.70933    325.16959    36500.952 
   82200    309.14949   -1406.7026    478.36893    468.68448    35.867402    36500.952 
   82300    301.27829   -1411.7209    467.71012    417.43807    66.327198    36500.952 
   82400    300.64882   -1414.2514    475.95744    420.31038   -74.819143    36500.952 
   82500    309.90262   -1402.5033     448.8147    446.73282   -387.87927    36500.952 
   82600    300.31845   -1417.0243    464.23391    404.32107   -579.91295    36500.952 
   82700    300.63055   -1461.7759    440.96532    337.71123    45.373366    36500.952 
   82800    300.09585   -1468.0463    465.66149    353.72077    317.13919    36500.952 
   82900    302.79394   -1499.4877    460.16067    328.97094   -511.69113    36500.952 
   83000    299.62049   -1455.4579    456.66142    355.16101    361.96629    36500.952 
   83100    301.33303   -1432.6819    455.27781    384.29213   -42.198922    36500.952 
   83200    298.60089   -1473.4111    466.47271    342.41162    632.89033    36500.952 
   83300    299.09657   -1457.1344    454.77114    349.22659     114.1581    36500.952 
   83400    290.34643   -1435.9815    478.21919    354.28647    721.30311    36500.952 
   83500    301.12254   -1463.8438    479.95168    376.85298    887.35028    36500.952 
   83600    300.54695   -1426.2168    447.98426    379.91148    969.30278    36500.952 
   83700    308.87998   -1435.8789      443.643    403.56431    811.77507    36500.952 
   83800    291.39081   -1462.2147    469.63957    324.19311    306.39768    36500.952 
   83900    302.47957   -1470.6634    480.49965    376.71362    231.31455    36500.952 
   84000     292.1387   -1460.4032    460.41126    320.15601    266.60781    36500.952 
   84100    291.68166   -1445.4199    462.89682     335.5595     751.0229    36500.952 
   84200    296.50013   -1466.4545    475.36266    348.76504   -54.682057    36500.952 
   84300     296.8613   -1451.0849    438.57424    328.97824   -101.21172    36500.952 
   84400     296.2988   -1450.7598    462.77693    350.96419   -168.49139    36500.952 
   84500     309.8219    -1420.926    439.13926     418.2699    103.23461    36500.952 
   84600    301.62635   -1425.1432    472.08224    409.96076   -37.791398    36500.952 
   84700    303.05391    -1423.891    466.21202     411.7938    77.862369    36500.952 
   84800    290.00852   -1451.1408    470.67577    330.05684    90.014178    36500.952 
   84900    288.83356    -1449.132    455.77669      311.857    56.131221    36500.952 
   85000    297.56177   -1459.6672    473.50181    358.48889    124.84207    36500.952 
   85100    307.21837   -1433.3116    465.08822    420.06815   -405.48497    36500.952 
   85200    306.84607   -1415.7323    459.77684    430.65366   -319.07567    36500.952 
   85300    293.94142   -1420.5075    495.89773    403.68443   -291.91991    36500.952 
   85400    297.53719   -1449.9091     438.5649    333.19899   -524.18079    36500.952 
   85500    296.97341   -1448.2787    461.69764    355.41447   -313.79343    36500.952 
   85600    294.70659   -1420.7289    462.10338    373.12643   -232.48816    36500.952 
   85700    300.84654   -1410.3145     464.7885    413.97187   -155.47342    36500.952 
   85800    294.31279   -1492.4424    453.54985    291.07987     282.4704    36500.952 
   85900    299.81493   -1479.0079    470.03663    345.86479    1061.3979    36500.952 
   86000    303.63836   -1488.8602    469.86306    353.11665    661.51553    36500.952 
   86100    297.08823   -1474.7539    459.19013    326.95065    184.94458    36500.952 
   86200    298.95879   -1437.4637    450.51273    364.01628    397.65348    36500.952 
   86300    298.07308   -1450.0699    493.11752     390.0124    219.22644    36500.952 
   86400    299.15623   -1456.7224    458.96252    354.09963   -154.08877    36500.952 
   86500    305.21512   -1452.9893    466.05875    392.30853   -413.38693    36500.952 
   86600    298.05327   -1472.8786    464.70209     338.6988   -444.82293    36500.952 
   86700    299.01854   -1443.4304    456.42635    364.23324   -322.17791    36500.952 
   86800    296.16706    -1400.735    484.04451    421.66121   -177.08146    36500.952 
   86900    302.04549   -1420.7731    478.06315    422.20586   -164.00869    36500.952 
   87000    297.57073   -1443.1394    465.07478    366.63015   -47.938307    36500.952 
   87100    296.98679   -1443.8545    473.15951    371.36103   -161.15419    36500.952 
   87200    301.61667   -1391.7375    487.74424    458.98478   -129.38043    36500.952 
   87300    296.51509   -1415.6487    457.11723     381.3929     -124.846    36500.952 
   87400    295.67565   -1423.9409    461.42635     373.6165    -503.2339    36500.952 
   87500    296.33595   -1430.5309    462.11225    370.69628   -430.64825    36500.952 
   87600    298.01688   -1436.4936    471.94749    382.16474   -50.429506    36500.952 
   87700    295.28485   -1414.5146    477.71576     397.5662   -231.20231    36500.952 
   87800    296.82884   -1427.4964    483.21732    397.06316   -298.55193    36500.952 
   87900    294.36256   -1500.0517    469.95354    300.09913   -269.91958    36500.952 
   88000    300.48739   -1465.8425    469.80947    361.84184   -176.05515    36500.952 
   88100    301.79826    -1476.589    477.58179    364.79141    114.77318    36500.952 
   88200     298.7288   -1480.4507    440.68189    310.15921    466.63217    36500.952 
   88300    298.26042   -1461.9533     471.5007    357.35877    252.06242    36500.952 
   88400    310.77644   -1439.2374    471.54569    436.67841    50.689659    36500.952 
   88500     308.5179   -1468.6357    459.29452    384.82286    150.91268    36500.952 
   88600    295.49503   -1470.8795    484.00871    348.44407   -292.36337    36500.952 
   88700    297.59862   -1458.7106    478.87669     364.9869   -155.47462    36500.952 
   88800    300.14414   -1474.9252    515.34769     396.7462   -310.20146    36500.952 
   88900    295.13522   -1519.9671    458.67519      272.397    61.446301    36500.952 
   89000    308.27898   -1507.8129    494.60868    379.88015   -379.99019    36500.952 
   89100    305.87705   -1521.5955    457.27981    317.91454    497.28529    36500.952 
   89200    307.00852   -1497.8772    470.89544    360.36154    564.02763    36500.952 
   89300    293.87971   -1454.3677    461.34926    334.99691    199.78215    36500.952 
   89400    305.42322   -1471.5855     470.9828    379.57675    232.92308    36500.952 
   89500     299.3241   -1476.8287    464.87835    340.66778    -356.9615    36500.952 
   89600    292.88293    -1448.162    472.43971    347.78872   -36.599865    36500.952 
   89700    306.65347   -1409.2746    486.16998    462.63421     219.8758    36500.952 
   89800    305.06127   -1416.7517    468.19421    429.98633    562.02712    36500.952 
   89900    290.12109   -1466.2666    470.35122    315.11519     184.0126    36500.952 
   90000    297.92812   -1439.6232    467.86221    374.54883   -384.82403    36500.952 
   90100    291.87181   -1437.7173    495.35622    376.58076   -63.055479    36500.952 
   90200       308.51   -1453.3198    490.53618    431.34471   -228.88831    36500.952 
   90300    298.11052   -1422.4177    471.45144    396.16773    413.09037    36500.952 
   90400    298.39512   -1437.9487    452.20102     362.6724    616.15709    36500.952 
   90500    299.27241   -1432.7519    480.21719    399.84981     380.5974    36500.952 
   90600    302.56787   -1462.6083    454.55444    359.22251   -424.91526    36500.952 
   90700    293.73329   -1455.3724    488.62236    360.60369   -4.0061735    36500.952 
   90800    305.83461   -1476.6138    477.36742    382.79208    99.027084    36500.952 
   90900    295.74166   -1486.2063    484.15967    334.38273   -4.3114544    36500.952 
   91000    295.53599   -1451.7574    490.02042    373.76292   -140.29926    36500.952 
   91100    305.78404   -1447.7731    491.13715    425.17402   -305.65239    36500.952 
   91200    303.29087    -1457.305    497.17006    410.40862   -923.62881    36500.952 
   91300    299.70739   -1455.3381    497.41084     396.4229   -403.33291    36500.952 
   91400    293.17823   -1456.4767    473.34652    341.71532   -574.83605    36500.952 
   91500    301.10958   -1452.9021    470.85493    378.63938   -458.67773    36500.952 
   91600    290.99006    -1422.484    478.29383    370.76715    30.267628    36500.952 
   91700    282.52224   -1425.3935    469.68993    320.98843   -247.08799    36500.952 
   91800    302.70419   -1494.0702    484.18094    358.00309   -18.403719    36500.952 
   91900    296.95814   -1480.0764    459.93141    321.78154   -275.99371    36500.952 
   92000      289.197   -1480.0793    487.54539    314.32073   -115.87675    36500.952 
   92100    289.40636    -1491.185    478.89377    295.50955   -29.688659    36500.952 
   92200    300.57474   -1470.1213     474.7789    362.92716    225.48358    36500.952 
   92300    292.99268   -1496.5798    483.48539    310.91259   -263.45104    36500.952 
   92400    299.95229   -1492.7674    458.92883    321.61827   -765.59236    36500.952 
   92500    292.28402   -1506.3856    463.26203    277.68108   -313.20359    36500.952 
   92600     307.3031   -1516.8234    476.91652    348.76757   -239.65742    36500.952 
   92700    301.43892   -1513.5677    481.88243    330.48945   -468.16885    36500.952 
   92800    291.58345    -1456.033    473.72282    335.32863    4.4609388    36500.952 
   92900    300.67742   -1520.3284    451.44859     289.8538   -26.540359    36500.952 
   93000     297.7407   -1505.4839    456.87047    296.84942    338.11655    36500.952 
   93100    300.07951   -1500.4159    489.78764    345.40344    275.89018    36500.952 
   93200     294.9618   -1497.4452    480.07432    315.53442    782.11514    36500.952 
   93300     311.4731   -1507.0507    483.12809    383.59568    896.55236    36500.952 
   93400    291.87711   -1537.7188    463.84955    245.09657    498.32522    36500.952 
   93500    297.00839   -1565.5708     465.9538    242.53664    354.73262    36500.952 
   93600    290.60332      -1497.3    485.25679    301.16644    263.90772    36500.952 
   93700    295.77863   -1486.0383    474.72894     325.2871     47.42371    36500.952 
   93800    294.76701   -1478.4812     472.9287    326.47254    165.62738    36500.952 
   93900    297.07011   -1466.9068    491.90393    367.42963    584.92978    36500.952 
   94000    303.92119   -1506.1079    494.72964    362.01362    192.10343    36500.952 
   94100    302.10745   -1477.4488    478.59483    366.34177    348.34966    36500.952 
   94200    291.52817    -1480.197    466.44922    303.64115    355.87642    36500.952 
   94300    300.52435    -1484.822     464.5095    337.72938    291.15127    36500.952 
   94400    301.78347   -1485.3894    465.38585    343.72817    1002.3004    36500.952 
   94500    295.25744   -1464.9354    454.19522    323.50102    793.13458    36500.952 
   94600    304.30061   -1448.0413    474.90969    401.97486    200.25602    36500.952 
   94700    299.21562   -1448.1907    474.39707    378.33426    41.556914    36500.952 
   94800    307.13011   -1476.0813      480.265    392.07639    236.83832    36500.952 
   94900    297.14459   -1422.8978    480.97219    400.84348    258.98463    36500.952 
   95000    285.34731   -1433.9724      482.909     338.3949    171.85941    36500.952 
   95100    293.14951   -1484.8499    475.47779    315.34361    72.247726    36500.952 
   95200    303.00068   -1448.0762    476.44162    397.59763    421.88787    36500.952 
   95300    300.09828   -1457.4637    486.76728    385.42018     236.0085    36500.952 
   95400    299.46926    -1468.608     489.1142    373.78023    294.99043    36500.952 
   95500    297.90841   -1411.1053    481.94688    417.06226    162.14002    36500.952 
   95600    312.42899   -1441.8255    467.58946    437.60183    201.51245    36500.952 
   95700    296.90819   -1450.8044    487.99881    378.89517    -97.11906    36500.952 
   95800    303.95629   -1464.4298    483.06818    392.18896    175.22502    36500.952 
   95900    313.50213   -1436.9799    483.95777    463.66514     14.64802    36500.952 
   96000    292.49455   -1449.4663    493.19929    365.48897   -161.47666    36500.952 
   96100    303.56606   -1432.6698    504.60626    443.72353    524.76738    36500.952 
   96200    305.56414   -1440.5307    479.87512    420.16064   -51.181102    36500.952 
   96300     298.7862   -1441.7481    494.26014     402.6994    401.04739    36500.952 
   96400    303.52541     -1451.31    471.89505    392.18842    625.52403    36500.952 
   96500    297.24971   -1445.3593      503.185    401.06983    424.37055    36500.952 
   96600     295.0114   -1455.0524    470.56748    348.64444   -169.64859    36500.952 
   96700    290.07754   -1464.0912    470.80752    317.55008    538.40333    36500.952 
   96800    302.44718    -1448.552    500.29094    418.46992   -22.585352    36500.952 
   96900    301.53054   -1424.1271     497.9071    436.36877    402.74887    36500.952 
   97000    300.29549   -1436.9111    482.23482    402.33138    352.38221    36500.952 
   97100    303.91578    -1469.932    473.57296    377.00839    275.98682    36500.952 
   97200    308.33592   -1449.0592    489.23701    433.51948    39.666154    36500.952 
   97300    295.32406   -1446.5418    457.86042    345.86091   -134.28757    36500.952 
   97400    298.08757   -1429.3118    488.58189    406.30039   -210.67522    36500.952 
   97500    310.25808   -1456.3947    464.01223    409.64524   -73.601892    36500.952 
   97600    302.63005    -1448.192    491.73479    411.10019   -137.49396    36500.952 
   97700     295.7991   -1493.9062    477.45592    320.23863   -177.48708    36500.952 
   97800    308.35192   -1460.2291    510.54921    443.73406    312.91767    36500.952 
   97900    309.44024   -1486.9035     460.7616    372.19005    613.89691    36500.952 
   98000    299.84977   -1480.1098    470.25048    345.13418    684.15923    36500.952 
   98100    309.36513    -1454.445    486.80538    430.35292    162.35549    36500.952 
   98200    299.09685   -1464.7219    471.55242    358.42166    322.70829    36500.952 
   98300    297.12782   -1427.4575    488.30346    403.53926    120.34057    36500.952 
   98400    295.78091   -1407.9553    519.30449     447.9559   -558.00408    36500.952 
   98500    312.05795   -1423.2108    483.34812    470.29852   -96.950418    36500.952 
   98600    302.49466   -1426.6614    469.47829    409.76247   -652.18375    36500.952 
   98700    297.60647   -1393.9365    485.57335    436.49311    78.976098    36500.952 
   98800    298.80356   -1426.3078    499.61835    423.57636   -71.017271    36500.952 
   98900    306.74844   -1434.2775    499.60021    451.49065     391.6095    36500.952 
   99000    292.41744   -1469.8099    493.99521    345.59284    432.89672    36500.952 
   99100    303.37662   -1426.0797    488.97182    433.82318   -54.941563    36500.952 
   99200    293.54694   -1411.6861    484.05293    398.87851     546.1218    36500.952 
   99300     310.2641   -1463.8961    478.37673    416.53555   -6.8053894    36500.952 
   99400    305.96041   -1486.8949    484.83511    380.54714   -270.41628    36500.952 
   99500    305.56153    -1449.575    473.20886    404.43829    355.42627    36500.952 
   99600    297.90397   -1475.4991    442.23097    312.93254    128.77032    36500.952 
   99700     303.6907   -1474.7216    463.39681    361.02561    519.57754    36500.952 
   99800    297.14133   -1423.8908    476.99405    395.85761     342.6995    36500.952 
   99900    299.87789   -1480.8209      509.105    383.40472    312.44772    36500.952 
  100000    294.20061   -1482.6688    490.04768     336.8444    415.06746    36500.952 
  100100    293.34022   -1441.1514    511.70243    396.12853    829.21479    36500.952 
  100200    299.67287   -1494.8517    464.98638    324.32885    608.14247    36500.952 
  100300    306.77928   -1472.0065     498.2548    412.55567    697.86204    36500.952 
  100400    303.81177   -1458.3977     493.9941    408.49384    638.12335    36500.952 
  100500    297.48092   -1442.8249    520.15393    421.61799    553.10261    36500.952 
  100600    312.39799   -1447.9399    478.21532    441.97323      241.676    36500.952 
  100700    296.02802    -1492.847    478.47704    323.35339    388.73068    36500.952 
  100800    289.20618      -1512.4    486.28967     280.7858   -95.015221    36500.952 
  100900    297.16284   -1444.9419    501.43688    399.34654    169.04784    36500.952 
  101000     294.0049    -1434.748    479.41082    373.24396    352.87132    36500.952 
  101100    289.52576   -1445.1874    494.46727    357.62019    222.57653    36500.952 
  101200    304.99862   -1463.4411    471.93173    386.75137   -67.392199    36500.952 
  101300    300.91182   -1476.6875    477.03631    360.14167    -70.22407    36500.952 
  101400    295.57256   -1454.5416    496.79055    377.91415    226.47732    36500.952 
  101500      312.345   -1485.9263    496.32228    421.85429     885.1267    36500.952 
  101600    303.08786   -1490.7238    478.37696    357.27935    78.074536    36500.952 
  101700    297.33519   -1468.7556    495.12399    369.99879    339.25746    36500.952 
  101800    293.53585   -1490.1481    491.53421    327.84762    39.273214    36500.952 
  101900    308.71255   -1442.0507    483.49605    436.48899    39.545108    36500.952 
  102000    290.19596   -1533.2498     463.1909    241.30996   -208.30493    36500.952 
  102100    305.70923   -1537.4174    481.16529    325.21981   -50.017773    36500.952 
  102200     304.4355   -1511.6249    484.96501    349.05615    121.79929    36500.952 
  102300    295.20873   -1536.3002    490.90983    288.63075   -171.21776    36500.952 
  102400    297.69586   -1510.1549    485.59399    320.69927   -158.33349    36500.952 
  102500    302.93839   -1510.9399    474.18155    332.19239   -230.06596    36500.952 
  102600     307.3567   -1528.9019    461.30297    321.31773    26.841368    36500.952 
  102700     300.6832   -1481.7128    477.41838    354.46525    273.62336    36500.952 
  102800    298.14599   -1508.7413    473.27178    311.82475     101.0242    36500.952 
  102900    294.15296   -1520.7899    495.83922    304.29944   -67.671401    36500.952 
  103000    297.23544   -1501.2656    492.74898    334.66299    23.743956    36500.952 
  103100     300.4283   -1515.3034    494.14303    336.44751    656.84037    36500.952 
  103200    298.44351   -1516.5421    499.20375    331.30042    495.56237    36500.952 
  103300    301.18087   -1481.0705    489.57064    369.50881    -96.26875    36500.952 
  103400    297.76998   -1488.0041    492.59853    350.18954    355.41316    36500.952 
  103500    302.44157   -1527.2273    458.34556    297.82391   -235.10776    36500.952 
  103600    304.36686   -1530.2236    486.65306    331.83529    707.57715    36500.952 
  103700    300.50047   -1553.2061     482.3218    287.04969    95.475993    36500.952 
  103800    299.95626    -1532.079    511.09425       334.49   -217.75361    36500.952 
  103900    303.48371    -1526.462    482.81242     327.7654    -202.9246    36500.952 
  104000     294.1411   -1551.0244    485.69731    263.86944   -257.87078    36500.952 
  104100    304.86881   -1498.0763    482.05291    361.65072    105.99905    36500.952 
  104200     301.1526   -1516.0727    479.12161    323.92986    278.45455    36500.952 
  104300     303.1096   -1500.6404    514.75296    383.83694    13.491528    36500.952 
  104400    305.29826   -1487.3603    489.05937    381.31387    -307.0244    36500.952 
  104500    297.06358   -1472.1784    486.63479     356.8594   -684.60235    36500.952 
  104600    306.61614   -1486.7023    471.40239    370.27023   -605.61343    36500.952 
  104700      304.877   -1530.5916     473.8509    320.97049    45.368267    36500.952 
  104800    309.55075   -1489.3105    502.44528     411.9662   -373.72243    36500.952 
  104900    309.99471   -1522.2341    514.44782    393.05136    799.78307    36500.952 
  105000    293.70644   -1502.7508    474.18535    298.66695    265.44575    36500.952 
  105100    297.88126   -1486.9134    510.97105    370.15572    578.21051    36500.952 
  105200    311.85202   -1533.7443    485.84403    361.33029    270.06177    36500.952 
  105300    292.04962   -1540.2461    487.45207    266.95134    635.87824    36500.952 
  105400      303.892   -1558.0425    471.44666    286.66413   -85.736113    36500.952 
  105500    302.05894   -1510.5221    481.09586    335.55032    35.759559    36500.952 
  105600    299.44318   -1523.0155    471.97952    302.12023   -4.9807058    36500.952 
  105700    303.61837   -1545.0651      491.322    318.28036    -132.0702    36500.952 
  105800    297.73377    -1512.462    478.56273    311.53227   -170.67314    36500.952 
  105900    304.76842    -1544.573    465.05781    297.70528   -183.70746    36500.952 
  106000    294.10829   -1506.2909    488.98319    311.74054   -92.949274    36500.952 
  106100    304.86276   -1481.6521    513.28818    409.28283    361.51874    36500.952 
  106200    303.17701   -1490.9543    496.83555    375.91031   -310.42853    36500.952 
  106300    307.28588    -1476.612    490.95969    402.94433     57.89395    36500.952 
  106400    306.66183   -1491.9504    473.19264    367.01888   -138.17159    36500.952 
  106500    299.54429   -1497.0185    499.36457    355.95918    210.66755    36500.952 
  106600    290.08958   -1496.3594    464.97811    279.50686    -120.5645    36500.952 
  106700    298.90618   -1510.9964    500.39397    340.12704   -407.65221    36500.952 
  106800    306.97165   -1469.1846    467.30211    385.29423   -256.66905    36500.952 
  106900    311.73047   -1532.6135    488.14777    364.21556    358.54257    36500.952 
  107000    295.10576   -1480.1515    476.13467    329.53898    431.46299    36500.952 
  107100    295.40055   -1485.2547    509.80966    359.44289    371.66215    36500.952 
  107200    300.23231   -1508.3893    497.84528    346.17816    68.862218    36500.952 
  107300    287.89713   -1538.3617    483.34984    245.96877     377.4855    36500.952 
  107400    292.45834   -1506.9287     485.4725    300.13618     380.3505    36500.952 
  107500    294.99817   -1521.6514    503.28439    314.70262    734.09685    36500.952 
  107600    295.23015   -1531.3994    454.86836    257.58686    883.33459    36500.952 
  107700    300.68413   -1540.9665    511.42225    329.21967    529.66751    36500.952 
  107800    293.30479   -1546.4962    497.40656    276.32771    737.43299    36500.952 
  107900    296.41779    -1553.642    467.25357    253.09636    327.26041    36500.952 
  108000    294.65147   -1523.3266     480.7626     288.9389    627.66438    36500.952 
  108100    299.63099    -1546.172    477.97463     285.8075    532.83856    36500.952 
  108200    306.79315   -1523.4948    475.80415    338.67937    270.45469    36500.952 
  108300    295.84589   -1497.9269    489.11149    328.08495    -48.88992    36500.952 
  108400    294.41845     -1498.62    512.28153    344.11144    2.3996263    36500.952 
  108500    299.23616   -1537.8571    463.67026    278.03378    141.63231    36500.952 
  108600    300.63524   -1543.8952    474.49321    289.14104   -305.91183    36500.952 
  108700    292.29322   -1547.1422    478.33206    252.03598   -250.99927    36500.952 
  108800    311.57907   -1518.8148    481.27167    370.45403   -282.41922    36500.952 
  108900    294.98423   -1458.5011    503.35393    377.85942   -611.63576    36500.952 
  109000    302.90948   -1499.2372    485.24251    354.82541   -631.91939    36500.952 
  109100    293.47699   -1517.6669    495.40463    303.93325   -487.69406    36500.952 
  109200    295.75294   -1460.1792    508.58199    384.88313    -1048.703    36500.952 
  109300    299.86665    -1516.488    488.04162    326.62343   -69.686529    36500.952 
  109400    307.04009   -1542.2579    480.87065    326.09865    6.1181074    36500.952 
  109500    303.65093   -1540.1106    488.66165    320.72168    160.77212    36500.952 
  109600    304.88306   -1497.4263    455.62315    335.93536   -97.763419    36500.952 
  109700    299.44608   -1507.6226    483.89707     329.4438   -329.69653    36500.952 
  109800     295.4221   -1473.7072    505.42298    366.70106    231.80758    36500.952 
  109900    298.78144   -1474.9362    522.05512    397.28475    374.96924    36500.952 
  110000    309.08753   -1498.2035    463.58995    362.12456    553.58952    36500.952 
  110100    299.94787   -1529.7118    520.02068    345.74574    402.22498    36500.952 
  110200    300.62425    -1494.409    482.30033    346.38469    4.1937459    36500.952 
  110300    300.60281   -1492.6028    512.89679     378.6904    48.535933    36500.952 
  110400    296.55858   -1541.8404     492.1047    290.38525    -41.36052    36500.952 
  110500    311.47069   -1517.1051     471.6981    362.10045     259.9765    36500.952 
  110600    288.87327   -1472.8603    480.55981     313.0912   -605.94769    36500.952 
  110700     305.5656   -1539.0816    496.22547     337.9667    -62.48596    36500.952 
  110800    296.32559   -1567.5163    490.68384    262.23561   -651.79047    36500.952 
  110900    296.15806    -1522.259    487.74331     303.7953    145.82823    36500.952 
  111000    302.90737   -1535.9245    487.24565    320.13166   -62.381783    36500.952 
  111100    302.76342   -1523.7899    489.56467     333.9348    -507.5227    36500.952 
  111200    291.98499   -1526.2602    516.00275    309.19587   -120.38078    36500.952 
  111300    299.80858   -1490.2304    497.65279    362.22978   -451.00434    36500.952 
  111400    303.98987   -1516.7311    472.76215    329.73328   -562.89211    36500.952 
  111500    306.11538   -1508.6843    508.81815    383.44112   -221.39061    36500.952 
  111600     302.8358   -1481.8012    486.94468    373.63065   -86.025882    36500.952 
  111700    310.32162   -1518.1861    472.52438    356.65319   -328.61079    36500.952 
  111800    307.03258   -1492.9447    522.73636    417.24364    133.80734    36500.952 
  111900    301.08227   -1526.2725    469.89535    304.18592    307.04381    36500.952 
  112000     302.2689   -1533.2675    511.61979    344.27771     609.6931    36500.952 
  112100    297.17458   -1504.9158    459.72848    297.71726    122.29509    36500.952 
  112200    299.43496   -1544.2204    503.35737    312.25606    370.77256    36500.952 
  112300    294.71318    -1505.312    488.39384    314.86356    159.65166    36500.952 
  112400    291.90995   -1538.5714    484.12472    264.66757    362.16582    36500.952 
  112500    285.33944   -1528.6364     492.5802    253.36644     482.7331    36500.952 
  112600    294.77184   -1537.8847    480.19257    274.35472    547.99282    36500.952 
  112700    295.58282   -1516.7294    497.01379    315.99597    122.88606    36500.952 
  112800    287.23359   -1514.9133    521.33845    304.40735   -17.028032    36500.952 
  112900    287.98523   -1525.3405    499.60998    275.64827    193.73425    36500.952 
  113000    302.57422   -1481.5891    471.31148    357.02742     233.1696    36500.952 
  113100    303.50065    -1497.696     494.5452    368.34071    74.287786    36500.952 
  113200    303.83502   -1479.9697     460.4016    353.43445   -160.05739    36500.952 
  113300    309.20426   -1467.8678    489.25016    418.64794    394.20464    36500.952 
  113400    295.17593   -1500.5729    480.25836    313.55832    165.84054    36500.952 
  113500    311.40227   -1509.2581    497.07602    395.01613    379.61424    36500.952 
  113600    300.07318   -1451.3062    497.45713    402.15402    326.95942    36500.952 
  113700    283.64618    -1469.893    504.44303    316.32102   -10.999554    36500.952 
  113800    293.99859   -1490.5707    506.47928     344.4612   -965.61036    36500.952 
  113900    311.27765   -1470.6887    479.03122    414.97761   -408.11247    36500.952 
  114000    305.27987   -1436.9006    504.01652    446.64764   -759.23072    36500.952 
  114100    301.82402   -1461.5732    493.92274    396.26456   -338.99251    36500.952 
  114200    298.41527   -1472.0738    522.10261    398.53995   -481.97901    36500.952 
  114300    296.31288   -1454.0384    493.16772    378.13999     241.3063    36500.952 
  114400    305.85709   -1462.2527    472.68364    392.57103    86.295189    36500.952 
  114500    314.95551   -1474.7125    529.11414    477.65662    239.03841    36500.952 
  114600    301.99907   -1458.4329    481.76216    388.03532    137.64242    36500.952 
  114700    307.36679     -1422.52    508.15523    474.59745    571.06247    36500.952 
  114800    294.35466   -1482.8387    479.41036     326.7333    365.47541    36500.952 
  114900    292.80033   -1458.9906    510.19729    374.34445   -15.972739    36500.952 
  115000    316.29619   -1469.3558    477.18731     437.1449   -123.01136    36500.952 
  115100    308.62977   -1489.0627    507.06985    412.67674   -100.39908    36500.952 
  115200    290.12808   -1468.3699     495.4018    338.09404    -1244.097    36500.952 
  115300    307.65228   -1456.5326    530.84086    464.56067   -919.98456    36500.952 
  115400    303.27326   -1497.2824    512.68356    385.86519   -334.86522    36500.952 
  115500    296.20081   -1475.6352    510.20762    373.07668   -240.43961    36500.952 
  115600    306.13747   -1505.8703    477.92315    355.45993    8.9933104    36500.952 
  115700    307.56278    -1463.432    498.35503     424.7709   -310.11281    36500.952 
  115800     297.7168   -1438.4888    521.92761    428.79369   -547.15168    36500.952 
  115900    311.28256   -1447.9603    499.42986    458.12686    -206.6769    36500.952 
  116000    305.91849   -1507.7021    481.45231    356.16769   -110.58854    36500.952 
  116100    301.27902   -1511.6019    492.91268    342.76299    58.054261    36500.952 
  116200    303.86212   -1479.9368    490.79836    383.98657    288.21613    36500.952 
  116300    300.17994    -1503.455    491.73409    344.76461    284.99247    36500.952 
  116400    298.25961   -1475.4699    482.09271    354.43058   -182.39979    36500.952 
  116500    301.04966    -1473.013    519.44795    406.85066    523.29609    36500.952 
  116600    292.63493   -1459.5869    491.99874    354.80215    188.67015    36500.952 
  116700    305.25651   -1492.8977    489.27218    375.80061    214.91316    36500.952 
  116800    288.17262   -1501.0347    493.85614    295.04707    829.11804    36500.952 
  116900    295.65707   -1478.8218    486.42436    343.64967   -27.374299    36500.952 
  117000    292.61019   -1507.4426    474.36761    289.20354   -173.11721    36500.952 
  117100     305.4053   -1533.7483    470.64245    316.99265   -757.78257    36500.952 
  117200    307.25476   -1484.7001    521.64602    425.40188   -231.68031    36500.952 
  117300     302.4902    -1498.018    461.36213    330.26953    72.447671    36500.952 
  117400     297.7217   -1548.7292    489.94215    286.58992   -283.50196    36500.952 
  117500    302.71331    -1506.628    488.56818    349.87377   -20.776862    36500.952 
  117600     289.4942    -1514.071     491.5246    285.65129    487.49686    36500.952 
  117700    294.49253    -1488.487    492.00491    334.30263    78.278917    36500.952 
  117800      314.183   -1495.5545    492.47972    416.68928    118.42084    36500.952 
  117900    295.56756   -1522.6155    509.12645    322.15357    490.83917    36500.952 
  118000    299.96937   -1516.9518    482.68152    321.26371    283.35043    36500.952 
  118100    295.90251   -1474.9357    498.08274     360.3033    238.03398    36500.952 
  118200     300.2774   -1523.2329    501.48748    335.18053    293.39148    36500.952 
  118300    298.56825   -1455.3583    484.00929    377.85346    221.16826    36500.952 
  118400    303.74977   -1424.2155    517.76954    466.17131    41.532532    36500.952 
  118500    305.51262   -1465.1993    513.59196    428.97615   -219.59085    36500.952 
  118600    294.00004   -1476.1504    504.34663    356.75543   -951.73229    36500.952 
  118700    296.23461   -1465.3997    521.12984     394.3871   -634.08332    36500.952 
  118800     297.5903   -1474.4588    467.75265    338.07705   -115.85528    36500.952 
  118900    309.59442   -1464.6034    506.67751    441.10283    296.52927    36500.952 
  119000     301.8927   -1482.1832    508.39524    390.43738    19.562228    36500.952 
  119100     305.6838   -1445.8935    500.72732    436.19084    403.96976    36500.952 
  119200    316.42449   -1511.7483    511.81744    429.96234    1123.6975    36500.952 
  119300     298.0813   -1485.2109    490.75291    352.54395    523.17263    36500.952 
  119400    294.37427   -1489.5484    513.04156    353.74342   -105.25481    36500.952 
  119500    301.49054    -1524.422     508.0192    346.00523   -809.00184    36500.952 
  119600    296.79876   -1493.2465    497.12134    345.08119   -611.25404    36500.952 
  119700    299.30551   -1541.4467    488.53533     299.6227   -263.38791    36500.952 
  119800    301.61439   -1488.4072    489.62032    364.18078    256.65738    36500.952 
  119900    287.65198   -1512.2488    520.30509    307.92914   -86.162845    36500.952 
  120000    301.84895   -1515.0015    514.68083    363.70697   -159.36452    36500.952 
  120100    293.78616   -1531.8752    507.31328    303.03074   -555.10433    36500.952 
  120200      303.373   -1538.9757    507.42032    339.35927    234.62059    36500.952 
  120300    297.02812   -1547.9713    484.05207    278.32352    579.57563    36500.952 
  120400    297.18327    -1536.471    520.64479    327.11769     521.0786    36500.952 
  120500    291.55021   -1549.2678    480.24462    248.46535     667.5181    36500.952 
  120600    302.58103   -1576.2987     515.0963    306.13345    868.99179    36500.952 
  120700    291.49864   -1530.7096    490.58101    277.12698    639.70064    36500.952 
  120800    303.99773   -1554.1873    494.24944    313.79992     352.4803    36500.952 
  120900    294.95028   -1576.9642    481.51357    237.40254   -287.33108    36500.952 
  121000    296.01551    -1501.079    493.73723    330.32511   -33.669247    36500.952 
  121100    299.63773   -1529.2635    511.30834    336.08021    -848.7529    36500.952 
  121200    301.22751   -1540.1008    487.76384    308.88244   -565.75938    36500.952 
  121300    316.99161   -1556.1364    487.77423    364.09373      -674.43    36500.952 
  121400    298.33497   -1531.1283    489.72279    306.74277   -713.59001    36500.952 
  121500    315.14729   -1507.6538    500.06765    416.53553   -216.28682    36500.952 
  121600    307.89322   -1533.6483    497.11323    354.80608    174.57464    36500.952 
  121700    297.00826    -1524.511    510.33785    327.97992   -97.509877    36500.952 
  121800    299.13086   -1520.6325    489.58612    320.69844    510.20276    36500.952 
  121900     290.1857   -1490.2079    515.87365    336.98828    424.00288    36500.952 
  122000    304.24499   -1530.4895     507.9477    352.31332     415.9562    36500.952 
  122100    291.44487   -1516.3069    496.26852    296.97413    688.17086    36500.952 
  122200    301.48101   -1553.1222    475.78489    285.02767    74.915661    36500.952 
  122300    294.56714    -1520.311    470.75031    281.56115    165.20236    36500.952 
  122400    309.53094    -1513.464    471.05424    356.33205    612.04146    36500.952 
  122500    291.08429   -1528.3085     504.2296    291.30427     628.9614    36500.952 
  122600    296.23797   -1550.3159     502.4334    290.78961    117.39038    36500.952 
  122700    300.54503   -1544.1486    495.53928    309.52604   -186.96916    36500.952 
  122800    299.42172   -1534.0732    488.41305    307.39906   -481.19849    36500.952 
  122900    294.26698   -1491.6919    476.47434    314.54785    123.57617    36500.952 
  123000    311.46396   -1507.8878    526.33869    425.92792   -417.35102    36500.952 
  123100    290.67374   -1499.2373     524.8348    339.12542   -991.37325    36500.952 
  123200    295.40594   -1499.2067    479.06707    314.77263   -63.498577    36500.952 
  123300    300.38882    -1511.832    511.60395    357.20137    207.26688    36500.952 
  123400    313.85484   -1557.8252    507.47395     367.9299    71.306072    36500.952 
  123500     298.8617   -1549.4834    469.91603    270.96117    181.77165    36500.952 
  123600    304.93879   -1494.4947    517.18416    400.67985    784.96633    36500.952 
  123700      298.217    -1527.671    484.76583    304.71007   -207.95631    36500.952 
  123800    299.56067   -1513.0845    510.85898    351.46159   -730.77264    36500.952 
  123900    298.38569   -1473.0841    487.87123    363.16463   -615.57329    36500.952 
  124000     309.5816   -1518.3542    505.30026    385.91684   -921.23078    36500.952 
  124100    297.07671   -1523.4722    498.10402    317.09415   -320.47349    36500.952 
  124200    299.45939   -1526.1483    489.88551    316.96671    -243.6962    36500.952 
  124300    294.21754   -1528.2455    492.18808     293.4846   -82.362134    36500.952 
  124400    296.51306   -1518.6577    493.36934    314.62685     212.5974    36500.952 
  124500    299.95861   -1508.0456     483.5046    330.94433    27.570458    36500.952 
  124600     312.9151   -1527.0641    523.09653    410.06701    369.46663    36500.952 
  124700    303.59332   -1534.2466    481.80197    319.46569    301.40025    36500.952 
  124800    303.86174   -1529.6005    493.16126    336.68399   -96.574452    36500.952 
  124900    296.61904   -1534.3557    513.38063    319.41909    667.51964    36500.952 
  125000    300.40944   -1530.3412    489.32074     316.5022    474.44384    36500.952 
  125100    300.11239   -1525.1295    502.66007    333.71091    872.65295    36500.952 
  125200    303.67533    -1481.378    505.44123     396.3441    127.09443    36500.952 
  125300    301.49988   -1541.1264      506.115     327.4389    227.84461    36500.952 
  125400    306.55603   -1520.1965    501.73125    366.83324    318.03189    36500.952 
  125500    298.20151   -1508.5422    507.13215    346.13509    454.27986    36500.952 
  125600    294.96552   -1477.7362    530.18549     385.3713    301.90657    36500.952 
  125700    295.92754   -1516.6142    494.14339    314.79859     836.3143    36500.952 
  125800    294.61272   -1494.6603    514.41752    351.08502    432.43175    36500.952 
  125900    297.87289   -1463.7702    488.45894    370.74888    305.80568    36500.952 
  126000    300.75188   -1492.1727    475.57672    342.47417    141.97445    36500.952 
  126100    294.83505   -1467.3589    509.04186    374.01549   -122.06853    36500.952 
  126200     303.1954   -1499.4399    502.73302    373.40526    153.78972    36500.952 
  126300    288.67746   -1532.6938     498.8839    270.69704    744.95029    36500.952 
  126400    306.55868   -1526.2803    481.33129     340.3615     390.1877    36500.952 
  126500    296.34483   -1482.0664    472.89769    329.98631    606.59759    36500.952 
  126600    308.02803   -1537.1262    504.98098    359.80514    809.21689    36500.952 
  126700     308.3615   -1485.6276    489.04604    396.87568     1153.174    36500.952 
  126800    306.70305   -1516.9793    493.67684    362.66046    974.07236    36500.952 
  126900    305.95359   -1502.3562    488.70412    368.92405    869.59638    36500.952 
  127000    307.07826   -1503.8661    499.12695    382.91931    691.99842    36500.952 
  127100    305.56066   -1498.8972    512.46384    394.36713     140.2695    36500.952 
  127200    291.80391   -1446.9726    503.11709    374.77956    99.298854    36500.952 
  127300    295.72172   -1505.6386    503.69165    334.39235    104.80365    36500.952 
  127400    298.96364   -1480.9722    522.78674    392.80376   -256.11724    36500.952 
  127500    307.57361    -1484.007    496.79992    402.68979   -55.706266    36500.952 
  127600    296.34926   -1444.9969    494.97759    389.15576   -166.39368    36500.952 
  127700    301.82915   -1483.8194    492.76491    372.88367   -193.79761    36500.952 
  127800    306.41698   -1464.3466    511.06626     431.3898    309.69349    36500.952 
  127900    288.59169   -1495.6688    490.07571    298.52622    870.92771    36500.952 
  128000    308.08678   -1449.7033     517.4388    459.95133     1088.267    36500.952 
  128100    295.16315   -1453.1082    494.28598    374.99292    709.01782    36500.952 
  128200    302.60371   -1424.6685    509.81448    452.58436    266.25623    36500.952 
  128300    298.79076   -1464.4719    486.98351    372.71959    579.77843    36500.952 
  128400    299.89659    -1523.124    521.85347    353.93457    265.96515    36500.952 
  128500    306.70053   -1487.1757    488.23255    387.00838    187.22618    36500.952 
  128600    300.19388     -1461.56    502.04495    397.03344     333.7355    36500.952 
  128700    306.72308   -1495.4658    505.93853    396.52614    255.59836    36500.952 
  128800    308.82912   -1495.6105     485.8004     385.7603    226.28748    36500.952 
  128900    294.82803   -1515.2467    483.32092    300.37502   -136.87213    36500.952 
  129000    305.69621   -1514.4913    483.45827    350.38002    74.790008    36500.952 
  129100    298.01771   -1466.6639    498.12152     378.1722   -506.84807    36500.952 
  129200    299.59359   -1467.7677    487.29984    373.36808    201.54109    36500.952 
  129300    298.67807   -1517.4905    513.11605    345.32422    30.413043    36500.952 
  129400    290.76279   -1504.6112    492.45881    301.77792    -60.07515    36500.952 
  129500    294.04058    -1486.046     492.8794    335.57576   -129.74462    36500.952 
  129600    304.33682   -1471.1005    503.14756    407.31722    40.943642    36500.952 
  129700    308.66404   -1509.6406    475.16849    360.35233   -158.83444    36500.952 
  129800    287.76885    -1503.611    532.84167    329.63161   -506.15309    36500.952 
  129900    298.75601   -1569.2817    499.44295    280.21219    109.63222    36500.952 
  130000    301.95285   -1548.6075    469.36343    285.25309    243.46615    36500.952 
  130100    295.34965   -1494.1506     521.6991    362.20641    203.02195    36500.952 
  130200    294.16315   -1474.2415    519.02288     374.0776   -132.10875    36500.952 
  130300    293.99663   -1471.2876    468.66588    325.92206   -248.30057    36500.952 
  130400    294.67094   -1464.3202    501.02718    368.29791   -173.48385    36500.952 
  130500    304.81253   -1466.7265    505.91237    416.60568   -232.63556    36500.952 
  130600    296.60537   -1507.1626    495.78474     328.9545    49.489832    36500.952 
  130700    308.28407   -1474.3351    487.04238     405.8147   -349.45315    36500.952 
  130800    291.81083   -1500.8732    472.95875    290.75179   -118.57735    36500.952 
  130900    308.17106   -1546.7599    484.73441    330.57116    416.08435    36500.952 
  131000    296.73349   -1534.0941    496.21212     303.0294    635.72133    36500.952 
  131100    293.48012   -1482.4413    501.16174    344.93013    444.61191    36500.952 
  131200    296.53342   -1508.1201    494.87502     326.7622    448.60871    36500.952 
  131300    303.49304   -1532.4477    492.71307    331.72248    -263.4244    36500.952 
  131400    296.48732   -1529.2557    497.83153    308.37477    323.12189    36500.952 
  131500    304.80214   -1494.8013    494.45676     377.0283   -393.88855    36500.952 
  131600    305.56286   -1503.9603    481.46267     358.3128    142.66835    36500.952 
  131700    300.26218   -1518.3207    488.52718    327.06371   -124.20111    36500.952 
  131800    293.07625   -1494.2887    497.57853    327.67446    73.919457    36500.952 
  131900     293.7241   -1503.3134    515.84982    339.84864    122.66848    36500.952 
  132000    295.66169   -1505.8236    487.67677     317.9212    338.81668    36500.952 
  132100    300.98776   -1533.3448    494.88583    321.67709   -202.88389    36500.952 
  132200    296.12741   -1502.8932    490.13743    325.41674    246.35832    36500.952 
  132300    300.30748   -1591.7442    507.31542    272.63312     474.2804    36500.952 
  132400    302.81997   -1552.3994    514.77133    330.78747    695.72061    36500.952 
  132500    301.57513   -1562.4172    465.52512    265.89823   -35.856336    36500.952 
  132600    304.30108   -1553.9633    492.26922    313.41455     322.1662    36500.952 
  132700    295.11335   -1487.9402    495.38004    341.02995    459.33034    36500.952 
  132800    315.98313   -1501.0911    512.34517    439.15276   -130.37185    36500.952 
  132900    298.59668   -1539.4412    514.41087    324.30061    386.45397    36500.952 
  133000    303.94489   -1528.8443    491.60298    336.25771   -231.09419    36500.952 
  133100    311.78965   -1513.3309    486.60338    382.22129    306.71775    36500.952 
  133200     305.0714   -1495.2126    501.00537     384.3824    440.27802    36500.952 
  133300     307.3441   -1497.9297    487.17077    378.10079    501.12495    36500.952 
  133400    305.20249   -1510.2164    523.54851    392.51408   -292.67635    36500.952 
  133500    291.77512   -1502.1092    479.33097    295.72672   -870.30523    36500.952 
  133600    308.75758   -1551.1719    487.40976      331.485   -912.70281    36500.952 
  133700    298.93914   -1530.0075    497.36536    318.23638   -800.54097    36500.952 
  133800    309.36812   -1488.3646    486.46081    396.10231   -501.72442    36500.952 
  133900    301.68564   -1515.5628    484.55671    332.28353    108.49807    36500.952 
  134000    308.70361   -1506.8326    490.62116    378.79176    23.037476    36500.952 
  134100    307.55822   -1546.8727    512.45472    355.40935     210.3309    36500.952 
  134200    294.73371   -1565.3873    468.52225    235.00952    495.29956    36500.952 
  134300    304.33116   -1580.9396    487.84575    282.15069    130.43904    36500.952 
  134400    301.87009   -1550.6783    490.05607    303.50098    473.00397    36500.952 
  134500    299.87279   -1571.9081    487.11546    270.30487   -23.636979    36500.952 
  134600    290.15128   -1546.8992     511.8072    276.07499    519.33081    36500.952 
  134700    302.24052   -1555.2205    504.42096    314.99756   -14.719914    36500.952 
  134800    296.85956   -1564.2703    473.74825    250.95898   -21.124558    36500.952 
  134900    298.19856   -1533.9172    490.90079    304.51552    386.93682    36500.952 
  135000    303.66489   -1568.8038    483.19555    286.62544      399.683    36500.952 
  135100    293.16765   -1530.7861    488.25559    282.26716    308.47128    36500.952 
  135200    305.16466   -1492.4187     478.1994    364.79167    453.23354    36500.952 
  135300    302.66183   -1565.9076    489.86623    291.65955     231.9389    36500.952 
  135400    298.18703   -1512.9236    499.35986    333.91602    599.29198    36500.952 
  135500    295.37546   -1504.7932    481.94662    311.92802    495.09502    36500.952 
  135600    308.81186   -1493.2002    538.72328    441.01546    611.03052    36500.952 
  135700    295.43465   -1498.6494    475.05111    311.44371    -38.31134    36500.952 
  135800    300.53058    -1499.382    545.21898      403.907    -404.2916    36500.952 
  135900     297.5959   -1529.6484    461.62172    276.78186   -226.65547    36500.952 
  136000    308.90729   -1488.7422    516.03925    423.22068    -347.8884    36500.952 
  136100     300.3554   -1480.0391    467.38189    344.62124    47.376661    36500.952 
  136200    301.02206   -1514.2353    507.70172    353.75747   -122.22615    36500.952 
  136300    297.16091   -1504.6086    491.65007    329.88433    42.002278    36500.952 
  136400    296.41877   -1493.0644    497.00669    343.43142    184.66609    36500.952 
  136500    302.71765     -1453.95    512.23619    426.23943    -24.80911    36500.952 
  136600     296.5407   -1501.8044    478.07869    316.31443   -292.88268    36500.952 
  136700    304.36221   -1530.0381    485.47306    330.81977   -15.387704    36500.952 
  136800    306.81904   -1498.8936    488.78083    376.37428    109.92337    36500.952 
  136900    296.76494   -1472.5843     516.4119    384.88101   -336.87555    36500.952 
  137000    307.88364   -1490.3849     468.2313     369.1443    245.42424    36500.952 
  137100    306.87531   -1531.6433    486.11435    341.21239    494.60376    36500.952 
  137200    303.43059    -1513.349     473.1534     330.9793   -207.86411    36500.952 
  137300    292.39083   -1509.7478    511.76498    323.30447   -109.91501    36500.952 
  137400    310.88392    -1489.742    496.48198    411.59586     692.7813    36500.952 
  137500    303.11446   -1517.7573    483.66261    335.65168    876.91939    36500.952 
  137600    304.39283   -1510.0147    522.63219    388.14069    910.61634    36500.952 
  137700    298.13321   -1485.3093    497.70529     359.6326    434.76928    36500.952 
  137800    292.44804   -1495.9695    500.50264    326.07892    558.72993    36500.952 
  137900    303.28667   -1475.3124     496.2278    391.44003    17.514794    36500.952 
  138000     298.2542   -1483.4047    488.15716    352.53581    315.16013    36500.952 
  138100     310.9103   -1522.7306    504.21058    386.45505    159.46729    36500.952 
  138200    291.80041   -1540.1294    481.97908    260.46892   -314.34214    36500.952 
  138300    292.28678   -1504.8353    477.59575    293.57751   -374.39507    36500.952 
  138400    305.43637   -1570.6685    497.05287    306.62323   -485.38883    36500.952 
  138500    288.71736   -1556.9456    478.84515    226.58674   -44.376904    36500.952 
  138600    288.18593   -1551.5568    486.58676    237.31565   -376.31253    36500.952 
  138700    297.81117   -1500.8781     503.5686    348.47182   -376.86589    36500.952 
  138800    301.23576   -1504.9347    507.36191    363.68391   -312.39547    36500.952 
  138900     298.8172   -1504.3517    488.43662    334.41236   -284.36507    36500.952 
  139000    304.84546   -1548.1229    491.89101    321.33668    163.61865    36500.952 
  139100    304.06007     -1564.33    492.86951    302.55902    374.58432    36500.952 
  139200    304.52961   -1495.3239    496.83226    377.64963    287.31633    36500.952 
  139300     300.1381    -1495.281    492.33642    353.35194    149.24489    36500.952 
  139400    302.35033   -1506.5824    491.51804    351.22894    32.364298    36500.952 
  139500    301.77359   -1502.1511    494.42305    355.95906    323.67831    36500.952 
  139600    297.72737   -1452.0837    517.70063    411.01956    286.26481    36500.952 
  139700    308.48613   -1457.1906    498.89434    435.72419    270.36473    36500.952 
  139800     295.0312   -1463.6463    488.09352    357.66605   -182.35797    36500.952 
  139900    302.86525   -1450.2238    487.70932    406.10572   -142.24189    36500.952 
  140000    290.58597    -1462.308    509.11662    359.93993     1.183262    36500.952 
  140100    292.79698   -1499.6069      477.002    300.51773   -431.43736    36500.952 
  140200    312.90619    -1503.112    463.92557    374.80792   -581.79689    36500.952 
  140300    304.91684   -1526.9489    494.55199    345.49428   -238.96974    36500.952 
  140400    300.24146   -1545.5271     486.7859     298.0223    175.02665    36500.952 
  140500    305.10483   -1514.5328    464.57102    328.77894      307.196    36500.952 
  140600    299.03525   -1522.9575    480.52199    308.87728   -23.790915    36500.952 
  140700    310.65643    -1550.036     471.2971    325.08897    591.81996    36500.952 
  140800    304.78455   -1519.7421    485.52624    343.07752    -391.9912    36500.952 
  140900    309.08792   -1528.8621     480.3632    348.24095   -350.79715    36500.952 
  141000    294.82369   -1563.1322    497.01844    266.16743   -759.86389    36500.952 
  141100    304.45847   -1535.2882    495.11056    335.64223   -401.71635    36500.952 
  141200    306.45576   -1544.2501    492.55662    333.15187   -522.44218    36500.952 
  141300    295.97408   -1530.2084    491.08317    298.35446    379.46196    36500.952 
  141400    303.76078   -1545.4972      507.157    334.32678   0.38469693    36500.952 
  141500    294.66301   -1536.2677    498.14988    293.43723    947.51205    36500.952 
  141600    303.22697   -1483.3051    490.34535    377.29507    448.19567    36500.952 
  141700     304.9382   -1468.3485    510.35777    419.99696    138.99179    36500.952 
  141800    304.23458   -1520.5361    472.84315    327.11514    147.38184    36500.952 
  141900    310.39119    -1493.096    474.74894    384.28222    138.89811    36500.952 
  142000    293.76033   -1452.9679    507.30682    381.81481   -120.09711    36500.952 
  142100    301.59036   -1484.1451    508.53123    387.24526   -337.49476    36500.952 
  142200     296.7223   -1444.5045    530.45293    426.80918   -152.79332    36500.952 
  142300      296.269     -1480.68    486.24109    344.37341    898.49472    36500.952 
  142400     296.0636   -1509.2686    524.34003    352.95564    784.12091    36500.952 
  142500    305.13037   -1498.5407    476.00731    356.32273    159.35453    36500.952 
  142600    300.69219   -1485.0951    487.07324    360.77846    488.50925    36500.952 
  142700     283.7176   -1515.4288    493.59591    260.26082    296.90678    36500.952 
  142800    306.76385   -1509.1391    492.07355    369.17208    253.54648    36500.952 
  142900    304.90508   -1554.2353    502.91078    326.51348   -74.261356    36500.952 
  143000    304.72803    -1503.352    444.51217    318.19815    47.827419    36500.952 
  143100    299.74643   -1554.8091    471.07778    270.79523   -40.730036    36500.952 
  143200     308.0662   -1529.1107    489.16762    352.17977   -8.2257271    36500.952 
  143300    294.74414    -1471.878    494.24123    354.28489   -765.18814    36500.952 
  143400    313.19974   -1475.9105     492.4492    431.85952   -134.91285    36500.952 
  143500    281.02081    -1495.389    493.43438    267.95259   -173.87158    36500.952 
  143600    299.79339   -1499.7245    497.24832    352.26261    92.572876    36500.952 
  143700    296.10312   -1492.3178      486.073    331.81795   -55.885313    36500.952 
  143800    296.65229   -1511.7805    518.89887    347.66283   -462.61594    36500.952 
  143900    293.55598   -1475.0174    464.02201    315.55709   -523.31838    36500.952 
  144000    301.61374    -1524.859    491.51364    329.61938   -540.57686    36500.952 
  144100    294.84344   -1507.2099     504.0473    329.20776   -209.75769    36500.952 
  144200    305.66498   -1513.7988    482.76764    350.24075   -140.20382    36500.952 
  144300    294.80096   -1514.7898    479.83961    297.22826    179.96898    36500.952 
  144400    299.32325   -1511.2932    498.25923    339.58029   -287.24862    36500.952 
  144500    298.88783   -1535.8369    487.26712    302.07687   -173.94478    36500.952 
  144600    299.99866   -1513.0578    494.60549    337.21406   -262.88301    36500.952 
  144700    293.16349   -1505.0142    472.79455    292.55917   -107.04139    36500.952 
  144800      305.315   -1464.2867    527.77986    443.18355   -149.73494    36500.952 
  144900    294.50503   -1432.5771    490.68057    388.94463    522.04987    36500.952 
  145000    289.19913   -1486.4902    472.94208     293.3162    230.69644    36500.952 
  145100    306.86381   -1518.9547    505.43912     373.1738    761.74377    36500.952 
  145200    300.66756   -1515.5535    501.63282    344.76841    441.23704    36500.952 
  145300    292.28495   -1486.7985    499.51919    333.52944    -129.5355    36500.952 
  145400    304.56026   -1518.2066    496.93423    355.00749   -248.98566    36500.952 
  145500    293.14186   -1556.4201    492.47467     260.7357   -290.68935    36500.952 
  145600    306.28939   -1524.0782    460.26914    320.28448   -517.04703    36500.952 
  145700    294.40663   -1532.7569    488.88386    286.52348     258.9315    36500.952 
  145800    301.68203    -1536.303      469.846    296.81635    36.901714    36500.952 
  145900    294.10176   -1537.1663    501.24251    293.09505    -200.5223    36500.952 
  146000    309.46054   -1545.4951    482.21673    335.14533    841.71281    36500.952 
  146100    306.88499   -1528.2023    480.95552    339.53827    1071.9597    36500.952 
  146200    304.80735   -1534.6039    498.09096    340.88346    998.33275    36500.952 
  146300    297.28767   -1526.0349    503.44705     320.8278    567.08218    36500.952 
  146400    300.29777   -1542.3496    473.68107    288.34946    456.88481    36500.952 
  146500    306.52511   -1525.0548    488.00923    348.11322    145.37137    36500.952 
  146600    320.62379   -1521.2921    455.86249    383.43982   -78.455608    36500.952 
  146700    292.89201   -1518.7547    508.51469    313.31209    157.01371    36500.952 
  146800    293.27804     -1462.25    512.86455    375.91104    245.37708    36500.952 
  146900     308.3527    -1500.019     485.0916    378.49013    346.53293    36500.952 
  147000    302.38547   -1498.5554    485.88749    353.78422    29.950703    36500.952 
  147100    302.98848   -1505.7411    515.76827    379.20426    220.27104    36500.952 
  147200    294.86504   -1475.9311    491.72449    348.26134    664.88387    36500.952 
  147300     303.2366   -1459.2148     474.9062    385.98968     17.73136    36500.952 
  147400    311.55081   -1488.7662     479.7066    398.80989    317.74227    36500.952 
  147500    297.57405    -1465.961    484.01931    362.76811      220.181    36500.952 
  147600    310.58511   -1472.4361    490.45731    421.52678   -13.181172    36500.952 
  147700    300.40563   -1480.1788     501.0609    378.38756    71.994536    36500.952 
  147800     302.6135   -1466.0699     516.6409    418.05362    89.496442    36500.952 
  147900    302.80681   -1469.8886    488.51681     386.9843    99.273452    36500.952 
  148000     307.6116   -1469.1274    499.24988    420.19103    291.61996    36500.952 
  148100       306.56   -1443.6495    503.39251    445.05942    208.66708    36500.952 
  148200    303.60812   -1471.4377    494.95528    395.49481    402.76636    36500.952 
  148300    301.19415   -1484.1538    488.74584    365.66068    244.69405    36500.952 
  148400    303.49763   -1497.9413    486.41373    359.95029    356.48022    36500.952 
  148500    291.59724   -1540.9383     495.9226     272.6854    16.805157    36500.952 
  148600    304.36796   -1538.3637     498.9949    336.04199    557.48366    36500.952 
  148700    301.04536   -1525.6727    471.47928    306.20288    250.48147    36500.952 
  148800    315.40426   -1503.4798    483.28583    405.08885   -106.37256    36500.952 
  148900    295.41469   -1564.4721    485.15928    255.63899   -185.77326    36500.952 
  149000    310.96772   -1517.3058    495.51348    383.44221    4.9379258    36500.952 
  149100    301.99642   -1523.6337    498.54871    339.60905    335.14676    36500.952 
  149200    308.12736   -1502.0058    476.36121    366.75456   -71.438946    36500.952 
  149300    301.01781   -1471.2278     496.5014    385.54545   -822.05787    36500.952 
  149400    300.87748   -1465.6646    491.93929    385.91236   -468.53628    36500.952 
  149500    310.34582   -1522.9578    491.71202    371.17847    178.14528    36500.952 
  149600    297.24286   -1516.6267    519.85431    346.44072   -68.991414    36500.952 
  149700    303.24079   -1550.5267    488.87194    308.66251    -51.29705    36500.952 
  149800    306.80203    -1511.591    498.52385    373.34304    36.072081    36500.952 
  149900    302.16919   -1465.1542    494.66501    394.98561    383.92644    36500.952 
  150000    295.74559   -1490.1765    491.20628    337.47693     226.3484    36500.952 
  150100    306.93112   -1522.3714    502.42379    367.04589     3.297946    36500.952 
  150200    295.07691   -1509.9799    498.79202    322.23752   -143.54124    36500.952 
  150300    300.89894   -1515.2185    469.03316    313.54928   -425.16993    36500.952 
  150400    308.20562   -1489.5457    503.49477    406.70191   -670.01398    36500.952 
  150500    298.52714   -1483.6352    505.30535    370.68683   -796.43021    36500.952 
  150600    299.72076   -1510.0039    476.15339    320.56001   -444.44141    36500.952 
  150700    287.31372   -1456.0843    481.25954    323.51953   -730.02785    36500.952 
  150800    293.17473   -1479.8556    516.45833    361.43236   -634.82511    36500.952 
  150900    311.10156   -1518.5684    502.48752    389.75848    286.37456    36500.952 
  151000    298.77104   -1532.2581    482.66431    300.52502   -244.14326    36500.952 
  151100    299.45634   -1508.7871    513.80658    358.23514   -106.07691    36500.952 
  151200    302.45018   -1497.6976    527.69417    396.74118   -56.635017    36500.952 
  151300    305.14105   -1488.8806    509.22905    399.25282    116.31636    36500.952 
  151400    303.36611   -1558.9805    493.43243    305.33545   -229.31324    36500.952 
  151500    310.24686   -1533.1195    489.88676    358.74426    99.330392    36500.952 
  151600    291.46112   -1497.4145    489.53398    309.20545   -621.12947    36500.952 
  151700    300.42422   -1522.4427    529.10947     364.2562   -109.22417    36500.952 
  151800    294.94144   -1553.3591     487.2714    266.72555     -413.288    36500.952 
  151900     299.4447   -1489.3811    515.81677    379.59873   -233.59204    36500.952 
  152000    295.73732   -1535.2624    502.32573    303.47312    883.12521    36500.952 
  152100    301.90718   -1512.4897    517.63854    369.43958    536.33151    36500.952 
  152200    297.77386   -1491.2419    511.63053    366.00136    361.00338    36500.952 
  152300    296.85193   -1473.4491    518.71134    386.70881    197.06654    36500.952 
  152400    296.16298   -1462.1104    471.33859    347.56146    230.79215    36500.952 
  152500       299.62    -1478.543    517.30459    392.71676    415.61707    36500.952 
  152600    289.75955   -1458.6566    513.86262    364.60274    586.71267    36500.952 
  152700    301.28618   -1467.5703    509.69219     403.6064    232.54836    36500.952 
  152800     307.9204    -1528.265    492.71443    355.91338   -195.52871    36500.952 
  152900    308.07783   -1527.4858    481.33924    346.02878    218.17382    36500.952 
  153000    295.91433   -1509.4716    488.72186    316.45988    189.88373    36500.952 
  153100    300.02496    -1516.145    482.84626    322.48652    -394.1117    36500.952 
  153200    288.55794   -1499.0183     486.0951    291.04357    -490.7957    36500.952 
  153300    302.12805    -1466.235    517.12486     416.1787   -37.193659    36500.952 
  153400    306.90189    -1445.794    523.85884    464.92623    239.23434    36500.952 
  153500    300.93822   -1467.9736    503.35558     395.2941    481.72581    36500.952 
  153600    291.80338    -1481.947    518.87971    355.56532    567.97775    36500.952 
  153700    295.27634   -1495.8418     509.4907    347.97559      5.42441    36500.952 
  153800    302.27122   -1479.4067    503.77589    390.30502    857.29591    36500.952 
  153900    298.57007   -1469.6387    514.98904    394.56105   -374.27915    36500.952 
  154000    303.74263   -1485.3804    492.90264     380.1072    453.17359    36500.952 
  154100    295.86759   -1486.7254    497.38636    347.65941   -198.55359    36500.952 
  154200    301.78597   -1507.2679     493.1216    349.59672   -270.84098    36500.952 
  154300    293.74757   -1500.4877    508.80026    335.73086   -564.70657    36500.952 
  154400    296.19709   -1472.5608    484.11395    350.04053   -421.56713    36500.952 
  154500    297.71403   -1508.2805     517.0465    354.10836    202.62123    36500.952 
  154600    307.40699   -1528.6573     525.7499    386.23647    145.28336    36500.952 
  154700    297.42474   -1561.5452    513.97183    296.46168    257.07478    36500.952 
  154800    298.96178   -1531.7856    488.85586    308.05102    407.86829    36500.952 
  154900    297.80149   -1548.9358    497.54191     294.3436    755.95459    36500.952 
  155000    297.70631   -1530.2983    515.70045    330.70959    272.20682    36500.952 
  155100    288.78145   -1498.5018    526.17207    332.64706   -326.61154    36500.952 
  155200    293.38066   -1475.4632    501.65717    351.95425    10.209725    36500.952 
  155300    305.29149   -1507.1947    502.07482     374.4643   -143.88952    36500.952 
  155400    295.03225   -1488.7464     505.0736    349.55084   -534.70385    36500.952 
  155500    302.80203    -1499.423    485.80566    354.71717   -117.88697    36500.952 
  155600     310.3248   -1501.5132    507.79252     408.6086   -219.38542    36500.952 
  155700    304.04752   -1464.4262      522.616    432.15258   -201.95915    36500.952 
  155800    306.85962   -1471.6646    498.24135    413.24713   -327.74739    36500.952 
  155900    310.83935   -1467.9436    471.17162    407.88245    -405.7555    36500.952 
  156000    299.39469   -1483.6979    501.97755    371.21667   -74.933985    36500.952 
  156100    305.89477     -1490.83    505.17135    396.65162    89.066665    36500.952 
  156200    303.62928    -1476.989     519.7739    414.85772   -255.32259    36500.952 
  156300    286.64724   -1455.3336    498.74975    338.74873      -543.62    36500.952 
  156400    302.52371   -1466.3047    488.46036    389.23246   -527.35217    36500.952 
  156500    299.35455   -1439.2719    536.05747    449.54126    40.554041    36500.952 
  156600    302.47995   -1398.7722    510.94423    479.05113   -321.44465    36500.952 
  156700    286.67992   -1421.9863    514.86695     388.3608   -899.16172    36500.952 
  156800    306.57097   -1439.4684    473.27885    419.17652    12.852561    36500.952 
  156900    312.44144   -1490.8449    491.92002    412.96928   -94.177874    36500.952 
  157000    292.19249   -1538.2087    521.24279    303.42504   -530.40009    36500.952 
  157100    310.76648   -1561.6177    485.00607    327.71345   -280.07898    36500.952 
  157200    292.43747   -1504.6894    496.86008    313.66872   -196.80186    36500.952 
  157300    288.43819   -1476.0778    539.31606    366.66387   -202.36714    36500.952 
  157400     284.7648   -1503.5166    481.78172    265.09102   -820.46038    36500.952 
  157500    320.68756   -1498.7811    474.33274     424.7092   -1038.7185    36500.952 
  157600    300.34052   -1497.9688    516.90356    376.14591   -864.96677    36500.952 
  157700    300.62631   -1452.9514    486.88428    392.43556   -735.07887    36500.952 
  157800    306.49164   -1485.8883    492.44365    391.56283    172.66626    36500.952 
  157900    298.14595   -1458.4339    519.36806     408.2283   -149.14747    36500.952 
  158000    308.43375   -1474.2817    500.22711    419.72911   -38.685641    36500.952 
  158100    312.39876   -1525.7584    509.87506    395.81798    143.23476    36500.952 
  158200    296.12844   -1488.7293    503.74568     353.1936    372.25248    36500.952 
  158300     299.7004    -1478.362    537.41739    413.37393     152.3733    36500.952 
  158400    296.47275   -1492.7617    493.67277     340.6442    728.49554    36500.952 
  158500    297.41613   -1472.6083    508.17955     379.5674    377.29624    36500.952 
  158600    295.47774   -1480.8652    480.73798    335.10952   -86.096006    36500.952 
  158700    297.63602    -1486.399     515.4472    374.03799   -589.56165    36500.952 
  158800    294.25113    -1479.193    503.17774    353.67853    220.11022    36500.952 
  158900    323.64375   -1500.4528    493.44217    455.50573    423.63999    36500.952 
  159000    304.78961   -1505.4597    487.65315    359.50965    156.48208    36500.952 
  159100    297.91417   -1482.7687    506.17826    369.65632    573.15507    36500.952 
  159200    297.10336   -1468.4094    517.09749    391.27083     376.5449    36500.952 
  159300     312.8743   -1491.1529    490.68036    413.37766   -53.989687    36500.952 
  159400    318.04314   -1479.6484     511.4794     469.0387   -427.22217    36500.952 
  159500    309.79127   -1476.7521    509.99188    433.15801   -471.04153    36500.952 
  159600    293.41952   -1469.7586    508.57253    364.74977   -133.65986    36500.952 
  159700    294.89424   -1486.7487    504.74801    350.59926   -26.739341    36500.952 
  159800    299.07145   -1538.6915    507.53728    320.32213    454.94446    36500.952 
  159900    306.80329   -1561.8395    511.29283    335.86923   -193.18983    36500.952 
  160000    303.99577   -1530.0292    492.35066    336.05038    105.08678    36500.952 
  160100    297.32992    -1565.623    503.96642    281.94999    213.31114    36500.952 
  160200    298.19909    -1515.253    507.13138    339.41261   -208.76431    36500.952 
  160300    298.33351   -1529.4958    496.14104    314.78693   -237.09637    36500.952 
  160400    301.99841   -1518.8891    482.58022     328.3942   -699.48434    36500.952 
  160500    301.08931   -1494.6664      504.962    370.89051   -858.98915    36500.952 
  160600    297.80493   -1486.5524     491.1788    350.37949   -1354.1952    36500.952 
  160700    292.47271   -1500.6323    498.75269    319.77768   -161.38299    36500.952 
  160800    307.05795   -1525.4632    482.34287    344.44635   -372.10589    36500.952 
  160900    294.57585   -1510.2612    503.55521    324.45517    399.66886    36500.952 
  161000    305.63542   -1518.3772    511.71047    374.47164     676.0027    36500.952 
  161100    319.83591   -1445.9386    454.50966     453.8801    89.167806    36500.952 
  161200    295.66854   -1492.4444     526.0353    369.68986    -111.6441    36500.952 
  161300    312.80853   -1483.9558    475.59013    405.18731   -90.310964    36500.952 
  161400      296.129   -1479.1002     505.2508    364.33033     373.2795    36500.952 
  161500    300.05468   -1477.1048    500.09471    378.90936      62.5334    36500.952 
  161600    302.14717   -1468.9546    513.86137    410.28203    245.06978    36500.952 
  161700    303.02561   -1500.8334    496.74722    365.25863    230.28467    36500.952 
  161800     292.0787   -1523.3931    485.93428    282.41793    520.46467    36500.952 
  161900    298.78277   -1506.5784    491.05727    334.65073    85.203855    36500.952 
  162000    306.11756   -1510.2544    514.14779    387.21053    456.44432    36500.952 
  162100    304.47394    -1525.274    503.93443    354.55013    670.26273    36500.952 
  162200    305.22161   -1512.6505    533.09746     399.7153    426.52703    36500.952 
  162300    293.64615   -1506.6627    496.81513     317.1124   -92.357924    36500.952 
  162400    287.81776   -1525.6222     504.9643    279.96411    31.017859    36500.952 
  162500    299.69836   -1516.6915    485.33313    322.95095    -321.8966    36500.952 
  162600    299.54902   -1503.2118    483.71834    334.14103   -138.71485    36500.952 
  162700    304.97989   -1478.6491    517.40886    416.93578    255.00968    36500.952 
  162800    303.94767   -1526.1325    518.49308     365.8721   -594.34648    36500.952 
  162900    299.24368    -1513.065    512.95092    352.14059    -254.4342    36500.952 
  163000    312.96649   -1520.7694    490.64428    384.14169   -420.21686    36500.952 
  163100    303.26624   -1498.4332    520.64628    392.64531   -16.234857    36500.952 
  163200     301.1241   -1530.0268    506.69527    337.42059    129.25018    36500.952 
  163300    294.29963   -1559.5333    479.05638    249.43601    125.12654    36500.952 
  163400    296.00864   -1545.5015    500.11637    292.25073   -599.41278    36500.952 
  163500      299.748   -1527.7359    498.12201    324.91975   -389.04339    36500.952 
  163600    292.63369   -1524.6899    489.12032    286.81511   -205.48205    36500.952 
  163700    299.52736   -1482.7735    509.63015    380.39321   -85.256964    36500.952 
  163800    296.17451   -1511.0287     511.7109    339.06756    229.07702    36500.952 
  163900    304.99328   -1516.7583    504.51259     365.9909    483.33257    36500.952 
  164000    298.84666     -1526.83    465.36989    289.00046   -357.02406    36500.952 
  164100    300.83195   -1523.2035    507.51903     343.7474    138.52772    36500.952 
  164200    287.82501    -1518.422     518.9391    301.17185    584.24144    36500.952 
  164300    296.82636   -1496.3635    517.84928    362.81685     254.9739    36500.952 
  164400    303.10063   -1519.7088    503.07979    353.05483    120.33607    36500.952 
  164500    318.71915   -1531.9681     500.3899    408.68434    559.83735    36500.952 
  164600    302.43801   -1534.3004    501.15447    333.54361    371.78238    36500.952 
  164700     291.8068   -1528.6626    503.00276    292.98824    493.24762    36500.952 
  164800    294.42769   -1543.6331    509.49934    296.35784    214.72985    36500.952 
  164900    292.93497   -1522.1582    519.90868    321.49666    247.64272    36500.952 
  165000    304.87097    -1513.362    520.86968    385.19162    972.74402    36500.952 
  165100    305.97298   -1555.0852    516.56608    344.14459    400.82324    36500.952 
  165200    298.32704   -1530.1949    506.25873    324.17629    473.87571    36500.952 
  165300    298.18028   -1593.8879    472.21066    225.77207    717.21005    36500.952 
  165400     307.2458   -1532.0409    512.67947    369.05407    520.19333    36500.952 
  165500    299.86226   -1533.2588    506.27076     328.0619   -375.00225    36500.952 
  165600     305.4627   -1537.8652    501.08406    343.57667   -166.84146    36500.952 
  165700    292.80663   -1531.1982    491.35471    283.32272   -74.202935    36500.952 
  165800    306.77258   -1522.3307    507.24028    371.18667    370.46024    36500.952 
  165900     298.1513    -1555.911    505.74454    297.15185   -17.735198    36500.952 
  166000    301.28303   -1563.9909    501.60472    299.08409   -481.78347    36500.952 
  166100    294.04795    -1511.042    471.95191     289.6856   -890.92331    36500.952 
  166200    312.43902   -1496.9681    482.79267    397.70781   -517.78427    36500.952 
  166300    301.96437   -1493.7179     485.0732    355.90452    12.170644    36500.952 
  166400    289.83926   -1504.6643    496.42533    301.51803    225.44736    36500.952 
  166500    305.11074   -1517.3226    484.64453    346.08931   -372.73437    36500.952 
  166600      294.527   -1535.1611    472.92896    268.70828   -62.821114    36500.952 
  166700    306.94449   -1528.5024    504.72373    363.27524   -2.5319313    36500.952 
  166800    309.60458    -1491.194    533.81987    441.70053    50.087596    36500.952 
  166900     311.9917   -1532.4427    508.98928    386.40833    458.86479    36500.952 
  167000     288.0899   -1563.7191    483.09003    221.22271     485.3273    36500.952 
  167100    298.19337     -1560.08    488.27868     275.7071   -339.67869    36500.952 
  167200    297.02316   -1581.0189    489.22588    250.42733    101.17077    36500.952 
  167300    294.65539   -1552.7699    492.35974    271.11045   -149.85933    36500.952 
  167400    298.53851   -1578.6094    469.52013    239.97879     145.8003    36500.952 
  167500    292.43307   -1589.1258    487.93156    220.28395    22.048421    36500.952 
  167600    301.18564   -1606.1479    462.98219    217.86447    198.57298    36500.952 
  167700    302.09085   -1553.5685    490.57337    302.12568    112.71509    36500.952 
  167800    300.48711   -1553.5256    460.25852    264.60649    192.82338    36500.952 
  167900    297.57066   -1535.6117    504.21798    313.30073    425.51004    36500.952 
  168000     298.9548   -1535.0593    511.31719    327.20713   -15.570202    36500.952 
  168100     287.4246   -1526.4425    508.83286    281.23571    144.76026    36500.952 
  168200    292.04439   -1528.7311    484.37871    275.36935     477.8868    36500.952 
  168300    295.41296   -1552.6232    502.00921    284.32998    250.64532    36500.952 
  168400     303.5655   -1551.2623    481.82492    302.34719    172.39014    36500.952 
  168500    293.35363    -1548.977    489.62809    266.28923   -236.80929    36500.952 
  168600    301.93559   -1580.8012    453.94553    237.56352    63.976289    36500.952 
  168700    297.70159   -1570.8192    495.14855    269.61547    19.706744    36500.952 
  168800    292.00704   -1567.6517    519.15442    271.05564   -247.58439    36500.952 
  168900    303.74849   -1584.5409    481.60959    269.68021   -33.941709    36500.952 
  169000    302.52855   -1562.9165    498.00815    302.19034   -335.25776    36500.952 
  169100    303.29757   -1526.8119    482.49622    326.25811     542.2783    36500.952 
  169200    310.37506   -1522.8605    473.47469    353.17056   -330.61322    36500.952 
  169300     310.9774   -1537.3077    487.52129    355.49185     20.99319    36500.952 
  169400    290.35365    -1539.306    474.35828    247.13368   -10.413546    36500.952 
  169500     291.0318   -1484.5239    495.94925    326.57126    131.94005    36500.952 
  169600    311.84754   -1511.7124    467.63634    365.13428   -503.53491    36500.952 
  169700    287.49184   -1516.9387    472.55888     254.7693   -338.97044    36500.952 
  169800    295.81611   -1523.1898    492.30091    305.87696   -389.29874    36500.952 
  169900    308.85173   -1510.5042    476.31425    361.48262    373.72157    36500.952 
  170000    302.87383   -1514.7656     501.7997    355.69308     520.6653    36500.952 
  170100    295.61674   -1494.8947    475.26858    316.23869    372.61739    36500.952 
  170200    303.69544    -1507.076    486.49472    351.79045    834.20395    36500.952 
  170300    305.14006   -1507.9856    523.34936    394.26369    625.51095    36500.952 
  170400    291.39001   -1536.5037    487.76961    268.03057   -186.49886    36500.952 
  170500    301.81007   -1504.7628     465.8407    324.92983    207.77535    36500.952 
  170600    299.70864   -1493.5161    493.23497    354.07471   -87.017296    36500.952 
  170700    304.43585   -1496.5296    486.63509    365.82312    288.03076    36500.952 
  170800    297.67223   -1493.4051    492.18214    343.93048    183.29925    36500.952 
  170900    298.80328   -1524.0736    498.24626    324.43719    539.75009    36500.952 
  171000    305.69333   -1500.1949    508.91519    390.12035    591.89419    36500.952 
  171100     298.3719   -1532.4191    467.07423    282.97035   -352.36515    36500.952 
  171200    306.40891   -1547.2778    522.08869    359.44455   -214.03797    36500.952 
  171300    299.59612   -1561.0373    467.35078    260.16078    372.10377    36500.952 
  171400    305.88481   -1519.8673    515.64208    378.04009    366.28592    36500.952 
  171500    293.89337   -1486.4547    476.39503    318.01743     621.5684    36500.952 
  171600    289.62835    -1519.317    496.04639    285.53329    829.45887    36500.952 
  171700    285.91517   -1545.8012    468.30355    214.52668    185.44572    36500.952 
  171800    303.39059   -1531.9433    487.59389     326.6448    17.960717    36500.952 
  171900    297.24515   -1543.2486    483.04556    283.02042    687.49266    36500.952 
  172000    304.64437   -1533.9217    481.78757     324.5258    622.45391    36500.952 
  172100    302.89193   -1537.1279    516.50204    348.11492    233.59587    36500.952 
  172200    300.02086   -1540.0814    474.97958    290.66479   -438.79832    36500.952 
  172300     304.2412   -1533.5709    472.91001    314.17711    -375.7891    36500.952 
  172400    305.21559   -1561.7994    475.29951    292.74127   -552.71155    36500.952 
  172500    296.66523   -1553.7044    489.33841    276.23697   -287.54614    36500.952 
  172600    302.79799   -1568.7667    469.42648    268.97609    229.00146    36500.952 
  172700    298.91763   -1519.9631    485.61444    316.43267    443.94389    36500.952 
  172800    304.69045   -1526.7483    497.59033     347.7101     785.6834    36500.952 
  172900    301.57417   -1542.2768    484.33827    304.84737    331.28257    36500.952 
  173000    297.05615   -1563.1369    478.51744    257.74999    523.78693    36500.952 
  173100    306.90751   -1570.8624    482.66975     298.6942    368.18724    36500.952 
  173200    303.98276   -1554.6645    487.98435       306.99    974.26304    36500.952 
  173300     295.0998   -1572.6152    487.53095    248.44458    491.90685    36500.952 
  173400     300.9867   -1531.0048    462.05393    291.18032    261.65769    36500.952 
  173500    302.63694   -1497.4765    461.41194    331.52398    602.10053    36500.952 
  173600    313.47679   -1511.4947    477.88188    382.95998   -67.323815    36500.952 
  173700    297.70763   -1504.7407    477.03761    317.61034   -258.15663    36500.952 
  173800    296.99166   -1508.8084    467.93589    301.20548    33.636208    36500.952 
  173900     298.3546   -1521.8247    495.79223    322.20454   -67.972933    36500.952 
  174000    298.20582   -1543.0495    482.65918    287.17434    461.16673    36500.952 
  174100    295.20657    -1530.515    474.84591    278.34226   -169.63527    36500.952 
  174200    310.13889   -1541.3544    456.87785     317.0126   -246.19836    36500.952 
  174300    305.07874   -1535.7495    478.88294    321.75621    55.986331    36500.952 
  174400    307.61465   -1521.2155     483.5486    352.41542    119.44739    36500.952 
  174500    294.59763   -1545.2218    477.86557    263.90339   -100.47053    36500.952 
  174600    304.11238   -1581.8351     469.1865     261.6073    83.568191    36500.952 
  174700    310.66244   -1523.8079    490.00708    370.05416    71.096135    36500.952 
  174800    287.56639   -1520.0916    467.39874    246.79325    192.94079    36500.952 
  174900    306.41585   -1547.9303    516.58848    353.32325    334.29007    36500.952 
  175000    303.43894   -1535.0628    488.15769     324.3075    788.68689    36500.952 
  175100    293.15512   -1543.6168    494.49929    275.62353   -28.895278    36500.952 
  175200    305.10132   -1533.0378     480.6778    326.36476     168.6643    36500.952 
  175300     309.2926   -1530.9865    477.77858    344.45684   -137.37242    36500.952 
  175400      309.999   -1537.2235    490.23105    353.86445    16.632286    36500.952 
  175500    288.32083   -1476.1139      472.527    299.30842   -552.84496    36500.952 
  175600    301.36865   -1509.4383    493.57383    345.99272   -164.78824    36500.952 
  175700    304.27135   -1505.6026    488.46612    357.83777    250.89856    36500.952 
  175800    298.96575   -1537.7585    509.78559    323.02586   -243.03384    36500.952 
  175900     295.6242   -1549.6572    510.52402    296.76539    301.69438    36500.952 
  176000    298.90483     -1516.05    501.10833    335.78172    504.49573    36500.952 
  176100    297.47518   -1502.5152    533.09177    374.83957     725.6988    36500.952 
  176200    301.32562   -1470.6317    510.19186    401.22291    233.91011    36500.952 
  176300    294.79158    -1503.991    470.30292     298.4479    406.08033    36500.952 
  176400    304.59786   -1502.4934    489.25736    363.21362    14.057106    36500.952 
  176500    299.71246   -1500.9363    486.02212    339.45889    53.316095    36500.952 
  176600    306.88912   -1534.9633    487.57604     339.4164   -382.90345    36500.952 
  176700    306.41583   -1513.3197     488.8893    360.23452   -55.410833    36500.952 
  176800    297.03932    -1502.398     485.7982    325.69353    258.45047    36500.952 
  176900    303.30247   -1501.4019    484.65681    353.85092    251.81249    36500.952 
  177000    298.07541   -1515.4361    481.73663    313.27591   -381.33504    36500.952 
  177100    308.14184   -1523.4748    481.89787    350.88775   -839.02698    36500.952 
  177200    283.46379   -1530.3819    465.63362    216.19847   -556.63488    36500.952 
  177300    298.77978    -1516.678    513.23836    346.71874   -129.76579    36500.952 
  177400    301.60796   -1570.9085    490.24839    282.27848   -238.22364    36500.952 
  177500    292.92822    -1588.446    458.08468    193.35438   -181.56008    36500.952 
  177600    303.11446   -1550.1006    476.47499    296.12075    190.21192    36500.952 
  177700    305.25807   -1534.4651    477.30813    322.27613   -91.910533    36500.952 
  177800    297.18599   -1565.5019    473.54037    250.99465   -91.800361    36500.952 
  177900    302.95909   -1555.1968     467.1284    280.97588    445.79826    36500.952 
  178000    289.74511    -1519.217    497.81299    287.92747   -215.99313    36500.952 
  178100    313.04947   -1508.1371    498.84935      405.354    459.30198    36500.952 
  178200    298.42314   -1533.9727    464.93774    279.51173    171.51162    36500.952 
  178300    305.27722   -1582.2151    500.41136    297.71589   -605.14264    36500.952 
  178400    292.80758   -1559.8677    485.16374    248.46656   -21.826757    36500.952 
  178500    298.76311    -1546.852    491.92204    295.15304    65.629506    36500.952 
  178600     301.8845   -1508.3721    502.13485    357.95105   -118.15663    36500.952 
  178700     302.9745   -1570.9248     495.4118    293.60084    391.70312    36500.952 
  178800    295.57302   -1579.9535    508.18058     263.8944    148.87229    36500.952 
  178900    301.56955   -1542.1737    490.61882    311.21021   -179.54597    36500.952 
  179000    293.70695   -1520.3087    482.27885    289.20482   -144.04837    36500.952 
  179100    297.78544   -1504.4011     479.6034     320.8673    331.20116    36500.952 
  179200    297.01285   -1527.6023    480.00072    294.57216   -110.12515    36500.952 
  179300    306.96673   -1546.2716    505.03771    345.92049    526.04939    36500.952 
  179400    293.06976   -1527.9614    475.54555    271.93945   -18.008461    36500.952 
  179500    298.19305    -1522.192    476.91904    302.23403    58.963335    36500.952 
  179600    291.58976    -1543.577    482.75661    256.84691   -20.676391    36500.952 
  179700    294.46934   -1523.5619    497.73578    304.85378    370.97321    36500.952 
  179800    300.83394   -1514.2214     506.0491    351.26861    401.57336    36500.952 
  179900    317.21367   -1506.7125    498.82126    425.56816    46.996112    36500.952 
  180000    302.85346   -1519.3399    490.23262     339.4597   -92.040331    36500.952 
  180100    290.54867   -1476.3037    496.00494    332.66394    209.18952    36500.952 
  180200     298.1962   -1507.1274    491.68055    332.07436    546.04859    36500.952 
  180300    293.41736   -1541.8992    507.67556    291.70239    1029.9808    36500.952 
  180400    302.36473   -1512.4136    504.33289    358.27773    737.40459    36500.952 
  180500    296.64206   -1536.4538    468.57601    272.62044    88.992177    36500.952 
  180600    306.04077   -1519.4943    529.48592    392.96171    208.88991    36500.952 
  180700    305.25469   -1505.7038    501.89163    375.60572    388.03653    36500.952 
  180800     291.8876   -1486.4774    466.47427    299.01015   -127.68449    36500.952 
  180900    300.05481   -1468.4473    500.17896    387.65176    113.39926    36500.952 
  181000    308.01258   -1495.9152     477.8707    373.83607   -180.84128    36500.952 
  181100    307.52455   -1516.6543    483.89012    356.91096    121.45738    36500.952 
  181200    289.58815   -1519.9923      490.959    279.58886   -382.18603    36500.952 
  181300     308.3268   -1534.3461    494.45476    353.40908   -477.97379    36500.952 
  181400    302.07539   -1529.4984    493.95061    329.50314   -128.00334    36500.952 
  181500    294.28502   -1477.1401    482.15477    334.86158   -29.249446    36500.952 
  181600    301.07711   -1547.4561    488.99371    302.07737    173.78082    36500.952 
  181700    297.59128   -1542.5966    492.49306    294.68409    153.88322    36500.952 
  181800    292.39468   -1536.5895    494.66717    279.38233    306.79292    36500.952 
  181900    293.07195   -1522.4633     481.3647    283.26658   -562.79504    36500.952 
  182000    305.97451   -1472.7183     474.0718    384.02415   -334.54917    36500.952 
  182100    299.54351   -1472.5275    522.35126    403.43337   -581.91448    36500.952 
  182200    289.20717   -1444.8203    502.62727    364.70762   -317.93669    36500.952 
  182300    298.96977   -1469.8852    525.63544     406.7671   -779.42862    36500.952 
  182400    297.64917   -1504.0072    466.49126    307.53334   -553.14374    36500.952 
  182500    301.62883   -1516.1988    500.93149     347.7656    -302.8751    36500.952 
  182600    304.72498   -1514.8287     515.3164    377.51184   -158.89206    36500.952 
  182700    302.98884   -1468.1819    480.45303    381.44983     200.5358    36500.952 
  182800    289.03581   -1478.5768    512.79897    340.34843   -108.53785    36500.952 
  182900      294.433   -1529.4259    509.19379    310.28356    267.07973    36500.952 
  183000    295.55742   -1506.5439    485.45666    314.50953    112.42251    36500.952 
  183100    309.62754   -1486.7895     471.9561      384.345   -42.755719    36500.952 
  183200    311.62201   -1518.0849    506.84876    396.95509   -50.480707    36500.952 
  183300    295.64726   -1500.6549    465.38625    300.73409   -170.27069    36500.952 
  183400    308.40726   -1506.8096    519.51201    406.36645    1094.1528    36500.952 
  183500    303.17674   -1503.5972    485.46331    351.89386    608.01245    36500.952 
  183600    303.75092   -1518.4891    486.94837    341.08177    496.36546    36500.952 
  183700    298.83708   -1507.9182    472.38795    314.88708    320.05841    36500.952 
  183800    307.88739   -1508.7278    511.34271     393.9297    111.69473    36500.952 
  183900    295.80129   -1483.6512    501.58973     354.6374    214.74363    36500.952 
  184000    288.97806    -1499.672    497.31928    303.51253     -462.344    36500.952 
  184100    307.32636   -1470.4978    485.85678    404.13855    60.267216    36500.952 
  184200    306.13914    -1498.212    483.75662     368.9592    -85.44896    36500.952 
  184300    305.74054   -1538.7841     501.8961    344.72543   -112.66932    36500.952 
  184400    307.74095   -1478.7585    469.17641    381.07095   -89.396821    36500.952 
  184500    307.76718    -1463.516    512.57593    439.83148   -620.83233    36500.952 
  184600    302.96035   -1470.8884    493.62328    391.78485   -286.45849    36500.952 
  184700    306.46958   -1457.6669    503.15048    430.39139    21.444887    36500.952 
  184800    294.14492   -1482.5772    484.15994     330.7966   -165.21832    36500.952 
  184900     304.3551   -1495.5527    490.08312    369.88312   -3.8317254    36500.952 
  185000     297.2716   -1490.5315    488.29065    341.10212    92.854033    36500.952 
  185100    298.11177    -1515.022    511.56562    343.68333    83.032124    36500.952 
  185200    284.49978   -1498.1504    520.42637    307.90429    167.01477    36500.952 
  185300    294.90355   -1557.8437    473.98129    248.77966    877.87482    36500.952 
  185400    299.10164   -1511.0518     510.9044    351.46544   -128.19895    36500.952 
  185500    306.46838    -1479.038    508.28389    414.14826    1016.8232    36500.952 
  185600    313.41619   -1535.7966    491.47542    371.97778    976.88725    36500.952 
  185700    305.37639   -1573.5707    473.01955    279.41668   -186.66287    36500.952 
  185800    298.69136   -1524.7398    498.64597    323.66499    754.34266    36500.952 
  185900    301.18041   -1526.9169     485.7152     319.8049    591.37371    36500.952 
  186000    299.42139   -1499.9204    497.49931    350.63669    398.30164    36500.952 
  186100    294.07252   -1556.8322    479.60662    251.66107   -255.84178    36500.952 
  186200    309.82005   -1522.1865    480.64978    358.51158    72.410645    36500.952 
  186300    299.17099   -1517.9404    506.79556    340.78132   -203.01993    36500.952 
  186400    301.41942   -1496.8543    523.52391    388.75621    144.34767    36500.952 
  186500    298.24271   -1512.6585    467.99471    303.06765   -102.09369    36500.952 
  186600    306.97653   -1507.0172    510.70897    390.89053   -502.81264    36500.952 
  186700    304.25569   -1497.7075    501.36541    378.56141   -880.53824    36500.952 
  186800    306.79545   -1487.1246    503.15569    402.41145   -610.45594    36500.952 
  186900    299.73726   -1462.6338    508.93811    400.78948   -473.45938    36500.952 
  187000    296.37502   -1461.7012     522.9038    400.49409   -744.57236    36500.952 
  187100     294.1956   -1444.0249    504.50235    389.92029   -733.80699    36500.952 
  187200    297.40329   -1466.3792    512.97371    390.53263    106.49996    36500.952 
  187300      302.804   -1475.7168    478.90549    371.53216    64.551139    36500.952 
  187400    290.92708    -1432.405    490.80294     373.0707   -334.57441    36500.952 
  187500    303.62621   -1473.4904    497.92872    396.49724    54.082871    36500.952 
  187600    287.97429   -1502.0268    512.44773    311.75032   -651.77705    36500.952 
  187700    297.01066   -1487.1074    464.96241    320.01889   -438.21094    36500.952 
  187800    299.71299   -1486.3891    492.59796    360.58428   -99.912237    36500.952 
  187900    298.04788   -1518.8102     495.8984    323.93919    86.864926    36500.952 
  188000    292.48248   -1495.4286    504.30839    330.58127    166.35887    36500.952 
  188100    306.57806   -1513.1271    489.44777    361.71876   -68.490025    36500.952 
  188200    295.61791   -1513.4436    475.73553    298.16203   -101.31958    36500.952 
  188300    293.22241   -1525.5363    467.98406    267.49282   -272.44447    36500.952 
  188400    300.57513   -1491.1227    506.80928    373.95789   -37.087637    36500.952 
  188500    309.13135   -1482.3174    482.92486    397.54358   -596.55624    36500.952 
  188600    296.95768   -1492.6733    473.98211    323.23328     630.4043    36500.952 
  188700    310.73439   -1516.2099    499.87067    387.84089    552.46023    36500.952 
  188800    291.19711   -1517.7242    499.90234    298.07114    676.67406    36500.952 
  188900    297.73143    -1470.248    496.54436    371.71728    561.03222    36500.952 
  189000    298.84766   -1447.3073    508.16633    411.32418   -224.11978    36500.952 
  189100    302.86199   -1513.3478    459.63315    314.89089   -460.84536    36500.952 
  189200      299.211   -1476.5054    499.58389    375.18552   -476.34842    36500.952 
  189300    294.94469   -1469.7923    484.87558    347.91123   -873.95332    36500.952 
  189400    294.43484   -1463.8594    485.83705    352.50161   -611.47355    36500.952 
  189500    302.24902   -1470.1864    500.16535    395.81451   -370.81544    36500.952 
  189600    300.69655   -1491.6618     487.8583    355.01654    179.18859    36500.952 
  189700     299.2847   -1479.4299    492.06577    365.07593   -287.39573    36500.952 
  189800    300.28742   -1478.0743    480.89381    359.79072    8.6207461    36500.952 
  189900    306.55158   -1522.2497    465.97793    329.00661    438.49545    36500.952 
  190000     309.5055   -1532.1557     481.1481    347.61926    523.66064    36500.952 
  190100    294.57628   -1490.5075    495.82646    336.48203   -203.47185    36500.952 
  190200    303.64926   -1480.7977     484.5178    375.88316   -388.80613    36500.952 
  190300    305.43239   -1506.5141    498.35731    372.06411    -155.9801    36500.952 
  190400    307.84004   -1507.0702      487.174    371.20461    -317.0918    36500.952 
  190500     288.5243   -1509.1395    520.12271    314.79796   -419.58937    36500.952 
  190600    304.41214   -1515.3362    496.09921    356.37346   -50.395475    36500.952 
  190700    302.12686    -1517.626    495.50915    343.16665    40.560554    36500.952 
  190800    290.09004   -1501.7669    502.95081     312.0741    578.71451    36500.952 
  190900    300.97306   -1517.0776    494.35214    337.34408    139.93483    36500.952 
  191000    295.10523   -1536.9569    469.82781    266.42427    711.28072    36500.952 
  191100    301.30915   -1496.3798    493.34438    358.55287   -4.9637817    36500.952 
  191200    300.56736   -1493.1207    511.45507    376.57059   -363.35927    36500.952 
  191300    294.32587   -1519.1557    491.08685    301.96274    21.741396    36500.952 
  191400    304.79616   -1493.5998    498.77177    382.51783   -217.90834    36500.952 
  191500    299.15026   -1522.3349    487.97159    317.46921   -406.52164    36500.952 
  191600    304.44172   -1493.8377    512.44423    394.35065   -230.89669    36500.952 
  191700    309.72998   -1481.1352    487.20577    405.71188    291.50302    36500.952 
  191800    298.88357   -1460.7108    511.55338    401.46991    35.724947    36500.952 
  191900    300.18625    -1522.153    494.11191    328.47293    119.17715    36500.952 
  192000    306.56826   -1459.2372    500.99875    427.11531    -354.1138    36500.952 
  192100    307.36192   -1493.0448     477.6865    373.58198   -150.70742    36500.952 
  192200    294.16248   -1480.6816    522.03255    370.64416   -85.055167    36500.952 
  192300    295.65965   -1480.4157    497.45505    353.09806    36.453565    36500.952 
  192400    297.54921   -1520.7403    499.61767    323.47488    495.21318    36500.952 
  192500    308.77256   -1562.9517    490.78889    323.15199    811.00152    36500.952 
  192600    296.79164   -1523.6441    499.69754    317.22762    513.76356    36500.952 
  192700    305.74071   -1559.9295    470.65372    292.33841    337.28891    36500.952 
  192800    302.50347   -1543.5279    479.30051    302.75801    80.299704    36500.952 
  192900    297.17854   -1558.3271     474.5198    259.11519    868.03948    36500.952 
  193000    301.72005   -1510.3594    508.60442    361.69019    284.91344    36500.952 
  193100    291.57404   -1494.5223    500.21156    323.28555    232.66932    36500.952 
  193200    290.96301   -1525.2605    484.21437    273.78898   -359.71125    36500.952 
  193300    299.38706   -1532.9715    468.20719    288.13832   -621.24132    36500.952 
  193400    305.05776   -1517.1347    479.73087    341.12412   -250.82426    36500.952 
  193500    294.12748   -1468.2874    478.88824    339.73591   -331.05579    36500.952 
  193600    304.82576   -1484.4621    475.33102    368.34848   -652.51017    36500.952 
  193700    303.64404   -1498.6215    484.72414    358.24209   -405.51548    36500.952 
  193800    307.44758   -1502.4078    473.03673    359.95625   -538.81159    36500.952 
  193900    304.71923    -1480.916    496.66081    392.74299   -326.10494    36500.952 
  194000      302.484   -1451.3377    488.48934    404.04903   -186.97383    36500.952 
  194100    298.47895    -1493.984    482.96885    337.78378   -45.134088    36500.952 
  194200    300.42324   -1489.1522    482.10475    350.53757    109.19562    36500.952 
  194300    306.81054   -1498.3371     494.9562    383.06775   -89.988166    36500.952 
  194400    301.99559   -1472.9228    491.02004    382.78753   -97.664541    36500.952 
  194500     290.2528   -1500.8657    499.80637    310.56633   -151.42544    36500.952 
  194600    302.09911   -1474.7476    512.08806    402.49855   -527.78581    36500.952 
  194700    282.60113   -1508.6693    470.41879      238.798    -1194.583    36500.952 
  194800    289.52389   -1578.6751    517.55242    247.20918   -810.74429    36500.952 
  194900    305.37441   -1491.1823    481.18492    369.96153   -507.55996    36500.952 
  195000    297.07029   -1500.8989     509.8272    351.36155   -554.25578    36500.952 
  195100    302.68184    -1466.739    506.70462    407.75699   0.28491149    36500.952 
  195200    296.19755   -1543.5382    510.12686    305.07818   -14.658885    36500.952 
  195300    304.10225    -1514.877    499.11117    358.44423     282.5524    36500.952 
  195400    308.19648    -1479.389    534.03047    447.35301    857.48492    36500.952 
  195500    298.45653   -1490.5425    534.93109     393.0862    357.01157    36500.952 
  195600    308.18051   -1503.5794    476.79106    365.85109   -180.68067    36500.952 
  195700    292.30109   -1538.0844    497.90786    280.70519    141.04598    36500.952 
  195800    292.09613   -1524.3792    500.60967    296.18596   -300.22544    36500.952 
  195900    308.96868   -1518.5656    509.84073    387.47614   -206.04419    36500.952 
  196000    304.81241   -1489.4474    500.61095    388.58281    160.62467    36500.952 
  196100    293.83519   -1504.6085    508.00518    331.21093   -17.510348    36500.952 
  196200      296.287    -1536.528    477.09875    279.46444   -170.69142    36500.952 
  196300    303.71257   -1500.2475    511.17203    383.37372   -475.11312    36500.952 
  196400    300.49831   -1495.0041    467.68062    330.60078   -233.75351    36500.952 
  196500    306.29683     -1549.06    515.13288    350.20005   -324.32978    36500.952 
  196600    306.56824    -1498.052    500.85913    388.16083   -442.76055    36500.952 
  196700    299.39761   -1513.0302    483.41235    323.33243    323.46058    36500.952 
  196800    298.06572   -1497.1443    517.14134    366.92856   -179.61182    36500.952 
  196900    305.49122   -1460.6049    485.59931    405.48109   -235.62939    36500.952 
  197000    291.58279   -1502.8517    494.28147    309.06558    359.74194    36500.952 
  197100    306.15221   -1525.7164    496.03055    353.78779    379.88426    36500.952 
  197200    302.91764   -1486.2497    494.88698    377.49429    320.57956    36500.952 
  197300    307.96245   -1475.7433    487.81159    403.72227   -54.393413    36500.952 
  197400    296.38394   -1498.2444    492.71314    333.80052   -239.18956    36500.952 
  197500    302.39863   -1458.9414    481.51444    389.08469   -74.801031    36500.952 
  197600    303.72242   -1487.5436    492.84129    377.79131   -32.276993    36500.952 
  197700    302.76781   -1491.9131    495.25685    371.52367    91.939935    36500.952 
  197800    297.86104   -1511.6952    502.59111    336.90256   -81.833598    36500.952 
  197900    301.27826   -1512.9422     502.7605    351.26702    290.41283    36500.952 
  198000    297.99623   -1521.8005    497.03049    321.84753    55.777714    36500.952 
  198100    289.50546   -1469.5932    526.39465    365.04997    2.6943361    36500.952 
  198200    312.18551   -1469.9222    502.33478    443.15019    434.53104    36500.952 
  198300    301.72418   -1490.5648    479.61068    352.50973    336.62541    36500.952 
  198400    296.77037   -1502.3885    480.79528     319.4848    287.49155    36500.952 
  198500     310.3791   -1500.1491    497.90177    400.32732    30.004334    36500.952 
  198600    300.10326   -1514.1264    498.50381    340.51643    281.83839    36500.952 
  198700    310.76866   -1522.1975    478.00679    360.14428   -71.668065    36500.952 
  198800    301.01589   -1534.8436    491.04002    316.45953   -73.548157    36500.952 
  198900    299.50261   -1548.5526    479.27119    284.14337   -619.04993    36500.952 
  199000    295.35947    -1546.752    468.53289    256.48322   -488.29169    36500.952 
  199100    298.28937   -1496.6574     497.6407    348.92557   -62.536282    36500.952 
  199200    292.41631   -1529.3636    486.92028    278.95912    67.587044    36500.952 
  199300    296.16035   -1537.8616    482.79392    283.25371     189.7211    36500.952 
  199400    299.35156   -1508.7517    486.29219     330.2826   -698.38751    36500.952 
  199500    293.40171   -1515.2742    501.45856     312.0397   -549.17151    36500.952 
  199600     309.5507   -1480.8679    505.33817    423.30146   -332.60284    36500.952 
  199700    302.31141   -1504.5798    491.55326    353.09093   -307.01853    36500.952 
  199800    297.05306   -1495.3008    492.81655    339.87121     648.7884    36500.952 
  199900     299.6298   -1522.9486    491.08864    322.13955    32.659862    36500.952 
  200000    304.60941   -1576.5861    481.20569    281.12155    110.40678    36500.952 
  200100    305.08401   -1521.1047    500.79454    358.33644    52.595625    36500.952 
  200200    298.19171   -1515.9114    507.72201    339.31147    513.19412    36500.952 
  200300    301.77508   -1526.2131    493.43799    330.91869    643.44215    36500.952 
  200400    295.21073    -1515.885    480.48838    298.63352    822.90494    36500.952 
  200500    302.62766   -1510.7928    508.51464    365.26842    1019.6886    36500.952 
  200600    298.02076   -1538.3877    476.52053    284.86122    443.27418    36500.952 
  200700    297.95159   -1559.6377    493.49733    280.27546    237.95144    36500.952 
  200800    298.55972   -1526.3953    482.58671    305.35535   -111.18839    36500.952 
  200900    290.55115    -1540.341    473.69923    246.33215   -617.88497    36500.952 
  201000     288.7733   -1505.5972    495.94487    295.28764    235.72468    36500.952 
  201100    294.67826   -1548.5804    475.82466    258.86827    179.23882    36500.952 
  201200    295.54771   -1541.6888    498.89221    292.75634   -277.45377    36500.952 
  201300    302.50145   -1517.1793    502.49186    352.28879   -303.98506    36500.952 
  201400    290.52956   -1541.5889    503.75874    275.04622    320.16363    36500.952 
  201500    303.53693   -1528.0318    468.59464    312.21826   -205.05082    36500.952 
  201600    289.91325   -1522.6762    507.85368    295.26878   -454.47181    36500.952 
  201700    289.33287   -1498.3241    474.68337     283.8279   -354.01969    36500.952 
  201800    299.28591   -1510.1198    496.27378    338.59952   -554.49596    36500.952 
  201900    302.81784   -1494.1909    535.53081    409.74593   -618.87668    36500.952 
  202000    297.24741   -1486.8221    437.79082    294.20246   -566.45032    36500.952 
  202100    301.47966   -1509.4234    482.71319    335.64863   -559.86946    36500.952 
  202200    303.88888   -1450.3069    482.57749     405.5165   -122.87487    36500.952 
  202300    298.92832   -1465.1118      473.429    359.14674   -510.10172    36500.952 
  202400    292.79522   -1479.3461    466.15884    309.92746    -997.1548    36500.952 
  202500    304.28044   -1484.7125    473.08384     363.3866   -818.40875    36500.952 
  202600     303.4929   -1492.7369    489.94722    368.66676   -338.29744    36500.952 
  202700    302.15429   -1555.0607    487.22882    297.57556   -242.97062    36500.952 
  202800     309.5839   -1556.0692    460.11895    303.03086    -712.5728    36500.952 
  202900    283.64357   -1499.0992    480.07287    262.73285   -685.84268    36500.952 
  203000    294.33062     -1535.59    464.24395    258.70691   -579.69628    36500.952 
  203100    306.40539   -1575.6382    498.24271    307.22225   -359.20252    36500.952 
  203200    293.28419   -1552.6824    485.73315    258.37506   -213.81249    36500.952 
  203300    297.64229   -1532.6396      466.457    278.83558   -323.32376    36500.952 
  203400    306.23505   -1539.6397    492.47536    336.68371    -117.6509    36500.952 
  203500    300.27716   -1540.3949    481.92562    298.45557    176.53065    36500.952 
  203600    298.58276   -1524.0495     491.0476    316.26614    308.00084    36500.952 
  203700    308.94505   -1567.5086    499.34357    327.92921    509.76338    36500.952 
  203800    299.51837    -1549.994    486.93759    290.43953    309.81666    36500.952 
  203900    306.69586    -1595.737    494.80512    284.99849    592.32963    36500.952 
  204000    295.33376   -1539.2836    477.27756    272.58009    204.82762    36500.952 
  204100    299.66813   -1511.5678    473.73167    316.33657     174.7928    36500.952 
  204200     299.9892   -1508.9739    506.41204    353.06174    446.68307    36500.952 
  204300    296.97738   -1468.2482    513.35975    387.12504    333.98426    36500.952 
  204400    298.69988   -1523.8654    484.27108    310.20293    217.17445    36500.952 
  204500    301.77629   -1480.8492     494.2008    377.05084   -213.73905    36500.952 
  204600    298.21486   -1502.3326    472.67094    317.94388   -911.80761    36500.952 
  204700    293.13844   -1456.9671    469.25723    336.95576   -675.19181    36500.952 
  204800    294.02752   -1466.0241    507.47086    370.13016   -316.59378    36500.952 
  204900    305.02106   -1471.0077    459.98968    367.34406   -205.70252    36500.952 
  205000    301.49071   -1459.0214    508.69342    412.08086    485.38624    36500.952 
  205100    303.67899   -1494.7462    511.49736    389.04856     193.8034    36500.952 
  205200    299.18124   -1502.1171    496.26899    346.12443    240.63984    36500.952 
  205300      302.086   -1463.2175    503.49084     405.3722    -327.7235    36500.952 
  205400    301.16335   -1492.6971    484.76337    352.99575    100.72023    36500.952 
  205500    302.63626   -1473.3029     525.4405    419.72307   -322.41868    36500.952 
  205600    306.86532   -1496.5706    479.38508     369.5106   -395.43517    36500.952 
  205700    298.07727   -1495.2092    482.86835    334.64294    85.065356    36500.952 
  205800    298.35049    -1514.781    503.75214    337.18961   -508.89679    36500.952 
  205900    297.19366    -1499.984    485.84871    328.85553    472.37518    36500.952 
  206000     295.7644   -1517.0149    464.86261    284.37979   -377.98993    36500.952 
  206100      305.903   -1531.5565    493.86151    344.65254   -504.73044    36500.952 
  206200    304.56657   -1517.6273    482.15983    340.84087   -589.01241    36500.952 
  206300    306.41154   -1507.8766    489.37395    366.14295   -235.04392    36500.952 
  206400    301.69584   -1531.6924    471.30095    302.94428    309.70937    36500.952 
  206500    298.29269   -1477.6671    487.93087    358.22094    789.07146    36500.952 
  206600    303.98121   -1494.7877    514.38736    393.26282     781.2084    36500.952 
  206700    303.52329   -1457.6355    469.73654    383.69485   -244.25283    36500.952 
  206800     299.4948    -1474.642    506.54585    385.29335    683.61392    36500.952 
  206900     304.0176   -1479.0115    473.02364    367.83975   -114.28596    36500.952 
  207000    299.59638   -1453.4592    518.32854    418.71781    277.38241    36500.952 
  207100    294.62047   -1502.5173    521.31626    350.16175    -257.9117    36500.952 
  207200    311.25324   -1460.3614    484.68058     430.8439   -435.40087    36500.952 
  207300    300.60612   -1491.9041    498.23867    364.74597   -195.36164    36500.952 
  207400    304.05679   -1460.0063    493.57971    407.57806   -649.03477    36500.952 
  207500    299.93183   -1447.2407    470.37218    378.49579   -515.63136    36500.952 
  207600    308.24965   -1443.4604    503.30182    452.79328   -579.15185    36500.952 
  207700     295.5937   -1458.6439    514.99477    392.11162   -846.17871    36500.952 
  207800    306.85342   -1450.6843    496.02246    431.98059    168.38754    36500.952 
  207900     293.6231   -1452.6015    515.51921     389.7735   -380.61141    36500.952 
  208000    306.56106   -1455.2211    525.07186    455.17198    36.617015    36500.952 
  208100    299.86496   -1466.4781    523.89186    412.47597    1009.5377    36500.952 
  208200    301.47227   -1484.4059    527.41212    405.33169    592.28481    36500.952 
  208300    303.75374   -1489.9198    498.56573    381.28109    255.97911    36500.952 
  208400    309.43253   -1506.2198    499.69515     391.7725    412.01293    36500.952 
  208500    310.51039    -1513.448    494.14125    383.86112     96.50724    36500.952 
  208600    303.54557   -1540.3782    499.04645    330.36275    83.957958    36500.952 
  208700    303.83141   -1513.2015    479.36152    339.14624    220.13168    36500.952 
  208800    293.11903   -1470.6288    483.83727    337.78643   -272.45698    36500.952 
  208900    303.75379   -1459.6384    481.02435    394.02139   -423.48167    36500.952 
  209000    308.66972   -1518.5378    511.43411     387.7464    359.37803    36500.952 
  209100    288.93409   -1523.0833    523.52111    306.10438     124.0922    36500.952 
  209200    302.98869   -1517.8895    482.04166    333.33022    25.834158    36500.952 
  209300    305.14924    -1507.529     481.5781    352.99052   -193.44762    36500.952 
  209400    302.00576   -1520.0621    506.80899     351.4831   -236.94118    36500.952 
  209500    309.98632   -1516.6708    486.19876    370.32763   -589.93386    36500.952 
  209600     302.3557   -1537.6363    483.09513     311.7764   -526.90643    36500.952 
  209700    301.02277   -1506.7686    497.62563    351.15127   -884.83443    36500.952 
  209800    301.13303   -1458.6019    486.91461    389.10518   -857.67961    36500.952 
  209900    301.80276   -1473.7898    459.67836    349.70754   -566.79383    36500.952 
  210000    306.08473   -1465.6615    498.21992     415.7272   -514.67631    36500.952 
  210100    301.72401   -1443.3857    502.17569    422.25305   -588.15944    36500.952 
  210200    296.19542   -1444.9799    510.99194    404.49192   -405.77179    36500.952 
  210300    288.81025   -1465.2475    506.80381    346.66327   -590.17167    36500.952 
  210400    298.96767   -1485.8422    501.01293    366.17817     40.21179    36500.952 
  210500    299.11319   -1485.3856    457.52291     323.8023    185.88654    36500.952 
  210600    291.22514   -1456.2168    476.74392    336.54671   -724.70133    36500.952 
  210700     298.5646   -1430.9943    512.14715    430.33883   -508.27885    36500.952 
  210800    298.39532   -1467.4878    509.60007    390.53325   -140.57008    36500.952 
  210900    299.62464   -1516.9681    500.33639    337.34453   -140.82267    36500.952 
  211000    292.72847   -1497.8961     519.2554    344.17235    118.24182    36500.952 
  211100    293.68097   -1506.5306    495.68858    316.27527   -188.19472    36500.952 
  211200    296.31334   -1490.8795    501.55033    349.68362   -148.44464    36500.952 
  211300    308.04584   -1502.3509    512.78933    402.46924    141.29147    36500.952 
  211400    300.22958   -1542.8179    480.42883    294.32081    256.60394    36500.952 
  211500    301.01952   -1467.4324    515.40601    408.25312   -222.78385    36500.952 
  211600    295.89302   -1485.1622    493.53031    345.48146    422.76062    36500.952 
  211700    300.88853   -1489.0084    505.41225    376.09139    73.466638    36500.952 
  211800    297.67068   -1476.2647    499.17902     368.0608   -672.78426    36500.952 
  211900    299.93592   -1477.2114    482.44763    360.61908   -672.95462    36500.952 
  212000    300.77575   -1506.4242    485.17505    337.92882   -700.61328    36500.952 
  212100    297.44511   -1469.4116    510.59718    385.31264   -244.13498    36500.952 
  212200    301.44384   -1522.1068    485.38148    325.47161    69.997252    36500.952 
  212300    296.22713   -1476.3022    497.92388    360.24478      177.088    36500.952 
  212400    297.68707   -1475.2562     507.2238    377.18805    73.182337    36500.952 
  212500    289.74096   -1464.6346    479.72839    324.40658     671.8259    36500.952 
  212600    300.44964   -1464.2645    517.12591    410.56572    94.390109    36500.952 
  212700    299.75925   -1425.2947    496.89922    426.18901    -37.11545    36500.952 
  212800    303.84298    -1460.634    497.45776    409.86224    -620.4736    36500.952 
  212900    292.21989    -1467.337    492.87949    346.05729    -521.8025    36500.952 
  213000    298.46237   -1461.6902    492.25557    379.28938    -1288.967    36500.952 
  213100    300.94396   -1527.7587    485.34833    317.52774   -836.39905    36500.952 
  213200    308.88544   -1487.2478    500.75283    409.32996   -495.66705    36500.952 
  213300    293.82554    -1499.939    497.28865     325.1202   -1220.3458    36500.952 
  213400    291.83786   -1521.5497    492.44077    289.67953   -59.749694    36500.952 
  213500    307.72502   -1529.7459    498.48289    359.31802    230.05815    36500.952 
  213600    303.66885    -1504.616    496.30398    363.93956    537.17039    36500.952 
  213700    297.80765   -1504.0183     525.6314    367.37845    290.11346    36500.952 
  213800    293.42278   -1509.3669    504.04302    320.62664    354.36046    36500.952 
  213900    305.83645   -1460.9694    496.29398    417.37141   -93.575167    36500.952 
  214000     300.1506   -1506.9638     481.6323     331.0215   -155.48212    36500.952 
  214100    303.29126   -1504.5738    518.20245    384.17402    109.56042    36500.952 
  214200    308.23381   -1458.9646    511.87675    445.79242    479.25932    36500.952 
  214300    302.40208   -1510.2808    515.29396    371.54037    246.82934    36500.952 
  214400    301.85736   -1493.8441     509.5836    379.80516    226.61625    36500.952 
  214500      307.758   -1486.0045    482.05975    386.78537    616.56344    36500.952 
  214600    294.86292   -1492.2674    510.01333    350.20436   -413.66696    36500.952 
  214700    294.72776   -1507.8581    506.98317     330.9727    397.49892    36500.952 
  214800    301.34148   -1530.8378    491.29576    322.19239    258.35439    36500.952 
  214900     306.5888   -1517.1513    501.29792     369.5932    368.49694    36500.952 
  215000    306.81078   -1545.1121    475.31368    316.65131    -406.9902    36500.952 
  215100    299.59298   -1529.7827    511.81421    335.86465    4.3477992    36500.952 
  215200    302.07839   -1555.4782    484.52519    294.11144   -526.23883    36500.952 
  215300    304.56861   -1544.5873    519.80806    351.53834    34.574597    36500.952 
  215400    304.53877   -1563.1115    482.62096    295.69217   -319.07032    36500.952 
  215500    309.68332   -1536.7013    455.49555    318.22471   -233.67854    36500.952 
  215600    300.61499    -1538.781    484.63091     304.3014   -207.03156    36500.952 
  215700    313.52291   -1544.5377    484.88055     357.1241   -74.338556    36500.952 
  215800    288.60303   -1531.4827     486.9878    259.67565   -423.50351    36500.952 
  215900     283.8458   -1565.2507     506.5377     223.9601    57.661749    36500.952 
  216000     307.6581   -1523.5624    502.13384     368.8501    359.27862    36500.952 
  216100    305.95753   -1501.9233    484.63562    365.30621    369.67884    36500.952 
  216200    295.08659   -1492.2666     469.4778    310.68035   -27.618769    36500.952 
  216300    300.28888   -1519.0224     541.6223    379.57768   -362.74596    36500.952 
  216400    299.72282   -1510.7849    476.43645    320.07138   -179.54231    36500.952 
  216500    305.20993     -1565.71    493.54766    307.05329   -61.288348    36500.952 
  216600    300.15384   -1520.5266    488.50454    324.34556   -90.609923    36500.952 
  216700    297.70849   -1551.4353    489.20113    283.08313   -582.27922    36500.952 
  216800    304.65311   -1549.3414    480.37687    307.73485   -742.09909    36500.952 
  216900    298.21534   -1530.3244    494.88224     312.1656   -919.38529    36500.952 
  217000    295.00528    -1528.735    482.15488    286.52165   -293.07171    36500.952 
  217100     306.3375   -1518.3422    478.11566    344.08445   -348.57042    36500.952 
  217200    303.10068   -1525.6757     486.5822    330.59059   -247.84719    36500.952 
  217300    292.04724   -1542.3615    510.55563    287.92873    -180.8651    36500.952 
  217400    292.19904   -1501.7664    519.54566    338.19984    133.47795    36500.952 
  217500    291.52762   -1514.5609    515.69321    318.51876   -180.53179    36500.952 
  217600    303.29619   -1488.6055     507.6863    389.64839    198.86805    36500.952 
  217700    298.08341   -1477.0845      533.007      402.934    177.39399    36500.952 
  217800    301.76399    -1462.701    544.56124    445.50397    559.58831    36500.952 
  217900    301.80178   -1445.5902    494.20053    412.42483    225.72152    36500.952 
  218000    293.62047   -1462.1751    500.36516    365.03399   -170.56594    36500.952 
  218100    295.85062   -1492.8753    505.96142    350.00786   -322.03739    36500.952 
  218200    300.58144   -1506.7778    487.05118    338.57331   -71.397732    36500.952 
  218300    296.43612   -1462.4248    507.25059     384.3933   -159.72109    36500.952 
  218400    293.37698    -1493.409    508.27801    340.61257    411.08676    36500.952 
  218500    295.89701   -1518.3436    516.45879    335.24655    173.72733    36500.952 
  218600    312.00252   -1510.2853    477.54082    377.16615   -12.572099    36500.952 
  218700    296.11583   -1489.9738    509.01673    357.16316    300.67944    36500.952 
  218800    292.82482   -1542.8801    503.11761    283.48594    132.49401    36500.952 
  218900    292.28993   -1494.3236    533.75896    360.26669   -179.97006    36500.952 
  219000    300.26336    -1554.485    485.26974     287.6473   -529.67741    36500.952 
  219100    309.94153   -1528.1117    494.19601    366.68161    147.88062    36500.952 
  219200    300.05688   -1559.6448    512.53291    308.81752    415.46737    36500.952 
  219300    302.71907   -1511.9692    480.63553    336.62592    68.646994    36500.952 
  219400    289.89435   -1492.5324     511.2688    328.74234   -223.73419    36500.952 
  219500    309.11191   -1486.1281    511.96944     422.6896   -637.23815    36500.952 
  219600    309.28207    -1480.583    483.87349    400.90772   -324.37248    36500.952 
  219700    299.50368   -1512.1578    484.55392    325.82574   -706.82092    36500.952 
  219800    297.36617   -1483.7124    497.06025    357.11823   -486.86343    36500.952 
  219900    305.83995    -1504.237    517.92496    395.75058   -561.51392    36500.952 
  220000    296.69726   -1524.4655    464.77459    281.05671   -536.15108    36500.952 
  220100    297.71197   -1537.0132    520.98719    329.30699   -508.65817    36500.952 
  220200    298.42501   -1509.7623      486.244    325.03689   -165.04285    36500.952 
  220300    299.85009   -1515.2678    486.72208    326.44925   -395.82689    36500.952 
  220400    300.64542   -1510.8311     509.5823     357.3402   -347.99548    36500.952 
  220500    301.56026   -1530.3017    500.92692    333.34824   -129.62543    36500.952 
  220600    303.24219   -1551.5597    491.55401    310.31789    58.157111    36500.952 
  220700    298.50282   -1491.8536     497.8576    354.91076    875.14546    36500.952 
  220800    303.31326   -1535.4864    479.60044     314.7588    390.99101    36500.952 
  220900    307.21837   -1514.1702    510.69049    384.81183    401.53465    36500.952 
  221000    293.55866   -1496.0473    500.04167    330.55894   -383.45385    36500.952 
  221100    294.22274   -1531.9362    515.91608    313.54535   -324.55502    36500.952 
  221200    303.47628   -1493.5425    492.84411    370.68298    -531.5728    36500.952 
  221300    296.90113   -1478.7802    501.13762    364.02627   -420.03969    36500.952 
  221400    310.15592   -1477.5435    529.25449    453.27708   -348.33375    36500.952 
  221500    305.56259   -1450.7865    484.32367    414.34643   -392.27009    36500.952 
  221600    305.38713   -1498.0877    519.15997    401.08864   -770.60765    36500.952 
  221700    309.63348   -1512.8481    512.28635    398.64344   -262.14244    36500.952 
  221800    305.71341   -1516.4863    489.24996    354.25446   -61.892827    36500.952 
  221900    288.29665   -1514.6865    465.73434    253.83388    -720.6153    36500.952 
  222000    299.90164   -1512.5619    501.03361    343.69963   -441.69633    36500.952 
  222100    303.51023   -1532.2246    504.86186    344.17207   -23.566463    36500.952 
  222200    296.81716   -1521.3865    494.14418    314.04716    93.568149    36500.952 
  222300    303.79287   -1545.8256    497.66545    324.65191    499.92099    36500.952 
  222400    301.96329   -1489.6218    505.91836    380.84088    406.08523    36500.952 
  222500    299.92667   -1548.1473    463.13499     270.3287    745.21485    36500.952 
  222600    292.79808    -1525.862    491.70245    288.96802    559.93901    36500.952 
  222700    297.80621   -1517.4476    491.09835    319.40959     733.1946    36500.952 
  222800    294.13809   -1507.7747    484.82966    306.23794    634.49691    36500.952 
  222900    308.48218   -1477.1538      504.444     421.2928    323.90691    36500.952 
  223000    299.05593   -1508.4862    491.23545    334.15553   -4.7021565    36500.952 
  223100    303.42556   -1518.1712    489.37036    342.35135   -410.48552    36500.952 
  223200    299.53453   -1473.4253    503.86516    384.00887    490.81281    36500.952 
  223300    289.16608   -1474.8616    500.53677    332.39009   -330.80649    36500.952 
  223400     296.4968    -1435.921    481.25286    385.17366   -629.56336    36500.952 
  223500    315.12269   -1439.5055    495.39035    479.89528   -271.75385    36500.952 
  223600    290.38336   -1528.4426    485.65671    269.42985   -501.41194    36500.952 
  223700    298.30258   -1503.4785     481.5868    326.11019    84.921382    36500.952 
  223800    300.41747   -1451.8396    509.21855    414.93787    254.61343    36500.952 
  223900    304.80446     -1494.36    492.73067    375.75397    117.02789    36500.952 
  224000    303.64332   -1457.0459    516.00667    431.09698     325.8433    36500.952 
  224100     294.0432   -1479.2422       498.01    347.52201   -406.15513    36500.952 
  224200    308.60368   -1490.8527     487.6987    391.39769   -10.138327    36500.952 
  224300    294.35792   -1442.1593    487.61488     375.6319   -686.48146    36500.952 
  224400    298.96582   -1468.0691    479.49666    362.42659   -399.76188    36500.952 
  224500    285.15061   -1514.9578    489.79944    263.41101   -539.60245    36500.952 
  224600    303.45947   -1467.1395    500.48661    404.65249   -92.180475    36500.952 
  224700    298.27326    -1466.104    466.96274    348.72819   -403.59987    36500.952 
  224800    302.67912   -1441.8856    502.83292    428.72643    -549.0425    36500.952 
  224900    292.13778   -1452.2893    467.35507    335.20956    -166.1296    36500.952 
  225000    294.44483   -1451.0246    509.38494    388.92942   -240.28377    36500.952 
  225100    299.76753   -1444.6562    513.25824    423.22398   -390.13289    36500.952 
  225200    292.76661   -1473.4338    483.36434    332.91589   -157.95955    36500.952 
  225300    298.05697   -1512.4779    489.85427    324.26843    285.62871    36500.952 
  225400    299.44184   -1470.4009    480.74724    363.49648     276.5912    36500.952 
  225500    294.80215   -1487.6637    515.99717     360.5173   -407.43763    36500.952 
  225600    300.36104    -1486.953    511.09947    381.45035   -203.94619    36500.952 
  225700    295.47427   -1525.6571    472.51239    282.07639   -53.456211    36500.952 
  225800    297.70379    -1511.357    489.91257    323.85165    229.19273    36500.952 
  225900     306.2456    -1513.356    506.05842    376.59809    641.20714    36500.952 
  226000    302.38897   -1493.5393    450.70918    323.63785     520.5832    36500.952 
  226100    308.50555   -1534.2053     517.3848    377.28773   -521.59642    36500.952 
  226200    298.51696    -1478.428    468.20207     338.7448    -518.8035    36500.952 
  226300    301.23251   -1477.1512    479.74769    363.83848    -92.03941    36500.952 
  226400    303.62584   -1488.4085    478.55122    362.19995   -233.95562    36500.952 
  226500    304.95839   -1496.7272    472.98775    354.33945   -273.03136    36500.952 
  226600    306.30952   -1473.2737    471.82423    382.73507    318.49827    36500.952 
  226700     298.7664   -1510.7002    460.26532    299.66295    415.82891    36500.952 
  226800    307.04536   -1546.9452    507.04288     347.6074     675.6424    36500.952 
  226900    289.23048   -1512.0384    489.10819    284.07573    542.32405    36500.952 
  227000    289.82407   -1542.5196    503.97922    271.14795    899.82579    36500.952 
  227100    294.65189   -1553.9241    514.81205    292.39272    654.04705    36500.952 
  227200    293.22432   -1495.5137    471.27375    300.81381    264.39911    36500.952 
  227300    304.70009    -1487.657    466.88498    356.13964        55.95    36500.952 
  227400     302.3379   -1502.4683    497.91245    361.68128    226.37534    36500.952 
  227500    305.26958   -1500.4106    494.48108    373.55565   -132.20977    36500.952 
  227600    304.22051   -1490.5931    492.51754    376.66894    74.057195    36500.952 
  227700    296.29642    -1489.226      506.177     355.8873    45.644846    36500.952 
  227800    301.40994   -1521.9643    478.33103    318.41053   -270.21113    36500.952 
  227900    301.70835   -1504.8992     491.7837    350.27678   -356.58616    36500.952 
  228000    294.85334   -1516.1597    499.42398    315.67944   -543.86221    36500.952 
  228100     305.1711   -1512.4357    484.49629    351.10073    418.76354    36500.952 
  228200    306.60112   -1490.1389     475.8833    371.24668    77.174679    36500.952 
  228300    293.35251   -1546.8114     441.0134    219.83499   -210.02708    36500.952 
  228400     299.6753   -1537.2383     502.4998    319.46664   -357.52695    36500.952 
  228500    303.63282   -1541.1671    483.45397    314.37561   -158.09302    36500.952 
  228600    302.92347   -1550.9712    455.05903    272.97112   -264.02195    36500.952 
  228700    297.28472   -1539.6552    492.96408    296.71121   -142.15108    36500.952 
  228800    291.44576   -1503.5013    494.81141    308.32673   -49.270635    36500.952 
  228900    298.51288   -1590.8134    467.87592    226.01477   -852.59405    36500.952 
  229000    295.66228   -1555.0248    465.07164    246.11752     -801.892    36500.952 
  229100    297.31341   -1550.7495    478.91874    271.70118   -656.62051    36500.952 
  229200    287.97953   -1514.2289     455.0093     242.1334    -822.4697    36500.952 
  229300     295.6998   -1537.7638    473.42453    271.90091   -245.43899    36500.952 
  229400    305.24484   -1517.3015    474.72142    336.79332    224.41556    36500.952 
  229500    301.14306   -1508.3921    484.24534    336.69107   -23.206248    36500.952 
  229600    310.42383   -1500.2325    521.60218     424.1464     423.0122    36500.952 
  229700    298.70089   -1483.2091    465.00812    331.60084    148.23582    36500.952 
  229800    283.97524   -1505.0588    482.59718    260.79639     287.5442    36500.952 
  229900     303.2376   -1491.5415    476.34966    355.11094    37.077752    36500.952 
  230000    308.99101   -1511.7043      475.108    359.70569   -80.715768    36500.952 
  230100      293.977   -1515.8002    466.61887    279.27367   -293.19229    36500.952 
  230200     306.3233   -1533.8746    497.39488     347.7671   -340.77772    36500.952 
  230300    303.65035   -1515.6711    506.20386    362.70072   -46.664238    36500.952 
  230400    291.76628   -1514.6447    458.80422     262.6245   -693.25924    36500.952 
  230500     304.6081   -1529.7635    497.91205    344.64451    487.84765    36500.952 
  230600    294.41185   -1514.4494    458.43847     274.4092   -282.38306    36500.952 
  230700    309.97425   -1496.2247    490.64368    395.16415   -24.864784    36500.952 
  230800    301.06242   -1505.2125    488.16984    343.43078    2.5494516    36500.952 
  230900    302.68837    -1471.582    509.66639    405.90526    75.933604    36500.952 
  231000    298.17618   -1492.2573     490.4879    345.66133    359.09412    36500.952 
  231100    299.95503   -1527.1384    500.46699    328.79781    142.43837    36500.952 
  231200    301.32741   -1537.2406    473.31157    297.74184    82.175646    36500.952 
  231300    288.57699   -1502.1379    513.90733    315.82234    168.03741    36500.952 
  231400     296.5913   -1495.8576    502.19898     346.6102    1.8766773    36500.952 
  231500    293.30109   -1519.8432    496.12603    301.68348    167.60403    36500.952 
  231600     294.6493   -1490.5653    511.70355    352.63134     90.20696    36500.952 
  231700    298.03511   -1525.4568    505.70842    327.04487   -443.40967    36500.952 
  231800    294.41753   -1548.9992    487.41909    268.86562    174.25288    36500.952 
  231900    296.66127   -1540.0504    509.23579    309.77033    518.33118    36500.952 
  232000     306.2886   -1580.9581    484.85284    287.98472    505.52726    36500.952 
  232100    297.54655   -1561.4084    490.01924    273.19639    751.26247    36500.952 
  232200    299.17528   -1595.8725    466.58317    222.65623    251.99314    36500.952 
  232300    302.52036   -1529.3076    501.34683    339.10093    464.15418    36500.952 
  232400    290.63005   -1467.6676    520.54679    366.20967    643.99244    36500.952 
  232500    303.36979    -1488.605    474.06996    356.36514    623.29844    36500.952 
  232600    305.97118   -1459.5435    485.23051    408.34266    461.61555    36500.952 
  232700    299.70507   -1485.4357    511.27076    380.17473    775.02983    36500.952 
  232800    307.81303   -1490.7369    507.44092    407.68276    450.32666    36500.952 
  232900    298.22235   -1497.6817    513.66431      363.622   -520.91119    36500.952 
  233000    301.68982   -1515.4504    497.95773    345.81591   -457.76363    36500.952 
  233100    297.28528   -1497.1024    455.02441     301.3268   -119.30238    36500.952 
  233200    301.58979   -1524.3729    527.85672     366.3403   -720.68002    36500.952 
  233300    308.00525   -1523.3862    489.02232    357.48347   -343.62811    36500.952 
  233400    291.28008   -1528.2499    494.57058    282.58855    202.62683    36500.952 
  233500    306.48569   -1544.6255    493.03007    333.38519    253.59348    36500.952 
  233600    294.39167   -1540.7937    488.02211    277.55722    252.84852    36500.952 
  233700    294.41411   -1502.0458    486.75792    315.14239    298.82772    36500.952 
  233800    297.39857   -1578.0375    469.57829    235.45764    266.31547    36500.952 
  233900    287.55002    -1561.141    485.23645    223.50759   -47.344145    36500.952 
  234000    293.82545   -1563.1362    512.61688    277.25087   -182.65157    36500.952 
  234100    304.30423   -1533.2845    493.97277    335.81112   -41.497207    36500.952 
  234200    297.53374   -1598.1751    484.75243    231.10493   -281.42907    36500.952 
  234300    297.30211   -1538.7081    477.02319    281.79594   -224.48685    36500.952 
  234400    302.83954   -1562.6792    498.24969    304.07447     265.0984    36500.952 
  234500    295.18734   -1559.3674    490.54537     265.1024    371.67773    36500.952 
  234600    300.86974   -1561.8094    512.24044    310.03376    353.11258    36500.952 
  234700    301.38507   -1550.4148    497.31897    308.83556    379.94938    36500.952 
  234800    295.68427   -1523.7697    504.66944    317.06981    39.341842    36500.952 
  234900    301.10176   -1540.3676    474.80876     295.0923    427.06128    36500.952 
  235000    293.80299   -1521.8796     499.2217    305.01083    472.39703    36500.952 
  235100    311.61316   -1508.6767     499.6955    399.17001    788.72486    36500.952 
  235200    310.05787    -1496.095    494.84198       399.87    746.43162    36500.952 
  235300        309.3   -1461.1286    537.22088    473.79054    957.99726    36500.952 
  235400    301.05968   -1453.5927    476.53277     383.4011    322.85749    36500.952 
  235500    293.60464   -1464.4299    515.37816    377.72056   -611.52882    36500.952 
  235600    298.30475   -1493.8195    513.62414    367.81635   -435.04282    36500.952 
  235700    298.83261   -1487.1937    490.77602    353.97941   -1115.8799    36500.952 
  235800    310.41455   -1474.6793    485.00401     413.0595   -206.82006    36500.952 
  235900    292.38464   -1504.5166    505.10253    321.84522    524.24582    36500.952 
  236000    302.14514    -1508.798    481.83524    338.40333   -182.82459    36500.952 
  236100    300.04705   -1489.9908    488.66502    354.55925   -107.76675    36500.952 
  236200    301.25039   -1459.2815    487.59247    389.63374   -37.877986    36500.952 
  236300    318.62993   -1484.5328    505.58034    460.90688     792.1426    36500.952 
  236400    298.16093   -1505.7053    493.15765    334.81413   -520.05821    36500.952 
  236500    302.13114   -1486.3049    461.37245    340.37037    -322.0493    36500.952 
  236600    296.70303   -1544.1227    501.98663    298.63763    32.197573    36500.952 
  236700    304.96084    -1530.029    461.97001    310.03099    -156.1855    36500.952 
  236800    314.93261   -1529.4083    496.39787    390.14108    30.234142    36500.952 
  236900    296.17217   -1510.8241    485.44969    313.00042    -261.6836    36500.952 
  237000     299.9281   -1542.8704    453.47106     265.9482    17.223566    36500.952 
  237100    297.43526   -1546.3115    478.83655    276.60763    577.08339    36500.952 
  237200    306.89609   -1542.3168    508.85295    353.37134    1045.1111    36500.952 
  237300    293.62962    -1537.326    510.63965    300.19885    370.09238    36500.952 
  237400    284.98509   -1527.6051    496.03794     256.2542   -93.705143    36500.952 
  237500    301.57847     -1470.09    495.38704    388.10243    741.82411    36500.952 
  237600     301.7813   -1464.9143     494.4197    393.22737    244.50876    36500.952 
  237700    300.41155   -1521.1424    479.30692    315.69671    159.99404    36500.952 
  237800    313.13545    -1541.902    502.12924    375.25758   -185.21297    36500.952 
  237900    302.03106   -1518.3741    485.80654    332.28303   -168.73099    36500.952 
  238000     308.1675   -1521.6505     515.0533    385.98343    342.58767    36500.952 
  238100    303.36741   -1476.9585    497.79549    391.72644    272.09321    36500.952 
  238200     293.3279   -1523.7916     507.0959    308.82606    -108.2026    36500.952 
  238300    303.30853   -1524.6131    507.39222    353.40251   -203.31482    36500.952 
  238400    292.90494   -1504.1363    499.67954    319.15375    113.95946    36500.952 
  238500    304.55188   -1481.5707    497.30637    391.97759    149.01258    36500.952 
  238600    303.42583   -1480.0109    514.28786     405.4304   -14.007464    36500.952 
  238700    306.03815   -1503.5741    486.98477    366.36893    91.849472    36500.952 
  238800    293.95109   -1511.7077    502.04866    318.67891    494.16592    36500.952 
  238900    311.02368   -1467.7229    521.49672    459.26122    647.15636    36500.952 
  239000     300.2084   -1517.4214     543.7541    382.94681    742.24352    36500.952 
  239100    301.94602   -1543.5486    473.63487    294.55255    197.56542    36500.952 
  239200    308.70331   -1505.1011    490.20659     380.1074   -101.80732    36500.952 
  239300    302.27636   -1546.1938    484.96518    304.73047   -300.61752    36500.952 
  239400     290.8161   -1503.5066    516.88515    327.54982   -43.783855    36500.952 
  239500     292.5289   -1509.9224    511.32188    323.31064   -447.92797    36500.952 
  239600    303.90019   -1467.4264    505.27682    411.14745   -144.67581    36500.952 
  239700    286.50425   -1477.0302    500.93901    318.59518   -396.36107    36500.952 
  239800    306.92328   -1519.1913    484.65725    352.42406   -550.16637    36500.952 
  239900    304.07862   -1459.5333    481.07082     395.6409   -12.589889    36500.952 
  240000    295.76751   -1506.8869    503.81833    333.47764    -499.4047    36500.952 
  240100    294.90968   -1450.0892    497.61039    380.19092    545.92304    36500.952 
  240200    296.92555    -1436.244    480.11746     385.6527    783.82392    36500.952 
  240300    301.54157   -1492.5468    535.50984    405.60167    483.81975    36500.952 
  240400    312.42952    -1517.201    477.14746    371.78672    170.02726    36500.952 
  240500    294.47828   -1492.5191    490.63268    328.83382    102.07362    36500.952 
  240600    298.17703   -1503.9342    524.39417    367.89454    550.50072    36500.952 
  240700    307.19347   -1501.0423    493.81441    380.95113    659.59221    36500.952 
  240800    303.31115   -1519.2713    475.24204    326.60593   -20.566971    36500.952 
  240900    303.14996   -1528.3922     475.0584    316.57299   -255.85971    36500.952 
  241000    297.76585   -1527.0162    493.28945    311.84972   -86.676215    36500.952 
  241100    298.26563   -1526.2863    471.74384    293.29253   -33.248546    36500.952 
  241200    314.11958   -1565.8175    495.69783    349.35779    -20.21629    36500.952 
  241300    292.64948   -1538.4368    480.88306    264.90235    66.114018    36500.952 
  241400    292.43003   -1536.4551    459.91255    244.92181    307.76775    36500.952 
  241500     306.4287   -1597.2486    503.81444    291.28896   -319.25813    36500.952 
  241600    301.59048   -1529.4891    499.83117    333.20167    55.612127    36500.952 
  241700    302.43586   -1535.4087    474.66048    305.93159      606.228    36500.952 
  241800    304.74066   -1521.5981     474.5961    330.09302    5.8621817    36500.952 
  241900    315.82736   -1533.9681    494.25603    387.48277    -446.9292    36500.952 
  242000    307.09955   -1506.8667    531.22056     412.1085    269.59877    36500.952 
  242100    311.58204   -1515.5315    485.79143    378.27055    410.65139    36500.952 
  242200    298.96888   -1489.5826    503.13207    364.56232   -128.82654    36500.952 
  242300     299.5952   -1464.5685    516.28608    405.56072   -566.13888    36500.952 
  242400    301.77505   -1548.2263     485.9031    301.37047   -457.26362    36500.952 
  242500    295.23893   -1492.9776    510.50456    351.68448    920.01403    36500.952 
  242600    301.91312   -1537.9815    496.41105    322.74721    795.76451    36500.952 
  242700    309.91724     -1479.68    506.39225    427.19975    433.88223    36500.952 
  242800    300.38684   -1517.9125    530.38305    369.89101    627.70857    36500.952 
  242900      298.251   -1506.4074    483.65348    325.01495    153.58339    36500.952 
  243000    294.67138   -1495.7525    506.03641    341.87681   -135.73842    36500.952 
  243100     309.2774   -1498.2932    493.46952    392.77249   -168.85923    36500.952 
  243200    307.44785   -1516.1357     482.3484    355.54126   -69.959187    36500.952 
  243300    306.19554   -1548.4684     493.6653    328.86636   -180.63456    36500.952 
  243400    281.25829   -1561.4581    492.25379    201.77598   -391.15962    36500.952 
  243500    298.73772   -1535.5544    481.37257    295.78642   -302.26946    36500.952 
  243600    294.94908   -1528.6821    485.25933    289.42503    12.093839    36500.952 
  243700     302.8097   -1565.7954    496.38773    298.96156    79.761588    36500.952 
  243800    312.63398   -1528.3335    489.79574    374.22643    1024.0847    36500.952 
  243900    303.53211   -1522.8295     493.9561    342.76029    697.45553    36500.952 
  244000    306.67181   -1503.6401      522.785    404.96658    364.27302    36500.952 
  244100     303.0644    -1519.163    510.29521    360.65233    218.05105    36500.952 
  244200     303.9677   -1538.9827     495.4786    330.09798    889.72231    36500.952 
  244300    304.92904   -1538.4181    525.03564    364.56386   -60.882453    36500.952 
  244400    294.92538   -1541.4642    499.76019    291.03665   -9.9375643    36500.952 
  244500    296.26261   -1584.8209    501.75031    255.71288   -69.831361    36500.952 
  244600     309.7238    -1600.635    486.95327    285.93161    220.13202    36500.952 
  244700    299.60844   -1574.5019    494.26262     273.6637    711.44232    36500.952 
  244800    302.54278   -1557.5519    493.58696    303.19806    647.39043    36500.952 
  244900    302.87019   -1588.4764    478.74757    258.91367   -318.76227    36500.952 
  245000    293.58278   -1541.8179    480.92147    265.77714   -197.93306    36500.952 
  245100    305.90751    -1564.598    478.70682    296.47674   -880.89002    36500.952 
  245200    312.18536   -1550.9081     489.0284     348.8572   -492.29874    36500.952 
  245300    291.77875   -1573.1463     467.7379    213.11295   -525.31013    36500.952 
  245400    298.49807   -1545.3877    479.65036    283.14798   -559.19174    36500.952 
  245500    302.76559   -1547.8338    485.30848    305.64456    -727.4453    36500.952 
  245600    299.30889   -1546.0086    493.96996    300.51067   -589.63765    36500.952 
  245700    307.71139   -1539.4974    506.89903    357.92107   -250.16089    36500.952 
  245800    302.65881   -1545.5686    503.70627    325.82495     136.4884    36500.952 
  245900    298.71827   -1521.5885    502.69879    330.99072    188.07757    36500.952 
  246000    301.32043   -1518.5919    505.68766    348.73508    260.87237    36500.952 
  246100    295.44141   -1482.8065    501.19298     353.4591    225.91783    36500.952 
  246200    309.07043   -1530.2529    503.58024    369.98822     339.1862    36500.952 
  246300    312.26554   -1522.3367     515.0869    403.84947     9.049569    36500.952 
  246400     302.0169   -1466.9937    513.08178    410.87469   -481.52962    36500.952 
  246500    298.40111   -1471.5871    521.64832     398.5084   -308.10538    36500.952 
  246600    306.08162   -1495.1201    490.43954    378.47407   -310.00995    36500.952 
  246700    312.52695   -1460.9066     511.3648    462.73877    178.45614    36500.952 
  246800    300.15446   -1522.0504    526.37415    360.69411   -16.122961    36500.952 
  246900    310.36525   -1508.0311     491.8985    386.37943    -77.72648    36500.952 
  247000    296.62445   -1544.6486    502.70571    298.47571   -393.90854    36500.952 
  247100    304.69505    -1496.352    469.35171     349.8886   -449.07089    36500.952 
  247200    295.13162   -1472.4531     504.8046    366.02417   -821.23455    36500.952 
  247300    295.26582   -1507.7301    490.88469     317.4337   -835.54188    36500.952 
  247400     306.8535   -1524.2715    507.44697    369.81825    86.057623    36500.952 
  247500    297.02335   -1488.8697    472.29103    325.64256   -268.47306    36500.952 
  247600    301.64266   -1482.0328    510.45381    391.51641    -80.71071    36500.952 
  247700    304.50903   -1507.6131     519.4884    387.92364   -281.02193    36500.952 
  247800    302.97687   -1484.4843    499.07153    383.71189   -335.65503    36500.952 
  247900    301.66026   -1488.9687    494.24899    368.45524   -400.69176    36500.952 
  248000    302.81138   -1471.9236     504.2313     400.6845   -333.67215    36500.952 
  248100     307.4564   -1432.6334    505.22032    461.95413   -219.93381    36500.952 
  248200    299.74471   -1488.4876     496.7922    362.82339   -230.15911    36500.952 
  248300    298.88832   -1516.3899    501.77969    336.03859    22.312242    36500.952 
  248400    309.53715   -1498.0056    498.67671    399.44104   -261.73476    36500.952 
  248500    295.33843   -1456.0066    480.22244    358.82304    -226.8604    36500.952 
  248600    300.54434   -1539.4425    511.67075    330.36051   -69.368035    36500.952 
  248700    298.65974   -1510.8605    501.96435    340.71974    -652.3278    36500.952 
  248800    292.15239     -1517.19    475.65388    278.67369    -357.8388    36500.952 
  248900    296.27066   -1481.5155    483.98902    341.29341   -441.18526    36500.952 
  249000    286.99769   -1494.7832    500.59055    302.72355   -622.72047    36500.952 
  249100    289.70049   -1430.5302    510.50058    389.10023    268.68912    36500.952 
  249200    303.74796   -1455.5577     506.9664    424.01786   -255.27175    36500.952 
  249300    299.21155   -1488.9164    486.51896    349.71206   -916.07945    36500.952 
  249400     305.5856   -1503.3873     513.3082    390.83414    410.34098    36500.952 
  249500    299.62035   -1527.9681    521.14402    347.13275    523.27943    36500.952 
  249600    294.00759   -1542.0658    486.41503    272.94249    1.4650397    36500.952 
  249700    304.83913   -1489.3669    499.44941    387.62252    246.71699    36500.952 
  249800    304.18246   -1471.3017    500.03389    403.30478    237.06191    36500.952 
  249900    293.54564    -1462.561    519.72614    383.67088    111.71113    36500.952 
  250000    299.85704   -1519.7742    489.50965    324.76186   -129.01373    36500.952 
  250100    300.69147   -1496.3406    519.47166    381.92814   -48.390771    36500.952 
  250200    308.19266   -1506.7676    474.99376    360.92044   -4.2698794    36500.952 
  250300    300.16164    -1464.703    489.51783    381.21768   -443.38805    36500.952 
  250400     297.7308   -1499.6716    509.90754    355.65399   -1118.7057    36500.952 
  250500    298.73346   -1447.8003    483.46493    385.61367   -677.42526    36500.952 
  250600    296.94317   -1471.2828    482.30697    352.88305   -587.55602    36500.952 
  250700     290.1281   -1470.1922    530.56351    371.43356   -412.23109    36500.952 
  250800    290.31867   -1506.0726     502.2494    308.10011   -504.57005    36500.952 
  250900    293.47447   -1427.1164     505.2726    404.34035   -96.790112    36500.952 
  251000    295.88895   -1510.5622    488.92491    315.45771   0.18369898    36500.952 
  251100    310.04603    -1485.181    496.21271    412.10118    195.66934    36500.952 
  251200    294.51128    -1497.863    499.40196    332.40838    -248.6338    36500.952 
  251300    293.88672   -1487.5172     515.2775    355.80741   -203.79419    36500.952 
  251400    293.66245   -1525.0278    496.11582    298.12165   -41.494393    36500.952 
  251500    300.92941   -1436.0169    475.46677    399.32216   -418.17204    36500.952 
  251600    293.79854   -1481.2697    505.14088     351.5198   -111.26218    36500.952 
  251700    306.40303   -1482.5917    507.09834    409.11373    1.4030538    36500.952 
  251800    307.40793   -1510.4813    507.78271    386.44952    47.009058    36500.952 
  251900    295.08121   -1514.3944    489.63469    308.68515   -58.099528    36500.952 
  252000    295.78148   -1489.4227    508.70661    355.89326    412.06183    36500.952 
  252100    302.98006   -1530.9965    483.29928    321.44182    788.39825    36500.952 
  252200    303.19667   -1534.9355    494.20332    329.38567    854.85167    36500.952 
  252300    303.13228   -1551.0645    482.26711    301.02949    710.00841    36500.952 
  252400    309.69228   -1554.6067    470.06198    314.92626   -139.58825    36500.952 
  252500    294.45162   -1545.8691    496.39777    281.12852    109.71338    36500.952 
  252600    305.00987   -1525.3914    507.49104    360.41117    251.28676    36500.952 
  252700    306.21225   -1528.8399    508.56132    363.46643    529.01328    36500.952 
  252800    300.79438   -1519.6051    473.00461    312.66163    115.86303    36500.952 
  252900    315.19172   -1492.9834    535.14327    466.48224    351.28803    36500.952 
  253000    300.51131   -1489.5869    495.55648    363.95255   -294.29296    36500.952 
  253100    309.56884   -1496.8834    481.22603     383.2558    -571.3732    36500.952 
  253200     298.0026   -1485.8173    485.47317    346.30217   -418.25038    36500.952 
  253300    301.72087   -1456.9051    514.35427    420.89807   -747.83048    36500.952 
  253400    284.25561   -1464.8411    499.54095    319.22479   -698.76195    36500.952 
  253500    304.39902   -1497.2797    500.53996    378.81146    6.8273902    36500.952 
  253600    295.60617     -1488.11    516.96612    364.67325    143.89977    36500.952 
  253700    310.88593   -1485.2084    490.07353    409.73009    151.72123    36500.952 
  253800    298.02586   -1506.9642    535.97136    375.75855    18.981607    36500.952 
  253900    303.30958   -1519.7307    506.74113    357.63857    275.95628    36500.952 
  254000    294.62395   -1516.9793    512.17438    326.57357    451.13342    36500.952 
  254100    304.12491   -1507.4507     489.8958    356.75759    513.10301    36500.952 
  254200    298.73791   -1488.9291    490.68585    351.72587    325.70686    36500.952 
  254300    312.49436   -1515.7247    495.49959    391.90816   -263.15719    36500.952 
  254400    289.42985   -1527.5747    496.02016    276.35227   -256.65204    36500.952 
  254500    300.37061   -1531.4881    494.18095    320.03997   -202.30727    36500.952 
  254600    290.33306   -1464.3408    521.25841    368.90605    109.99368    36500.952 
  254700    291.89663   -1472.2778    495.75628    342.53248    -163.1203    36500.952 
  254800    302.04048   -1497.4643    495.52307    362.95194    164.80942    36500.952 
  254900    302.82848   -1513.6124    496.83533    351.67699   -157.86255    36500.952 
  255000    286.21982   -1477.1275     464.3762    280.64979   -170.41955    36500.952 
  255100    300.58658   -1497.6553    497.70052    358.36838     591.0475    36500.952 
  255200    286.71726   -1504.7578    504.04364    294.93477    836.92587    36500.952 
  255300    296.88263   -1501.8307    490.72578    330.48041   -117.83726    36500.952 
  255400    300.61687   -1515.3815    483.88631    326.96478    257.96936    36500.952 
  255500    292.94137   -1530.3714    490.25469    283.65839    154.94557    36500.952 
  255600    298.67253    -1511.748    495.12069    333.04637   -185.71853    36500.952 
  255700    298.45632   -1495.7885    506.41828    359.32642   -421.21971    36500.952 
  255800    309.17875   -1503.8944    523.80764     417.0636   -385.34563    36500.952 
  255900    295.32896   -1514.0505    478.00085    298.51478    455.48725    36500.952 
  256000     299.7341   -1546.4054    480.04927    288.11473    705.33828    36500.952 
  256100    305.57375   -1493.0751    514.80795    402.59254    566.16589    36500.952 
  256200    290.10403   -1502.7038     497.6798     305.9294     109.1073    36500.952 
  256300    300.31853   -1500.7741     508.6203    364.95807   -54.874629    36500.952 
  256400    309.02368   -1494.8633     474.2254    375.81175   -280.59501    36500.952 
  256500     294.1596   -1516.0626    485.08136    298.29896   -474.33952    36500.952 
  256600    291.70058   -1532.6869    490.13635    275.61753   -638.29536    36500.952 
  256700    300.45443   -1560.9121    504.23819    301.05203   -191.28912    36500.952 
  256800    290.48563   -1551.5766    449.90788    211.00916   -450.61795    36500.952 
  256900     304.5565   -1518.6756     484.5505    342.13769   -935.14288    36500.952 
  257000    300.41406   -1547.2244    478.44674    288.76581    -1126.497    36500.952 
  257100    306.99802   -1550.6027    484.23889    320.93203   -482.30067    36500.952 
  257200    291.30521   -1509.6454    482.54384    289.27987   -722.35016    36500.952 
  257300     293.5171   -1483.2387    478.90642    322.04445   -718.42132    36500.952 
  257400    299.69914   -1508.4433    471.76763    317.63712   -299.35033    36500.952 
  257500    289.61072   -1514.5292    481.64173    275.83669   -289.12887    36500.952 
  257600    294.80619   -1558.4655    505.60191    279.33843   -520.68647    36500.952 
  257700    305.12331    -1535.787    458.46448    301.50162    6.8721634    36500.952 
  257800    298.08093   -1536.6943    490.58226     300.8883    54.563259    36500.952 
  257900    306.79879   -1498.5878    495.25657    383.06432    486.15579    36500.952 
  258000    302.86357   -1517.1298    496.47191    347.95476    744.46949    36500.952 
  258100    296.33707   -1560.2256    472.50276     251.3971    186.07429    36500.952 
  258200    305.48514   -1516.8434    489.47621    353.09206   -28.484663    36500.952 
  258300    305.57686   -1486.9636    479.11035    373.02048   -46.920646    36500.952 
  258400    292.15362   -1498.7436    495.55912    317.03085   -28.202631    36500.952 
  258500     289.1674   -1504.9618    485.45881    287.21788    126.34686    36500.952 
  258600    306.10355   -1463.5381    520.79931    440.51505    700.35092    36500.952 
  258700    299.54096   -1462.7392    482.48084    373.33972    595.70934    36500.952 
  258800    296.28754   -1503.2616    474.65839    310.29298    38.636178    36500.952 
  258900    293.59787   -1529.5849    497.80007    294.95695    177.51938    36500.952 
  259000    287.31475   -1518.6441    483.15653     262.8614    671.60565    36500.952 
  259100    288.30087    -1512.351     479.6179    270.07203     282.7068    36500.952 
  259200    300.26536   -1540.8277    502.00862    318.05243    358.37738    36500.952 
  259300    305.35375   -1514.4323    497.27033    362.70349   -127.69943    36500.952 
  259400    296.30775   -1491.6381    464.79808    312.14747    433.62165    36500.952 
  259500    295.64525   -1478.3446    493.33384    350.98291    90.980065    36500.952 
  259600    294.65084   -1486.9364    504.08203    348.64565    216.09565    36500.952 
  259700    307.51674   -1513.5192      480.332    356.45264      102.239    36500.952 
  259800    296.63893   -1470.6986    454.61352    324.39893    10.984518    36500.952 
  259900    303.25735   -1454.3232     492.4242    408.49311    73.296891    36500.952 
  260000    299.59418   -1478.0459    484.42046    360.21306    365.70863    36500.952 
  260100    297.23579   -1492.9772    472.07617    322.28013     134.8122    36500.952 
  260200    305.52836   -1475.4806    490.85634    396.03034   -75.942153    36500.952 
  260300    298.14028   -1494.1961    465.17271    318.24511    131.91216    36500.952 
  260400    308.09909    -1501.417     522.9682    413.82272   -318.13532    36500.952 
  260500    298.18752   -1493.6887    527.10811    380.90138   -405.88397    36500.952 
  260600    292.02054   -1483.7982    492.69745    328.51317   -432.90314    36500.952 
  260700     299.5953   -1466.1794    492.63948    380.30363    56.924987    36500.952 
  260800    291.00336   -1562.2528    482.17998    234.94461   -241.72415    36500.952 
  260900    318.52645   -1521.2996    482.63913    400.73125    521.45055    36500.952 
  261000    301.18099   -1477.4734    488.39783    371.93366   -583.62131    36500.952 
  261100    296.10251   -1563.4249     524.9674    299.60252     30.22743    36500.952 
  261200    294.93047   -1543.1089    485.98789    275.64268    282.65442    36500.952 
  261300    311.77792   -1517.1609    517.01886    408.75371    725.12375    36500.952 
  261400    296.33386   -1543.1272    541.32538     337.3036    867.72326    36500.952 
  261500    305.49815   -1513.2547    468.98808    336.25136    1098.7614    36500.952 
  261600    298.35514   -1490.5423    491.96337    349.66047    379.72145    36500.952 
  261700    306.63738   -1500.7516    511.67696    396.59145    36.282716    36500.952 
  261800    292.26111    -1489.095    512.36741    343.97346   -63.455464    36500.952 
  261900    309.45638   -1497.5655    485.08039    385.91986   -59.291549    36500.952 
  262000    298.01909   -1530.3844    501.28489    317.62134    151.04426    36500.952 
  262100    291.58751   -1485.9657    516.43804    348.12946    583.79161    36500.952 
  262200    295.13639    -1456.777    493.04501    369.96221    441.90232    36500.952 
  262300    301.10039   -1503.2413    501.44076    358.84448    153.78516    36500.952 
  262400    289.00357   -1530.5748    479.53799    254.94377   -198.50348    36500.952 
  262500    300.51706   -1506.2034    476.04914     327.8547    60.650997    36500.952 
  262600    284.55721   -1484.9332    507.03961    307.99429    89.530473    36500.952 
  262700    286.83033   -1471.8324    495.35026    319.67769   -426.92244    36500.952 
  262800    296.32973    -1500.574    511.61674    350.12951     132.3514    36500.952 
  262900    297.62776   -1479.5234    510.00372    375.43281   -430.48849    36500.952 
  263000    302.75571   -1471.5578    502.96362    399.53099    -691.6649    36500.952 
  263100    303.66644   -1497.2836    516.25845    391.21559    118.11497    36500.952 
  263200    295.02441   -1482.9991    514.31962    364.50874   -215.66093    36500.952 
  263300    301.87589   -1446.1319    496.59366    414.61117   -38.657938    36500.952 
  263400     291.1121   -1401.1462    523.24551    437.60814    30.591036    36500.952 
  263500    306.25255   -1440.6767    493.67927    436.92967    333.95373    36500.952 
  263600    298.45376    -1480.914    514.34437    382.11546    101.08886    36500.952 
  263700    292.11223   -1470.8432    514.96445    364.14959    312.25316    36500.952 
  263800    286.16338   -1524.3137    494.59651    263.42875   -140.81985    36500.952 
  263900    300.51654    -1474.291    503.61948     387.3351   -550.59635    36500.952 
  264000    294.87235   -1458.1664    496.89043    371.22503   -179.97497    36500.952 
  264100    292.12305   -1444.2942    515.64341    391.42641   -450.34657    36500.952 
  264200    291.74462   -1500.8283    509.47438    327.01313    569.91558    36500.952 
  264300    302.09071   -1482.9419    542.12421    424.30249    1010.4062    36500.952 
  264400    295.91414   -1487.2337    485.46403    335.43907    632.93847    36500.952 
  264500    292.50014   -1439.9819    512.78267      394.582    1018.5178    36500.952 
  264600    293.65433   -1490.7439    525.90078    362.15382    740.14553    36500.952 
  264700    294.61443   -1461.8788    514.21096     383.6677    353.92136    36500.952 
  264800    296.65827   -1461.4491     487.7317    366.85406   -238.93305    36500.952 
  264900    298.08747   -1487.0749    523.94224    383.89727   -232.15417    36500.952 
  265000    301.71762   -1514.0591    504.94731    354.32242    130.19948    36500.952 
  265100    303.32784   -1516.6782    489.70752    343.73989     383.4616    36500.952 
  265200    298.40401   -1480.6168    505.17602    373.01955    251.86709    36500.952 
  265300    305.06864   -1465.9749    516.62552    429.22774    169.03935    36500.952 
  265400    298.21377   -1491.7918    507.26946    363.07827    178.68711    36500.952 
  265500    306.26754    -1542.729    478.87463    320.14046    369.19229    36500.952 
  265600    301.48217   -1553.9853    540.97859     349.3635    959.05862    36500.952 
  265700    297.29416   -1557.4042    473.97456    260.01535    681.54634    36500.952 
  265800    298.35154   -1538.7857    487.10419    296.54167   -128.01028    36500.952 
  265900    295.59639   -1498.1487    512.38489    350.00915   -188.36514    36500.952 
  266000    296.29277    -1530.429    488.10654    296.59736   -63.359068    36500.952 
  266100     300.7518   -1528.0444    494.24297    325.26832   -831.85229    36500.952 
  266200    305.77704   -1591.0312     503.9637    294.71081   -11.186988    36500.952 
  266300    303.14753   -1530.4715    508.59673     348.0211    166.29183    36500.952 
  266400    305.00842   -1538.2547    490.57569    330.62594    445.72292    36500.952 
  266500    302.60604   -1594.3446    480.79842    253.90269    249.08063    36500.952 
  266600    301.44203   -1576.8618    489.74102    275.06804    201.71707    36500.952 
  266700    307.18744   -1517.5181    476.09813    346.73184    399.41288    36500.952 
  266800    295.38856   -1545.8427    515.55238    304.54336    496.51364    36500.952 
  266900    315.25151   -1517.6777    511.18404    418.09888    151.73109    36500.952 
  267000    296.06206   -1532.5128     490.4269    295.79139    -424.7277    36500.952 
  267100    295.63173    -1510.682    496.43534     321.6859   -696.22769    36500.952 
  267200    317.27044   -1530.0754    471.94995    375.59051    480.32896    36500.952 
  267300    304.02871   -1509.2025    517.65916    382.33439   -336.99462    36500.952 
  267400     304.0919   -1540.9507    485.14631    318.35895   -468.38084    36500.952 
  267500    306.26041   -1532.9673    507.69053    358.68588    416.24655    36500.952 
  267600    298.85892   -1549.7583    496.33849    297.09621    423.30162    36500.952 
  267700    303.23387   -1558.6166    500.85408    312.52343    599.72055    36500.952 
  267800    304.86474   -1530.4258    482.98739    330.21731    500.24509    36500.952 
  267900    304.22172   -1498.9098     488.5956     364.4358    584.16075    36500.952 
  268000    299.75813   -1512.9529    488.34328     329.9698   -666.62265    36500.952 
  268100    295.06422   -1463.3185    516.19351    386.24306     32.08513    36500.952 
  268200    306.98826   -1501.8588    484.10305    369.49596   -469.70476    36500.952 
  268300    310.09461   -1486.2096    503.91887    418.99835   -1035.1922    36500.952 
  268400    297.21414   -1489.5091    505.57595     359.1502   -1028.9134    36500.952 
  268500    293.67954   -1508.2201    478.71825    297.60897   -873.11366    36500.952 
  268600    302.78376   -1524.3725    487.26299    331.14247   -817.12573    36500.952 
  268700    287.29281   -1537.4199    478.46325    239.29311   -588.81109    36500.952 
  268800    305.30019   -1546.4464    496.29847    329.47555   -304.77331    36500.952 
  268900    288.98887   -1535.3265    519.90296    290.49062    109.61884    36500.952 
  269000    301.89055   -1537.9735    501.53624    327.77839   -50.995293    36500.952 
  269100    306.79214   -1519.7628     480.6578    347.26045   -217.32801    36500.952 
  269200     311.5487   -1500.1304    515.10263    422.83212   -257.40853    36500.952 
  269300    302.09233   -1505.5575    515.10714    374.67708    357.68876    36500.952 
  269400    304.75791   -1510.8521    494.54357    360.86449    74.542147    36500.952 
  269500    302.64282     -1495.28    506.04468    378.37975   -531.82525    36500.952 
  269600    294.80842   -1522.4272    476.36915     286.1541   -385.84064    36500.952 
  269700     302.6076   -1511.2058    513.74949    369.99966   -495.34412    36500.952 
  269800    295.82817   -1529.6034    491.39041    298.60725      309.959    36500.952 
  269900    295.66373   -1525.8933    512.67861    322.86251    324.89456    36500.952 
  270000    302.83133   -1504.0157    502.11819    366.56941    309.58891    36500.952 
  270100    301.99342   -1511.0202    502.77894    356.43923   -142.25708    36500.952 
  270200    298.73478   -1502.6029    502.72943    350.08155   -493.51213    36500.952 
  270300      302.253   -1544.9922    505.69614    326.55741   -232.40972    36500.952 
  270400    299.30376   -1570.6377    485.08018    266.96859   -403.58127    36500.952 
  270500    304.26713   -1526.5564    495.12206    343.52081   -29.781645    36500.952 
  270600    292.49105   -1479.9806    498.09818    339.85776   -361.62248    36500.952 
  270700    303.23003   -1513.7464    484.22436    340.74654   -932.20587    36500.952 
  270800    295.56835   -1533.2834    471.16647    273.52925   -803.20974    36500.952 
  270900    300.81107   -1532.6254    501.09523    327.80736    -577.9442    36500.952 
  271000    308.91975   -1544.2756    477.30842    329.01277    141.06702    36500.952 
  271100    293.30748   -1531.9741    472.93947     266.3949    360.22827    36500.952 
  271200    304.59929   -1506.6989    485.18766    354.94495   -215.55512    36500.952 
  271300    305.87586   -1505.4414    496.50792    373.29141   -109.78752    36500.952 
  271400    295.75553   -1509.5079     486.1768    313.16095   -465.24406    36500.952 
  271500    310.31288   -1505.6531    476.28868    372.91094   -261.67092    36500.952 
  271600    297.78603   -1485.7326    500.15675    360.09181     30.86128    36500.952 
  271700    306.15315   -1529.3836    508.67352    362.76789    602.80269    36500.952 
  271800    303.30891    -1523.869    496.92574    343.68188    715.18926    36500.952 
  271900    311.04843   -1528.4118    515.29759    392.48509    974.96445    36500.952 
  272000    296.99868   -1558.3034    479.59472    263.40109    456.86203    36500.952 
  272100    290.17594   -1461.1535     505.0456    355.17044    517.58792    36500.952 
  272200    298.81647    -1461.447    515.03655    403.91373    519.81731    36500.952 
  272300    309.48099   -1496.7858    499.50776    401.23812    811.69375    36500.952 
  272400    295.74786   -1494.2044     501.2147    343.46765    603.05829    36500.952 
  272500    301.72937   -1514.0995     468.6209    318.00866   -368.10049    36500.952 
  272600    290.76943   -1507.1754    511.17284    317.95781   -591.65585    36500.952 
  272700    305.93047   -1514.1502    514.47428    382.79579   -340.23792    36500.952 
  272800    298.22829    -1455.944    493.44636    385.16858   -57.700841    36500.952 
  272900    309.19924    -1501.036    516.86688    413.07382   -14.113847    36500.952 
  273000    291.27084   -1520.3972    488.45893    284.28787    397.52942    36500.952 
  273100    299.58827   -1522.6943     524.6642    355.78172     637.0429    36500.952 
  273200    297.31913   -1522.6688    505.88784    326.77682    548.62292    36500.952 
  273300    299.83409   -1541.0173    490.42701    304.33237    405.80142    36500.952 
  273400    295.49759   -1534.7095    502.90038    303.51737   -100.48819    36500.952 
  273500    303.55267   -1482.5518    513.97485    403.14966     157.2834    36500.952 
  273600    300.27255   -1538.5341    500.90525    319.27514   -256.96081    36500.952 
  273700    293.01295   -1551.4336    485.99006      258.655   -212.90717    36500.952 
  273800     299.6728   -1539.3666    498.83965    313.66686   -355.37373    36500.952 
  273900    307.11505   -1520.8176     484.1151    351.12218   -311.23531    36500.952 
  274000    306.62321   -1520.3767    510.81079    376.03623   -236.44901    36500.952 
  274100    306.24534   -1529.9383    512.89658    366.85286   -100.85575    36500.952 
  274200    279.74222   -1542.5423    546.63943    268.22653   -273.76459    36500.952 
  274300    298.69002     -1529.84    508.42292    328.33564    239.01285    36500.952 
  274400    311.02747   -1516.0652    507.32533    396.76464   -154.70574    36500.952 
  274500    310.03771   -1514.6455    511.73866    398.12502    89.135316    36500.952 
  274600    297.20689   -1558.9675    484.85567    268.93872    55.437997    36500.952 
  274700    302.94023   -1548.3521    486.88144    307.48832   -320.59372    36500.952 
  274800    301.17736   -1522.2915    506.93577     345.6371   -108.90079    36500.952 
  274900    295.61294   -1505.9252    507.50011     337.4226   -339.86401    36500.952 
  275000    305.21703   -1539.4529    486.15699    325.95181   -77.780486    36500.952 
  275100    294.85363   -1531.5154    493.26252    294.16355   -480.77625    36500.952 
  275200    306.42043    -1502.558    501.08876    383.21653    15.705479    36500.952 
  275300     300.0625   -1461.8169    513.73588     407.8738   -221.47245    36500.952 
  275400      300.353   -1499.9337    521.94634    379.28024    256.90522    36500.952 
  275500    299.29978   -1531.5295    493.78896    314.76766   -443.36305    36500.952 
  275600     298.1076   -1522.5459     522.7504    347.32535   -177.40013    36500.952 
  275700    301.45142   -1540.4842    515.03833    336.78535   -295.12405    36500.952 
  275800    288.23759   -1520.7666    480.00591    261.75845    82.513123    36500.952 
  275900    308.78037   -1516.7169    505.00898    383.64218   -211.89029    36500.952 
  276000    301.96125   -1515.7576    530.22545    379.00291    45.642357    36500.952 
  276100    293.02763   -1573.6571    515.35904     265.8668   -202.52293    36500.952 
  276200    315.80824   -1525.8587    516.36156     417.6113   -71.789512    36500.952 
  276300    298.90922   -1555.7685     477.9448    272.91962   -42.202294    36500.952 
  276400      307.239   -1560.6521    485.61021    313.34291    244.01908    36500.952 
  276500     290.2269    -1517.886    476.55291    270.17559    468.19332    36500.952 
  276600    301.62941   -1565.9007    478.24989    275.38469   -576.66518    36500.952 
  276700    295.48538   -1505.7011    510.20221    339.77243   -536.94237    36500.952 
  276800     301.0765   -1550.1034    469.96979    280.40336    -44.34012    36500.952 
  276900    295.01471    -1539.648    482.49276    275.98908   -269.17624    36500.952 
  277000    307.68122   -1596.2499    479.11278    273.24604    146.77749    36500.952 
  277100     307.2392   -1580.3234    494.65837    302.72064    62.684246    36500.952 
  277200    292.94782   -1551.5091    497.39555    269.69077   -381.38233    36500.952 
  277300    300.31754   -1564.6663    479.88685    272.32792    234.47892    36500.952 
  277400    303.27929   -1578.3054    487.87147    280.05732   -397.01103    36500.952 
  277500    301.81846   -1567.8769    500.47898     296.4919   -149.33651    36500.952 
  277600    299.28621   -1546.8916    499.97957    305.53484   -165.85289    36500.952 
  277700     312.9935   -1603.5634    452.93941    263.76488   -577.65747    36500.952 
  277800    306.38128   -1637.3163    471.35029    218.54282   -118.69202    36500.952 
  277900    311.74742   -1630.1144    497.87236    276.51585   -301.36653    36500.952 
  278000     296.4785   -1565.5635     504.3163    278.51189   -241.86532    36500.952 
  278100    300.22393   -1570.8541    471.13598    256.96617   -321.67574    36500.952 
  278200    307.81795   -1550.5241    503.52653    344.00345    75.064628    36500.952 
  278300    297.02091   -1571.6559    492.27134    262.82563   -290.20639    36500.952 
  278400    295.16716   -1564.4153    503.31927    272.73724    535.73974    36500.952 
  278500     298.2279   -1549.9346    524.41002    322.13983   -185.24536    36500.952 
  278600    295.68086   -1504.8047    461.35151    292.70145   -136.36008    36500.952 
  278700    298.76678    -1563.823    491.76276    278.03936     90.25763    36500.952 
  278800    295.91051   -1543.1093    489.69249    283.77558     119.0925    36500.952 
  278900    299.41264   -1536.5544    479.75547    296.21924    477.75143    36500.952 
  279000    302.30979   -1545.7952    491.14198    311.45693    5.0869089    36500.952 
  279100    312.15993   -1547.8374    489.01077     351.7954    144.20154    36500.952 
  279200    314.04239   -1568.6378    470.14812      320.639     68.03841    36500.952 
  279300    300.89654   -1578.2771    511.83591    293.28255      301.825    36500.952 
  279400    289.63132   -1570.6349     481.2048    219.38722    2.3393624    36500.952 
  279500    297.13805   -1548.3025    505.16197    299.59903    51.683602    36500.952 
  279600    296.10886   -1535.5603    497.90063    300.42905    184.31057    36500.952 
  279700    291.70976   -1540.3937    494.24988    272.06579   -290.62073    36500.952 
  279800    289.51396   -1482.9284    504.82031    330.17887     143.1838    36500.952 
  279900    283.11475   -1500.9791    515.37804    293.76844   -305.78923    36500.952 
  280000    294.78217   -1531.7995    483.68546    283.97948    119.40199    36500.952 
  280100    286.74035   -1485.4958    505.87476    316.13221    -179.1447    36500.952 
  280200    299.30737   -1499.3754    491.36531    344.53239    -28.14856    36500.952 
  280300    306.09835   -1527.1995    486.69754    342.72835   -360.10227    36500.952 
  280400    293.65414   -1521.2875    504.26681    309.97533   -582.37998    36500.952 
  280500    305.19111   -1522.9756    494.30561    350.46061   -467.44809    36500.952 
  280600    302.76029    -1508.871    518.81882     378.0937   -80.445122    36500.952 
  280700    301.81979   -1533.0902    486.51916    317.32478   -319.29781    36500.952 
  280800    308.05985   -1506.4387    517.45958    403.11504    159.61344    36500.952 
  280900    299.40683   -1507.8657    516.27028    361.39648    -90.06833    36500.952 
  281000    300.97616   -1544.5119    523.54752    339.11922   -58.460148    36500.952 
  281100     300.3574   -1552.2163    527.01638    332.08755    258.75084    36500.952 
  281200    296.67648   -1513.9787    493.59861    320.27369    99.891509    36500.952 
  281300    298.66405   -1532.9802    512.91598    329.57112    507.19458    36500.952 
  281400    289.93246   -1532.4601    493.55531    271.27332   -46.662223    36500.952 
  281500    290.74478   -1548.0576    491.88632    257.67762    57.375957    36500.952 
  281600    293.49992   -1524.2974    503.64235    305.64404   -140.62927    36500.952 
  281700    306.05549   -1513.9032    484.79425    353.92767   -32.361078    36500.952 
  281800    301.59682   -1540.0816    512.05588    334.86253    55.382475    36500.952 
  281900    288.54867    -1504.949    504.29484    303.27073   -225.90508    36500.952 
  282000    312.82712   -1553.8803    478.04114    337.79783    619.35287    36500.952 
  282100    312.47288   -1545.0662    494.04484    361.01482    19.628993    36500.952 
  282200    301.29593   -1546.7621    516.00309    330.76959   -90.672256    36500.952 
  282300     301.3508   -1508.3404     516.4368    369.87292   -484.94997    36500.952 
  282400    304.01649   -1524.4938    466.04209    315.37086   -814.29523    36500.952 
  282500    308.48981    -1512.976    517.88538     398.9464   -430.10456    36500.952 
  282600    293.66443   -1542.1194    513.93422     298.8574   -20.578177    36500.952 
  282700    293.78119    -1529.078    478.50861     277.0008   -543.80886    36500.952 
  282800    300.18103   -1596.1148    494.50741    254.88308   -387.33565    36500.952 
  282900    304.33259   -1512.2399    488.54016    351.55125     451.3865    36500.952 
  283000    299.43763   -1505.9757    484.32194    331.47737    209.71518    36500.952 
  283100    300.39864   -1527.7606    511.07694     340.7902    520.50327    36500.952 
  283200    297.03931   -1522.0166    495.55244    315.82912    276.71993    36500.952 
  283300    304.50721   -1543.1465     490.3107    323.20431    55.983738    36500.952 
  283400    304.10447   -1574.6937    480.49278    280.01917     341.1414    36500.952 
  283500      296.456    -1549.113    510.26876    300.81321    302.80862    36500.952 
  283600    293.37754   -1552.3407    493.51537    266.92081    284.66764    36500.952 
  283700     308.3649   -1545.9881    501.22884    348.71336    247.03724    36500.952 
  283800    303.66748   -1465.7029    500.78578    407.32824    335.77485    36500.952 
  283900    289.05872    -1494.331    498.61789    310.51667    41.482881    36500.952 
  284000    288.66058   -1523.8713    484.30868    264.86798   -353.66176    36500.952 
  284100    296.94938   -1510.4986    511.31632    342.70464   -519.14119    36500.952 
  284200     297.7705   -1502.3619     486.0583    329.29392   -222.88821    36500.952 
  284300    294.99676   -1519.0465    520.27868    334.29544   -203.64791    36500.952 
  284400    298.79749    -1527.532     516.1989    338.90526    471.50016    36500.952 
  284500    301.63411   -1526.3526    482.02123     318.7254     509.0259    36500.952 
  284600    297.61737   -1540.1174    503.64531    308.43341   -131.10219    36500.952 
  284700    303.75068   -1516.7781    495.73034    351.57362    428.41925    36500.952 
  284800    314.22494   -1482.6879     505.8758    443.14149   -168.17226    36500.952 
  284900    294.52561   -1480.2859    510.36644    361.01465   -190.61404    36500.952 
  285000    280.89156   -1443.5658    490.87892    316.63619   -401.06382    36500.952 
  285100    294.97751   -1431.8157    542.43684    443.59742    337.50992    36500.952 
  285200    293.92238   -1482.8463    493.11186    338.47378    138.28758    36500.952 
  285300    293.06339   -1500.8563    508.54999    332.02018    -747.7864    36500.952 
  285400    300.22285   -1428.3192    511.97915    440.33936   -977.79181    36500.952 
  285500    316.01671   -1450.1107    470.33414    448.27391    -671.0609    36500.952 
  285600    302.57939   -1433.8501    516.98321    450.46161   -627.21588    36500.952 
  285700    301.00753   -1462.1517    522.62423    420.69786    -119.3299    36500.952 
  285800    297.91143   -1458.1847    466.58957    354.63921    581.76173    36500.952 
  285900    301.63206   -1491.1971    498.23493    370.08531   -93.348907    36500.952 
  286000    292.78632   -1484.3305    510.55025    349.29416    397.88034    36500.952 
  286100    319.22861   -1485.7745    471.71377    428.50404    311.27837    36500.952 
  286200     302.5045   -1496.8661    506.30713    376.43107    37.208241    36500.952 
  286300    303.61194   -1488.5202     499.1815    382.65569    476.37059    36500.952 
  286400    300.33785   -1464.3763    501.31463    394.13747    676.40888    36500.952 
  286500    304.32945   -1490.2027    515.93428    400.96843    900.83851    36500.952 
  286600    303.36881    -1495.884    502.19052    377.20227    368.31313    36500.952 
  286700    298.92556   -1493.0349    488.71698    346.49921    102.81534    36500.952 
  286800    296.23333   -1504.3068    485.08751    319.43189    215.88357    36500.952 
  286900     293.2969   -1513.1684    477.01179    289.22514    75.099341    36500.952 
  287000    310.38023   -1524.2087    499.92708    378.29809    156.85283    36500.952 
  287100    304.36529    -1530.878    480.13926    324.66007   -436.13793    36500.952 
  287200    306.41214   -1501.9723     480.8176     363.4936   -100.22456    36500.952 
  287300    305.38864   -1488.9717    513.44398    404.49546    -298.4126    36500.952 
  287400    301.06018    -1484.178    494.48242    370.76772   -409.96347    36500.952 
  287500    300.62144     -1511.88    483.25296    329.85355    -410.9839    36500.952 
  287600     290.8001   -1505.5764    478.97967    287.50218   -680.83966    36500.952 
  287700    299.45558    -1525.425    475.75131    303.53853   -404.97038    36500.952 
  287800    299.53986   -1498.0869    492.49662    348.00275   -67.543705    36500.952 
  287900    304.24185   -1549.0897    481.37679    307.12806    184.67758    36500.952 
  288000    300.47709   -1532.9087    510.17921    335.09885   -69.845396    36500.952 
  288100    301.47408   -1517.7232    486.93882    331.54928   -134.75125    36500.952 
  288200    297.66475   -1497.3981    487.05205    334.77363   -903.78519    36500.952 
  288300    303.55977   -1505.1259    502.09763    368.73038   -1176.3109    36500.952 
  288400    300.74383   -1450.6416    475.96164    384.35381   -953.69211    36500.952 
  288500    299.52883   -1496.1078    505.64142    363.07682   -367.64788    36500.952 
  288600    306.53766   -1520.9486    502.35736    366.62425    243.52684    36500.952 
  288700    293.78618   -1492.8274     486.4456     321.2109    33.762893    36500.952 
  288800    296.67664   -1486.2388    485.06035    339.47603    163.12964    36500.952 
  288900    304.86797   -1500.7312    513.92147    390.86053    385.56522    36500.952 
  289000    297.94932   -1478.1318    510.80425    379.07802    18.846956    36500.952 
  289100    309.43852   -1492.7398    470.53125    376.11562    -226.1536    36500.952 
  289200    302.75343   -1504.3735    484.86501    348.60642   -639.53338    36500.952 
  289300    308.05518   -1512.9143    485.19105    364.34974    187.52738    36500.952 
  289400    300.56388   -1487.1568    486.58378    357.64747    474.45589    36500.952 
  289500    298.43456   -1438.7886    499.50733     409.3171    7.3761544    36500.952 
  289600    301.45723   -1478.5283    501.42374    385.15295   -417.56552    36500.952 
  289700    290.00493   -1437.7126    490.76919    363.56219   -169.63818    36500.952 
  289800    300.36264   -1520.4795     500.7452    337.57679    29.832101    36500.952 
  289900    294.80164   -1498.0022    488.83789    323.01721    3.3675449    36500.952 
  290000    311.70181   -1492.2367     467.0659    383.38108   -219.13488    36500.952 
  290100     297.2717   -1470.7033    498.12597     370.7662    32.565668    36500.952 
  290200    292.08445   -1491.2732    517.39025    346.01977   -232.26744    36500.952 
  290300    305.89349   -1508.3141     494.5033    368.49375   -529.05509    36500.952 
  290400    306.92542   -1485.6946    514.12093    415.39408   -1233.0347    36500.952 
  290500    306.50121   -1467.7341    510.31107    427.62771   -1285.9443    36500.952 
  290600    306.82949   -1482.4303    458.93545    363.03938     -978.592    36500.952 
  290700    308.41664    -1547.711    494.00177    339.99724   -863.72758    36500.952 
  290800    302.71103   -1456.4703    501.49552    412.94846   -499.01067    36500.952 
  290900    304.86107   -1507.9135     493.7125    363.43808   -485.24574    36500.952 
  291000    290.98409   -1469.3358    478.90548    324.49999   -327.87168    36500.952 
  291100    297.78687   -1476.3102    489.92496    359.28622   -39.321943    36500.952 
  291200     297.3158   -1478.7595    473.47867    338.26197    19.507154    36500.952 
  291300    296.81235   -1497.3812    482.02674     325.9132   -172.38639    36500.952 
  291400     301.2729   -1497.3975    482.19668    346.22368    51.883879    36500.952 
  291500    299.62316   -1483.7711    477.74245    347.94091    106.10758    36500.952 
  291600    308.49628    -1506.071    476.40534    364.40065    633.43155    36500.952 
  291700    298.07131    -1503.512    487.09904     330.5439    654.73847    36500.952 
  291800    301.49113   -1490.3133    508.62631     380.7237   -126.50288    36500.952 
  291900    299.39043   -1498.9263    479.70269    333.69421    157.95826    36500.952 
  292000    293.31617   -1514.0627    487.60909    299.01523    -333.9531    36500.952 
  292100    297.04974   -1489.2505     486.4392    339.52912    254.00515    36500.952 
  292200    306.68937    -1495.414    486.72052    377.20756    59.370358    36500.952 
  292300    294.95984   -1416.9348     505.5899    421.55153    161.42151    36500.952 
  292400    309.43192   -1460.6409    496.45428    434.10781    139.34565    36500.952 
  292500    304.61144   -1464.5521    485.64772     397.6067   -259.19035    36500.952 
  292600    304.60082   -1456.9667    501.53041    421.02675   -538.11659    36500.952 
  292700    301.96221   -1489.0108    480.55945    356.08813   -298.38993    36500.952 
  292800    291.65438    -1471.708    512.00196    358.25331    467.02663    36500.952 
  292900    297.55708   -1489.7782    478.62862    333.48354      186.734    36500.952 
  293000    302.64217   -1489.8573    488.04105    365.79584    346.69592    36500.952 
  293100    306.26558   -1536.9565    513.94474    360.97423    414.55771    36500.952 
  293200    293.10023   -1543.2663    496.06329    277.28999   -3.3939875    36500.952 
  293300    305.86024   -1469.2514    480.53795    393.44087    130.85379    36500.952 
  293400    288.54829   -1462.7426    538.38567    379.56626   -161.33765    36500.952 
  293500    296.37013   -1511.2349    467.56963    295.60413    -72.86407    36500.952 
  293600    299.90073   -1483.2493    503.03033     375.0048    125.01426    36500.952 
  293700     300.5979   -1507.8237    486.16802    336.71863    186.65805    36500.952 
  293800    296.51033   -1494.5232    445.84519    291.22487    174.02159    36500.952 
  293900    303.63977   -1477.2065    514.82418    409.73787   -244.62781    36500.952 
  294000    288.07145   -1493.1074     496.3492    305.01024   -395.83836    36500.952 
  294100    292.99612   -1511.5381    495.34555       307.83    9.0467544    36500.952 
  294200    302.85956   -1493.8271    484.38365      359.151   -128.83298    36500.952 
  294300    306.72079   -1462.7354    498.83755    422.14521    600.57733    36500.952 
  294400    304.21507   -1470.3534     485.4439    389.81044    587.07123    36500.952 
  294500    303.05618    -1497.535    490.45013    362.39809    529.39852    36500.952 
  294600    306.98314   -1493.0678    514.89016      409.051    258.90733    36500.952 
  294700    307.38848    -1439.378    495.99738    445.67971    336.56584    36500.952 
  294800    308.69529   -1477.1317    465.81113    383.64504    527.61378    36500.952 
  294900    306.00855   -1521.3159     499.2131    360.72164    360.14693    36500.952 
  295000    305.03113   -1459.1108    496.30589    415.60275    836.36318    36500.952 
  295100      299.721   -1454.0572    491.05838    391.41285    564.39024    36500.952 
  295200    302.25477   -1442.1566    520.72642    444.43134    751.20318    36500.952 
  295300    303.12766   -1477.7605    500.08503    392.13049    244.36705    36500.952 
  295400    302.72411   -1466.0223    478.01252    379.97267    260.07855    36500.952 
  295500     301.3972    -1464.458     501.6273    399.15549   -165.63804    36500.952 
  295600    305.28245   -1460.1773     484.7139    404.07996   -475.50405    36500.952 
  295700    297.02195   -1456.9991    491.50351    376.71926   -915.04296    36500.952 
  295800    292.64893   -1455.6553    484.75051    351.54879   -707.16233    36500.952 
  295900    295.91158   -1463.4405    489.17657    362.93326   -1008.7725    36500.952 
  296000    293.68042   -1441.6547    477.41697    362.87712   -32.440135    36500.952 
  296100    299.32179   -1467.7506    495.03821    379.89524   -393.69429    36500.952 
  296200    303.21812   -1469.0911    455.78683    356.91055   -42.132196    36500.952 
  296300    303.17013   -1457.2847    473.84294     386.5562    305.93005    36500.952 
  296400    284.93945   -1491.4312    486.54887     282.7329    233.62942    36500.952 
  296500    302.05802   -1488.2533    502.12052    378.83969     290.3939    36500.952 
  296600    298.54327   -1470.4719    468.82177    347.43947   -202.93966    36500.952 
  296700    307.15315   -1475.8847    485.34511    397.45725   -525.09892    36500.952 
  296800      292.522   -1493.0328    483.22882    312.07607   -1033.5636    36500.952 
  296900    308.76816   -1491.2149    502.66985     406.7499   -256.69658    36500.952 
  297000    312.46467   -1528.0244    479.32885    363.30359   -323.54957    36500.952 
  297100    293.39725   -1515.3654    477.24765    287.71739   -309.12724    36500.952 
  297200    307.65931   -1461.8053    486.38076    414.85956   -115.64729    36500.952 
  297300    308.60079   -1501.7883    471.81923    364.56952    4.6659068    36500.952 
  297400    289.86208   -1523.4168    498.16811    284.61141   -508.41577    36500.952 
  297500    297.36056   -1470.1858    518.44144    392.00068    743.78887    36500.952 
  297600    313.66438   -1504.1867    485.55396    398.78778    772.15139    36500.952 
  297700    311.83762   -1436.6919    475.15863    447.63224    263.11465    36500.952 
  297800    289.33337   -1482.9334    527.38946      351.927   -419.13183    36500.952 
  297900    298.00159   -1459.8592    481.91413    368.69673   -198.80866    36500.952 
  298000    302.67335   -1496.3377    488.54015    359.95546   -830.84956    36500.952 
  298100    294.75965   -1481.9306    448.69355    298.75464   -742.29961    36500.952 
  298200    301.06989   -1505.8826    478.53025     333.1548   -337.33308    36500.952 
  298300    301.60179   -1519.2713    498.29621    341.93566   -216.13455    36500.952 
  298400    298.30312   -1483.0165    501.59786    366.58571   -347.34322    36500.952 
  298500     302.6631   -1517.3565    475.21778    325.56799   -785.05328    36500.952 
  298600    302.16241   -1515.6309    511.03388    360.84713   -875.32468    36500.952 
  298700    308.12361   -1479.5466    494.89627    407.73193   -884.87741    36500.952 
  298800    305.84126   -1465.0817    487.34377    404.33058   -27.509003    36500.952 
  298900     303.6672   -1489.4806    485.01838    367.78191    196.91675    36500.952 
  299000    305.53732   -1464.5371    503.05421    419.21213     702.6967    36500.952 
  299100    305.73205   -1477.3213    487.84254    392.09628      936.762    36500.952 
  299200    301.18261   -1504.8765    501.21578    357.35578    387.96453    36500.952 
  299300      293.916   -1495.0085    492.73732    325.90818   -16.778802    36500.952 
  299400    306.80051   -1504.2316    485.50949    367.68114    -124.3344    36500.952 
  299500    296.90677   -1506.6107    489.60651    324.69019    -359.2394    36500.952 
  299600    286.46852   -1503.0733    514.34063    305.79224   -1042.8891    36500.952 
  299700    297.27955   -1488.4282    502.46885    357.41957   -572.68073    36500.952 
  299800    300.23308   -1487.3662    493.99303    363.35254   -581.94775    36500.952 
  299900    298.32267   -1491.1551    490.14019    347.07774    -49.25789    36500.952 
  300000    291.54447   -1462.7283    492.73711    347.47146    122.71824    36500.952 
  300100    305.79971   -1483.2636     495.0343    393.65148    514.52972    36500.952 
  300200    294.73192   -1488.5715    508.77138    352.06637    9.2476308    36500.952 
  300300    299.98573    -1424.787    501.00005    431.82102     199.2013    36500.952 
  300400     291.7095   -1450.6855    530.95048    398.47338   -101.86382    36500.952 
  300500    306.30255   -1478.7005    482.09334    387.54591    70.267528    36500.952 
  300600    309.89324   -1451.8093    507.54751    456.11725   -484.41344    36500.952 
  300700    300.87106   -1476.3667    510.53796    393.77988    99.598826    36500.952 
  300800    300.21918     -1489.18     497.1313    364.61417   -520.11139    36500.952 
  300900    294.10985   -1493.2526    494.89866    330.70143    191.12574    36500.952 
  301000    305.52098   -1485.1701    496.68723     392.1383    167.23885    36500.952 
  301100    299.50421   -1444.2392    520.80279     429.9956     294.7095    36500.952 
  301200    312.99257   -1507.8501    516.66987    423.20437    810.41254    36500.952 
  301300    298.27952   -1454.4735    503.04298    396.46722    752.65416    36500.952 
  301400    292.84084   -1432.0332    545.60761    436.89521    219.07021    36500.952 
  301500    298.46361   -1463.9681    528.70779    413.46931    494.27591    36500.952 
  301600    297.69717   -1471.8624    515.65516    389.05885    228.92089    36500.952 
  301700     303.7745   -1498.0794    475.95173    350.60131   -100.62759    36500.952 
  301800     299.6019    -1432.834    499.83665    420.87615   -39.176303    36500.952 
  301900    298.02472   -1470.4553    508.55371    384.84472   -149.63741    36500.952 
  302000      303.645   -1447.3678     488.0707    412.84674    192.84525    36500.952 
  302100    301.02877   -1449.5423    504.46548    415.24448   -152.38207    36500.952 
  302200     296.9797   -1460.0485    511.02156    392.99706   -168.68587    36500.952 
  302300    301.84647   -1450.1598    506.32978    420.18635   -35.915301    36500.952 
  302400    300.92813     -1446.85    510.00875    423.02527    273.04892    36500.952 
  302500    295.34591   -1486.1322    496.09152    344.60034    -501.3337    36500.952 
  302600    295.63871   -1442.1513    501.73274    395.54559   -8.6293697    36500.952 
  302700    299.07272    -1480.986    506.73642    377.23252    589.18592    36500.952 
  302800    291.26344   -1422.2355    501.80159    395.75876    744.77014    36500.952 
  302900    306.39533   -1463.2757    496.52669    417.82331    301.62192    36500.952 
  303000    306.37242   -1495.5404    474.77567    363.70403    94.599247    36500.952 
  303100    297.56588    -1473.279    512.41961    383.81349    218.34411    36500.952 
  303200    297.82544   -1488.3354    509.56811     367.0785   -149.70002    36500.952 
  303300    306.79977   -1470.3254    491.27566    407.35019   -243.22039    36500.952 
  303400    298.43061   -1461.4966    494.57546    381.65935   -175.86216    36500.952 
  303500     293.1074   -1471.9458    512.29589     364.8755   -505.38849    36500.952 
  303600    311.08798   -1498.3021    518.97621    426.45203   -278.31673    36500.952 
  303700    297.95164   -1496.0425     495.3721    345.74565   -517.24072    36500.952 
  303800     309.1858   -1499.1553    505.88275    403.90962    161.71813    36500.952 
  303900     290.1838   -1471.9189     522.3214    361.71638    383.41367    36500.952 
  304000    288.97153   -1467.2507    506.78696    345.37206    824.23718    36500.952 
  304100    297.79819   -1495.5016    501.71302    351.93412    576.87913    36500.952 
  304200    299.11814   -1459.1057    512.11269    404.69439    536.24262    36500.952 
  304300    303.06376   -1480.3222    495.03398    384.22909    287.39051    36500.952 
  304400    300.97654   -1488.1713    519.88745    391.80148   -426.38325    36500.952 
  304500    306.75235   -1487.8649    501.00288    399.32362   -229.75588    36500.952 
  304600    282.30427   -1455.2029    499.21311    319.71727   -357.04686    36500.952 
  304700    299.31158   -1449.0162    510.52943    414.07471   -468.24948    36500.952 
  304800    309.25543   -1454.0125    514.01641    457.50078   -8.9573572    36500.952 
  304900    296.14671   -1464.3074    544.88696    418.83932   -56.019225    36500.952 
  305000    303.19573   -1441.2631    514.07703    442.92756    147.21691    36500.952 
  305100    309.84026   -1482.3024    519.16988    437.00708    137.87291    36500.952 
  305200    307.56365   -1499.6705     505.8856      396.067     311.6068    36500.952 
  305300    299.76975   -1485.1661    510.71462    380.18049    852.65818    36500.952 
  305400    297.64902   -1447.7562     500.1241    397.41643   -160.67722    36500.952 
  305500    299.47699   -1463.9516    543.30764    432.66507    222.45586    36500.952 
  305600    297.96131   -1465.1788    535.49906    416.77999    549.95369    36500.952 
  305700    306.54886   -1530.3218    488.47938    343.42367    350.16525    36500.952 
  305800    298.63823   -1491.3701    509.60455    367.75316    273.82846    36500.952 
  305900    298.67848   -1482.6822    517.43436    384.45274    56.412847    36500.952 
  306000     299.7307    -1514.905    488.98737    328.53786   -163.85958    36500.952 
  306100    294.72425   -1505.1329    538.77063    365.46948   -6.5757443    36500.952 
  306200    293.57195    -1520.692     508.4322    314.36481     538.1034    36500.952 
  306300    301.69611   -1501.0534    513.82009     376.1036    80.271587    36500.952 
  306400    292.04276   -1565.5379    529.23836    283.41485   -159.29964    36500.952 
  306500    302.10272   -1513.1484    511.63907    363.66502    429.02076    36500.952 
  306600    311.80342   -1515.6772    475.08424    368.41804    638.23284    36500.952 
  306700     306.0938   -1526.7632    506.21597    362.66252    109.32198    36500.952 
  306800    311.14793   -1520.0717    494.46393    380.44116    -205.1463    36500.952 
  306900    297.09597   -1503.7278    504.43862    343.26016   -27.126366    36500.952 
  307000    303.28176   -1453.1594    491.47755    408.82048   -55.012772    36500.952 
  307100    294.13921   -1496.5734    512.82724    345.44187   -1.5501421    36500.952 
  307200    305.90265   -1505.1697      519.318    396.49426   -164.92377    36500.952 
  307300    298.32593   -1523.2416    501.06621    325.93211    153.54027    36500.952 
  307400    300.34784   -1508.9256    479.48007    327.79873   -217.80063    36500.952 
  307500    299.40715   -1501.0068    470.94503     322.9316    66.858476    36500.952 
  307600    291.54447   -1555.2379    496.46143    258.68621   -189.72694    36500.952 
  307700    312.52021   -1552.9777      481.876    341.14837    566.44666    36500.952 
  307800    304.15678   -1553.3306    482.73288     303.8588    352.45419    36500.952 
  307900     301.2925   -1511.0997    472.38072     322.7941   -98.152285    36500.952 
  308000    298.49398   -1498.6269    488.13055    338.37053    186.60174    36500.952 
  308100    302.48358   -1549.4555    484.53461    301.97453    391.56812    36500.952 
  308200    297.88881   -1556.8624    505.31158    294.58135    893.06213    36500.952 
  308300    290.21033   -1584.3874    494.20921     221.2556     881.9818    36500.952 
  308400    303.63763   -1580.3094     490.0416    281.84275    727.15924    36500.952 
  308500    292.78228   -1541.1792    481.14427    263.02124    777.45572    36500.952 
  308600    299.71408    -1553.351    505.89528    306.92459    499.92749    36500.952 
  308700     295.6563   -1552.0184    500.08247    284.10766    411.17584    36500.952 
  308800    296.86323   -1544.9604    479.58812     276.1254    466.86673    36500.952 
  308900    299.98362   -1529.1987    485.20093    311.60058   -133.09498    36500.952 
  309000    299.03682    -1514.681    500.25346    336.89236   -82.493368    36500.952 
  309100    297.84025    -1515.492    488.31087    318.73156   -256.04564    36500.952 
  309200    308.48504    -1509.251    513.28362    398.04818   -48.954514    36500.952 
  309300     307.4262   -1509.5272    526.24799    405.95149   -279.86578    36500.952 
  309400    299.72844    -1490.714    501.20719    364.93845   -7.7104561    36500.952 
  309500    290.96499    -1514.803    528.24683    328.28787   -690.20989    36500.952 
  309600    304.24449   -1468.8477    486.84575    392.85091   -416.84802    36500.952 
  309700     297.3817   -1481.9274    532.48248    394.39566   -251.85001    36500.952 
  309800    296.48458   -1454.0165    492.25894    378.02899   -246.39007    36500.952 
  309900    303.89892   -1472.5128    507.58935    408.36783   -791.41135    36500.952 
  310000    300.64121   -1512.5296      508.521    354.56139   -815.46641    36500.952 
  310100    298.55742   -1530.5334    489.05833    307.67841    -494.3851    36500.952 
  310200    295.16798   -1564.5931    496.30273    265.54654   -209.80337    36500.952 
  310300    311.24479    -1536.621    479.72674    349.59231   -594.14686    36500.952 
  310400    302.83769   -1528.9473    482.39837    321.94675   -1263.8273    36500.952 
  310500    296.85378   -1497.5591    516.45931    360.35513   -724.46525    36500.952 
  310600    301.59494   -1482.2009    511.94297    392.62188   -229.89142    36500.952 
  310700    301.75199   -1519.3229    497.01031    341.27687    92.333138    36500.952 
  310800      304.014   -1566.0774    503.62468    311.35852    489.39468    36500.952 
  310900    301.28259   -1525.5456    507.14915    343.07187    399.83142    36500.952 
  311000    293.72967   -1550.1037     491.0894    268.32306    93.536562    36500.952 
  311100    306.88155   -1555.8397    497.14728    328.07712     406.2408    36500.952 
  311200    297.63552   -1554.1874    487.03282    277.83293   -384.31816    36500.952 
  311300    307.83386   -1543.3963    491.85194    339.52854   -637.37645    36500.952 
  311400    303.14997   -1499.2659    516.15984    386.80078     181.0761    36500.952 
  311500     301.5325   -1519.6014    534.69927    377.69544   -412.52213    36500.952 
  311600    295.98171     -1543.96    487.74409    281.29824    14.646345    36500.952 
  311700    298.57196    -1538.817    469.88358    280.28583   -678.71606    36500.952 
  311800    295.29091   -1555.7391    498.04385    276.69727   -658.87154    36500.952 
  311900    301.21291   -1544.8995    476.99571    293.24966    -309.3184    36500.952 
  312000    301.39041   -1538.3622    483.18212    306.77552    -84.18107    36500.952 
  312100    303.26093   -1550.4984    471.87988     291.7897   -386.18577    36500.952 
  312200     297.6992   -1518.0558    490.12127    317.34081   -695.32051    36500.952 
  312300    306.23007   -1541.5388     501.2515    343.53824   -720.32268    36500.952 
  312400    294.15036   -1526.3676    494.93487    297.80574   -638.98021    36500.952 
  312500    302.70161    -1564.889    503.77066    306.76239    14.308521    36500.952 
  312600     293.9744   -1535.1664    493.49012    286.76701    257.40089    36500.952 
  312700    295.43709   -1519.6198    514.36941    329.80265    14.890791    36500.952 
  312800    305.91136   -1541.1735    510.94572    352.15756   -434.14024    36500.952 
  312900    309.94752   -1510.8337    511.35933    401.14993   -130.69277    36500.952 
  313000    308.38879   -1531.8389     495.2432    356.98488   -320.95576    36500.952 
  313100    293.18887   -1484.8348      506.963    347.02173   -298.30468    36500.952 
  313200    302.23043   -1500.4055    514.90517    380.25122   -293.69921    36500.952 
  313300    292.77119   -1518.6901    517.23979    321.55577    186.08577    36500.952 
  313400    300.51452   -1528.9559    520.49934    349.54095    211.58945    36500.952 
  313500    302.62183    -1540.622    498.04985    324.94809    581.74413    36500.952 
  313600     295.8377   -1523.6415    539.87892    353.10077    234.73114    36500.952 
  313700    290.24132   -1500.8152    507.37344     318.1321   -62.283836    36500.952 
  313800    309.03006   -1504.5922    489.35204    381.23822   -618.21004    36500.952 
  313900    308.79941   -1561.2861    488.40065    322.55063   -473.92052    36500.952 
  314000    307.60792    -1544.577     493.5655    339.04044   -819.97662    36500.952 
  314100    307.40643   -1508.8883    492.28084    372.53391   -691.21165    36500.952 
  314200    295.67407   -1549.4468    496.70917    283.38632   -499.72655    36500.952 
  314300    291.02349   -1525.6196    491.47855    280.96734    -140.1218    36500.952 
  314400    295.52626   -1534.5647     517.8689    318.76019   -822.52192    36500.952 
  314500    308.96424   -1556.9686    517.86145    357.07383    -720.7198    36500.952 
  314600    291.80003   -1564.9166    503.33196    257.03291   -522.55835    36500.952 
  314700    299.86216   -1533.5829    502.40632    323.87294   -285.90156    36500.952 
  314800    307.00724   -1532.1498    490.82656    346.01421   -128.24528    36500.952 
  314900    308.20124   -1546.1183    499.07392    345.68868   -141.19383    36500.952 
  315000    295.04626   -1523.4873    532.40245    342.20203    290.76107    36500.952 
  315100    306.90454   -1500.4966    533.93514    420.31192    742.75572    36500.952 
  315200    309.82653   -1487.3454    511.51554     424.2477    518.05219    36500.952 
  315300    294.21704   -1507.8981     519.0778    340.71939   -174.36786    36500.952 
  315400    298.42326   -1548.3385    524.50096    324.70973   -126.66514    36500.952 
  315500    293.48898   -1547.3747    482.86048    261.73548   -112.13158    36500.952 
  315600    307.94259   -1509.0314    533.65792    416.19078    467.97183    36500.952 
  315700    293.46927   -1553.0701    497.89738    270.98791    190.54528    36500.952 
  315800    293.66309   -1522.8784    516.69609    320.85419    281.13307    36500.952 
  315900    307.76466   -1551.2062    492.06263    331.61667    447.21708    36500.952 
  316000    310.40117   -1498.2907    493.42336    397.80698   -136.72296    36500.952 
  316100    305.16725   -1490.7996    510.06943    398.29254   -449.41901    36500.952 
  316200    290.25482   -1513.9825    506.27373    303.92606   -835.38647    36500.952 
  316300     296.7122   -1517.7234    502.09479    325.18655   -432.78398    36500.952 
  316400    308.83645   -1563.5759    497.48993     329.5176    294.98931    36500.952 
  316500    292.77894   -1576.3803     502.0797    248.74048    470.83016    36500.952 
  316600    306.55962   -1567.9247    516.39053    333.78056    84.170203    36500.952 
  316700    295.41424   -1577.0344     503.9338    261.84916   -679.73159    36500.952 
  316800    294.13465   -1563.2867    505.91823      271.799   -185.71238    36500.952 
  316900    293.06275   -1593.3251    508.83486    239.83342   0.73420267    36500.952 
  317000    304.43882   -1591.6922    525.34569    309.38449    466.41959    36500.952 
  317100    306.33832   -1571.1707    502.82705    315.97101   -121.48577    36500.952 
  317200    291.30989   -1596.0959    467.08307    187.38981   -530.51088    36500.952 
  317300    296.26262   -1584.7004    501.52767    255.61086   -422.69554    36500.952 
  317400    290.56532   -1564.0913     513.9132     262.8599   -136.07565    36500.952 
  317500    300.98478   -1523.2453    511.09091    347.96814   -114.38604    36500.952 
  317600    302.82272   -1570.4399    521.17446    319.16258    370.70901    36500.952 
  317700    301.22565   -1553.6974    494.48514     301.9988    610.67386    36500.952 
  317800    304.33903   -1575.2185    502.63815    302.69979    870.53533    36500.952 
  317900    310.60044   -1581.7946    513.75444    335.53463    703.28748    36500.952 
  318000    295.02599   -1593.2323    477.75127    217.71427   -136.36394    36500.952 
  318100    295.66075   -1573.3573     485.8209    248.52739   -94.060651    36500.952 
  318200    310.23496   -1588.2158    532.51677    346.22421    59.950751    36500.952 
  318300    302.66696   -1604.8179    503.96981    266.87604   -441.95599    36500.952 
  318400     300.1399   -1619.6869    511.97329    248.59095   -575.71164    36500.952 
  318500      299.519   -1579.5327    501.76037    275.72645   -103.06922    36500.952 
  318600    302.61534   -1544.9434     497.4356    319.98307    111.85623    36500.952 
  318700    303.40064   -1584.7437    549.79352     336.0894    751.77711    36500.952 
  318800    306.82385   -1561.5208    495.87026    320.85816    594.78973    36500.952 
  318900    289.95548   -1604.9966    496.18561    201.47114    55.976009    36500.952 
  319000    293.95118   -1561.6786    521.49387    288.15363    -6.929416    36500.952 
  319100     296.0532   -1552.1446    502.05016    287.74275    133.18518    36500.952 
  319200     310.8698   -1558.8024    499.31811    345.30779   -25.458237    36500.952 
  319300     298.2008   -1520.8077    523.04342    349.77766    263.84067    36500.952 
  319400     304.6479   -1519.7906    523.10021    379.98548    701.50798    36500.952 
  319500     296.3132   -1541.8732    523.34922    320.48813    468.87926    36500.952 
  319600    297.58151   -1544.9202    494.57987    294.40317    909.04631    36500.952 
  319700    298.27935   -1560.5245    523.90912    311.28163    541.16924    36500.952 
  319800    298.73819   -1540.8709    513.60286    322.70242    429.45475    36500.952 
  319900    306.65405   -1561.0109    492.34945    317.07997    1070.8522    36500.952 
  320000    304.17471   -1568.5403    502.23393    308.23119    1015.0407    36500.952 
  320100    292.21403   -1593.4297    505.13157    232.19023    923.71133    36500.952 
  320200     302.5329   -1598.1665    479.53331    248.48521    700.27321    36500.952 
  320300    297.42615   -1556.2984     502.4349    290.17798    386.75048    36500.952 
  320400    290.97224   -1570.5898    520.07318    264.36011    228.14352    36500.952 
  320500    311.84295   -1521.9026    507.10097    394.38796    389.68709    36500.952 
  320600    292.28806   -1516.6637    516.14773    320.30691   -95.690756    36500.952 
  320700     306.6537   -1510.3119    508.45696    383.88491    911.32309    36500.952 
  320800    301.94914   -1519.0185    515.30899    360.77083    146.05907    36500.952 
  320900    296.25053   -1552.8884    502.02656    287.86706   -109.21561    36500.952 
  321000    294.83315   -1519.3443    495.38699    308.36663    379.73414    36500.952 
  321100    298.28818   -1499.2674    529.26956    377.93897    310.48888    36500.952 
  321200     305.7162   -1501.1361    518.14456    398.51188    268.73958    36500.952 
  321300    296.47262   -1482.9694    514.68134    371.44451    500.10244    36500.952 
  321400    286.22266   -1500.0989    499.34169    292.65668    620.81346    36500.952 
  321500    292.57844   -1531.1504    529.99291     320.9776    273.09017    36500.952 
  321600    288.91028   -1491.9882     483.9386    297.50937   -57.931944    36500.952 
  321700    282.28696   -1511.4265    529.04666    293.24898    573.56024    36500.952 
  321800    292.16906   -1527.2675    517.26723    310.28483     777.1873    36500.952 
  321900    294.51488   -1539.6669    515.55712     306.7759    683.21704    36500.952 
  322000     306.7174   -1582.7182    517.27439    320.58386    604.31574    36500.952 
  322100    292.89347   -1579.9812    498.84198    242.41941     56.80367    36500.952 
  322200    298.51964   -1549.4167    491.85763    291.42375   -183.60542    36500.952 
  322300     304.1161   -1548.8421    522.14208    347.57267   -190.89089    36500.952 
  322400    313.29222   -1570.6675     488.2064    333.27763    213.79363    36500.952 
  322500    301.88136   -1560.5611    494.22736    297.84038   -370.92461    36500.952 
  322600    298.81726   -1537.2283    492.63845     305.7379   -234.76442    36500.952 
  322700    308.99148   -1621.1754    492.48486    267.61353   -335.97854    36500.952 
  322800    308.68255   -1580.5692    472.05048    286.38932    63.281083    36500.952 
  322900    299.26549   -1543.6363    493.20056    301.91747   -100.28847    36500.952 
  323000    296.41646   -1541.8333     505.2021    302.84748   -195.60831    36500.952 
  323100    289.96196   -1541.1969    507.53962    276.65416    415.73476    36500.952 
  323200    293.98244   -1573.0208    502.12076    257.57955   -31.291584    36500.952 
  323300    297.05265   -1586.0437    513.43312    269.74306    -466.0791    36500.952 
  323400    299.15997   -1560.3893    487.47367    278.96073    -569.9845    36500.952 
  323500    305.69369   -1544.1871    517.86894    355.08354   -554.97027    36500.952 
  323600    294.29791   -1551.7475    499.57096    277.72865   -362.76306    36500.952 
  323700    291.74924   -1565.6598    524.85973    277.58787   -852.15991    36500.952 
  323800    294.60652   -1532.8509    483.86564    282.31452   -1389.3415    36500.952 
  323900    303.73946   -1554.2416     509.5158    327.84485   -718.54101    36500.952 
  324000    295.86668   -1508.7204    513.04908    341.32304   -168.78922    36500.952 
  324100    308.54503    -1507.456    507.88748    394.71804   -170.63583    36500.952 
  324200    302.15329   -1522.5206    522.74195     365.6243   -239.99384    36500.952 
  324300    305.58708   -1520.7738    525.97818    386.12427   -183.41461    36500.952 
  324400     307.6421   -1530.8584     507.6693    367.01725    199.91178    36500.952 
  324500    302.34621   -1548.2861     523.8781    341.86677   -285.42541    36500.952 
  324600     295.1978   -1552.3734    485.22693    266.82526   -283.06306    36500.952 
  324700    304.90279   -1532.3373    517.74583    363.23616     227.9555    36500.952 
  324800    297.18553   -1578.5491    483.54831    247.95331   -369.92853    36500.952 
  324900      291.008    -1578.642    491.69638    228.09278   -18.530332    36500.952 
  325000    294.01034    -1558.788    490.05195    259.86962   -262.99177    36500.952 
  325100    295.39015   -1515.9206    508.23742    327.15775    -398.6208    36500.952 
  325200    301.93893   -1502.7651    489.22526    350.89445   -128.12573    36500.952 
  325300    294.17079    -1588.844    500.13493    240.62164   -143.43315    36500.952 
  325400     299.3163   -1570.4653     503.0786    285.19618    371.16343    36500.952 
  325500    296.43691    -1548.719    506.83413     297.6863    288.50668    36500.952 
  325600    291.96816   -1538.6222    515.48826     296.2433    14.800625    36500.952 
  325700     309.0801   -1527.3321    484.36444    353.73691   -91.570689    36500.952 
  325800    295.93699    -1523.523    508.66497    322.45397     -158.491    36500.952 
  325900    296.67229   -1552.6159    483.09588    271.11479   -296.73972    36500.952 
  326000    303.70795   -1550.8972    516.91424    338.44532   -354.06307    36500.952 
  326100    297.13697   -1540.6179    515.52949     317.6463   -429.04992    36500.952 
  326200    304.92525    -1500.222    491.42196    369.12911   -236.96983    36500.952 
  326300    299.12718   -1533.3185    497.89658    316.30625   -27.927916    36500.952 
  326400    297.52132   -1566.6919    493.99753    271.77712   -276.44831    36500.952 
  326500    304.03678   -1538.5034    490.32015    325.73104    -349.3121    36500.952 
  326600    302.85139   -1563.4609     496.3437    301.44042   -52.843167    36500.952 
  326700    297.38563   -1579.5373    489.57697      253.898    40.995119    36500.952 
  326800    303.91265   -1566.1896     479.5615    286.72519   -146.27809    36500.952 
  326900    299.43016   -1599.9435    505.09672    258.25059    -601.5543    36500.952 
  327000    316.45904   -1580.3894      461.608    311.26791   -371.16982    36500.952 
  327100    296.25654   -1549.9939    506.96159    295.72374    -265.8591    36500.952 
  327200    289.63965   -1576.2603    508.91715    241.51175   -547.73149    36500.952 
  327300    298.90389   -1523.9733    505.19212    331.93797   -732.32252    36500.952 
  327400     297.3647   -1530.0303    490.12072    303.85417   -326.52935    36500.952 
  327500    294.13838   -1529.1815    492.94342    292.94622    440.35558    36500.952 
  327600     291.2806   -1562.2828    481.20046    235.18795    14.442554    36500.952 
  327700    301.84157    -1568.006    528.99942    324.98776   -164.77578    36500.952 
  327800    302.95121    -1527.923    486.15326    327.23899   -140.33461    36500.952 
  327900    324.23283    -1553.761    510.60333    422.02064    -269.4177    36500.952 
  328000    292.69127   -1603.5598    499.75302    218.83819   -740.96454    36500.952 
  328100    307.27805   -1571.7722    494.87863    311.66764   -490.15754    36500.952 
  328200     302.2722   -1539.1526    460.96096    287.74863    280.26059    36500.952 
  328300    303.03514   -1518.2736     521.5317    372.64596    361.95227    36500.952 
  328400    291.21405   -1523.8335    497.58845    289.72448   -438.12398    36500.952 
  328500    306.35661   -1569.8605    529.69799    344.23482   -441.00179    36500.952 
  328600     304.3016   -1543.7236    526.89444    358.28177   -6.0523908    36500.952 
  328700    284.81487   -1577.1825    483.82037    193.69007    352.63854    36500.952 
  328800    296.56166   -1599.3108    492.36076    233.18488   -112.67753    36500.952 
  328900     303.2731   -1559.7538    507.09884    317.80829     314.4085    36500.952 
  329000     290.1577   -1558.6421    516.81337     269.3672   -163.18571    36500.952 
  329100    295.28605   -1567.9547    519.23991    285.65568    145.24783    36500.952 
  329200    293.62093    -1557.254    482.57375     252.1657    374.87524    36500.952 
  329300    303.86855    -1514.224     516.6983    375.62828    435.69361    36500.952 
  329400    306.78027    -1585.075    509.35127    310.58807     569.2334    36500.952 
  329500    293.81972   -1519.5523    493.84872     302.0407    449.64065    36500.952 
  329600    296.72698   -1504.6074    518.13909    354.41357    654.36377    36500.952 
  329700    303.06268   -1551.7784    495.72808    313.46209    314.55107    36500.952 
  329800    307.13666   -1570.9265     499.4523    316.44813    383.45948    36500.952 
  329900    302.96699   -1571.3778    461.26802    258.97015    448.57819    36500.952 
  330000    304.15192   -1575.1121    490.57971    289.90217      522.647    36500.952 
  330100    299.81195   -1531.0985    509.26751    332.99164    279.35196    36500.952 
  330200    299.90602   -1545.2365    486.46448    296.47573    297.25086    36500.952 
  330300    290.56877   -1582.4641    534.62591    265.21538    66.553155    36500.952 
  330400    301.30917   -1580.9764    489.72053    270.33257    322.15176    36500.952 
  330500    287.89489   -1551.4864    504.13157    253.61568   -151.12554    36500.952 
  330600    308.50006   -1557.8266    504.55915    340.81595   -76.421475    36500.952 
  330700     295.9709   -1598.2178    507.08413    246.33158   -112.69878    36500.952 
  330800    294.68353   -1611.1048     494.1878    214.73074   -617.41272    36500.952 
  330900    300.15463   -1593.2374     501.1581    264.29186   -592.72298    36500.952 
  331000    300.77714   -1568.2871    493.30703    284.20423   -271.80234    36500.952 
  331100    302.38899   -1545.9146    495.98141    316.53485    -720.0064    36500.952 
  331200     290.1633   -1574.3732     487.2546    224.10268    306.97038    36500.952 
  331300    302.83334   -1595.5528    511.82895    284.75215   -401.06236    36500.952 
  331400    334.63275   -1582.5553    468.07077    397.69015   -182.89759    36500.952 
  331500    302.86077   -1599.7181     514.2417    283.12355    42.808583    36500.952 
  331600    300.36058   -1588.1787    502.28806    271.41124   -608.74125    36500.952 
  331700    302.27401    -1597.274    493.41096    262.08546   -409.39309    36500.952 
  331800    304.09664   -1576.9485    481.56884    278.80509   -12.896513    36500.952 
  331900    306.55723    -1555.167    492.00095    322.13784     452.1904    36500.952 
  332000    297.17292   -1564.4818    491.77998    270.19527    76.616881    36500.952 
  332100    291.26174   -1592.2826    496.86761    220.77001    -94.13338    36500.952 
  332200    307.57384   -1548.1771    529.73168    371.45243    357.39035    36500.952 
  332300    302.74555   -1584.6816    501.57785     284.9756   -83.372707    36500.952 
  332400    305.00779   -1564.9492    509.96309    323.31601   -126.54926    36500.952 
  332500    304.18335   -1531.0253      517.137    360.68825    223.47632    36500.952 
  332600    306.24519   -1539.3554    500.02212    344.56062    449.41012    36500.952 
  332700    302.19822   -1575.2054    485.99418    276.39471   -453.79369    36500.952 
  332800    301.69174   -1571.2518    495.55598    287.62144   -742.63733    36500.952 
  332900    313.35099   -1545.1461    530.76947    401.62765   -356.95775    36500.952 
  333000    290.91487   -1523.0691    504.34567    295.89409   -498.03121    36500.952 
  333100     306.2824   -1515.2068    508.35176    377.20694    91.285294    36500.952 
  333200    290.70182   -1554.6096     480.5721    239.61729     89.70116    36500.952 
  333300    295.08641   -1533.4992    487.04762    287.01679     360.5027    36500.952 
  333400    300.87144   -1520.7349    489.13153    328.00699   -203.44652    36500.952 
  333500    303.06483    -1536.524    510.59813    343.59626    124.05716    36500.952 
  333600    307.16887   -1557.9878    523.34517    353.42529    243.54495    36500.952 
  333700    297.08652   -1548.0114    499.53064    294.02594    647.86156    36500.952 
  333800    293.75484   -1518.8984    527.95634     336.5091    545.71852    36500.952 
  333900    303.11313   -1542.1638     518.1797    345.75623   -208.94608    36500.952 
  334000    299.77792    -1563.012    525.64531    317.30218   -469.40263    36500.952 
  334100    302.96159   -1547.1409    520.97583    342.89044   -1170.1627    36500.952 
  334200    297.37755   -1545.8688    504.35036    302.30334    -1132.883    36500.952 
  334300    299.19407   -1537.6672    505.74001    320.10331   -1467.7511    36500.952 
  334400    296.62766   -1520.0206    514.65654    335.06909   -403.58008    36500.952 
  334500    337.11408   -1511.8005    479.12745    490.71452   -714.39876    36500.952 
  334600    303.93072   -1555.3451    492.44339    310.53329    148.44377    36500.952 
  334700    314.81254   -1559.8124    481.89505    344.69153    35.264321    36500.952 
  334800    293.72643   -1573.1428     492.9143    247.09421    725.72013    36500.952 
  334900    306.73573   -1549.3879    530.35901    367.08166    503.35628    36500.952 
  335000    295.42263   -1528.2172    470.99285    277.76338    892.73933    36500.952 
  335100    309.02531   -1547.6453    512.20028    361.01192    536.53719    36500.952 
  335200    291.74481   -1565.1359    509.24347     262.4756    247.94471    36500.952 
  335300    297.76327   -1546.3851    529.89522      329.075     429.8259    36500.952 
  335400    297.48064   -1551.5537     496.4766    289.21054   -252.61794    36500.952 
  335500    302.05663   -1530.1938    500.46306    335.23539   -324.78342    36500.952 
  335600    299.55764    -1550.535    518.18788    321.32628   -787.62927    36500.952 
  335700    302.07188    -1522.244    488.04709    330.83816   -779.39362    36500.952 
  335800     308.1329   -1542.6055    498.34078     348.1595   -1256.5175    36500.952 
  335900    304.87341   -1578.6437    522.05415    321.10535    -1080.182    36500.952 
  336000    301.94938   -1546.1846    520.85339    339.15024   -590.64041    36500.952 
  336100    309.90228   -1564.4095    479.59453    315.60497   -999.78474    36500.952 
  336200    297.86892   -1525.9449    531.15657    351.25386   -170.51889    36500.952 
  336300    295.72459   -1525.3269    490.82812    301.85341   -309.90632    36500.952 
  336400     299.9247   -1522.2027    506.82701    339.95639    205.53543    36500.952 
  336500    307.50565   -1534.6369    515.27676    370.22966   -104.82849    36500.952 
  336600    304.29946   -1532.6707    497.82761    340.25816   -188.88229    36500.952 
  336700    313.52172   -1526.0061     485.0497    375.81946   -101.26877    36500.952 
  336800     300.3257   -1512.2618    505.96432     350.8467   -89.352985    36500.952 
  336900     302.6993   -1534.5505    499.53007    332.84989    -194.0817    36500.952 
  337000    315.64385   -1564.8598    476.61547    338.12123    8.4265624    36500.952 
  337100     295.9405   -1585.3489    482.59238     234.5714    109.28172    36500.952 
  337200    304.06036   -1543.6426     503.2816    333.65984    182.27424    36500.952 
  337300    304.53695   -1583.2629    487.47259    280.38413    622.32869    36500.952 
  337400    285.30977   -1582.0682    515.39502    222.61545   -37.358428    36500.952 
  337500    301.99626    -1535.982    498.10644    326.81772    165.34557    36500.952 
  337600     301.8348   -1562.8279    498.07503    299.21083    217.45184    36500.952 
  337700    309.87531    -1565.711     497.9083    332.49535    130.79887    36500.952 
  337800    297.46857   -1506.5499    500.97735    338.66059   -48.750901    36500.952 
  337900    304.85992   -1551.2326    507.19464    333.59595    35.191911    36500.952 
  338000    290.73033   -1572.8822    505.76277    246.66423    305.51804    36500.952 
  338100    309.37379   -1554.7172    513.25772     356.5722    898.36717    36500.952 
  338200     303.2635   -1552.0952    509.68294    328.00765    212.31635    36500.952 
  338300    295.14668   -1562.7601    518.65244    289.63306    457.55582    36500.952 
  338400     294.1143   -1531.6559    497.41843    294.83799   -622.92975    36500.952 
  338500    297.37637   -1564.9545    486.62163    265.48364   -958.07792    36500.952 
  338600    290.33689    -1542.843    510.81237    279.97505   -1003.6853    36500.952 
  338700    312.93841   -1533.0757     491.1603    372.22445   -401.83706    36500.952 
  338800    305.66517   -1558.8762    491.73971    314.13633   -312.64459    36500.952 
  338900    307.21815   -1553.3482    496.96536    331.90774   -55.240352    36500.952 
  339000    286.74324   -1542.0404    511.92604    265.65192    135.90344    36500.952 
  339100     305.6667   -1511.7884    497.37272    366.86399    481.63676    36500.952 
  339200    295.31722   -1549.9129    508.00147    292.59987    504.27941    36500.952 
  339300    298.07823   -1584.6965    494.23549    256.52713    480.65065    36500.952 
  339400    305.44125   -1582.2842    514.50463    312.48136    710.95565    36500.952 
  339500    298.23998    -1582.351    478.25525    243.62329    506.53465    36500.952 
  339600    302.51442   -1539.0054    495.06824    323.09767   0.25044709    36500.952 
  339700    300.35487   -1566.7805    509.88369    300.37919   -321.92028    36500.952 
  339800     294.8107   -1553.3758    503.39151     282.2382   -277.71547    36500.952 
  339900     300.5548   -1560.7175    520.84387    318.30589   -596.26331    36500.952 
  340000     300.6256   -1577.1158    483.83233    265.21601   -233.05011    36500.952 
  340100     307.6626   -1539.8502    501.64625    352.09509    289.62125    36500.952 
  340200    301.69783   -1540.4053    502.40786    325.34727    303.25392    36500.952 
  340300    301.81833   -1491.6265    508.17483    380.43763   -202.03146    36500.952 
  340400    304.56455   -1504.2075    516.61539    388.70709    72.220303    36500.952 
  340500    304.12509    -1474.643    503.97028    403.64058    299.09786    36500.952 
  340600     306.6604   -1447.1801    513.95036     452.5404   -476.44731    36500.952 
  340700    298.86404   -1498.7001    512.70445    364.54343   -266.37545    36500.952 
  340800    292.72047   -1487.6329    504.53841    339.68232   -244.77733    36500.952 
  340900    298.90403   -1528.0923    484.92365    307.55117   -403.17852    36500.952 
  341000    299.82251   -1520.8154     495.3136    329.36858    215.38851    36500.952 
  341100    296.89126   -1553.9186    483.52994    271.23563    87.960175    36500.952 
  341200    293.21013   -1498.0796    517.27667     344.1867    336.89216    36500.952 
  341300    312.08875   -1499.3481     517.4953    428.44756     346.3459    36500.952 
  341400    295.35457   -1518.3439    516.34099    332.67727    363.93834    36500.952 
  341500    301.63854   -1468.3399    504.28688    399.02381   -328.73512    36500.952 
  341600    293.05406   -1482.8639    521.62571    363.04612   -557.21038    36500.952 
  341700    303.38891   -1481.2158    525.05613    414.82687   -241.80369    36500.952 
  341800    298.67312   -1534.1773    496.99778     312.4968   -547.00911    36500.952 
  341900    306.68979   -1485.9884    493.08311    392.99769   -521.05231    36500.952 
  342000    299.97592   -1505.2961    492.88631    343.15378   -483.86626    36500.952 
  342100    305.24146   -1522.2179    482.20277      339.343   -479.14052    36500.952 
  342200    301.62902   -1533.4451      501.575    331.16371   -255.84466    36500.952 
  342300    296.38609   -1533.2654    514.12735    320.20347   -31.380504    36500.952 
  342400    301.68381   -1555.2642     498.6176    306.63484   -592.17147    36500.952 
  342500    297.99996   -1487.2782     500.7965    360.15269    188.73592    36500.952 
  342600     295.3472    -1545.712    501.28627    290.22105    -261.8362    36500.952 
  342700    290.68311   -1545.9786     496.5095    264.10111   -49.203242    36500.952 
  342800     296.3527   -1533.1274    503.98875    310.05198   -634.61733    36500.952 
  342900    295.90822   -1550.1796    497.43719     284.4396   -172.53911    36500.952 
  343000    311.16318   -1514.9242    482.80867    374.00229   -805.25668    36500.952 
  343100    295.86065   -1541.2167    496.63183    292.38215   -645.85608    36500.952 
  343200    309.60245    -1534.352    483.18297    347.89595    298.53927    36500.952 
  343300    306.92203   -1572.0228    508.30872    323.23838     71.73964    36500.952 
  343400    296.99876   -1514.4955    509.43867    337.05326    235.54107    36500.952 
  343500    307.78616   -1477.6215    533.84129     447.0772   -37.354058    36500.952 
  343600    291.27974   -1523.8615    486.55791    278.96281   -659.84774    36500.952 
  343700    303.94537   -1538.1192    499.55841     334.9404    384.26168    36500.952 
  343800    302.00409   -1521.8819    513.84691    356.69371   -463.10188    36500.952 
  343900    307.84531   -1534.3945    498.23288    354.96305    241.57194    36500.952 
  344000    304.78524   -1578.0334    503.71099     302.9741   -206.87432    36500.952 
  344100    290.59167   -1545.8237    504.32889    271.66221   -343.87485    36500.952 
  344200    298.62087   -1547.9349    539.13193    340.63727   -233.10319    36500.952 
  344300    294.45975   -1567.1424    490.49014    253.98432    553.50849    36500.952 
  344400    298.39637   -1545.6837    530.99933     333.7414     322.2924    36500.952 
  344500    308.74199   -1531.2799    499.67397    363.57069    205.56413    36500.952 
  344600    303.29961   -1504.0987    500.25316    366.73754    402.60318    36500.952 
  344700    297.56186   -1535.5872    510.23467    319.30217    471.06257    36500.952 
  344800    300.43059    -1536.542    521.87139    342.94761    797.80181    36500.952 
  344900    307.72564   -1568.7756    476.78589     298.5941    1048.0148    36500.952 
  345000    305.61466   -1532.3792    502.73235    351.39765    1029.4656    36500.952 
  345100    293.43454   -1556.1181    487.30165    257.18726    666.82418    36500.952 
  345200    294.06377   -1558.9978    512.14066    281.99003    239.28218    36500.952 
  345300    298.25177   -1563.8012    504.82264     288.7938    507.15841    36500.952 
  345400    295.27542   -1550.4866    503.42278    287.25866    417.69287    36500.952 
  345500     307.1442   -1550.1147    509.22129    347.06296    37.525801    36500.952 
  345600    296.15361   -1528.5808    515.81191     325.5221    316.15342    36500.952 
  345700    285.24014   -1532.0724    472.66029    229.56184   -230.22023    36500.952 
  345800    306.73184   -1546.4231    504.82784    344.49768   -56.859867    36500.952 
  345900    294.85671   -1537.9227    489.80161    284.30928    12.433131    36500.952 
  346000    294.63184   -1591.6047    479.26182    219.07125     498.6076    36500.952 
  346100    297.51376   -1550.0843    520.19397    314.54703    111.02482    36500.952 
  346200     306.5021   -1592.3588    483.00819     275.7042   -107.28497    36500.952 
  346300    302.09201   -1558.6218    495.71162    302.21584    231.62573    36500.952 
  346400    294.32117   -1509.6565    478.43818      298.792   -489.40335    36500.952 
  346500    307.25952   -1548.5369    508.46823    348.40881   -145.72567    36500.952 
  346600    294.44019   -1553.8988    504.49593    281.14528   -210.40892    36500.952 
  346700    295.66804   -1535.5017    506.12354    306.71853   -166.24555    36500.952 
  346800    301.36837   -1548.0143    499.54467    313.38633   -160.78867    36500.952 
  346900    291.42146   -1565.9817    498.70611    249.63113   -113.41774    36500.952 
  347000    307.33999   -1544.0323    486.58952    331.39834    19.296337    36500.952 
  347100    309.01126   -1533.9708    503.98568    366.40832   -79.289843    36500.952 
  347200    289.04228   -1557.6969    532.91141    281.37001    -327.0973    36500.952 
  347300    302.74974   -1536.7163    495.11927     326.5012    53.405503    36500.952 
  347400    300.10866   -1555.4751    495.40648    296.09484   -734.96678    36500.952 
  347500    296.60542   -1529.7261    497.00372    307.61028    -859.0225    36500.952 
  347600    302.49305   -1531.0521     492.4274    328.31354   -399.96606    36500.952 
  347700    302.30994    -1555.088    478.37427    289.39711    91.848366    36500.952 
  347800    297.96521   -1518.9143    496.71868    324.28173   -449.78242    36500.952 
  347900    296.53541   -1518.9985    497.89424    318.91192    343.88869    36500.952 
  348000    302.16084   -1563.7551    514.56235    316.24435    389.87928    36500.952 
  348100     306.9784   -1555.5605    494.92611    326.57278    792.15418    36500.952 
  348200    302.10534   -1551.2981    466.36702    280.25519   -199.21096    36500.952 
  348300    295.29797   -1561.6856    495.63538    268.37416    8.4323501    36500.952 
  348400    300.64609    -1513.944    518.41026    363.05834    680.91856    36500.952 
  348500    297.74054   -1512.4572    534.49602    367.50091    558.77191    36500.952 
  348600    301.83551   -1516.6252    518.57425    365.91594   -54.480286    36500.952 
  348700    315.00005   -1524.7498    495.00629    393.71272    -435.9634    36500.952 
  348800    305.25822   -1514.8814    523.61619    388.16859   -45.315632    36500.952 
  348900    290.49808   -1507.7798    516.17197    321.12629    82.817354    36500.952 
  349000    283.07425   -1509.2889    502.26002    272.15764    395.47887    36500.952 
  349100    296.08543   -1527.4754    505.11753    315.62495    83.335461    36500.952 
  349200    291.60811   -1454.2654    534.03915    397.52397   -378.59944    36500.952 
  349300    296.58117   -1489.2457     518.0023    368.97968   -190.32168    36500.952 
  349400    300.72791   -1497.4048    512.50775    374.06475   -178.83442    36500.952 
  349500    293.42588   -1478.3723    499.00202    346.59427   -433.96038    36500.952 
  349600    296.26808   -1514.1155    514.34149    339.03416   -82.835168    36500.952 
  349700     305.5869   -1504.1309    506.15544    382.94362   -335.70523    36500.952 
  349800    294.43862   -1547.2034     526.4303    309.76792   -658.48897    36500.952 
  349900    301.41667   -1507.3855    487.94166    342.63038   -689.63169    36500.952 
  350000    307.61912   -1522.3962    488.72146    356.42779   -890.53263    36500.952 
  350100    293.95189   -1523.4422     482.2543    287.15368   -213.79476    36500.952 
  350200    305.27175   -1536.5881    538.58754    381.49436     -701.973    36500.952 
  350300    301.44191   -1574.8526    485.29938    272.63507   -529.17416    36500.952 
  350400    289.81858   -1519.6612    498.62362    288.62592   -459.30989    36500.952 
  350500    307.11199   -1510.1208    515.22597    392.91605    144.66128    36500.952 
  350600    300.51258   -1485.2346    545.32724    418.08136   -771.37924    36500.952 
  350700    302.62615   -1529.6647    506.37721    344.25219   -129.76289    36500.952 
  350800    298.39216   -1529.3469    515.58909    334.64893    100.63572    36500.952 
  350900    298.27561   -1511.5802    487.85482    324.15464   -334.97184    36500.952 
  351000    302.59345   -1570.8935    511.48643    307.98488    203.56708    36500.952 
  351100    297.51738   -1548.2754    535.71021     331.8885    110.37011    36500.952 
  351200    300.11632   -1554.1182    517.39689    319.47669    350.67307    36500.952 
  351300    305.64876   -1503.9523     505.9848    383.23117   -233.52506    36500.952 
  351400    293.25552   -1569.9113    487.33045    242.61389   -114.17278    36500.952 
  351500    305.90095   -1553.2797    496.67807    325.73665    82.898525    36500.952 
  351600     291.5731   -1522.8675    508.31214    303.03665   -145.02312    36500.952 
  351700    305.69717   -1539.6277    503.36306    345.15276   -666.18141    36500.952 
  351800    297.59039   -1471.9368    502.95671    375.80351   -30.654321    36500.952 
  351900    300.22571   -1507.3561    509.71167    359.04798   -171.87851    36500.952 
  352000    296.27344   -1520.6719    486.65923    304.81981   -162.88711    36500.952 
  352100    294.98697    -1551.594    496.28353     277.7085   -145.75323    36500.952 
  352200    299.02286   -1559.1198     501.7334    293.87038   -238.93831    36500.952 
  352300    306.84717   -1583.9625    497.80445    300.45608    371.57046    36500.952 
  352400    296.45218   -1593.1583    489.94727    236.42909   -212.97455    36500.952 
  352500    305.08843   -1613.6008    491.71846    256.78423    118.79906    36500.952 
  352600    316.17759   -1584.8119    512.37517    356.34077    246.08634    36500.952 
  352700    302.04894   -1588.7011    471.81545    248.04575   -40.473307    36500.952 
  352800    292.12958   -1552.7028    489.38881    256.79269    202.80609    36500.952 
  352900      305.572   -1578.1704    530.46214    333.14348   -186.26568    36500.952 
  353000     309.5856   -1554.2222    495.05257    339.81923   -198.31352    36500.952 
  353100    296.54702   -1548.6631    493.03934      284.445    -414.7783    36500.952 
  353200    297.02217   -1561.4617     486.1134    266.86753    -463.4705    36500.952 
  353300     310.8504   -1554.4602    529.05328    379.29746      154.691    36500.952 
  353400    300.75999   -1548.4606    502.83666    313.48279   -298.38681    36500.952 
  353500    298.03947   -1533.3983    517.38843    330.80305   -340.43069    36500.952 
  353600    300.16385   -1528.1719    490.38619     318.6271   -109.68679    36500.952 
  353700    295.14463   -1525.4041    490.27179    298.59917    383.20361    36500.952 
  353800    291.51887   -1514.7144    507.45556    310.08808    86.393099    36500.952 
  353900    293.16201    -1513.694    540.46354    351.54174    -318.9676    36500.952 
  354000    301.45197   -1505.7707    508.98375    365.44676   -308.29445    36500.952 
  354100    284.32091   -1506.0814    532.44314    311.18179   -728.06495    36500.952 
  354200    303.67691   -1524.2383    500.74029    348.79008   -461.85608    36500.952 
  354300    293.25233   -1506.1807    515.86592    334.86553    397.49618    36500.952 
  354400    289.82656   -1506.6618    549.83044    352.86824    101.67364    36500.952 
  354500    290.88613   -1533.5119    508.29563    289.27141    637.06689    36500.952 
  354600     302.6927   -1525.4423    523.32621     365.7244    189.81951    36500.952 
  354700    300.22541   -1517.1958    474.08951    313.58474    298.73032    36500.952 
  354800    295.62064   -1530.7323    535.64678    340.79702    385.47273    36500.952 
  354900    327.28894   -1553.8837    484.28546    409.39035    792.41856    36500.952 
  355000    292.55246   -1554.2901    494.85115    262.57869    189.54255    36500.952 
  355100    304.32394   -1535.7065    517.69585    357.20128   -520.30985    36500.952 
  355200    298.55705   -1551.2108    491.42424     289.3653   -430.32359    36500.952 
  355300    298.42605   -1537.2722     477.1218    288.40942   -547.75632    36500.952 
  355400    293.92757   -1590.9009    492.77428    230.10507   -789.18535    36500.952 
  355500    304.98163   -1572.4718     509.5862    315.29834   -748.83422    36500.952 
  355600    296.62309   -1550.7462    479.80492    269.47113   -618.76366    36500.952 
  355700    298.65513   -1558.0218    501.16429    292.73759    -166.9125    36500.952 
  355800    311.60273   -1550.0022    496.19801    354.29994   -113.12935    36500.952 
  355900    299.50628   -1541.7719    502.30951    313.97896   -936.04702    36500.952 
  356000    301.05971   -1600.7612    496.15536    255.85534   -1042.2714    36500.952 
  356100    301.47146   -1595.0703    470.09657    237.34804   -507.46112    36500.952 
  356200    310.45196   -1630.5801    527.28637    299.61018   -95.404261    36500.952 
  356300     310.7276   -1609.1161    462.44247    257.47584    624.77587    36500.952 
  356400    297.97095   -1566.2418     489.8634    270.12492     325.9342    36500.952 
  356500    305.60273   -1596.1459    500.74185    285.58663    718.08828    36500.952 
  356600    290.20094   -1560.7139    510.97579    261.65325    262.47037    36500.952 
  356700    290.08805   -1576.0966    502.54089    237.32555    254.19142    36500.952 
  356800     311.2248   -1538.9937    481.75831    349.16091   -158.37263    36500.952 
  356900    291.98168   -1533.2548    508.79652    294.98014   0.23925764    36500.952 
  357000    304.12225   -1521.6647    504.14079    356.77655    184.73342    36500.952 
  357100    292.55927   -1494.5052    502.90173    330.44498    806.66358    36500.952 
  357200    292.64802   -1575.8222    510.53934    257.16661    270.76307    36500.952 
  357300    288.46895   -1591.7526    512.18798    224.00005    534.36045    36500.952 
  357400    294.04248   -1565.9265    510.17487    272.99931    205.31996    36500.952 
  357500    298.60208   -1529.2984    550.67909    370.73598   -152.74773    36500.952 
  357600    297.85294   -1568.3243    484.36661    262.01232    -876.6868    36500.952 
  357700    293.22683   -1571.3825    478.41374    232.09631   -71.581122    36500.952 
  357800    296.51628   -1576.4196    505.97166    269.48187   -264.41725    36500.952 
  357900    302.18083   -1553.0015    488.99672    301.52259   -243.03195    36500.952 
  358000    293.96859   -1591.3076    513.65806    250.76747   -510.71499    36500.952 
  358100    299.09017   -1602.3108    511.10866    260.35886   -369.52634    36500.952 
  358200    298.22778    -1561.118    502.35437    288.90022     90.24569    36500.952 
  358300    307.74813   -1523.8565    501.75613    368.58515    394.42049    36500.952 
  358400    297.93597   -1571.9128     496.7029    271.13537   -205.35495    36500.952 
  358500    296.98829   -1548.8013    527.00605    320.26749    271.95729    36500.952 
  358600    305.86155   -1514.2634    485.73541    353.63225   -158.58154    36500.952 
  358700    292.33809    -1492.103    501.27432    330.22026   -434.04257    36500.952 
  358800    305.61009   -1503.8371    491.88615    369.07287   -456.23455    36500.952 
  358900    312.93665   -1527.1741    522.41217    409.36997    146.96628    36500.952 
  359000    309.67568   -1522.3061    518.79807    395.88792   -268.10263    36500.952 
  359100    321.50915   -1521.7819    493.49814    424.58648   -556.79624    36500.952 
  359200    293.96739   -1508.7763     508.0576    327.69291   -414.12075    36500.952 
  359300    297.48022   -1527.2425    491.11828    308.16153   -1144.5716    36500.952 
  359400    306.51571   -1525.4687    496.95857    356.60614   -970.23947    36500.952 
  359500    296.93243    -1511.285    492.01281    322.53816    -409.0148    36500.952 
  359600    303.58771   -1533.5375    480.04647    318.39393   -627.76947    36500.952 
  359700    299.59904   -1536.6987    513.90296    331.06475   -391.72211    36500.952 
  359800    294.32658   -1581.3086    495.48834    244.21448   -192.16084    36500.952 
  359900    297.74491   -1535.0964    511.35859    321.74402    262.92082    36500.952 
  360000    310.83643   -1516.5688    498.94733    387.01975   -192.03592    36500.952 
  360100    300.12106    -1524.828    484.90712    316.29862    113.27085    36500.952 
  360200    306.74667   -1539.7463    477.86735    324.28102     583.4516    36500.952 
  360300    293.43893   -1588.0412    517.16862    255.15094   -48.503278    36500.952 
  360400    291.46015   -1590.7729    492.20054    218.50929    1126.7278    36500.952 
  360500    303.41552   -1595.5727    509.02472    284.55884    787.11484    36500.952 
  360600    290.13522   -1547.3025    522.97882    286.77066    370.63206    36500.952 
  360700    303.97288   -1565.2958    503.86034    312.19007    728.91155    36500.952 
  360800    303.31121   -1529.3281     488.2766    329.58394    517.81559    36500.952 
  360900     295.5277   -1548.5454    493.16309    280.08016   -197.13254    36500.952 
  361000     308.1432   -1528.6972     489.5205     353.2941   -632.32161    36500.952 
  361100    302.48467   -1520.2439    466.58498    313.24146    286.20416    36500.952 
  361200    298.83136    -1523.122    509.71577    336.98523    28.358484    36500.952 
  361300    299.28931   -1544.2223    503.56609    311.80462    421.30562    36500.952 
  361400    302.47174   -1520.1403    487.85785    334.55953    165.45551    36500.952 
  361500    300.65029   -1506.5545    535.57258     387.6291    170.25372    36500.952 
  361600    289.95022   -1546.7477    495.04942    258.56006   -129.55491    36500.952 
  361700    298.98098    -1528.678    499.98343    322.37297    449.18321    36500.952 
  361800     299.9817   -1514.0568    491.36072    332.89363   -231.48384    36500.952 
  361900    292.56029   -1540.6701    500.79483    282.17777    298.95167    36500.952 
  362000    301.59461   -1540.8172    494.64297    316.70404   -71.891966    36500.952 
  362100    301.00406   -1582.8562    482.39451    259.74802   -535.38221    36500.952 
  362200    290.86793   -1528.5644    499.99213    285.83317   -314.94635    36500.952 
  362300    302.48876   -1523.3154    493.22101    336.82457    -54.50574    36500.952 
  362400    306.65991   -1548.4929     511.8478    349.12279    131.30083    36500.952 
  362500    292.60666   -1519.3606     507.8667    310.76872    433.44729    36500.952 
  362600    294.53943   -1458.9436    519.30664    391.35963    640.24988    36500.952 
  362700    301.48699   -1496.4861     486.7946    352.70048   -91.626768    36500.952 
  362800    301.83692   -1545.1642    481.42216    300.23127   -254.85811    36500.952 
  362900    300.01936   -1517.7421     496.7451     334.7629    17.803011    36500.952 
  363000     298.8476     -1532.15    483.21602    301.53083    282.85795    36500.952 
  363100    294.30969   -1565.6913    506.56935    270.83649    371.58763    36500.952 
  363200    289.63934   -1532.2144    508.29398    284.93315    121.23906    36500.952 
  363300    302.64133   -1573.3079    479.84649    274.14691    211.55535    36500.952 
  363400    298.54141   -1558.5419    488.58529     279.1246    375.19569    36500.952 
  363500    307.10329   -1575.8262    475.74973    287.69505   -7.0337449    36500.952 
  363600    307.98564   -1578.3215    500.95596    314.39327   -40.015862    36500.952 
  363700    293.60106   -1581.7316    489.05162    234.07625     212.1025    36500.952 
  363800    290.92981   -1524.6857    494.08078    284.08011    43.774008    36500.952 
  363900    302.45639   -1552.6096     477.4449     291.6079   -101.93243    36500.952 
  364000    299.11246   -1537.2053    500.25861    314.71498   -122.97832    36500.952 
  364100    303.28738   -1530.8278    502.69924     342.3992   -430.44423    36500.952 
  364200    298.11537   -1505.6504    493.55052    335.05604    444.91691    36500.952 
  364300    305.27359   -1539.1523    492.00439    332.35541    26.027698    36500.952 
  364400    301.15581   -1543.9424    516.68617    333.63917    250.27367    36500.952 
  364500    297.61512    -1519.115    465.90136    291.68178    55.182828    36500.952 
  364600    307.07101   -1557.2037    505.85777    336.27975   -362.06316    36500.952 
  364700    288.94016   -1562.5132    498.25732    241.43812   -250.02777    36500.952 
  364800    296.54622   -1572.8067    471.54749    238.80588   -187.73323    36500.952 
  364900     299.8083   -1575.7733     500.3414    279.37425    131.64688    36500.952 
  365000    299.72175   -1543.6976     483.2527     293.9701   -49.339097    36500.952 
  365100    314.15066   -1539.7766    489.52942    369.37082    381.41651    36500.952 
  365200    298.06922   -1526.2652    490.04868    310.73085   -58.769975    36500.952 
  365300    290.21982   -1523.6762    503.80086    291.60135   -18.541337    36500.952 
  365400     291.9696   -1508.7152    503.06002    313.72863     -265.331    36500.952 
  365500    297.09674   -1495.2869    484.43559    331.70155     178.2524    36500.952 
  365600    292.44363   -1539.1672    503.52615    285.88479    270.69257    36500.952 
  365700    297.64996   -1528.5396    495.94537    312.45856    608.40157    36500.952 
  365800    290.07957   -1518.8852    487.71636    279.67404     924.3165    36500.952 
  365900    305.15027   -1543.4039    505.71483    341.25699    841.79128    36500.952 
  366000    297.09593   -1519.0462    487.43413     310.9371    766.60901    36500.952 
  366100    302.55096   -1504.9005    504.94481    367.24427    944.37235    36500.952 
  366200    307.57131   -1556.5979    500.92862    334.21719    541.47239    36500.952 
  366300    310.32591   -1537.1914    497.46906    362.61196    741.01891    36500.952 
  366400    293.74802   -1495.0421    510.12335    342.50152    144.78994    36500.952 
  366500    295.66926   -1531.9772    502.10681    306.23177    398.14582    36500.952 
  366600     307.4274   -1490.0771    500.16627    399.32533   -53.919055    36500.952 
  366700    302.15703   -1520.1192    504.13501    349.43569   -252.96846    36500.952 
  366800    301.44763   -1492.6396    488.89942    358.47391    181.78109    36500.952 
  366900    295.23922   -1544.8717    508.83583    298.12302    82.081471    36500.952 
  367000    292.27635   -1519.4507    521.96612     323.2854    134.27414    36500.952 
  367100     306.8197   -1565.2082    479.31106    300.59284    435.52491    36500.952 
  367200    295.52231    -1556.662    470.47539    249.25149    253.36986    36500.952 
  367300    298.48652   -1522.7508    494.84014    320.92248     487.7584    36500.952 
  367400    296.51041   -1500.0213    493.32338    333.20538    281.91912    36500.952 
  367500    294.47376   -1524.6189    496.17807    302.25899    11.209369    36500.952 
  367600    294.49488   -1523.9722    495.33596    302.15907    315.86963    36500.952 
  367700    296.39238   -1542.8192    515.15689    311.70765     168.5846    36500.952 
  367800    300.31088   -1528.6978    490.11099    318.49041   -98.014627    36500.952 
  367900    305.52876   -1481.9907    506.29063    404.95631    260.29099    36500.952 
  368000    290.45639    -1505.329    497.79441    305.01109   -271.97873    36500.952 
  368100    296.90236   -1526.5325    481.91804    297.06004     247.2434    36500.952 
  368200    311.39193   -1494.4051     495.0898    407.83616    291.92974    36500.952 
  368300    294.47194   -1503.4252    482.34518    309.61156      170.458    36500.952 
  368400    294.35392    -1525.393    469.52313    274.28843    210.28227    36500.952 
  368500    303.39626   -1532.5221     503.3058    341.80349   -60.310822    36500.952 
  368600    311.54834   -1503.8394    481.19724    385.21615   -325.94171    36500.952 
  368700    293.67227   -1476.3863    500.37148    351.06322   -14.108402    36500.952 
  368800    296.73498   -1517.2007    491.68633    315.40369    65.687431    36500.952 
  368900    284.14488   -1499.3985    471.08622    255.71225    371.30266    36500.952 
  369000    308.71283    -1489.821    497.31918    402.54307    119.36097    36500.952 
  369100    309.88532   -1508.2975    505.28898    397.33473    134.48903    36500.952 
  369200    298.53744   -1512.3409    464.12239    300.84468   -576.37316    36500.952 
  369300     292.2657     -1452.76    496.28563    364.24745   -557.38385    36500.952 
  369400    293.94272   -1479.4315    521.91697    370.78562     135.1818    36500.952 
  369500    300.84921   -1466.1562    482.82016    376.17388    297.19964    36500.952 
  369600     294.4751   -1475.8311    500.08295    354.95779   -36.412135    36500.952 
  369700    300.49994    -1463.099    494.86314    389.69579   -115.97562    36500.952 
  369800     293.6502   -1471.6217    477.92727    333.28384    224.08897    36500.952 
  369900    306.49065   -1478.8894    489.28018    395.39385    68.757692    36500.952 
  370000    303.00229   -1462.2854     476.1459    383.09993    83.960595    36500.952 
  370100    292.96692   -1464.0142    517.15435    377.03071   -220.28352    36500.952 
  370200    290.17369   -1485.7472    490.53773    316.05875    290.52324    36500.952 
  370300      298.104   -1471.2683    501.21858    377.05483    351.91236    36500.952 
  370400    303.62186   -1486.1364    489.92942    375.83223    434.88719    36500.952 
  370500    289.97784   -1536.6234    493.77309    267.53285   -57.297312    36500.952 
  370600    297.92602   -1513.1764    490.62385    323.74777    150.70804    36500.952 
  370700    297.62263   -1470.5309    492.29072    366.68915    241.49995    36500.952 
  370800    297.27055   -1463.1908    484.37572    364.52318    32.312078    36500.952 
  370900    300.26624   -1496.7652    485.11112    345.22143      229.443    36500.952 
  371000    299.73263   -1499.8513     487.7583    342.37121    218.86545    36500.952 
  371100    302.26446   -1487.9886     487.4042    365.32091    587.29277    36500.952 
  371200    299.16855    -1496.057    470.26089    326.11905    333.07632    36500.952 
  371300    312.78971   -1518.2198    490.13247     385.3806   -103.98863    36500.952 
  371400    303.42178   -1486.0969    488.14049    373.17864    -547.9107    36500.952 
  371500    301.73791   -1495.7628    481.48563    349.24864    846.59173    36500.952 
  371600    304.13956   -1522.9961    512.69005     364.0726    414.75772    36500.952 
  371700    295.06217   -1587.1309    504.00387     250.2318    310.42751    36500.952 
  371800    297.56595   -1516.3589    489.70662    318.02089    612.14339    36500.952 
  371900    305.95079     -1498.26     509.5635    393.86703    571.01336    36500.952 
  372000    300.31863   -1503.5026    481.92917    335.53884   -98.971508    36500.952 
  372100    296.01376   -1532.0755    485.05936    290.64286   -97.523618    36500.952 
  372200    301.92598   -1484.8829    460.82514    340.31793   -90.303966    36500.952 
  372300    293.31813   -1525.1543    475.52552    275.84888   -233.05249    36500.952 
  372400    299.41033   -1533.8196    487.32808    306.51626   -162.46256    36500.952 
  372500     292.5268   -1504.9282    505.07059    322.04412   -170.59033    36500.952 
  372600    291.19442   -1518.4534    482.99876    280.42613    109.80188    36500.952 
  372700    304.58395   -1500.4379    474.58827    350.53719    -137.0973    36500.952 
  372800    303.64393   -1519.0058    475.28212    328.41537   -416.44336    36500.952 
  372900    302.35526   -1515.9952    481.81348    332.13386    166.03324    36500.952 
  373000    293.20813   -1474.1208    500.55711     351.4169    167.21375    36500.952 
  373100    295.70366   -1469.5587    492.62522     359.3242   -260.89103    36500.952 
  373200    303.34301   -1428.2662     502.2889     444.8019   -139.50312    36500.952 
  373300    309.72075   -1459.7183    485.79636    425.67768   -745.02126    36500.952 
  373400    299.52507   -1448.9585    508.05467    412.62246   -416.20565    36500.952 
  373500    300.97173    -1476.541    526.41074    409.93333   -478.91285    36500.952 
  373600    308.85253   -1414.0037    493.85127    475.52378    108.17016    36500.952 
  373700    301.69477   -1452.6527    495.58275    406.26092    254.55402    36500.952 
  373800    306.31083   -1435.4472    489.41606     438.1593    687.51338    36500.952 
  373900    304.45882   -1435.5892    514.67334    454.90554    177.99901    36500.952 
  374000    294.26707   -1430.6047    497.84491    397.00605    858.16215    36500.952 
  374100    302.81779   -1498.8558    486.28178    355.83171    311.59401    36500.952 
  374200    303.92958   -1474.4249    488.96281    387.96768     178.1794    36500.952 
  374300    294.74066   -1501.3944     470.9302    301.44173    234.30155    36500.952 
  374400    303.55944   -1475.1734    500.01411    396.59795    277.66359    36500.952 
  374500    299.77307   -1458.8073    477.51347    373.35311    73.658574    36500.952 
  374600    302.81614   -1452.3815    495.07469    411.09146     293.0046    36500.952 
  374700    299.87327   -1458.4061    507.20753    403.90112    277.39026    36500.952 
  374800    298.42428   -1440.7361    506.12082     413.9366    657.83055    36500.952 
  374900    292.07429   -1474.1374    504.55241    350.27187    567.09665    36500.952 
  375000    297.40323   -1493.4407    496.23762    346.73479    118.76284    36500.952 
  375100    307.53304   -1506.8934    485.30215    368.12229    503.89215    36500.952 
  375200    300.15947   -1472.4257    474.04402    358.01138   -193.42433    36500.952 
  375300     291.1261   -1497.4754    500.26471    318.36141   -214.74578    36500.952 
  375400    296.97499    -1500.053    485.13202    327.08169    389.40715    36500.952 
  375500    301.50293   -1475.1977    476.04953    363.31581    654.86429    36500.952 
  375600    307.89013   -1504.7556    479.56452    366.13611    899.99386    36500.952 
  375700    293.70104      -1517.8    483.77738    293.18539    341.58688    36500.952 
  375800    293.75419   -1445.9322    488.55053    370.06652    -4.488092    36500.952 
  375900    300.90588   -1477.9816    487.63517    369.41958     9.889601    36500.952 
  376000    306.78798   -1462.9589    481.53045    404.91826       -424.7    36500.952 
  376100    299.97095   -1409.7298    473.01895    418.83029   -741.95544    36500.952 
  376200    296.37691   -1444.2204    508.91079    403.99042   -638.55606    36500.952 
  376300    308.33033   -1443.0292    522.37423    472.66148    84.499108    36500.952 
  376400    298.91456   -1482.9794    473.14509    340.93307     221.0443    36500.952 
  376500     307.7274   -1482.8489    489.81153     397.5544    45.724629    36500.952 
  376600    298.45215   -1510.3276    494.88379      333.234    167.41383    36500.952 
  376700     309.6605    -1459.408    508.06473    447.98409    361.93899    36500.952 
  376800    297.11222   -1474.6215     473.7091    341.71038   -176.74498    36500.952 
  376900     298.7878   -1468.8388    485.08824    366.44403   -416.49727    36500.952 
  377000    296.11082   -1460.0525    480.37467    358.41977   -278.88391    36500.952 
  377100    297.17935   -1491.4515    504.70269    356.17736    52.669647    36500.952 
  377200    293.39237   -1469.7015    497.50153    353.61315    71.218243    36500.952 
  377300      297.674   -1470.1793    500.27944    375.26157   -111.63739    36500.952 
  377400    291.39491   -1491.0357    488.74516     314.4962   -212.59817    36500.952 
  377500    286.56484   -1497.1379    473.74239     271.5647   -297.41108    36500.952 
  377600    299.14235    -1431.091    491.84321    412.54892   -751.78952    36500.952 
  377700    297.70377   -1446.9057     502.5377    400.92797   -227.85319    36500.952 
  377800     304.2898   -1465.0753     500.7012    410.68353   -468.89182    36500.952 
  377900    297.19914   -1472.5293     478.7608    349.24711   -289.53228    36500.952 
  378000    311.33767   -1417.4431      498.323    487.78621    -817.5436    36500.952 
  378100    295.91469   -1455.9507    463.20415    344.46474   -474.88316    36500.952 
  378200    305.04591    -1465.738    478.58995    391.32638   -569.50153    36500.952 
  378300    312.32004   -1470.6478     496.6578    437.35555   -232.09769    36500.952 
  378400    300.60981   -1500.5649    489.06432    346.92752   -226.27046    36500.952 
  378500    305.21565   -1492.1078    467.94466    355.07828   -406.47594    36500.952 
  378600    302.20757   -1491.0574    484.06338    358.65415    21.385947    36500.952 
  378700    309.58088   -1470.3734    498.89517    427.48929     9.410865    36500.952 
  378800     294.7945   -1473.7476    486.84683    345.24844    318.28619    36500.952 
  378900    292.68225    -1462.287    489.87919    350.19631    441.33357    36500.952 
  379000    305.97069   -1483.0919    497.98427     397.5458    510.88679    36500.952 
  379100    290.90153   -1509.7698     486.6572     291.4447    436.75875    36500.952 
  379200    288.87893   -1500.3349    482.57868    287.66104    788.56109    36500.952 
  379300    307.16692   -1519.7195    485.29829    353.63792    360.67287    36500.952 
  379400    297.08929   -1469.1234    489.95409    363.34983    502.03666    36500.952 
  379500    293.56587   -1488.9051    496.53612     334.2282   -301.57908    36500.952 
  379600    303.30388   -1502.7011    492.17706    360.07828   -660.30882    36500.952 
  379700    294.55996   -1490.3056    485.72174    326.50548    103.66012    36500.952 
  379800    300.10636   -1488.9167    520.74759    387.98389    96.699854    36500.952 
  379900    307.64989    -1541.863    457.58241    305.96093     740.0978    36500.952 
  380000    295.19335   -1509.2893    500.78972    325.45197    714.56122    36500.952 
  380100    307.30353   -1560.9108    490.72014    318.48573    456.45757    36500.952 
  380200    302.34267   -1523.3631    453.89256    296.78812     653.3963    36500.952 
  380300    312.37851   -1530.8474    458.42686    339.18921     500.0669    36500.952 
  380400    305.53399   -1558.6492      493.897    315.92776    359.24055    36500.952 
  380500    302.33293   -1547.7864    482.64635    301.07469     794.0746    36500.952 
  380600    298.79006   -1576.6528    487.21297    260.76503     525.1862    36500.952 
  380700    303.62075   -1550.9984    493.59741    314.63322    613.44451    36500.952 
  380800    297.90812   -1515.3708     477.0512    307.89975    211.68409    36500.952 
  380900    291.04922    -1540.051    459.87063    235.04433   -269.80612    36500.952 
  381000    299.70296   -1496.6469    480.59287    338.27607    107.92427    36500.952 
  381100    308.87644   -1498.9225    471.07906    367.94079    610.87407    36500.952 
  381200    298.93432   -1493.3226    491.94599    349.48004    148.45003    36500.952 
  381300    308.83162   -1492.6281    472.57557     375.5292    644.96891    36500.952 
  381400    304.91899   -1492.2886    476.89785    362.51013    708.60938    36500.952 
  381500     293.9738   -1501.7916    502.07401      328.723    401.77571    36500.952 
  381600    298.64188   -1447.5991    490.44207    392.37817     191.8562    36500.952 
  381700    308.23644   -1466.9864    478.11215    404.01784    153.46662    36500.952 
  381800    299.80102   -1488.8464    484.61688    350.54373   -323.26778    36500.952 
  381900    296.79185   -1445.5254    472.64406    368.29369   -212.77974    36500.952 
  382000    303.91138   -1422.9622    505.56924    455.95466   -101.02658    36500.952 
  382100    282.30251    -1455.421    476.45954    296.73764   -465.37073    36500.952 
  382200    298.79089   -1510.2028     484.0918    324.09755   -132.95591    36500.952 
  382300    305.86163   -1498.3997    467.97869     351.7395    123.41356    36500.952 
  382400    286.31808   -1493.5771     471.4248    271.69281   -95.391436    36500.952 
  382500    310.87916   -1477.6279    491.52479    418.73121    3.1446759    36500.952 
  382600    301.37946   -1483.2797    492.47941    371.10574   -62.100859    36500.952 
  382700    311.92047   -1439.0539    498.17762    468.66359   -142.53642    36500.952 
  382800    298.20615   -1434.3523    490.87026    404.08411    349.84355    36500.952 
  382900    297.41353    -1423.083    490.24894    411.15036   -284.16916    36500.952 
  383000     311.7072   -1488.5197    492.11315    412.16956   -183.40487    36500.952 
  383100    305.02482   -1428.0774    488.81406     439.1158   -513.40889    36500.952 
  383200    299.59452   -1461.0142    493.31504    386.14096   -556.81999    36500.952 
  383300    301.22708    -1485.502     492.7364    368.45193   -855.20741    36500.952 
  383400    299.14624   -1486.9159    475.94468    340.84313   -632.86579    36500.952 
  383500    310.75636   -1509.0729    482.28128    377.48778   -414.76435    36500.952 
  383600    305.64766    -1541.954    470.53263    309.77236   -540.83017    36500.952 
  383700    286.50445    -1525.142    484.59314    254.13845   -273.96194    36500.952 
  383800    299.51236   -1524.5293    447.22043    276.15989   -30.546896    36500.952 
  383900     299.8108   -1491.2956    496.46099    359.98285    210.07742    36500.952 
  384000    301.90333   -1487.4405    502.53229    379.36522    56.004619    36500.952 
  384100    311.80249   -1478.3323    472.80722    403.48167     638.0188    36500.952 
  384200    298.76566   -1489.6552    496.72927    357.16867    1048.2071    36500.952 
  384300    301.52888   -1534.2362    474.28818    302.63322    655.11901    36500.952 
  384400    299.46516   -1517.3809    484.86511    320.73973    346.72725    36500.952 
  384500    298.27659    -1496.785    500.98688    352.08635    534.26355    36500.952 
  384600    301.42576   -1497.0055    476.36899    341.47882    135.09507    36500.952 
  384700    298.69315   -1542.3434    467.13525    274.55874    373.20538    36500.952 
  384800    297.26084   -1523.0959    470.17663    290.37511   -787.11328    36500.952 
  384900    310.30175   -1556.5815    465.54422    311.18777    317.54174    36500.952 
  385000    300.41321    -1527.611    496.17873    326.10734   -191.67435    36500.952 
  385100    295.46298   -1524.0577    504.73854    315.85088    92.028508    36500.952 
  385200    294.21801   -1491.2884    509.13352    347.38924    264.34747    36500.952 
  385300    305.11223   -1539.9207    465.90826    304.76164     1031.024    36500.952 
  385400    296.79664   -1477.0835    530.61213     394.7254    448.66408    36500.952 
  385500    303.76911   -1538.8589    488.81071    322.65645    460.77026    36500.952 
  385600    294.06252   -1594.1179    465.50162    200.22527    10.201021    36500.952 
  385700    303.84583   -1553.9283    490.14942    309.27247   -340.97828    36500.952 
  385800    309.91394   -1544.7873    509.13808    364.82336    55.602389    36500.952 
  385900    299.73806    -1563.038    477.48524    268.93601    -482.0192    36500.952 
  386000    300.25227   -1562.2156    473.36139    267.95819   -1296.5234    36500.952 
  386100    305.37704    -1542.757    461.46795    298.68176   -960.33224    36500.952 
  386200    298.89174   -1530.4522    502.18245    322.39455   -1052.0871    36500.952 
  386300    293.92825   -1488.7371    468.00966    307.50734   -676.45392    36500.952 
  386400      306.241   -1490.3804    470.90463    364.39911   -825.32179    36500.952 
  386500    300.99694   -1506.0426     487.6018    341.73669   -24.527891    36500.952 
  386600    296.91464   -1547.2322    477.30328      271.801    78.113947    36500.952 
  386700    303.28501   -1537.5581    479.40206    312.36107    201.07159    36500.952 
  386800     305.7838   -1561.4855    446.98085    267.30418    146.94521    36500.952 
  386900    304.23343   -1540.3128    487.42773    321.91786    245.53539    36500.952 
  387000     295.8464   -1518.1481    530.33136     349.0859    485.36728    36500.952 
  387100    303.78044   -1541.4342     496.6162    327.93792    207.23525    36500.952 
  387200    298.23212     -1542.35     481.2765    286.61006   -114.53186    36500.952 
  387300    299.02411   -1582.3115    481.99514    250.94609    193.35714    36500.952 
  387400    308.80746   -1511.8827    501.03435    384.62419    74.256503    36500.952 
  387500    294.19992   -1517.4284    481.05862    293.09258   -441.19115    36500.952 
  387600    300.47071    -1525.659    474.03134    306.17179   -222.29141    36500.952 
  387700    300.60897   -1592.5425    478.55447    244.43624   -659.26975    36500.952 
  387800    296.85376   -1581.7532    513.09365    272.79531   -769.74488    36500.952 
  387900    293.79967   -1551.0357      462.819    239.43697   -1010.5384    36500.952 
  388000    304.13382   -1491.1232    479.39341    362.62296   -701.48374    36500.952 
  388100    298.35004   -1515.4291    506.08172    338.86896   -460.91034    36500.952 
  388200    308.78616   -1452.9754    476.82433    419.22523   -230.90206    36500.952 
  388300    299.30916   -1474.4314    518.73174    396.85089    200.46436    36500.952 
  388400    297.52585   -1473.1305    501.88615    373.24754    297.35304    36500.952 
  388500     293.9357   -1455.0999    507.14679     380.3153    167.64181    36500.952 
  388600    306.25501   -1520.7879    495.83319    358.98354     193.2027    36500.952 
  388700    298.19545   -1527.3926    492.80795    312.93317   -33.914654    36500.952 
  388800    296.85733   -1509.8577    495.08182    326.69513   -120.74247    36500.952 
  388900     302.0972    -1552.423    458.79385    271.52033   -549.50519    36500.952 
  389000     299.3001   -1524.1902    468.48734    296.80672   -719.59493    36500.952 
  389100      299.371   -1522.3648    508.93104    339.39628    34.960562    36500.952 
  389200    309.41383   -1529.3329    477.78568    346.66537    205.27616    36500.952 
  389300    299.91599   -1536.4166    507.29175    326.16797    396.73095    36500.952 
  389400    302.90286   -1536.9083    489.82057    321.70249    342.06577    36500.952 
  389500    297.48377   -1561.4306    472.71061    255.58181    492.95769    36500.952 
  389600    307.85385   -1541.1622    492.67679     342.6778    86.951638    36500.952 
  389700     293.9988   -1515.8401    504.16856    316.88198    -251.4344    36500.952 
  389800    303.95976   -1499.9382    494.47075    368.09878    328.07229    36500.952 
  389900    302.79297   -1487.8703    492.66818    373.09144    428.32762    36500.952 
  390000    297.95668   -1547.3756     470.0094    269.07268     127.6604    36500.952 
  390100    297.23687   -1510.4949    462.62901    295.32022    333.40139    36500.952 
  390200    303.75757   -1501.4284    487.18666    358.41075    194.24319    36500.952 
  390300    302.01806   -1563.0489     481.1015    282.84438     431.8566    36500.952 
  390400    295.92434   -1534.0755     511.0438    314.22318    753.56337    36500.952 
  390500    306.83589   -1610.0021    484.03258    260.59365      1185.66    36500.952 
  390600    311.08205   -1594.1153     471.5308    283.16669    410.09962    36500.952 
  390700    307.13708   -1522.5716    523.99085    389.34349    528.86481    36500.952 
  390800    297.37899   -1553.1756    511.00983    301.66256   -126.76742    36500.952 
  390900    304.61033   -1567.7235    493.01675    301.79937    247.48653    36500.952 
  391000    313.06905   -1548.6004    484.57026    350.70009   -15.459409    36500.952 
  391100    302.26017   -1569.8804    476.31917    272.32472    516.42889    36500.952 
  391200    306.60886   -1558.0889    504.09805    331.54639    496.20175    36500.952 
  391300    303.61586   -1569.3439    477.02532    279.69357    110.02856    36500.952 
  391400    295.45153   -1579.3052    498.62988    254.44297    142.19101    36500.952 
  391500    308.63675   -1567.9526    476.71837    303.46687    488.42832    36500.952 
  391600    305.09466   -1555.4638    502.16826    325.39914    680.35205    36500.952 
  391700    295.61818   -1585.4243    499.88209    250.32912     128.1121    36500.952 
  391800    287.40233   -1570.1573    470.04157    198.62892   -359.64808    36500.952 
  391900    296.11234    -1544.089    501.45429    295.46973   -568.90149    36500.952 
  392000    297.67044   -1551.0341    492.22454    286.33573   -454.07646    36500.952 
  392100    294.83551   -1546.5822    495.63201    281.38441   -545.53628    36500.952 
  392200    303.99358   -1531.1713    499.57393    342.12167   -94.780847    36500.952 
  392300    297.90879   -1530.8982     510.0012    325.32542   -668.15534    36500.952 
  392400    297.69251   -1517.5305    487.60753    315.32209    105.31952    36500.952 
  392500    294.37881   -1540.7293     483.8775      273.419      428.903    36500.952 
  392600    294.07635   -1573.2176      502.302    257.98837      289.536    36500.952 
  392700    296.30726   -1545.7059    517.02204    310.30139     232.3732    36500.952 
  392800    289.58716   -1567.5092    499.46555    240.57408     128.8833    36500.952 
  392900     309.9827   -1556.2751    492.44892    336.95711   -140.34181    36500.952 
  393000    298.43598   -1537.8829    499.38327    310.10513   -106.82861    36500.952 
  393100    304.51242    -1504.997    505.72713    376.79375   -727.54735    36500.952 
  393200     304.0793     -1553.03     496.2502    317.32662    -72.83592    36500.952 
  393300    299.86195   -1512.6724    498.23252    340.60865   -337.87415    36500.952 
  393400    293.59956   -1493.7487    495.20007     328.2008   -694.37373    36500.952 
  393500    303.69098   -1508.1321    477.71791    341.93739    -468.5502    36500.952 
  393600    306.02589   -1512.5017    483.38001    353.78118    310.56856    36500.952 
  393700    306.03707     -1541.61    517.30533    358.64869     13.31959    36500.952 
  393800    294.06978    -1503.883    500.45636    325.44764    -66.92454    36500.952 
  393900    293.56567   -1475.0694    506.01292    357.53983   -114.27116    36500.952 
  394000    305.29804   -1511.0834    497.88988    366.42028    278.00585    36500.952 
  394100    298.90845   -1469.8488    502.16561    383.05655   -39.716867    36500.952 
  394200    310.65056   -1498.1241    528.53288    434.21011    147.60069    36500.952 
  394300    305.80771   -1536.5773     484.4139    329.75351    178.97176    36500.952 
  394400    302.57745   -1538.1322    487.35461    316.54213   -155.47607    36500.952 
  394500    291.87904   -1547.3936    508.42681    280.00774    55.752012    36500.952 
  394600    291.76558   -1545.4172    485.41001    258.45459    286.62256    36500.952 
  394700    318.79021   -1526.2257    509.82321    424.18113   -148.07953    36500.952 
  394800    295.37809   -1517.7175    479.74615    296.81503    359.74516    36500.952 
  394900    294.63986   -1519.7304    478.28867    290.00868   -604.24157    36500.952 
  395000    294.38865   -1493.6794    516.06905    352.70489   -734.66256    36500.952 
  395100    298.11974   -1493.1179    492.63176    346.68952   -765.75714    36500.952 
  395200    305.11303   -1520.0342    490.76854    349.51204    73.833617    36500.952 
  395300    307.96646   -1517.7908    489.40531    363.28659    135.44297    36500.952 
  395400     299.7609   -1534.9049     473.2611    292.94819    621.62458    36500.952 
  395500    299.45396    -1535.611    501.44296    319.03688    1214.2884    36500.952 
  395600      301.355   -1516.0163    503.52549     349.3047    950.09805    36500.952 
  395700    306.59732   -1501.0866    487.44266    371.84117    528.37276    36500.952 
  395800    300.21116   -1494.6572    490.41816    352.38758    587.34851    36500.952 
  395900    286.08145   -1508.9464    470.59106    254.42038    445.64587    36500.952 
  396000    302.37282   -1494.6992    486.56627    358.26202    627.07162    36500.952 
  396100    305.74179   -1544.8192    481.62817    318.42795    -310.4474    36500.952 
  396200    294.27073   -1517.7249     486.7807    298.83818   -22.455265    36500.952 
  396300    302.54132   -1532.9175    499.04619    333.28513    329.72488    36500.952 
  396400    296.16468   -1522.6649    502.34535    318.02144    719.09831    36500.952 
  396500    304.81074   -1500.5734    482.50558    359.34386    85.815321    36500.952 
  396600    302.17008   -1470.6789    495.68762    390.48751    28.272855    36500.952 
  396700    303.98457   -1449.0101    513.02171    437.68996    243.89019    36500.952 
  396800    294.60129   -1474.1164    505.97156    363.13131   -367.87105    36500.952 
  396900    302.21356    -1491.177    480.93856    355.43679   -279.06851    36500.952 
  397000    294.69046   -1493.4872    500.28455    338.47638    417.42699    36500.952 
  397100    312.94866   -1491.3036    480.82662     403.7093   -83.671052    36500.952 
  397200     303.4918   -1495.4336    461.18342    337.20134    252.22598    36500.952 
  397300    300.11264    -1457.675    499.49187    397.99828    6.3591661    36500.952 
  397400    299.69896   -1476.0076    491.47893    369.78337    -361.5702    36500.952 
  397500    294.14164    -1500.583     470.4162    299.03224    155.14836    36500.952 
  397600    315.12323   -1517.6097    473.65604    380.05924    139.25556    36500.952 
  397700    293.92415   -1485.3374    473.09507    315.97388   -15.245768    36500.952 
  397800    302.88341   -1463.8441    495.78208    400.64021   -86.520006    36500.952 
  397900     293.2088   -1508.8669     488.7583    304.87501    498.98962    36500.952 
  398000    299.03371   -1521.0582    486.86792    317.11559    248.07142    36500.952 
  398100    287.67784   -1482.3928    494.28864    311.88555    42.419696    36500.952 
  398200    301.34705   -1489.7218    468.80733    340.84511   -188.86989    36500.952 
  398300    300.78982   -1492.3711    493.33518    360.20559   -129.23019    36500.952 
  398400     288.5748   -1475.2731    503.93428    332.70418   -625.54101    36500.952 
  398500    302.23992   -1523.5531    473.41876    315.66008   -527.04206    36500.952 
  398600    305.96674    -1494.049    485.67801    374.26459    -446.8429    36500.952 
  398700    304.93916   -1490.2625    506.44606    394.17557   -543.68664    36500.952 
  398800    297.38083   -1487.6423    479.98157    336.17593    142.60381    36500.952 
  398900    304.60926   -1502.7959    524.25368    397.95895   -315.84026    36500.952 
  399000    307.40437   -1498.8004    501.02598     391.3577    72.316076    36500.952 
  399100    305.32523   -1496.8365    480.97191    363.87206    61.836222    36500.952 
  399200    284.92964   -1454.2826    487.97834    321.26655    127.58536    36500.952 
  399300    301.90251   -1470.6075    494.29356    387.95571   -57.855562    36500.952 
  399400    297.55647   -1456.1693    470.14786    358.60884    661.40987    36500.952 
  399500    302.55337   -1516.9334    490.24309    340.52056    564.42937    36500.952 
  399600    302.64415    -1511.451    485.29182    341.46188    922.90636    36500.952 
  399700    289.89779   -1531.3609    487.14191    265.80251    345.65774    36500.952 
  399800    304.40178   -1490.5181    490.95535    376.00087    83.168533    36500.952 
  399900    304.93584   -1513.0983    499.38675    364.26547   -21.280741    36500.952 
  400000    300.77788   -1518.1564    500.79671    341.82788    402.83997    36500.952 
  400100    301.20006   -1510.8714    493.27674    343.50072   -123.45739    36500.952 
  400200    292.03962   -1491.7887    483.42112    311.33264   -436.78013    36500.952 
  400300    293.38049   -1493.2285    477.31389    309.84488     184.8136    36500.952 
  400400    297.71017   -1514.3355    457.39015    288.37953   -438.29513    36500.952 
  400500    306.61178   -1542.7629    509.36929    352.15677   -35.907227    36500.952 
  400600    288.43292   -1531.0913    522.88644    295.19696   -306.66009    36500.952 
  400700    301.18309   -1523.9069    487.60963    324.72137     165.3712    36500.952 
  400800    303.76817   -1504.0685    490.43542    359.06736   -180.95028    36500.952 
  400900    300.02715   -1479.4497    487.28254     363.6279    109.08149    36500.952 
  401000    306.02383   -1550.5632    469.47127    301.80165   -101.42571    36500.952 
  401100    296.43346   -1554.8399    506.78139    291.49701   -635.88276    36500.952 
  401200    300.11797   -1531.7256    476.11589    300.59577   -138.38532    36500.952 
  401300    304.84012   -1482.5792    484.53184    379.49715    187.70932    36500.952 
  401400    297.53816   -1537.0887    497.31555    304.77443    357.36777    36500.952 
  401500    299.41704   -1488.7378    512.73319    377.03343    296.85059    36500.952 
  401600    294.56663   -1480.9214    518.95475     369.1529    499.48852    36500.952 
  401700    289.97144   -1452.6662    515.78971    373.47775    513.80292    36500.952 
  401800    301.76608   -1507.5804    464.95265     321.0254    424.56829    36500.952 
  401900    299.77896   -1473.0925    495.45054    377.03164   -249.94685    36500.952 
  402000     299.3108   -1488.9671    503.38721    366.97808   -140.26511    36500.952 
  402100     305.4788   -1466.0145    501.18572     415.6018   -184.41374    36500.952 
  402200    312.35845   -1475.9072     508.8002    444.41215    170.07352    36500.952 
  402300    302.97911   -1454.9235    498.19504    412.40626   -81.180108    36500.952 
  402400    300.21809   -1502.1614    521.93246    376.42905   -396.95917    36500.952 
  402500    298.13385     -1475.01    479.65773    351.88722    209.22335    36500.952 
  402600    304.97449   -1495.2991    519.18205    402.03461   -361.26556    36500.952 
  402700    295.68991   -1506.2158    484.98951    314.96927      71.8693    36500.952 
  402800    309.46611   -1509.8422    503.01285    391.61961   -121.75456    36500.952 
  402900    295.27026   -1526.6824    512.03512    319.65185   -145.98582    36500.952 
  403000    299.69895   -1518.0441    501.63362    337.90154    -225.2482    36500.952 
  403100    303.01771   -1503.9757    512.28841     377.6219   -586.24131    36500.952 
  403200    296.63022   -1548.6788    489.52513    281.29098   -753.19859    36500.952 
  403300    297.33842   -1492.7549    503.08494    353.97499   -21.548573    36500.952 
  403400     307.1726   -1463.5352    521.95001    446.49957    350.91638    36500.952 
  403500    298.65883   -1472.6271    506.10733    383.09198     513.6116    36500.952 
  403600    304.09704   -1497.5704    500.45833    377.07451    575.97902    36500.952 
  403700    286.54352   -1489.7497    490.96293    296.07708    746.94649    36500.952 
  403800    299.47273   -1514.0819    495.73642    334.94428    185.82688    36500.952 
  403900    290.89798   -1505.7097    513.38743    322.21898    497.94208    36500.952 
  404000    303.27527   -1481.0286    511.98995    401.43437   -201.43678    36500.952 
  404100    297.09183   -1493.8024    488.69309     337.4214   -312.71619    36500.952 
  404200    309.93444   -1482.1043    506.84068    425.30166   -333.68932    36500.952 
  404300    302.22649   -1458.5294    485.14199    392.34626    433.81561    36500.952 
  404400    309.64746   -1531.3595    487.46678    355.37565   -216.05675    36500.952 
  404500    302.07468   -1511.3562    488.73515     342.4266    398.10947    36500.952 
  404600    300.75011   -1470.7914    523.36668    411.63737    336.35181    36500.952 
  404700    298.95067   -1525.6877    472.37093     297.6138    271.42403    36500.952 
  404800    303.00104   -1467.9176    522.88426    424.20045    325.06279    36500.952 
  404900    298.60299   -1474.5048    484.89714    359.75181   -23.035922    36500.952 
  405000    304.73405   -1504.5272    501.30599    373.84399   -13.878958    36500.952 
  405100    294.51229   -1506.4426    519.47122    343.90253    126.33022    36500.952 
  405200    300.91144   -1523.6456    491.67476    327.82028    305.70051    36500.952 
  405300    298.00308   -1493.8886    521.70935    374.46925    618.45138    36500.952 
  405400    302.82078   -1501.0934     497.7591    365.08494    296.76102    36500.952 
  405500    297.89253   -1495.6642    501.40515    351.88995     771.6192    36500.952 
  405600    306.82375   -1474.6933    504.25617     416.0712    116.54366    36500.952 
  405700    311.07803   -1439.2855    516.89809    483.34564    818.55048    36500.952 
  405800    287.84042   -1504.5041    500.87031    297.09062    46.940145    36500.952 
  405900    303.20559   -1511.5468    511.22367    369.83504   -271.76016    36500.952 
  406000    290.13142    -1498.654    494.71915     307.1424   -324.39437    36500.952 
  406100    292.86966   -1506.5984    513.11379    329.96648    -459.3442    36500.952 
  406200    294.55317   -1517.4686    504.17299    317.76305   -177.06931    36500.952 
  406300    296.70107   -1499.2068    480.88031    322.43836   -207.42752    36500.952 
  406400    296.64653   -1476.4548    500.46015     364.5237    194.03466    36500.952 
  406500    305.56323   -1465.9219    504.87908    419.76928    227.19856    36500.952 
  406600    294.35336   -1532.7477    504.67545    302.08353   -201.18465    36500.952 
  406700    297.52416   -1473.7172    517.09605    387.86318   -375.03662    36500.952 
  406800    293.93427    -1493.204    492.57899    327.63693   -105.62446    36500.952 
  406900    290.85615   -1482.3677    480.98567    312.97017    419.35545    36500.952 
  407000    293.88074   -1463.3827    498.89769    363.53508    88.171601    36500.952 
  407100    300.83731   -1481.9936    500.19409    377.65662    -147.0779    36500.952 
  407200    290.35251   -1506.3064    516.39029    322.16013   -158.59315    36500.952 
  407300    301.00757   -1546.0408     486.8094    300.99405   -558.08848    36500.952 
  407400    299.11571   -1506.5443    482.39881    327.53091    -194.4331    36500.952 
  407500     297.6325   -1536.2273    495.49891    304.24554   -213.39893    36500.952 
  407600    299.00906   -1541.0234    481.14109    291.31215    119.62309    36500.952 
  407700    313.42309   -1505.5942    509.72158    420.45747     18.32673    36500.952 
  407800    294.93587   -1514.4869    491.36709     309.6683   -300.27331    36500.952 
  407900    308.74624   -1492.3424    509.09156    411.94503   -873.59482    36500.952 
  408000    293.35997   -1486.1313    486.53649    326.07197   -897.01494    36500.952 
  408100    306.40688   -1455.9674    481.31024    409.96738   -366.80419    36500.952 
  408200    299.85968   -1494.0926    495.35599    356.30166   -483.11652    36500.952 
  408300    299.32483   -1519.5074    487.25672    320.37069   -368.64299    36500.952 
  408400    297.41243   -1498.4943    483.61111    329.09619   -596.54956    36500.952 
  408500    299.86807   -1507.9823    488.22078    335.31469   -452.46808    36500.952 
  408600     300.0638   -1505.2381    478.86946    329.59212    208.56084    36500.952 
  408700    306.19551   -1481.2889    507.03399    409.41441    215.00866    36500.952 
  408800    289.59807   -1500.2791    468.69953    277.08747    222.61022    36500.952 
  408900    314.40731   -1490.8713    523.12754    453.03394    167.18146    36500.952 
  409000    318.64804   -1453.5464    511.31624    497.71103    572.57044    36500.952 
  409100    300.75084   -1465.8071    493.83904     387.0973    58.610888    36500.952 
  409200    301.60421   -1466.5199    532.39923    428.80103    623.14321    36500.952 
  409300    296.04829   -1467.5768    487.77168    358.00982   -97.375817    36500.952 
  409400    300.76832   -1536.1813    507.43477    330.39783   -123.83087    36500.952 
  409500    305.08383   -1476.0591    498.98359    401.57027   -62.424912    36500.952 
  409600    286.88516   -1502.7745    471.63766    265.27078     555.7773    36500.952 
  409700    314.82898     -1457.12    522.61054    488.17374    468.78912    36500.952 
  409800    298.95917   -1499.2847    478.02704    329.71134   -31.832525    36500.952 
  409900    308.50829   -1509.0743    489.67303    374.71935    261.74377    36500.952 
  410000    304.20256   -1486.7234    513.24986    401.18983     260.3976    36500.952 
  410100    308.22654   -1454.5121     518.4332    456.76853   -402.18591    36500.952 
  410200    292.60348   -1440.3296    507.44174    389.36029   -228.18878    36500.952 
  410300    306.59053   -1461.6565    513.95687    437.75477    561.10099    36500.952 
  410400    301.82481   -1481.7288     494.0091    376.19888    387.41972    36500.952 
  410500    292.70501   -1479.6932    510.36638    353.38024   -408.49318    36500.952 
  410600    295.77537   -1500.0923    504.01374    340.50319   -186.02882    36500.952 
  410700    302.07931   -1548.5345     502.5221    319.05622    62.092757    36500.952 
  410800    291.13035    -1511.037     491.8717    296.42598   -311.75401    36500.952 
  410900    303.55596   -1514.4519    484.41201    341.70165    28.359085    36500.952 
  411000    310.72414   -1537.2494    468.99537    335.87978    163.72804    36500.952 
  411100    300.84867   -1545.2485    502.35244    316.61146    226.44572    36500.952 
  411200    293.87873   -1493.8529    503.95993    338.11799    391.53578    36500.952 
  411300    286.82907   -1518.6536    497.63195    275.13253    392.82727    36500.952 
  411400    295.70699   -1463.3637    523.61184    396.52081    453.78179    36500.952 
  411500    310.08571   -1492.9522    498.36834    406.66498    17.814895    36500.952 
  411600    307.65252   -1519.3214    493.29151    364.22354   -61.934814    36500.952 
  411700    293.71528   -1518.2492    516.28489    325.30803   -533.26234    36500.952 
  411800    303.67513   -1483.2805    528.83427    417.83373    266.91914    36500.952 
  411900    299.65568   -1436.9511    523.89501    441.06037   -65.142589    36500.952 
  412000    295.80952   -1424.4528    484.87546    397.15865   -422.51167    36500.952 
  412100    310.48359   -1403.7553    507.85719    507.14869   -81.255359    36500.952 
  412200    304.71967   -1472.9531    505.75336     409.8004   -324.58975    36500.952 
  412300    301.62732   -1452.9974    485.69344    395.72216    326.68266    36500.952 
  412400    287.43933   -1512.9842    499.64456    285.57223   -58.247321    36500.952 
  412500    310.57416   -1518.7068    530.16002     414.9093    558.08996    36500.952 
  412600    291.24038   -1510.9013    477.48029    282.66744    496.30848    36500.952 
  412700     308.0083   -1478.5535    514.27606    427.58373    515.74394    36500.952 
  412800    295.86524   -1470.6487    517.89075    384.22988   -35.188789    36500.952 
  412900     302.0888   -1491.6104     494.0011    367.50218     134.5456    36500.952 
  413000    297.92503   -1451.1546    527.52217    422.66334   -131.82907    36500.952 
  413100    294.79433   -1471.4806    492.28235    352.95019    109.84582    36500.952 
  413200    300.67663   -1476.0453     518.4983    401.18309   -758.31018    36500.952 
  413300    309.52726   -1464.7849    493.36353    427.30389   -485.65029    36500.952 
  413400    294.74286   -1450.1537    501.79086    383.55307   -283.50805    36500.952 
  413500    291.36569   -1475.2775     544.5834    385.96065     138.6666    36500.952 
  413600    299.44799   -1461.9272    498.14795    389.39865    82.101514    36500.952 
  413700    297.98354   -1493.7526     505.6814      358.489   -709.96905    36500.952 
  413800    300.19576   -1465.0256    504.58558    396.11703   -311.18466    36500.952 
  413900    303.24291   -1484.5131    470.41569    356.22943   -473.87961    36500.952 
  414000     302.6808   -1522.6356    491.91976    337.07086   -113.57307    36500.952 
  414100    303.93015   -1504.6178    483.65546    352.46999   -187.33615    36500.952 
  414200    318.25044   -1495.9516    483.81678    426.00965    150.55634    36500.952 
  414300    310.68007   -1502.4558    509.17909    410.65798    470.88268    36500.952 
  414400    302.73536   -1477.8058    491.50534    381.73275    69.646109    36500.952 
  414500    295.46016   -1496.8372    494.61793    332.93802   -42.940199    36500.952 
  414600    301.43667    -1491.787    489.80406    360.18166    30.905462    36500.952 
  414700    296.17103   -1511.0481    486.57667     313.8982   -197.19572    36500.952 
  414800    292.52611   -1460.6082     501.0734    362.36381   -449.35407    36500.952 
  414900    299.52018   -1462.2026     512.2216    403.52313    57.527679    36500.952 
  415000    302.96033   -1474.0656    493.25314    388.23741   -237.67459    36500.952 
  415100    299.01742   -1501.0834    481.53162    331.68045   -118.44268    36500.952 
  415200     307.0726   -1476.9133    492.13708    402.85658    107.50806    36500.952 
  415300     301.5444   -1498.1469    527.23924    391.74377   -117.52888    36500.952 
  415400    298.08665   -1457.7824    491.96918      381.213    37.194775    36500.952 
  415500    293.40714   -1492.7367    503.34478    336.48795   -137.49667    36500.952 
  415600    303.56558   -1476.6021    526.69437    421.87722   -155.60814    36500.952 
  415700    304.35363    -1511.234    485.51029    349.62239   -22.363136    36500.952 
  415800    295.02071   -1501.7242    481.66495    313.11221   -440.83535    36500.952 
  415900     291.8628   -1481.8813    519.94197    356.96176   -489.26357    36500.952 
  416000    300.79116   -1501.9103    462.81648    320.15384   -11.503942    36500.952 
  416100    301.61989   -1517.1874    489.50885    335.31401   -159.33665    36500.952 
  416200    286.75232   -1529.4158    519.94873    286.34033     447.7176    36500.952 
  416300    304.05068   -1515.6587    501.72881    360.04715    382.79378    36500.952 
  416400    305.46301   -1522.1746    495.38714    353.57184    184.02275    36500.952 
  416500    300.36026   -1468.3399    515.73355    404.69405    645.91619    36500.952 
  416600    296.78344   -1487.9836     521.4455    374.59896    432.58448    36500.952 
  416700    305.70625   -1517.1193    503.45415    367.79335    182.72116    36500.952 
  416800    298.25692   -1527.0498    490.80812    311.55392   -247.27044    36500.952 
  416900    298.21994   -1525.7771    532.17284    354.02419     542.7936    36500.952 
  417000    294.08975   -1548.1028    469.16158    250.02325   -14.921075    36500.952 
  417100    298.15377   -1477.0584    493.26708    363.53813   -660.52433    36500.952 
  417200     293.1483   -1502.3528    497.16419    319.52157   -679.33666    36500.952 
  417300    287.55172   -1532.9494    504.82519    271.29562   -687.72337    36500.952 
  417400    304.42307   -1525.5786    494.38539     344.4667   -872.88114    36500.952 
  417500    289.84246   -1543.4192     495.0937    261.44589   -313.22407    36500.952 
  417600    292.42071   -1497.6384    508.51612    332.30003   -377.25904    36500.952 
  417700    298.36971   -1501.2389     499.4334    346.49974     -179.144    36500.952 
  417800    307.08493   -1497.1561    495.23203    385.76449    508.43921    36500.952 
  417900     295.9061   -1484.2386    503.21277    356.14666    80.114333    36500.952 
  418000    306.88301   -1478.6726    487.88631    395.98985    630.62129    36500.952 
  418100     303.6776   -1478.9264    494.89536    388.26006    208.30244    36500.952 
  418200    303.77165   -1488.9706     496.7946    380.54018    108.63537    36500.952 
  418300    307.89676    -1477.672    505.54245    419.22756    140.58923    36500.952 
  418400    291.90308   -1511.4126    480.65925    288.32981   -481.06604    36500.952 
  418500    303.05062    -1498.436    499.68235    370.70426    385.25795    36500.952 
  418600    299.06915   -1499.4781    514.27868    366.26653   -155.33342    36500.952 
  418700    278.68825   -1479.5331    482.71335    262.54685    -554.9572    36500.952 
  418800    301.82893   -1496.4245    489.84306    357.35576   -939.77573    36500.952 
  418900    297.36233   -1511.7926    491.44049    323.40094   -341.58885    36500.952 
  419000    295.31415    -1499.943    502.79732    337.35178   -48.591771    36500.952 
  419100    306.04215   -1502.9565    512.35697    392.37681    351.87682    36500.952 
  419200    300.65976     -1508.35    474.67186    324.97562   -376.37281    36500.952 
  419300    301.40358   -1495.5801    511.57924    378.01426   -30.091438    36500.952 
  419400    298.34782    -1509.695    477.58499    316.09638    224.77841    36500.952 
  419500    298.92646   -1446.0384    489.14974    393.93254   -235.13431    36500.952 
  419600    305.35167   -1458.6122    487.42617    408.67006    316.17856    36500.952 
  419700    300.89462   -1504.4198    493.62487    348.92025   -245.84494    36500.952 
  419800    288.37151   -1479.9992    511.16466    334.28979    418.90737    36500.952 
  419900    300.99614   -1474.3386    496.66817     382.5034    211.89166    36500.952 
  420000    295.13182   -1456.0997    497.48503    375.05883    348.23862    36500.952 
  420100    307.07456   -1467.9286    484.59853    404.31164    211.56409    36500.952 
  420200    301.16139   -1463.5045    495.14949    392.56564   -715.35289    36500.952 
  420300    303.82139   -1458.5838    482.77785    397.13492   -521.19794    36500.952 
  420400    285.46092   -1502.5381    499.34742    286.78098    365.78417    36500.952 
  420500    293.98461   -1499.6597      496.838    325.66771   -41.589717    36500.952 
  420600    287.27006   -1478.5207    500.63244    320.25866   -311.43381    36500.952 
  420700    295.02033   -1535.0411    452.15693    250.28553   -40.567173    36500.952 
  420800    297.29106   -1552.1198    504.55497    295.86615   -210.39352    36500.952 
  420900    293.18435   -1491.7635    493.70687    326.81651    380.45509    36500.952 
  421000    295.69048   -1513.9023     496.8991    319.19488    624.01361    36500.952 
  421100    293.77258   -1477.6756    498.60392     348.4596    334.90586    36500.952 
  421200     291.2005   -1482.3353    496.48933    330.06236    830.66442    36500.952 
  421300    306.27359   -1486.7458    472.82466    370.10102    1022.8383    36500.952 
  421400    297.86642   -1459.1182    477.38371    364.29643    965.35502    36500.952 
  421500     294.9737   -1446.7867    523.29848    409.47083     880.8344    36500.952 
  421600    306.94597   -1459.1983    485.33442    413.19679    706.69183    36500.952 
  421700    303.78937   -1440.7569    482.91484    414.95418    401.78623    36500.952 
  421800    303.63584   -1432.7262    496.19844    435.57466    395.79035    36500.952 
  421900    303.04739   -1480.0796     508.9873    398.35101    -34.25306    36500.952 
  422000    298.75894   -1461.0039    479.27274    368.33299    323.20944    36500.952 
  422100    306.35969   -1509.4986    490.22886     365.1415    309.84688    36500.952 
  422200    294.77546   -1475.9675    508.09646    364.19219    349.11048    36500.952 
  422300    291.29316   -1471.5726    465.85089    310.60531    252.07475    36500.952 
  422400    303.78174   -1481.4616    506.14461    397.44479    340.34344    36500.952 
  422500    301.68776   -1429.6068    472.89055    406.58303   -41.967351    36500.952 
  422600    312.97479   -1444.1598    497.49664    467.64118    175.28415    36500.952 
  422700    295.74528   -1483.0318    506.26987    359.68379    272.62218    36500.952 
  422800    297.53932   -1469.9142    499.95433    374.59292    37.279126    36500.952 
  422900    294.61509   -1476.4433    459.30905    314.20423   -87.476051    36500.952 
  423000    303.81153    -1475.166    485.67399    383.40436    223.56335    36500.952 
  423100    298.83572   -1498.3912    523.65026    375.67023     285.9046    36500.952 
  423200    300.10526   -1480.9885    464.35213     339.5117    378.41683    36500.952 
  423300    303.21072   -1491.9264    488.23265    366.48761   -16.336716    36500.952 
  423400    293.98953   -1501.6613    505.75105    332.60136    39.447109    36500.952 
  423500    300.17388   -1510.6563    500.54993    346.35181    313.77995    36500.952 
  423600    306.33899   -1470.4922    503.45739    417.28296    527.88763    36500.952 
  423700    309.81572   -1483.1666    474.40909    391.27121    448.71764    36500.952 
  423800    304.73177   -1452.8936     484.4653    408.62652   -460.77125    36500.952 
  423900    288.62234   -1469.7352    469.70415    304.22678    -599.9153    36500.952 
  424000    297.41317   -1458.0523    507.57434    393.50486   -191.96107    36500.952 
  424100    302.33771   -1465.9651    496.50226    396.77346   -567.89497    36500.952 
  424200    306.13509   -1453.0859    484.80954    415.11994   -54.685142    36500.952 
  424300      302.559   -1429.2019     508.9948    447.02916    354.69473    36500.952 
  424400    300.34409   -1397.1703    456.96802    417.02505    394.13516    36500.952 
  424500    299.38519   -1417.6066    474.09095     409.3785   -468.48736    36500.952 
  424600    303.35277   -1453.4066     481.8718     399.2885   -530.02221    36500.952 
  424700    305.02682   -1451.8288    493.56938    420.12874   -630.13151    36500.952 
  424800    306.42801   -1435.2766    482.23818    431.68161     -658.275    36500.952 
  424900     296.8388   -1497.1488    507.41224    351.65071   -477.70676    36500.952 
  425000    283.56417   -1452.2579    493.32269    322.46524   -299.26221    36500.952 
  425100    296.67546   -1477.0136    484.61754    348.25312   -183.18591    36500.952 
  425200    300.12658   -1483.9026    477.19563    349.53742    414.94195    36500.952 
  425300    285.26274     -1485.28    486.12908    289.92512   -61.081299    36500.952 
  425400    291.33004   -1478.1986    467.63105    305.92605    53.496602    36500.952 
  425500    307.51051   -1517.3272    478.55532    350.83985   -74.634065    36500.952 
  425600    306.95808   -1505.3573    476.44398      358.202    309.01163    36500.952 
  425700    304.58602   -1483.4674    466.10263    359.03144   -299.29056    36500.952 
  425800    304.81025   -1463.5394     474.2273    388.09739   -215.83171    36500.952 
  425900    292.33264   -1518.7995    494.58975    296.81453    353.89822    36500.952 
  426000    290.63471   -1508.0137    508.68456    314.02242    429.69894    36500.952 
  426100    300.06902    -1476.962    470.25578    349.27811    324.68916    36500.952 
  426200    311.28561   -1493.1146    491.73977    405.29616    1041.5964    36500.952 
  426300    296.09151   -1491.5764    495.08509    341.51901    836.59877    36500.952 
  426400    302.22932   -1475.3401    484.05447    374.46094    836.09898    36500.952 
  426500    303.37184   -1528.8977    483.20631     325.2181    248.42793    36500.952 
  426600    306.36843   -1502.6719    494.69766    376.47653    149.08891    36500.952 
  426700    305.37236   -1561.2663    451.59383    270.27715    927.20452    36500.952 
  426800    300.18214   -1517.1119    494.21711    333.60066    1006.6375    36500.952 
  426900    299.03262   -1540.1084    445.20952    256.40208    76.278591    36500.952 
  427000    313.08236   -1530.1456    469.33546    353.98022   -86.082306    36500.952 
  427100    302.32498   -1536.8266    471.15025    300.50241   -435.26165    36500.952 
  427200    301.37825   -1542.7527    487.55084     306.6987   -239.26386    36500.952 
  427300    303.81312   -1527.2813    451.16266     296.7849   -152.14366    36500.952 
  427400     298.1953   -1528.5082    523.88688    342.89576   -253.24947    36500.952 
  427500    313.84539   -1479.6717    485.61716    424.18398   -378.78099    36500.952 
  427600    291.34131   -1476.3393    482.33992    322.54521   -127.04962    36500.952 
  427700    297.33511   -1488.2823    487.21674    342.56449    772.92915    36500.952 
  427800     304.6513   -1491.3689    490.69803    376.02035    677.14723    36500.952 
  427900    292.44676   -1487.0516    488.58425    323.07264   -147.88671    36500.952 
  428000    301.86721   -1458.1563    495.08895    401.04281    493.83446    36500.952 
  428100    301.27107   -1483.9658    493.75335    371.20382    568.61821    36500.952 
  428200    308.96907   -1493.1129    514.80661     417.8965   -36.172596    36500.952 
  428300    299.57382   -1497.4385    474.21013    330.51819    14.885443    36500.952 
  428400    301.11533   -1540.3929    483.62466    303.94421   -80.180777    36500.952 
  428500    299.23252   -1531.6103    481.29633    301.89033     282.1651    36500.952 
  428600    288.97581   -1527.8306    474.39032     252.4148   -317.65434    36500.952 
  428700    301.46109   -1526.8715    470.10064    305.50409   -92.157084    36500.952 
  428800    310.13515   -1517.3774    461.26885    345.36361   -606.12713    36500.952 
  428900    306.25575   -1470.8129    488.60681    401.73544   -823.20936    36500.952 
  429000    288.89968   -1465.8799    490.58661     330.2178   -196.39184    36500.952 
  429100    296.98461   -1515.8042    496.93736    323.17934    -776.0069    36500.952 
  429200     300.7053   -1513.0845    483.31038    329.08548   -697.79205    36500.952 
  429300     295.6261   -1517.5361    468.91347    287.28456   -319.74807    36500.952 
  429400    300.03489   -1487.6765    481.96186     350.1154    152.55607    36500.952 
  429500    295.19583   -1467.5562    474.47666    340.88324    155.38118    36500.952 
  429600    294.42453   -1443.9317     484.8701    371.41575   -267.82474    36500.952 
  429700    317.95349   -1480.3919    500.08143    456.49211   -693.39712    36500.952 
  429800    299.64032   -1521.4294    473.43219    306.04991   -781.13905    36500.952 
  429900    293.26101   -1511.2699    473.31419    287.26383   -1081.9127    36500.952 
  430000    289.61768   -1499.0665    466.29162    275.98075   -1198.4689    36500.952 
  430100     308.3034   -1501.4031    468.48043    360.27201   -1129.4226    36500.952 
  430200    292.37878   -1478.0679    487.61711    330.78201   -256.83754    36500.952 
  430300    291.23356   -1506.2024     488.7454    298.60065   -855.49501    36500.952 
  430400     305.8779   -1519.3952    478.13367    340.97254    116.60039    36500.952 
  430500     301.7708   -1546.3265    482.76718    300.11517   -247.46329    36500.952 
  430600    290.87116   -1528.8961    492.88239    278.40629   -447.59209    36500.952 
  430700     303.4886    -1490.482    483.97331    364.92835   -422.34878    36500.952 
  430800    305.80302   -1519.0546    501.33973     364.1809   -224.55841    36500.952 
  430900    294.10509   -1475.5214    519.84233     373.3548   -62.837911    36500.952 
  431000      290.888   -1497.8543    492.55907     309.2009     -54.2046    36500.952 
  431100     289.2957   -1488.7211    498.58781    317.16739    10.553308    36500.952 
  431200    292.30377   -1455.4791    511.37799    376.79276    49.894724    36500.952 
  431300    307.15367   -1467.3628    474.60562    395.24201    642.63269    36500.952 
  431400    288.46033    -1491.377    525.78224      337.931    775.20586    36500.952 
  431500    312.18022   -1495.6911    508.68964    423.71223    177.49746    36500.952 
  431600    292.10104   -1459.9116    485.11523    345.18136    214.85166    36500.952 
  431700    292.84912   -1426.8991    499.68255    396.14169   -365.82809    36500.952 
  431800    293.47568   -1456.6209    506.83224     376.4009   -1190.5409    36500.952 
  431900    301.86644   -1466.7206    476.76995    374.15604   -1393.2047    36500.952 
  432000    297.01836    -1467.564      511.989    386.62363    -352.3319    36500.952 
  432100    290.47067   -1469.1975    503.62882    347.04153   -56.282921    36500.952 
  432200    311.85457   -1467.0149    484.74903     426.9762    644.84431    36500.952 
  432300    307.06274   -1488.4343     502.7273    401.88129    417.39936    36500.952 
  432400    297.57071   -1463.0512    523.70941    405.35292   -205.11038    36500.952 
  432500    303.59021   -1468.0933    477.92671    381.72966   -187.89133    36500.952 
  432600    305.14261   -1494.3552    480.92879    365.48501   0.62281091    36500.952 
  432700    306.72715   -1524.2272     498.9953     360.8399   -245.06005    36500.952 
  432800    297.55296   -1507.4735    493.94878    331.08972   -488.35325    36500.952 
  432900    303.96306    -1472.638    490.12389      391.067   -858.07718    36500.952 
  433000    305.52856   -1517.1625    499.69523    363.18822   -882.70594    36500.952 
  433100    294.40252    -1476.382     462.9824    316.97835    -632.7701    36500.952 
  433200    294.43321   -1488.5906    497.44565    339.37164   -2.5313523    36500.952 
  433300    303.41911   -1521.9433    475.27435    324.45415   -457.91134    36500.952 
  433400    295.44207   -1517.4847    481.89128    299.48216   -33.686154    36500.952 
  433500    301.21011   -1549.9121    488.17742    299.40606   -561.14873    36500.952 
  433600    308.08887   -1526.6241    479.88678    345.48798    72.533242    36500.952 
  433700    311.47711   -1515.8336    491.49119    383.19397    -217.3192    36500.952 
  433800    293.14828   -1488.6699    512.16871    348.20889   -446.87513    36500.952 
  433900     297.2076   -1482.0459    507.10433    368.11226   -357.97187    36500.952 
  434000    296.70133   -1503.2452    480.69635    318.21717    193.87533    36500.952 
  434100    297.72826   -1525.3931    499.23421    319.24776    333.24919    36500.952 
  434200    297.92752   -1508.0303    507.45511    345.73185    222.68425    36500.952 
  434300    301.20377   -1461.5167    478.69531    378.29073   -573.54369    36500.952 
  434400    290.56372   -1522.1388    472.85421    263.74614   -197.20039    36500.952 
  434500    302.29975   -1548.2978    486.25857    304.02556   -379.89585    36500.952 
  434600    295.59167   -1486.0321    504.30802    354.02748   -619.12748    36500.952 
  434700    298.21306   -1436.3735    473.31016    384.53402    -144.8671    36500.952 
  434800    290.97951   -1493.4777    511.75106      333.183    16.009868    36500.952 
  434900    289.54736   -1521.4754    501.42301     288.3855   -80.526463    36500.952 
  435000    295.88499    -1476.009    488.78774    349.85576    334.21424    36500.952 
  435100    307.35115   -1506.2768    496.27949    378.89426   -697.96873    36500.952 
  435200    302.57001   -1474.7338     489.3489    381.90115    158.66321    36500.952 
  435300    295.01583   -1520.7007    502.51697    314.96569   -767.50526    36500.952 
  435400     299.2576   -1551.2178    496.52601    297.62573   -295.88019    36500.952 
  435500    300.16833   -1536.7517     468.1258    287.80718   -101.33682    36500.952 
  435600    304.37339   -1515.8121    496.59207    356.21534    339.42669    36500.952 
  435700    294.52844   -1520.6908    516.69249    326.94859   -87.889371    36500.952 
  435800    297.49451   -1508.8094    473.56612    309.10703    157.24527    36500.952 
  435900    298.56331    -1539.155     485.6484    295.67355   -318.02725    36500.952 
  436000     296.9363    -1477.659    506.90309    371.07196   -130.86952    36500.952 
  436100    306.00838   -1493.2812    477.74308    367.28559   -326.29612    36500.952 
  436200    305.02855   -1489.6795    523.32275    412.03916   -188.63735    36500.952 
  436300    305.18178   -1486.7708    484.60902    376.92665   -241.25854    36500.952 
  436400    306.32402   -1455.0329    481.31104    410.52824   -149.47542    36500.952 
  436500     299.9345   -1462.8708    490.44672    382.95231   -191.63237    36500.952 
  436600    303.26967   -1528.8739    495.26192    336.83577   -396.42589    36500.952 
  436700    310.32425   -1483.9779    533.19434    451.54315    54.974981    36500.952 
  436800    304.46841   -1498.0137    470.77497    348.62605   -88.038708    36500.952 
  436900    296.44392   -1477.2277    497.95591    360.33103   -634.28193    36500.952 
  437000    308.84278   -1468.6941    489.55972    416.49778    -600.3653    36500.952 
  437100    293.71626   -1481.8843    483.33951    328.73196   -245.68367    36500.952 
  437200    306.22622   -1448.8124    520.88239    455.87809    6.9618679    36500.952 
  437300    312.01494   -1485.9537    504.76036    428.77352   -430.87468    36500.952 
  437400    297.84488   -1490.8471    470.79842    325.88497    166.34474    36500.952 
  437500    311.16856   -1504.8634    497.86329    399.14202   -411.08526    36500.952 
  437600    308.18356    -1497.029    493.43042    389.05463   -98.519099    36500.952 
  437700    300.78814   -1498.7889    482.89676    343.34183   -431.28178    36500.952 
  437800    297.19243    -1507.963    491.23322    326.25546   -386.50686    36500.952 
  437900    304.57328   -1520.0944    480.89561    337.13988    -437.6076    36500.952 
  438000     307.0083   -1495.4716    497.78649    389.65712   -554.53031    36500.952 
  438100    290.46908   -1499.1249    500.66484    314.14303   -38.387989    36500.952 
  438200    309.00322   -1513.0082    464.49575     347.8447   -6.8633454    36500.952 
  438300    304.33079   -1485.9715    511.29563    400.56699   -316.42691    36500.952 
  438400     302.8762   -1479.4487    494.76259    383.98357   -553.37657    36500.952 
  438500    308.42513   -1493.0625    470.00195    370.68421   -80.070606    36500.952 
  438600    302.92695   -1450.7765     498.0585    416.18101   -263.62886    36500.952 
  438700     309.2416   -1484.7806    497.29521    409.94892    235.87838    36500.952 
  438800    307.73969   -1452.3547    488.90071    427.19332    6.9194677    36500.952 
  438900    309.15603   -1470.5479    476.23563    402.73541   -473.93437    36500.952 
  439000    292.38033   -1471.3949    492.82132    342.66623   -376.76938    36500.952 
  439100    293.69264     -1487.38    506.60131    346.39139   -278.14999    36500.952 
  439200    294.10371   -1486.3417    509.41571    352.10166   -550.91921    36500.952 
  439300    310.00918    -1449.154    498.75755    450.50658   -433.54059    36500.952 
  439400    301.17979   -1423.8873    504.53594    441.65242   -347.68682    36500.952 
  439500    296.18777   -1468.0757     495.6703    366.03994    94.425603    36500.952 
  439600    301.31382   -1464.7319    517.46577    414.34327   -13.013353    36500.952 
  439700    304.27275   -1492.4304    504.80762    387.35778   -146.57056    36500.952 
  439800    303.98005   -1474.7369     487.2553    386.17632   -384.27737    36500.952 
  439900    298.13629   -1481.4612    516.92698    382.71626   -223.97228    36500.952 
  440000    291.01568   -1506.3387    487.79202    296.52642     -409.867    36500.952 
  440100    286.25662   -1504.2572     507.5573    296.86744    54.732271    36500.952 
  440200    295.15356   -1498.2158    512.18336    347.73931     483.7394    36500.952 
  440300    294.12937   -1490.8717    476.04044    314.31235    144.55136    36500.952 
  440400    304.49859    -1490.388    503.59316    389.20626    198.67104    36500.952 
  440500    303.78656    -1481.457    494.65564    385.98223    212.85704    36500.952 
  440600    283.85928   -1514.2796    494.63849    263.09283    838.89865    36500.952 
  440700    302.90948   -1490.3187    458.84145    337.34284    890.42419    36500.952 
  440800    300.03706   -1467.4651    494.59376    382.96852    799.82883    36500.952 
  440900    306.99913   -1499.9237    512.46404    399.84119    174.51445    36500.952 
  441000     297.5449   -1472.2179    467.13308     339.4932   -119.26464    36500.952 
  441100    302.18013   -1504.8385    511.59019    372.27592   -154.21101    36500.952 
  441200    293.60061   -1494.0518    495.13705    327.83935   -171.01492    36500.952 
  441300    298.15988   -1493.5446    490.81188    344.62436   -185.51106    36500.952 
  441400    308.73095   -1514.4257    492.11516    372.81626    33.841164    36500.952 
  441500    294.61751   -1510.6186    488.00816    308.73894    41.344103    36500.952 
  441600    306.77901   -1494.1663    489.10216    381.24202    294.76271    36500.952 
  441700    302.74232   -1492.9801    530.81634    405.90089   -272.88236    36500.952 
  441800    298.32516   -1529.5601    483.05134    301.59518   -113.73833    36500.952 
  441900    310.31303   -1455.3646    508.63801    455.54948    401.06405    36500.952 
  442000    300.98154   -1473.6181     505.6125    392.10237    -376.8535    36500.952 
  442100    301.04206   -1512.5372    495.45496     343.2992   -490.91183    36500.952 
  442200    296.69193   -1486.7682    500.15736    354.11266   -522.86604    36500.952 
  442300    295.41553   -1507.1327    507.49994    335.32288    -155.4001    36500.952 
  442400    289.40812   -1532.0598    496.81212    272.56099    46.048587    36500.952 
  442500    302.14545   -1505.2872     500.3728    360.45312    63.415925    36500.952 
  442600    297.31859   -1496.5579    510.63182    357.62924   -103.22465    36500.952 
  442700    313.36316   -1494.9813    475.23709     396.3151    304.42632    36500.952 
  442800     304.9059   -1482.8369    521.74214     416.7469   -214.37053    36500.952 
  442900    296.48401   -1519.5727    485.79746    306.00877   -206.61223    36500.952 
  443000     305.9895   -1485.4763    503.58256    400.84467    164.88904    36500.952 
  443100    293.74677   -1498.9239    502.89957    331.39031    117.87292    36500.952 
  443200    285.72477   -1472.9978    505.97432    324.14054    514.21163    36500.952 
  443300    290.11067   -1475.0746    525.58828    361.49709    739.35809    36500.952 
  443400    295.18877   -1435.3767    515.34153    413.89574    600.77408    36500.952 
  443500    304.81647   -1450.7624    499.01615    425.69133    657.05101    36500.952 
  443600    299.40632   -1415.4778     512.4629     449.9747    30.849087    36500.952 
  443700    305.73717   -1433.0193    523.21135    471.79017   -80.233459    36500.952 
  443800    301.16659   -1445.6233    488.09174    403.41262    421.11816    36500.952 
  443900    298.43446   -1452.6962    493.41922    389.32092    128.88013    36500.952 
  444000     301.0223   -1483.5487    522.40166     399.1451     520.6464    36500.952 
  444100     289.5327   -1474.8442    530.26638    363.79379    882.91496    36500.952 
  444200    295.27106   -1435.6865    536.35683    434.97307    873.47423    36500.952 
  444300    296.06321   -1514.0107    496.00129    319.87299    439.51632    36500.952 
  444400    301.06346   -1491.0912    504.52843    373.91527    480.41306    36500.952 
  444500    289.13737   -1488.6134    529.59035     347.5621    744.91369    36500.952 
  444600    293.55531   -1497.7079    500.39883    329.24039    390.99412    36500.952 
  444700    294.21027   -1459.5809     541.4087    411.33694    45.370948    36500.952 
  444800    304.14542   -1476.7911    525.19145    422.80558    556.55305    36500.952 
  444900    311.13054   -1489.4515    518.63439    435.15314    1139.6953    36500.952 
  445000     307.3169   -1529.9739    501.85367    360.61655    325.82114    36500.952 
  445100    297.11521   -1482.5093    493.96645    354.09352    359.13656    36500.952 
  445200    301.45285   -1487.2606     467.9605    342.93759    62.672464    36500.952 
  445300    303.73715   -1499.1195    498.87142    372.31216    211.49255    36500.952 
  445400    305.24824   -1476.0643    498.22643    401.55083    250.72002    36500.952 
  445500    303.58893   -1507.4895    491.77024    356.17124   -531.07712    36500.952 
  445600    308.23974   -1444.8052    515.20322    463.30501   -273.03996    36500.952 
  445700    293.70272   -1466.5578    517.20268    377.86051   -129.36206    36500.952 
  445800    303.14594   -1510.5804    503.41574    362.72399   -186.76394    36500.952 
  445900    290.93169    -1518.112     515.6769    312.25849    95.005749    36500.952 
  446000    298.45072   -1538.8817    479.28037    289.07004   -470.12767    36500.952 
  446100    301.94671   -1513.1946    497.82362    349.09844   -299.55816    36500.952 
  446200      294.923   -1514.4487    532.59862    350.87986   -746.99542    36500.952 
  446300    304.25027   -1481.4316     482.7509    376.19829   -295.50822    36500.952 
  446400    306.06027   -1480.8911    515.99322    418.16033   -346.37174    36500.952 
  446500    305.40092   -1483.5933    502.21032    398.69571    374.76157    36500.952 
  446600     295.3859    -1535.453    512.76718    312.13592    846.06285    36500.952 
  446700    313.37295   -1591.5148    497.46645    322.05516     848.4962    36500.952 
  446800    301.16137   -1527.6022    485.43793     318.7563    848.08538    36500.952 
  446900    310.39174   -1507.0781    491.10094    386.65458    575.72432    36500.952 
  447000    305.71545   -1501.7857    492.66109     372.3754   -9.7893533    36500.952 
  447100    298.35844   -1499.6859    502.65204    351.22046   -160.62525    36500.952 
  447200    294.58509   -1498.6218    523.79589    356.37699   -302.35061    36500.952 
  447300    288.48747   -1488.1664    514.60056    330.08254   -342.41791    36500.952 
  447400    302.56899   -1549.9438     488.9533    306.29092   -37.064608    36500.952 
  447500    309.16059   -1521.3972    516.41678    392.08781   -589.11044    36500.952 
  447600    312.36687   -1524.3839    490.27067    377.44395   -911.96687    36500.952 
  447700    309.96406   -1526.6868    483.26305    357.27533   -692.49934    36500.952 
  447800    303.21003   -1568.0004    504.00249    306.18037   -684.95489    36500.952 
  447900    296.61712   -1557.1798    510.08708    293.29277   -436.37048    36500.952 
  448000    304.70129   -1555.6075    497.90593    319.21558    -592.8304    36500.952 
  448100    303.17101   -1565.2769    491.27246    295.99746    220.23613    36500.952 
  448200    296.01263   -1521.2266    477.76127    294.18853    780.84978    36500.952 
  448300    303.03933   -1550.8445    533.55176    352.11412    637.88496    36500.952 
  448400    297.91258   -1543.0663    509.90872    313.08196    273.92377    36500.952 
  448500    300.20132    -1518.232    511.54573    349.89586    383.73841    36500.952 
  448600    304.69545   -1478.4255     498.2996    396.76487   -70.809059    36500.952 
  448700    305.21363   -1524.3988    507.43967    362.27316   -371.56015    36500.952 
  448800    307.31079   -1472.5527    498.07563     414.2321   -262.40436    36500.952 
  448900    297.51782   -1520.5855    529.73777    353.60795   -498.90393    36500.952 
  449000    295.58544   -1530.0181    495.30717    301.01248    10.657464    36500.952 
  449100    305.27515   -1472.9867    504.13707    410.66072    67.740938    36500.952 
  449200     292.8401   -1517.1029    465.56186    271.77644   -343.97947    36500.952 
  449300    290.00258   -1515.2131     531.0638    326.34574   -253.35413    36500.952 
  449400    299.85047   -1522.0909    507.89901    340.80479   -362.35298    36500.952 
  449500    292.71122   -1471.5176    478.66109    329.87858    316.86271    36500.952 
  449600    299.56274   -1485.5235    512.42943    380.60237   -60.690556    36500.952 
  449700    301.34727   -1496.7862    495.77866    360.75306     64.14931    36500.952 
  449800    297.40236   -1515.2164    523.59895     352.3165    325.69807    36500.952 
  449900    300.51757   -1496.9055    503.37033    364.47605     1169.139    36500.952 
  450000    299.58556   -1553.1403    507.13127    307.79058    862.25222    36500.952 
  450100    305.97053   -1532.0511    497.51813    348.11971    260.16216    36500.952 
  450200    307.28012   -1541.3827    507.09733    354.28529   -248.05758    36500.952 
  450300      302.223   -1517.8859    481.04141    328.87347   -723.87989    36500.952 
  450400     293.4769   -1553.2155    480.15775    253.13737   -557.71403    36500.952 
  450500    300.55466   -1527.0398    483.58839    314.72745   -1184.1247    36500.952 
  450600    293.90504   -1555.6085     497.5734    270.09472   -1081.9655    36500.952 
  450700    306.72202   -1514.9334    518.96548     390.0807   -556.90712    36500.952 
  450800    296.45257   -1535.5184    514.00913    318.13261    -185.3867    36500.952 
  450900    295.82839   -1587.6743    511.90725    261.05423   -112.93597    36500.952 
  451000     305.1057   -1556.4504    479.52508    301.81927   -98.463407    36500.952 
  451100     307.5881   -1503.1731    496.75728    383.54653    156.21518    36500.952 
  451200    305.52717   -1518.6854    510.14414    372.10795    312.98178    36500.952 
  451300    303.02133   -1513.9141    527.67653    383.08801    478.64703    36500.952 
  451400    296.54577   -1528.0172    503.17261    315.21854    263.90767    36500.952 
  451500    300.13246   -1535.5914    496.09926    316.77883    505.86264    36500.952 
  451600    306.33755   -1484.8855    511.92824    411.35396    251.69959    36500.952 
  451700    296.57666   -1516.4798    503.37149    327.09435     135.1964    36500.952 
  451800    310.00559   -1525.1547    512.99675    388.72883    234.94433    36500.952 
  451900    298.42067        -1508    494.86653    335.40211   -145.92866    36500.952 
  452000    302.57239   -1501.7602    513.60176    379.13841   -477.56938    36500.952 
  452100    294.24478   -1475.6449    498.53813    352.55828    199.41908    36500.952 
  452200    300.84873   -1528.8184     500.6887    331.37801   -302.80874    36500.952 
  452300    300.72031   -1487.5662    512.16476    383.52596    239.62408    36500.952 
  452400    306.68126   -1501.9132    510.02932     393.9805    72.178339    36500.952 
  452500    298.19536    -1489.277    512.62498    370.86537    254.49752    36500.952 
  452600    303.17733   -1525.2082    508.88848    353.71075    219.65357    36500.952 
  452700    303.59041   -1523.1439     526.8182    375.57138    252.73563    36500.952 
  452800    291.98639   -1507.6716     512.1443     323.9323    303.51043    36500.952 
  452900    300.07103   -1496.0696    477.73882    337.66262    435.37524    36500.952 
  453000    296.91573    -1464.737    532.67155    409.66945    464.04773    36500.952 
  453100    299.64334   -1463.2125    502.91473    393.76289   -57.705413    36500.952 
  453200    302.97314   -1514.8336    509.74273    364.01685    250.88956    36500.952 
  453300    296.33732   -1471.9563     506.5187    373.68351    340.89797    36500.952 
  453400     310.3092   -1453.3645     517.0704    465.96464   -390.36206    36500.952 
  453500    300.85395   -1519.7643    520.05566    359.82267   -366.82059    36500.952 
  453600    281.63295   -1507.5983    532.71464    297.78973    311.07102    36500.952 
  453700    294.02623   -1466.3752    507.28325    369.58555   -371.51401    36500.952 
  453800    298.75678   -1498.8192    485.42616    336.66138    103.30131    36500.952 
  453900    311.57087   -1509.1924    506.43367    405.20134   -194.62721    36500.952 
  454000    297.23881   -1509.3275    507.53279    341.40008    238.51449    36500.952 
  454100    302.03539   -1520.3031    501.21504    345.78211   -34.910834    36500.952 
  454200     297.5628   -1532.2203     516.6609    329.09957    55.220054    36500.952 
  454300    304.06802   -1533.2479    496.01575    336.82324    -435.6516    36500.952 
  454400    298.73857   -1508.9109    495.92425    336.98549   -93.283912    36500.952 
  454500    298.77152   -1527.9057    511.12188    333.33717   -237.91116    36500.952 
  454600    304.03426    -1471.484      506.625    409.04389   -122.68706    36500.952 
  454700    297.51506    -1524.548    516.39484    336.29004    434.46434    36500.952 
  454800    289.98017   -1488.1067    511.27394    333.56101   -50.635581    36500.952 
  454900    303.41477   -1498.3593    472.12058    344.86473   -180.29249    36500.952 
  455000    300.67344   -1487.9793    517.49459    388.23095    227.78239    36500.952 
  455100     303.5831   -1514.0753     496.0848    353.87362   -21.290927    36500.952 
  455200    297.50178   -1570.9806    493.04687    266.44941   -35.210071    36500.952 
  455300    298.70876   -1536.6072    513.74539    326.97561    55.908569    36500.952 
  455400    303.88606   -1542.5387    496.17535    326.86976    325.49674    36500.952 
  455500    303.05723   -1519.3869    515.76661    365.86744    903.44932    36500.952 
  455600     298.8519   -1553.9716    505.67309    302.18574    506.65301    36500.952 
  455700    304.26379   -1536.2081    510.02589    348.75786     506.1865    36500.952 
  455800    301.89914   -1539.6895      483.531    308.09592    539.01578    36500.952 
  455900    310.23848   -1487.6853    521.67896    435.93281    874.09263    36500.952 
  456000    307.19465   -1521.3167    487.69976    354.56742    506.02739    36500.952 
  456100     294.7653   -1558.8696    495.81543    268.96309    760.57698    36500.952 
  456200    299.39162    -1535.683    513.73619    330.97636    867.00917    36500.952 
  456300     310.9662   -1487.4445    525.23041    443.01358    1048.5914    36500.952 
  456400    297.50313   -1537.5755    510.84359    317.65738   -467.15678    36500.952 
  456500    307.91512     -1474.81    504.84924    421.47935   -915.75909    36500.952 
  456600    302.54862   -1521.8803    500.65713    345.96626   -913.79517    36500.952 
  456700    291.51015   -1490.8683    489.31532    315.75454   -482.17718    36500.952 
  456800    290.99371   -1494.5327    548.40351    368.84465   -1130.7911    36500.952 
  456900    291.21619    -1517.808    508.75933    306.93058   -803.08595    36500.952 
  457000    301.14363   -1487.8206    510.64454    383.66433    -1199.197    36500.952 
  457100    295.08864   -1528.5198    505.06231    310.02092    -343.5438    36500.952 
  457200     294.8288   -1500.9047    528.38728    359.78678   -87.987239    36500.952 
  457300    298.40798   -1455.0735    518.79391    412.19863   -464.81533    36500.952 
  457400    297.72295    -1545.426    502.97367    302.93032    576.27824    36500.952 
  457500    303.54429   -1518.9812    511.33039    364.03797    68.034516    36500.952 
  457600    303.87974   -1492.7921    495.39798    375.81048    32.552044    36500.952 
  457700    296.31511   -1562.8414    497.24272    273.42201   -163.90857    36500.952 
  457800    308.05175   -1525.7597    523.34804    389.64588   -748.97245    36500.952 
  457900    304.85453   -1531.9126    507.61815    353.31519   -791.67132    36500.952 
  458000    306.27516   -1529.9068    493.85411    347.97667   -707.43289    36500.952 
  458100    304.18163   -1530.3906    492.64663     336.8249   -396.34948    36500.952 
  458200    292.82288   -1544.7141    478.99077    257.51633   -525.20625    36500.952 
  458300    343.52552   -1516.0713    516.77113    553.06004    58.106399    36500.952 
  458400    299.37745   -1503.0063    481.19183    331.04474    582.75028    36500.952 
  458500     306.2637   -1556.5765    499.36736    326.76833    535.02172    36500.952 
  458600    308.76422   -1519.4751    518.68681    394.48881    819.12878    36500.952 
  458700    298.87374   -1492.4696    521.51942     379.6328     915.8005    36500.952 
  458800    300.14912   -1465.8296    533.79116    424.30789    442.65642    36500.952 
  458900    291.57886   -1433.6161    510.51263    394.51452    744.32934    36500.952 
  459000     299.1303   -1465.4814    506.15633    392.41721    139.32895    36500.952 
  459100    299.21644   -1510.5963    515.10053    356.63583   -11.000855    36500.952 
  459200    295.96608   -1518.2491    504.99911    324.19351    461.25687    36500.952 
  459300    308.08019   -1488.1001    496.75889    400.84486   -66.846171    36500.952 
  459400    310.67536   -1489.4551    509.12739    423.58567   -131.12912    36500.952 
  459500    301.66786   -1521.2135    514.97833    356.97413    37.842251    36500.952 
  459600    294.54458   -1507.5038    492.21668    315.73273     90.74925    36500.952 
  459700    298.43253    -1521.976    511.25588    337.86909     6.091342    36500.952 
  459800     295.6592   -1505.3885    519.22708    349.89531   -80.573091    36500.952 
  459900    300.81176   -1494.8919    507.34287    371.79167   -455.89378    36500.952 
  460000    289.08444    -1502.307    544.55649     348.5955   -643.61465    36500.952 
  460100    294.42251   -1520.9268    518.06933    327.61077    42.663929    36500.952 
  460200     308.2176   -1525.2862    493.43723    360.95802   -120.42604    36500.952 
  460300    302.34157   -1502.4549    497.76083    361.55967   -168.02792    36500.952 
  460400    299.04694   -1532.4448     511.2568    330.17758    -363.8248    36500.952 
  460500    289.62406   -1522.7076    532.25188    318.32874   -800.10531    36500.952 
  460600    296.44066   -1469.1105    489.58081    360.05839   -566.71596    36500.952 
  460700    302.01448   -1517.4102     504.1912    351.55668   -363.47061    36500.952 
  460800    307.56193   -1527.4632    507.15086     369.5318   -370.77463    36500.952 
  460900     305.0043   -1537.7422    530.85953    371.40371    -615.5276    36500.952 
  461000    303.92046    -1506.559    520.89514    387.72474    511.88756    36500.952 
  461100    301.17003   -1555.6061    497.88307    303.23667    372.03451    36500.952 
  461200    293.68804   -1565.1839    502.88552    264.85085    103.11414    36500.952 
  461300    293.29616   -1511.6587    510.51808     324.2378    429.11731    36500.952 
  461400    300.33106   -1471.5376    504.26525    389.89616   -42.449814    36500.952 
  461500    303.94475   -1498.8061    532.14053    406.83284   -665.16684    36500.952 
  461600    292.09326   -1502.5922    518.39114    335.74149   -851.38384    36500.952 
  461700    318.60171   -1524.9731    490.59385    405.35253   -658.93235    36500.952 
  461800    305.59579   -1502.7268    494.08234     372.3148   -280.40134    36500.952 
  461900    307.89612   -1525.3818    530.54092    396.51335   -633.08036    36500.952 
  462000    306.37506   -1502.5727    525.70205    407.61006    167.93215    36500.952 
  462100    295.74982   -1540.1822    513.15877     309.4428     100.6857    36500.952 
  462200    291.01295   -1536.3841    522.30608    300.98281    620.44494    36500.952 
  462300    294.12113   -1515.7733    530.88461    344.21765    488.23886    36500.952 
  462400    302.38624   -1523.8069    515.61867    358.26735    201.62712    36500.952 
  462500    297.82004   -1546.5355    500.69388    299.97975    745.69028    36500.952 
  462600     305.3663   -1571.8184    531.69452    339.79838    52.838281    36500.952 
  462700    304.78671   -1555.2134    506.47813    328.56779     332.0982    36500.952 
  462800    311.02381   -1525.3217    515.38782    395.55415    481.82926    36500.952 
  462900    294.85402   -1535.4225    528.29026    325.28599    50.379523    36500.952 
  463000    310.24708   -1513.9869    527.83558    415.82674   -467.95178    36500.952 
  463100    301.09938   -1523.7582    501.74169    338.62387    189.97025    36500.952 
  463200    299.63157   -1502.1994    529.55687    381.36493    226.50414    36500.952 
  463300     307.7696   -1518.4235    499.47691    371.83588    677.30788    36500.952 
  463400    296.65871   -1510.8661    514.08182    343.78915    218.32291    36500.952 
  463500    300.65777   -1569.1409     537.8469    327.35081   -222.52363    36500.952 
  463600    295.56163   -1584.3198    474.57895    225.87501    80.991717    36500.952 
  463700     295.3298   -1615.2085    496.38592    215.74565   -223.03922    36500.952 
  463800    301.93558   -1599.2987    485.40805    250.52846    333.60202    36500.952 
  463900    300.49018    -1615.555    476.65159    218.98406    181.44249    36500.952 
  464000    295.30538   -1583.1415    512.38275    263.69908    11.399667    36500.952 
  464100     296.6533   -1599.3838    486.03242    227.19765   -148.50621    36500.952 
  464200    305.64335   -1601.6102    475.30978    254.87374    162.70715    36500.952 
  464300    303.96599   -1595.4973    508.91224    287.00933    115.06692    36500.952 
  464400    305.73579    -1564.823     484.0966    300.86554   -319.00341    36500.952 
  464500    304.80627   -1582.0923    511.33051    306.62973   -4.5053238    36500.952 
  464600    294.68944   -1565.1338    510.99983    277.54049   -134.01601    36500.952 
  464700    304.30897    -1545.901    518.64216    347.88542    188.48689    36500.952 
  464800    302.64221   -1566.2895    491.29233     292.6151    380.17023    36500.952 
  464900    308.45852   -1522.0734    511.33752    383.15976    446.49338    36500.952 
  465000    296.16461     -1505.37    538.22363    371.19424    438.77925    36500.952 
  465100     300.4753   -1563.7336    519.50456    313.59123    281.73064    36500.952 
  465200    304.47758   -1548.2387    500.08779    327.75529    121.16682    36500.952 
  465300    294.69841   -1580.3378    500.18179    251.55902   -248.57633    36500.952 
  465400    303.89317   -1568.2704    478.55135     283.5462    -577.2727    36500.952 
  465500    306.99174   -1578.8298    481.39578     289.8334   -713.64323    36500.952 
  465600    304.31217   -1540.2251    491.84065    326.77423   -85.681811    36500.952 
  465700    298.73072   -1516.1051     513.3221    347.15365   -117.51691    36500.952 
  465800    301.60888   -1547.8475    499.16567    314.26101   -324.58281    36500.952 
  465900    292.43745   -1564.0366    471.48124    228.94262   -180.46008    36500.952 
  466000    299.63971   -1522.0908    497.14773    329.10124   -106.58464    36500.952 
  466100    298.50536   -1570.0274    502.31338    281.20429   -220.27156    36500.952 
  466200    303.83621   -1535.0595    518.20791     356.1563    293.44647    36500.952 
  466300    303.93343   -1548.3268    510.58194    335.70231    210.61717    36500.952 
  466400    291.91674    -1555.941    484.12981    247.33372   -387.19038    36500.952 
  466500     294.1045   -1574.4484    504.31575     258.8985   -509.30494    36500.952 
  466600    300.92197   -1551.4821    511.51208    319.86871    48.229605    36500.952 
  466700    299.46166   -1602.8633    499.71863    250.09498   -80.173359    36500.952 
  466800    298.25042   -1603.7632    509.16655    253.16958    535.06955    36500.952 
  466900    302.65264   -1609.2787    513.25375    271.63453   -151.41054    36500.952 
  467000    296.65779   -1557.9407    511.83145    294.46007   -289.65348    36500.952 
  467100     296.1107    -1543.782    478.41639    272.73143    155.32917    36500.952 
  467200    305.33897    -1545.206    490.30498     324.8977    143.98993    36500.952 
  467300    298.86894    -1549.999    502.25867    302.82086    59.172588    36500.952 
  467400     287.5402   -1555.7167    494.49282    238.14387   -341.18129    36500.952 
  467500    297.17648   -1591.2369    512.60029    264.27653   -212.35706    36500.952 
  467600    296.98894   -1537.3079    510.43021    315.18797    104.95465    36500.952 
  467700    293.08176   -1523.8521    510.38681    310.94424   -100.20003    36500.952 
  467800    293.82935   -1496.8326    521.07858    352.03376    753.65745    36500.952 
  467900    306.84728   -1550.2363    490.04039    326.41876    438.69838    36500.952 
  468000    296.32983   -1531.6211    524.73038    332.19657    102.73937    36500.952 
  468100    296.69999    -1516.675    511.61173     335.6967    409.73231    36500.952 
  468200    302.45467   -1514.6854    519.79641    371.87579    478.05984    36500.952 
  468300    299.20612   -1504.9515    522.84637    369.97979   -152.75041    36500.952 
  468400    295.97712   -1513.9905    527.12771    350.63056   -60.585812    36500.952 
  468500    307.41514   -1534.4527    508.04301    362.77111   -250.16936    36500.952 
  468600    301.07257   -1525.0635    549.96993    385.42565    300.18881    36500.952 
  468700    306.80076   -1472.8842    511.01579    424.53604    485.38332    36500.952 
  468800    312.38283    -1504.679    533.96116    440.91148    321.82201    36500.952 
  468900    292.37291   -1566.7076    501.45451    255.95321   -202.18559    36500.952 
  469000    300.32374   -1517.3465    519.42631    359.21517   -372.73926    36500.952 
  469100    296.59754   -1493.1888    514.24058    361.34885    29.761329    36500.952 
  469200    298.43601   -1513.8798    518.00385    352.72897   -398.63143    36500.952 
  469300    292.45996   -1561.9955    518.57649    278.18063   -682.98954    36500.952 
  469400    307.24758   -1531.1427    519.77205    377.05287   -263.05631    36500.952 
  469500    300.86174   -1541.8047    512.06925    329.83109   -583.06542    36500.952 
  469600     297.1617   -1549.3792    510.99627    304.46349    230.05831    36500.952 
  469700    306.06048   -1499.3343    538.07015    421.79494   -134.03794    36500.952 
  469800     302.6419    -1525.133    509.63056    352.10842   -158.03866    36500.952 
  469900    299.09908   -1490.2054    519.09827    380.49415   -23.997101    36500.952 
  470000    300.44963    -1502.809    516.30933    371.20459   -60.719169    36500.952 
  470100    298.91374   -1555.6017    517.96525    313.12728   -606.48282    36500.952 
  470200    293.47579   -1527.0845    525.41092    324.51656   -728.60183    36500.952 
  470300    292.13258   -1499.4037    533.17617    353.89275   -376.91269    36500.952 
  470400    300.87575     -1520.82    504.58765    343.39753   -351.50283    36500.952 
  470500     313.7567   -1550.5335    534.97484    402.27904   -148.03888    36500.952 
  470600      302.308   -1559.6391    536.30289    342.76582   -34.355715    36500.952 
  470700    293.58912   -1512.8874    550.67614    364.49102    310.02199    36500.952 
  470800    298.19729   -1497.0553     500.4574    350.92828    86.564874    36500.952 
  470900     297.7163   -1531.2132    483.51758    297.65698    -265.9913    36500.952 
  471000    307.14275   -1561.8756    531.29957    357.37381    559.16613    36500.952 
  471100    305.50784   -1586.1219    517.04988     311.4898    230.71974    36500.952 
  471200    292.93753   -1629.9248    503.65608    197.48907    88.197541    36500.952 
  471300    307.85128   -1548.7045    492.08805    334.53511    288.14774    36500.952 
  471400    309.53636   -1534.3471    521.07043    385.48972    284.24876    36500.952 
  471500     303.7992   -1546.3782    514.15423    340.61662    396.55127    36500.952 
  471600    294.72761   -1532.5507    505.44485    304.74114   -82.727023    36500.952 
  471700    307.28231   -1553.1065     527.6598    363.13383    563.89616    36500.952 
  471800    292.72176   -1566.7226    477.57214    233.63222   -185.07942    36500.952 
  471900    289.97969   -1575.4108    510.10807    245.08886   -350.20805    36500.952 
  472000    301.33205    -1560.096    504.43996    306.03581   -550.75967    36500.952 
  472100    302.37489   -1578.3083    516.06929    304.16536    4.3782735    36500.952 
  472200    299.50363   -1512.2589    546.52419    387.69469   -211.88199    36500.952 
  472300    306.18889   -1545.0529    500.24757    338.83412   -867.48712    36500.952 
  472400    300.43903   -1565.6016     517.3936    309.44832   -631.15452    36500.952 
  472500    298.68222   -1573.3782    517.45739    293.79665   -423.05578    36500.952 
  472600    297.62386   -1527.2302    540.04398    357.74865   -794.36055    36500.952 
  472700    300.24979   -1532.9039    516.54348    340.44081   -224.37829    36500.952 
  472800    316.85291   -1586.4853    510.43257    355.77641   -189.86758    36500.952 
  472900    299.73079   -1557.5474    535.33243    332.24086   -685.29422    36500.952 
  473000     313.9321   -1575.7473    482.61566    325.49862   -112.30465    36500.952 
  473100     304.6664   -1529.4629     518.7108    366.00738   -204.23285    36500.952 
  473200    303.04336   -1548.8121    501.64686    322.25985   -56.609605    36500.952 
  473300    297.91249   -1556.1503    503.17089    293.25979   -215.80141    36500.952 
  473400    295.05971   -1575.5992    531.19823    288.94671    345.87641    36500.952 
  473500    301.60132   -1557.0357    502.81517    308.68814    335.36583    36500.952 
  473600    297.29839   -1554.3697    521.21344    310.30786     186.2172    36500.952 
  473700    294.36063   -1557.3916    519.44699    292.24401    209.23381    36500.952 
  473800      311.404   -1539.7331    507.16548    374.63841    267.02933    36500.952 
  473900     303.7629   -1522.1469      521.881    372.41069    317.86982    36500.952 
  474000    292.66769    -1524.581    483.77926    281.73661    216.50858    36500.952 
  474100    299.58343   -1547.0135    542.31553    349.09197     168.5145    36500.952 
  474200    301.65699   -1509.9339    494.28285    347.50912    6.0763807    36500.952 
  474300    298.35052   -1542.5439    508.33405    314.00875   -615.22726    36500.952 
  474400     302.3435   -1459.2026    547.77967    454.83951   -697.99783    36500.952 
  474500    289.12778   -1458.9471    518.85884    366.45356   -421.15405    36500.952 
  474600    301.80257   -1500.0547    517.17076    380.93409   -69.766847    36500.952 
  474700    293.75003   -1500.9229    510.74083    337.24727    410.45063    36500.952 
  474800    297.97925   -1531.9347    483.97673    298.58292    11.628664    36500.952 
  474900    312.75607   -1533.0981    529.26519    409.48297    312.53677    36500.952 
  475000    312.59484   -1528.6443    504.16777    388.11077    171.60114    36500.952 
  475100    289.01076   -1504.4329    493.41916    294.99926    476.59345    36500.952 
  475200     303.2438   -1496.7663    518.19975    391.76424     478.6918    36500.952 
  475300    290.37016   -1511.2681    530.97743    331.86534    1028.5973    36500.952 
  475400    302.82158   -1575.6065    513.96062    306.77702    971.97117    36500.952 
  475500    298.87131   -1556.0507    515.26021    309.78148    184.18039    36500.952 
  475600    288.75556   -1503.2113    491.85263    293.50112    223.00431    36500.952 
  475700    304.68795   -1546.5665    527.24996    357.54031   -55.420114    36500.952 
  475800    298.84327   -1556.3526    501.90811    296.00072      405.151    36500.952 
  475900    308.86498   -1538.5152    494.08314    351.30045   -307.90433    36500.952 
  476000    291.13564   -1470.1661     496.9831     342.4322   -494.43627    36500.952 
  476100    287.52841    -1488.723    508.32492    318.91635   -104.70811    36500.952 
  476200    313.70831   -1536.9782    498.33749    378.97823    479.20618    36500.952 
  476300     297.2698   -1528.2362    512.49811     327.5968    313.14887    36500.952 
  476400    306.68485   -1522.5219    531.83662    395.19538    627.61712    36500.952 
  476500    300.06487   -1483.9967    543.64936    415.61822   -251.26278    36500.952 
  476600    295.61668   -1501.5841    536.73803    371.01855    578.74435    36500.952 
  476700    302.65798   -1527.5913    511.08175      351.174    694.51228    36500.952 
  476800    300.57004   -1527.2519    501.44611    332.44256    270.36495    36500.952 
  476900    297.82378   -1550.0014    522.47416      318.311    263.52369    36500.952 
  477000    290.90809   -1505.4445    498.00813    307.15052    148.30241    36500.952 
  477100    297.44162   -1573.8248    486.84227    257.12881    146.86339    36500.952 
  477200     300.6689   -1554.5192    480.16403    284.33998    917.82254    36500.952 
  477300    290.94336   -1544.2253    520.12074    290.64172    348.69213    36500.952 
  477400    307.32943   -1523.9464     503.2161    368.06318    563.56775    36500.952 
  477500    302.54012   -1510.4257    535.35315    392.07843    582.15071    36500.952 
  477600    312.00802   -1458.0178    502.83774    454.75556    754.61455    36500.952 
  477700    301.73855   -1471.6291    549.03982    440.93952    492.55571    36500.952 
  477800     296.6027   -1515.8801    508.55763    332.99786     384.3407    36500.952 
  477900    295.80448   -1513.7063    520.54204    343.54894    395.09708    36500.952 
  478000    300.69244   -1511.8019    512.50484    359.50444    391.66104    36500.952 
  478100    301.94586   -1504.0154    529.88074    390.33088    143.64685    36500.952 
  478200    298.56234    -1512.504    519.33829    356.01001     315.2357    36500.952 
  478300    300.47052   -1488.5315    517.87462    387.14178    673.74352    36500.952 
  478400    315.25941     -1503.33    523.78315    445.08144     104.0648    36500.952 
  478500     306.6696    -1490.389    485.66719    381.08985   -31.490731    36500.952 
  478600    287.87614   -1545.0104    518.50312    274.37852   -622.38225    36500.952 
  478700    301.17986   -1545.1417    518.73007    334.59252   -947.52998    36500.952 
  478800    291.08255   -1525.6264    511.81595    301.56482   -508.40751    36500.952 
  478900    305.98315   -1516.9867    515.80565    381.52865   -594.38973    36500.952 
  479000    303.17662   -1547.4838    509.29955    331.84299   -294.44571    36500.952 
  479100     287.4191   -1509.9034      491.893     280.8101   -53.390333    36500.952 
  479200    291.59832    -1527.747    507.44197    297.40099   -327.01605    36500.952 
  479300    285.41106   -1554.2817    493.75084    229.21552   -590.26602    36500.952 
  479400      291.869   -1554.9156    529.73651    293.75005   -405.86837    36500.952 
  479500     302.8151   -1530.2936     493.7543    331.85432    95.278558    36500.952 
  479600    295.92162   -1549.4553    516.39259    304.17991    329.82508    36500.952 
  479700    289.61785   -1554.3323    505.05341    259.47753   -164.21374    36500.952 
  479800    303.49101   -1557.4199     513.1371    327.16515   -399.42769    36500.952 
  479900    302.43915   -1547.7441    517.00078    335.95141   -343.97537    36500.952 
  480000    298.63251    -1564.758    525.44542    310.18026    114.19164    36500.952 
  480100    304.50673   -1583.9071    508.97056    301.10135    852.18682    36500.952 
  480200    295.42086   -1607.4614     515.9738     243.4921    1166.1414    36500.952 
  480300     302.2365   -1620.8197    504.27688     249.2361    1038.2495    36500.952 
  480400     301.5651   -1558.7335    539.34961     343.3611    768.69901    36500.952 
  480500    301.15272   -1525.8911    520.51194     355.5023    379.69315    36500.952 
  480600    291.20344   -1574.2313    514.73831    256.42854   -477.31858    36500.952 
  480700    301.16713   -1554.6008    515.27214    321.61786    139.56917    36500.952 
  480800    297.95821   -1588.3983    499.43329    257.48077   -873.21613    36500.952 
  480900     291.5694   -1537.7755    511.32982    291.12962   -485.96994    36500.952 
  481000    299.68604   -1586.8671    497.53085     264.9174   -644.48842    36500.952 
  481100    299.97969   -1609.1944    483.22692    229.61316   -549.60449    36500.952 
  481200     304.3609   -1595.2981     497.4984    277.57915    116.29089    36500.952 
  481300    306.36425   -1627.2677    510.70776    267.87193    242.51878    36500.952 
  481400    282.25354   -1573.4362    499.75677    201.79832    153.46104    36500.952 
  481500    301.21534   -1548.2974    500.65606    313.52303   -480.11501    36500.952 
  481600     286.1812   -1558.8329    509.24222    243.63579   -122.65331    36500.952 
  481700     299.6194   -1579.1819     517.5488    292.31943    -700.6075    36500.952 
  481800    301.35399   -1558.3995    483.32415    286.71557   -475.51604    36500.952 
  481900    310.79992   -1590.8641    504.48382    318.09596     -336.795    36500.952 
  482000    289.95537   -1572.5781    514.36712    252.07065    147.63582    36500.952 
  482100     310.5658   -1606.9813    496.49543     292.9324    378.44733    36500.952 
  482200    289.37026   -1546.8118     511.7828    272.60863   -118.09835    36500.952 
  482300    308.93362   -1598.6564    481.25305    278.63925    79.549649    36500.952 
  482400    293.76629   -1592.6634    510.96013    245.79952   -158.69822    36500.952 
  482500    297.04324   -1540.4844    521.35799     323.1847    137.90918    36500.952 
  482600    306.45422   -1593.1162    498.31429    290.03651   -453.45605    36500.952 
  482700    287.95863   -1593.7585      513.968    221.46812   -325.95012    36500.952 
  482800    298.40277   -1566.3225    521.83977    303.97194    146.39889    36500.952 
  482900    309.33142   -1565.7488    497.90736    329.99881    220.39636    36500.952 
  483000    297.18413   -1540.0655    501.59795     304.4802    132.80851    36500.952 
  483100    307.47147   -1558.1713    495.39576     326.6597    125.59077    36500.952 
  483200    301.00053    -1530.184     497.6279    327.63758   -578.74768    36500.952 
  483300    295.82458   -1567.3291    538.69286    308.16786     61.34074    36500.952 
  483400    297.22932   -1598.9768    504.39112     248.5663     145.3045    36500.952 
  483500    303.79949   -1595.7286    499.45088    276.56427   -57.127285    36500.952 
  483600    300.75675   -1567.0785    490.71573     282.7293   -276.84459    36500.952 
  483700    288.96073   -1500.4692    533.45727    338.77502     -231.393    36500.952 
  483800    297.74591   -1543.2311    501.63304    303.88835   -306.10529    36500.952 
  483900    297.41045   -1540.0347    523.28794    327.22376   -291.90139    36500.952 
  484000    304.80377   -1533.8377    505.19062    348.73314    -506.6819    36500.952 
  484100    283.00064   -1532.6629    525.33651    271.52749   -718.90556    36500.952 
  484200    289.81352   -1540.3863    505.30841    274.56277   -643.99387    36500.952 
  484300    295.36412   -1533.1816    527.75463    329.29631   -472.23364    36500.952 
  484400    297.07189   -1595.1971    487.58098    234.82448   -165.04291    36500.952 
  484500    294.29035   -1562.9885    504.38758    271.27013    66.864913    36500.952 
  484600    295.16179   -1570.2361    503.99641    267.56935    178.01689    36500.952 
  484700      286.546   -1579.4573    513.82979    229.24753    679.69668    36500.952 
  484800    301.45679   -1586.3231    518.08014     294.0125    225.95906    36500.952 
  484900    306.64383   -1586.3108    504.97135    304.35583   -312.78598    36500.952 
  485000     297.6498   -1506.8947    495.89567    334.05303    155.69376    36500.952 
  485100    296.83108   -1599.1497    511.98633      254.189   -126.90976    36500.952 
  485200    296.83647   -1577.1744    511.22625    275.42862    78.731705    36500.952 
  485300    297.24808   -1585.0103    517.00597     275.2324   -1.8672023    36500.952 
  485400    300.62595   -1612.7945     508.1059    253.81242    303.79296    36500.952 
  485500    306.98211   -1582.5643     526.1791    330.83871     342.6994    36500.952 
  485600    296.77786   -1625.4538    499.27006    214.92811    233.67534    36500.952 
  485700    296.58394   -1577.7505    500.62158    263.10658    561.60109    36500.952 
  485800    295.25791   -1610.5579    488.14083    211.82627    652.11922    36500.952 
  485900    288.88145   -1570.9923    520.47143    254.90783    483.35036    36500.952 
  486000    292.02013   -1579.5107    512.45191    252.55333    238.95693    36500.952 
  486100    307.29659   -1562.0879    483.40397    309.96115    428.52098    36500.952 
  486200    308.86918   -1558.1118    490.89376    328.53344    845.14113    36500.952 
  486300    308.97372    -1521.341    506.95751    381.84029    1184.2081    36500.952 
  486400    300.46038   -1580.7028    484.75174    261.80178     635.6525    36500.952 
  486500    298.26723   -1550.1923    493.41298    291.06288    16.275317    36500.952 
  486600    298.39604   -1524.9711    517.14809    340.60125    227.80537    36500.952 
  486700     295.1615   -1553.0752    492.89472    273.62718    208.28831    36500.952 
  486800    290.00478   -1561.5377    488.93317    237.90037   -409.77485    36500.952 
  486900    302.77172    -1595.236    487.54386    260.50547   -123.37087    36500.952 
  487000    294.00721    -1558.129    521.36619    291.82874    273.31416    36500.952 
  487100    304.22754   -1562.5322    499.74911    311.99319    137.86946    36500.952 
  487200    301.88757   -1565.6646    499.30801    297.84563    74.815829    36500.952 
  487300    302.74489   -1589.3555    497.93566    276.65649   -216.09108    36500.952 
  487400    297.38288    -1571.221    528.55452    301.17935    551.51792    36500.952 
  487500    295.71835   -1571.9657    501.15177    265.51005    1192.3614    36500.952 
  487600    302.15194   -1541.5277    531.46252    355.33169    469.27006    36500.952 
  487700    300.86756   -1512.9805    512.07432    358.68663    648.21193    36500.952 
  487800    303.41313   -1538.7709     498.4772    330.80232    294.97323    36500.952 
  487900    294.72463   -1562.7041    461.10765    230.23705   -340.33193    36500.952 
  488000    307.37184   -1540.2219    502.96897    351.73219    115.97462    36500.952 
  488100    305.14591   -1526.5657    520.98052    373.34108    164.12264    36500.952 
  488200    287.10712   -1584.3683    506.37699    219.41934    481.81705    36500.952 
  488300    295.66107   -1591.6866    496.75312    241.13169    472.79941    36500.952 
  488400    306.93017   -1540.4221    494.14432    340.71149    273.19808    36500.952 
  488500     306.7896   -1574.3847    492.74427    304.71362   -337.79935    36500.952 
  488600      301.537   -1591.8003    504.90429    275.72196   -412.48713    36500.952 
  488700    293.79947   -1549.2737    497.98704    276.36614   -324.84185    36500.952 
  488800    296.47541   -1573.3113    491.89247    258.32628   -459.93181    36500.952 
  488900    293.09702   -1568.2801    499.77991    255.97829    371.59595    36500.952 
  489000    315.73799   -1543.2778    508.94796     392.4611    105.73768    36500.952 
  489100    301.85078   -1517.8363    530.92981    377.12945    19.309695    36500.952 
  489200    297.02466   -1551.8717     488.4411    278.79652    120.82387    36500.952 
  489300    296.42261   -1541.8035    495.44915    293.15214    625.22246    36500.952 
  489400    293.02375   -1542.3775     511.6632     293.4331    599.34676    36500.952 
  489500    308.78155   -1527.9822    503.83329    371.20648    328.45924    36500.952 
  489600    308.30841   -1513.6695     499.5146     379.0624    86.078085    36500.952 
  489700    298.42156    -1509.508    524.11387    363.14549   -60.945656    36500.952 
  489800    305.09147   -1546.0616    488.98191    321.60055    434.85574    36500.952 
  489900    313.06451   -1560.2181    535.82132    390.31295    691.75378    36500.952 
  490000    292.15972   -1553.6857     496.4477    263.00489    990.89622    36500.952 
  490100     310.2581   -1519.7566    488.31216    370.58334    891.48676    36500.952 
  490200    294.03963   -1541.1356     501.2038    288.80622    117.37789    36500.952 
  490300    294.46354   -1531.5726    512.17249    311.25353   -385.77484    36500.952 
  490400     299.0372   -1503.5334    500.76171     348.5499   -155.08307    36500.952 
  490500    304.17824   -1513.8758    507.68889    368.36657   -303.04618    36500.952 
  490600     290.0233    -1530.582    517.01013     297.0168    96.559865    36500.952 
  490700    295.98398   -1526.7176    504.86796    315.67473    668.33499    36500.952 
  490800     303.1052   -1563.8967    502.88955    308.69732   -143.66488    36500.952 
  490900    299.12637   -1522.5114    498.46546    327.67859   -1002.4441    36500.952 
  491000    301.91594   -1541.6012    486.75411    309.48325   -1095.6026    36500.952 
  491100    297.88818   -1499.8045    522.83316    369.15796    -498.0773    36500.952 
  491200    299.16382   -1566.7519    484.39269    269.53455   -631.18507    36500.952 
  491300    296.28432   -1565.9794    508.58422    281.48642   -96.897064    36500.952 
  491400    292.19819   -1539.6567    520.74983     301.5099    513.99235    36500.952 
  491500    298.45931   -1529.3191    491.74782    311.13886    748.13884    36500.952 
  491600    288.66141   -1516.6289    524.05671    311.86219   -222.42484    36500.952 
  491700    307.27268   -1540.9769    485.32918    332.88921    429.32759    36500.952 
  491800    300.31137   -1492.9868     502.6528    366.74547    244.03003    36500.952 
  491900    304.47412   -1479.8268    513.31443    409.37819    322.99276    36500.952 
  492000    298.61732    -1446.836    474.78254    377.37077    123.21478    36500.952 
  492100    311.62385   -1484.9424    508.57907    431.83616   -373.25443    36500.952 
  492200    294.91926   -1479.5638      500.224    353.37319    127.86245    36500.952 
  492300    295.45455   -1504.9848    513.09787    343.24502   -380.28761    36500.952 
  492400    298.41315   -1482.9301    501.63999    367.21153    92.665257    36500.952 
  492500    296.09808   -1524.9269    509.41199    322.52513   -122.64766    36500.952 
  492600    302.33868   -1556.4011    499.11775    308.95734   -177.56635    36500.952 
  492700    291.31596   -1527.4013    496.08924      285.118    72.306808    36500.952 
  492800    299.48435   -1539.6542     489.4882    303.17626    356.40387    36500.952 
  492900    305.41135   -1594.1838    489.85582    275.79784    672.45236    36500.952 
  493000    304.30584   -1552.9047    487.43108    309.65643     379.6936    36500.952 
  493100    298.18975   -1540.3188    488.91609    296.08933    332.95208    36500.952 
  493200    311.27333   -1532.8798    507.50488    381.24067    613.62729    36500.952 
  493300    302.81225   -1526.0601    494.79493    337.11558   -154.88051    36500.952 
  493400    287.29232   -1515.9586    482.15135    264.44035     135.0864    36500.952 
  493500    295.02808   -1504.3515    533.36381    362.21705    842.55772    36500.952 
  493600    296.80384   -1540.2949    474.67435    275.60872    447.53492    36500.952 
  493700    297.58636   -1521.3527    489.30164    312.71438    -127.0698    36500.952 
  493800    291.96915    -1517.171    500.31085    302.52155   -415.38299    36500.952 
  493900    292.22795   -1501.6031    477.56134     296.5095   -707.97814    36500.952 
  494000    302.42247   -1500.0405    508.74997    375.32882   -768.95838    36500.952 
  494100    297.42748   -1504.2354    476.42321     316.2352      -788.87    36500.952 
  494200     297.8331   -1524.7598    482.60902     303.7296    -849.8868    36500.952 
  494300    307.41767   -1531.0025    501.85255    360.04223   -493.60995    36500.952 
  494400    309.15282   -1537.7762    455.30959    314.56661   -372.24671    36500.952 
  494500    304.41894   -1508.8414    489.95917    356.75899   -52.537009    36500.952 
  494600    299.96897   -1504.6132     516.7186    367.63762    143.93984    36500.952 
  494700    297.45115   -1498.9891    505.48319    350.64847    830.08317    36500.952 
  494800    308.29116   -1554.6138    497.11628    335.64188    304.50377    36500.952 
  494900     289.1436   -1516.3214    479.34565    269.63758    96.645919    36500.952 
  495000    294.42388   -1512.5244    502.25158    320.20159    97.271717    36500.952 
  495100    307.32733   -1505.0135    491.63871    375.40922    508.87701    36500.952 
  495200    296.04751   -1525.9628    512.45223    324.30094   -1.1766105    36500.952 
  495300    287.96577   -1553.8605     489.1199    236.55021     -64.7309    36500.952 
  495400    306.13627    -1554.334    490.64386    319.71152    84.564162    36500.952 
  495500    295.50184   -1568.4838    503.96401    270.82589    163.18999    36500.952 
  495600    299.90045   -1559.1115      478.797    274.90802   -424.08883    36500.952 
  495700    302.32125   -1537.4457    483.08193    311.79815   -328.62573    36500.952 
  495800    294.26008     -1527.53    494.62366    296.82786   -98.892992    36500.952 
  495900    298.38408   -1532.3782    483.04209    299.03408   -315.87682    36500.952 
  496000    298.67425   -1547.3938      493.979    296.26671   -283.21638    36500.952 
  496100    299.23017   -1552.7432     471.7075    271.15793   -370.86325    36500.952 
  496200    296.34779   -1593.3873    493.90121    239.68235   -144.95835    36500.952 
  496300    299.34256   -1528.6528    508.13449    332.18319   -484.96383    36500.952 
  496400    295.28271   -1539.0321    484.16117     279.4845   -17.362977    36500.952 
  496500    300.81166   -1516.7691    484.63201    327.20319   -5.6124869    36500.952 
  496600    306.92517   -1489.7138    529.48708    426.73993    439.38495    36500.952 
  496700    300.84503   -1474.1736    507.87359    393.19103    382.48437    36500.952 
  496800    295.33694   -1448.6919    521.44267    407.35121     7.131192    36500.952 
  496900    286.57508   -1492.7122     524.5833    326.87757   -265.92169    36500.952 
  497000    293.13572   -1479.0106    498.76872    344.41151    98.248104    36500.952 
  497100    307.14229   -1484.3423    500.51766    404.12309    18.518122    36500.952 
  497200    286.61741   -1496.9408    510.39744    308.65431     -256.591    36500.952 
  497300    296.58753     -1453.12    506.42983    393.56165   -166.06896    36500.952 
  497400     304.7906   -1491.5287    512.73432    398.52633     434.8008    36500.952 
  497500    301.07943    -1521.707    486.56397    325.40722    604.44639    36500.952 
  497600     299.0234   -1540.1072    502.45831    313.61039    318.82455    36500.952 
  497700    297.82689   -1483.0915    494.76633    357.52712    410.51009    36500.952 
  497800    285.43869   -1503.5279    487.24572    273.58898    630.11683    36500.952 
  497900    306.38687   -1533.3376    529.03364    380.23017    620.41848    36500.952 
  498000     298.6404   -1511.1602    493.49739    331.86573    1105.0503    36500.952 
  498100     289.7844    -1482.808    516.84599    343.54701    760.16669    36500.952 
  498200    296.03826   -1535.9343    519.67527    321.51065    521.57585    36500.952 
  498300     302.0005   -1519.3863    505.05684    350.38303     1115.821    36500.952 
  498400    313.11915   -1551.6224    485.01791    348.35219    784.73703    36500.952 
  498500    295.78673    -1548.284       528.52    316.86905    617.88237    36500.952 
  498600    300.98776   -1565.3872    497.67322    292.42204    754.89324    36500.952 
  498700    293.08394   -1498.4419    523.28537    349.26287    245.30055    36500.952 
  498800     294.4871   -1554.7177    481.72007    257.76251    61.011485    36500.952 
  498900    289.14027   -1534.1877    490.46678    262.87731   -15.414342    36500.952 
  499000    305.35966   -1552.9683    520.77297    347.69692    447.77225    36500.952 
  499100    301.29277   -1556.6473     505.6225    310.48952    655.61053    36500.952 
  499200    288.39945   -1535.4125    502.77322    270.61129    39.556091    36500.952 
  499300    316.86488   -1568.0521    505.85143    369.68254   -15.177378    36500.952 
  499400    304.16056   -1563.9075    505.05358    315.61971    344.62531    36500.952 
  499500    302.00273   -1539.1459    479.79983    305.37654   -42.728117    36500.952 
  499600    286.16824   -1560.5198    497.56377    230.21188    326.68884    36500.952 
  499700    306.21124   -1586.2095    488.81876    286.34965   -116.29917    36500.952 
  499800    303.53674   -1558.3123    495.23651    308.57887    121.84046    36500.952 
  499900    292.34834   -1557.7609    493.43804    256.77243    879.05091    36500.952 
  500000    306.61591    -1546.785    476.80141    315.58554    233.21691    36500.952 
  500100     307.6613   -1551.4644    511.90285    350.73152    381.11085    36500.952 
  500200    300.30891   -1540.5193    497.84864    314.39773   -156.19599    36500.952 
  500300    312.87879   -1529.3975    487.51006    371.98305   -420.82206    36500.952 
  500400    299.05725   -1525.0054     493.0687    319.47549   -1064.8615    36500.952 
  500500    306.99198   -1514.9021    517.44554    389.81198   -1118.8554    36500.952 
  500600    296.50685   -1532.4961    489.68691    297.07802   -1005.9511    36500.952 
  500700     305.6336    -1511.315     489.8318    359.64696   -608.85031    36500.952 
  500800    311.45068   -1547.1517    533.73657    394.00179   -447.43002    36500.952 
  500900    292.38935   -1542.3868    490.07921    268.97298   -37.154982    36500.952 
  501000    293.29794   -1525.2318    512.60649    312.76108   -24.124905    36500.952 
  501100    296.30763    -1568.339    532.22323    302.87112     185.3054    36500.952 
  501200    297.65207    -1500.417    507.00379    351.64913    43.895621    36500.952 
  501300    298.05664   -1473.7243    505.12957    378.29583   -311.44844    36500.952 
  501400    316.16418   -1526.1292     512.4327    415.02035   -220.12489    36500.952 
  501500    294.64475   -1508.8283    512.31046    334.95472    91.954027    36500.952 
  501600    291.91063   -1520.0522    502.63768    301.70279    12.025907    36500.952 
  501700     301.2043   -1517.0278    496.50802    340.59478    344.32523    36500.952 
  501800    295.65425   -1577.9933    492.81955    250.86062      263.784    36500.952 
  501900    298.52125   -1533.3646    516.35928     331.9847    495.12507    36500.952 
  502000    309.33905    -1558.546    519.70959    359.03835    656.85561    36500.952 
  502100    313.68084    -1528.081    482.05355    371.46739    542.93851    36500.952 
  502200     296.1058   -1515.9148    490.12203    312.28208    178.68493    36500.952 
  502300    297.04778   -1528.8667     521.3138    334.77865    154.20782    36500.952 
  502400    313.67147   -1535.1852    500.75672      383.024    788.68257    36500.952 
  502500    294.53863   -1547.6882    502.19286    285.49766    506.36678    36500.952 
  502600    292.74794   -1542.6906    505.97471    286.18516    556.67446    36500.952 
  502700    306.45177   -1528.2581    478.62639    335.19561    610.32638    36500.952 
  502800    310.06334    -1483.688    500.27019    417.72986    16.811757    36500.952 
  502900    304.00637   -1544.1698    491.63859    321.24563    527.73623    36500.952 
  503000    291.45828   -1540.4446    493.19666    269.82526   -28.638262    36500.952 
  503100    290.95326   -1520.1229    522.55212    317.22026   -563.28447    36500.952 
  503200      292.884    -1552.937    507.78891    278.36774   -521.29909    36500.952 
  503300    299.61008   -1509.9103     517.4615    361.46157    -408.4583    36500.952 
  503400    292.26987   -1538.5394    498.81602    281.01727    -800.7546    36500.952 
  503500    301.81144   -1550.1881    513.56561    327.23569    -353.6767    36500.952 
  503600    304.58291   -1529.6327    479.38107    326.13049   -83.787412    36500.952 
  503700    294.03184   -1512.9368    520.61596      336.382   -410.85695    36500.952 
  503800    307.78174   -1517.9778    516.70286     389.5624   -190.49681    36500.952 
  503900    301.22088    -1550.881    514.05745    324.36591   -509.21643    36500.952 
  504000    293.32589   -1578.3262    494.89761     242.0841   -269.95605    36500.952 
  504100    297.03262   -1532.3185    505.76628    315.71092   -343.29979    36500.952 
  504200    295.67659   -1531.5889    482.86115    287.40754   -50.021837    36500.952 
  504300    310.27954   -1526.9293    504.89025    380.08567   -1.8816604    36500.952 
  504400    308.58611   -1467.8829    519.83282    446.42212    30.045451    36500.952 
  504500    311.49345   -1521.5632    515.31191    401.35891     236.0001    36500.952 
  504600    294.32901   -1538.4495    497.14336    288.73962   -127.26271    36500.952 
  504700    291.58724   -1532.6268    509.08835     294.1175   -417.05971    36500.952 
  504800    304.58936   -1519.6696    523.44914    380.19081     -266.717    36500.952 
  504900    299.29649   -1506.9064    501.11737    346.70431   -708.23868    36500.952 
  505000    302.92886   -1520.9429    515.28912    363.25386   -62.694227    36500.952 
  505100    294.94184   -1573.3305    522.63957    282.12413    199.96781    36500.952 
  505200    283.54118   -1553.4674    488.28126     216.1104    234.51022    36500.952 
  505300    296.37994   -1526.9353    528.13494    340.51333   -4.6312617    36500.952 
  505400    303.22575   -1562.8131     532.7361    340.17228   -101.61754    36500.952 
  505500    304.92088   -1540.7025    469.98387    307.19076   -332.20638    36500.952 
  505600    296.94829   -1553.5556    504.49138     292.8178   -102.83597    36500.952 
  505700    297.36475   -1572.3461    490.27542    261.69328   -409.33566    36500.952 
  505800    308.75521   -1574.4838    515.24331     335.9959    698.78162    36500.952 
  505900    308.52265   -1514.4731    494.73484    374.44721    79.250316    36500.952 
  506000    302.96685   -1551.9249    494.77476    311.92916   -239.84641    36500.952 
  506100    292.46737   -1567.4402    500.12784    254.32077    143.07379    36500.952 
  506200    299.08238   -1530.6427    515.62538    336.50849   -89.476831    36500.952 
  506300    306.32237   -1516.6829     493.4762    361.03592   -299.00068    36500.952 
  506400    302.28977   -1555.7362    512.40918    322.69262    387.05465    36500.952 
  506500    288.61218   -1554.9533      507.772    257.03063   -509.25855    36500.952 
  506600    293.85321   -1588.4903    522.35434    261.75971    93.181585    36500.952 
  506700    292.37142   -1548.3566    522.94458    295.78751    136.46289    36500.952 
  506800    303.36547   -1564.2713    506.64428    313.25364   -34.128501    36500.952 
  506900    307.78068   -1503.8806    507.12917    394.08114    293.05924    36500.952 
  507000    305.12555    -1557.574    512.46247    333.72281    675.23122    36500.952 
  507100    297.32014   -1601.3205    503.22218    245.46407     412.5363    36500.952 
  507200    311.84305   -1559.9099     504.4525     353.7326    180.57498    36500.952 
  507300    293.20014   -1565.2546    503.42934    263.11921   -165.55392    36500.952 
  507400    300.77899   -1591.4629    503.75812    271.48783    273.58156    36500.952 
  507500    301.65537    -1596.226    506.19562    273.12254   -13.334332    36500.952 
  507600    296.08882   -1538.6208    517.11268    316.48997   -382.31066    36500.952 
  507700    298.86884   -1603.9793    500.82131    247.40283    -600.1444    36500.952 
  507800     292.3533   -1591.4464    509.99208    239.66331    -601.4222    36500.952 
  507900     308.7841    -1597.646    494.29558    292.01651   -154.98494    36500.952 
  508000    307.59037   -1576.8574    493.39772    306.51292   -557.17412    36500.952 
  508100    299.50683   -1557.5449    487.97441    283.87331   -532.07679    36500.952 
  508200     285.1501   -1585.5941    525.68137    228.65438    23.006201    36500.952 
  508300    299.43065   -1599.7058    514.46208    267.85579    323.50003    36500.952 
  508400    290.57964   -1552.1447    493.64656    254.60449    702.35842    36500.952 
  508500    299.40614    -1599.734    523.21485    276.46968    641.42203    36500.952 
  508600    298.75672   -1626.6615    485.47623    208.86888    376.83515    36500.952 
  508700    304.92101   -1631.5838    536.34425    282.67048    343.22307    36500.952 
  508800    294.26748   -1581.7929    505.29428    253.26905   -153.09677    36500.952 
  508900    296.80335   -1572.4708    501.94397     270.7002   -10.132765    36500.952 
  509000    296.68633   -1601.6733    496.95516    235.98014   -225.84889    36500.952 
  509100    300.21953   -1610.1185    506.48474    253.03063   -547.83398    36500.952 
  509200    305.87516   -1596.1713    516.22265    302.27306   -331.84671    36500.952 
  509300    292.23841    -1608.113    474.73119    187.21666    262.66064    36500.952 
  509400    296.23779   -1587.5118    495.69557    246.85512   -457.78347    36500.952 
  509500    295.90458     -1593.77    499.32232    242.71794    501.41003    36500.952 
  509600    300.46919   -1610.6552    527.18612    274.32352   -89.529171    36500.952 
  509700    297.91366   -1572.3963    533.93082    307.77893   -80.024173    36500.952 
  509800     299.0147    -1549.402    519.51087    321.32882   -880.77651    36500.952 
  509900    299.91721   -1532.5133    502.42755    325.21251   -659.14597    36500.952 
  510000    290.46083   -1560.3803    529.60561     281.7911   -348.98783    36500.952 
  510100    286.92916   -1546.2141     505.6247    256.01707   -826.54857    36500.952 
  510200    292.99502   -1533.2077    519.43877    310.24855   -427.54504    36500.952 
  510300    294.45807   -1556.4588      502.228    276.39814   -326.61153    36500.952 
  510400    303.37597   -1526.8679    535.46465    379.52485   -535.24965    36500.952 
  510500    301.00296   -1536.2537    511.37701    335.32801   -254.96847    36500.952 
  510600    299.78388   -1585.8949    528.55096    297.35182   -336.66055    36500.952 
  510700    291.68353    -1545.204    494.04596    266.93302   -334.59826    36500.952 
  510800    299.82517   -1570.0957    527.51688    312.30352   -779.41983    36500.952 
  510900    302.52133   -1548.4086    524.97179    343.62926   -715.71122    36500.952 
  511000    296.92776   -1534.1929    521.09689    328.69318   -1046.9765    36500.952 
  511100    306.90833   -1532.8328     519.3552    373.41297   -797.02264    36500.952 
  511200    294.38138   -1564.8818    537.25819     302.6588   -204.05377    36500.952 
  511300     300.9573   -1521.4875    544.37222    382.88312    265.73651    36500.952 
  511400    298.18034   -1556.7114    501.99792     292.7361   -734.07244    36500.952 
  511500    300.83524   -1540.5399    517.22772    336.13459   -615.03547    36500.952 
  511600    306.16555   -1548.3771    499.96254    335.11934   -378.18164    36500.952 
  511700    304.11118   -1540.5809    480.33515    314.00471     358.5691    36500.952 
  511800    299.54865   -1568.5221    532.46657    317.57728   -187.70872    36500.952 
  511900    301.20352   -1601.5211    531.73673    291.32664   -55.068532    36500.952 
  512000    299.42359   -1565.7202    483.12775    270.47518   -208.18615    36500.952 
  512100    299.18416   -1562.0265    500.46796    290.42712    159.10801    36500.952 
  512200    307.03993   -1526.5062    489.34677    350.32574    248.06916    36500.952 
  512300    293.69828   -1528.3083    531.61423    330.50139   -264.15726    36500.952 
  512400    297.56892   -1571.4445    502.20262    275.44468     5.285619    36500.952 
  512500    295.27064   -1558.8344    518.35723    293.82369    -221.8762    36500.952 
  512600    296.28463    -1539.862     533.7875    332.80846   -609.68639    36500.952 
  512700    291.55976   -1560.7591    487.83852    244.61116   -393.14323    36500.952 
  512800    306.29758   -1550.1419    546.87116    380.85988    223.43407    36500.952 
  512900    300.22905    -1572.101    494.85949     279.4659   -458.38603    36500.952 
  513000    298.93952   -1581.5284    503.05353    272.40536   -550.21739    36500.952 
  513100    299.60703   -1620.7973    500.06973    233.16905   -728.22904    36500.952 
  513200    295.20144   -1585.2782    492.19617    240.90616    446.48686    36500.952 
  513300     292.5169    -1574.407     520.4796    267.92957    572.57273    36500.952 
  513400    303.77582   -1563.2036    521.27827    330.80969    598.77499    36500.952 
  513500    290.35629    -1548.459    512.48331    276.11768    458.41779    36500.952 
  513600    293.10888   -1551.5013    497.48566    270.51644   -82.264216    36500.952 
  513700     297.8753   -1559.9569    502.34155    288.45576   -306.05189    36500.952 
  513800    301.67767   -1543.2947    513.87416    333.83313   -333.60938    36500.952 
  513900    309.06084   -1530.4668    505.08899    371.23968   -449.88033    36500.952 
  514000    306.31855   -1531.8138    510.24663    362.65821   -283.93162    36500.952 
  514100    311.52645   -1494.5643     515.4833    428.67835    192.67154    36500.952 
  514200    294.22995     -1507.85    526.36244    348.11053     263.4307    36500.952 
  514300    295.99123   -1526.1458     505.2962    316.70753    71.009244    36500.952 
  514400    296.94825   -1550.8003    512.13989    303.22146    454.32997    36500.952 
  514500    297.11496   -1530.5582    493.92722    306.00419    774.15315    36500.952 
  514600    297.29972   -1569.3909     509.8237    283.90289    140.23706    36500.952 
  514700    299.61559   -1525.2894    533.73099     362.3769    469.65908    36500.952 
  514800     298.1567   -1520.4638    508.45696     335.3359   -82.958323    36500.952 
  514900    315.20594   -1542.0916    512.09528     394.3904   -466.82093    36500.952 
  515000    310.20214     -1510.78    511.17013    402.16503   -20.565883    36500.952 
  515100    299.58568   -1501.0434    526.84527    379.60201    141.63761    36500.952 
  515200    297.14088   -1497.7599    500.41278    345.40523   -407.27987    36500.952 
  515300    301.64829    -1490.941    556.86647    429.04638   -257.68684    36500.952 
  515400    299.47998   -1472.6408    537.66518    418.34681   -255.85772    36500.952 
  515500     304.0474   -1478.5029    521.85507    417.31443    165.14653    36500.952 
  515600    308.67972   -1504.8278    521.10046    411.16797   -280.17549    36500.952 
  515700    300.83743   -1477.5508    530.65724    412.56312   -189.06636    36500.952 
  515800    291.68219   -1513.3132    521.74206    326.51387    48.483747    36500.952 
  515900    296.73056   -1527.3159    543.23966    356.82192    454.27831    36500.952 
  516000    302.14351   -1542.6056    503.60076    326.35386   -296.39891    36500.952 
  516100    286.30286   -1506.2944    536.90956    324.39142   -47.687531    36500.952 
  516200    304.37991   -1503.0527    508.32682    380.73893   -41.362216    36500.952 
  516300    302.71804   -1485.5197    538.01608    420.45138      20.6353    36500.952 
  516400    299.93298   -1490.9167    517.73175     382.1846   -270.94426    36500.952 
  516500     305.7738   -1512.2204    523.53485    393.07811    -412.2253    36500.952 
  516600    292.45657   -1514.9002    499.41044    306.09457   -592.56487    36500.952 
  516700    312.20461   -1550.3524    517.50719    377.97869   -138.85748    36500.952 
  516800    297.51463   -1574.8162    511.76126    281.38629   -474.26374    36500.952 
  516900    293.49957   -1552.9843    539.50837    312.82162   -18.265686    36500.952 
  517000    308.31816    -1502.113    537.67429    428.82268    163.31902    36500.952 
  517100    298.10873   -1525.6397    522.53633    344.02263    360.34198    36500.952 
  517200    289.40324   -1543.4067    516.81447    281.19441   -540.84813    36500.952 
  517300    290.17459   -1517.0282    509.65366     303.8978     508.1568    36500.952 
  517400    303.33952   -1552.1923    489.81463    308.38567    57.279095    36500.952 
  517500    302.01822   -1561.5362    514.76082     318.0172     13.61682    36500.952 
  517600    291.32952   -1569.1083    530.19715    277.58016    153.19534    36500.952 
  517700     304.6223   -1546.1119    512.01812    342.46635    202.53792    36500.952 
  517800    299.53112   -1569.7148    511.48157    295.32036    333.19205    36500.952 
  517900    303.93295   -1549.2196    515.42313    339.64856    204.11221    36500.952 
  518000    288.44592   -1535.2657    521.12879    289.32371   -44.674751    36500.952 
  518100    304.13259   -1509.0266    506.67901    371.99966   -158.14267    36500.952 
  518200    305.10436   -1497.1066    519.20196    400.83393    55.510171    36500.952 
  518300    302.10304   -1537.2979    537.15212    365.03004    443.38477    36500.952 
  518400    294.43964   -1505.2658    540.20878    365.48865    463.34826    36500.952 
  518500    296.44277   -1570.7281      513.297    282.16648   -57.367681    36500.952 
  518600    301.72129   -1548.7822     503.9245    318.59306    335.85056    36500.952 
  518700    306.54939    -1514.637    517.83402    388.46555    367.20907    36500.952 
  518800    306.22153   -1519.5282    530.83719    395.09596    613.26725    36500.952 
  518900    306.37852    -1572.602    519.78042    331.67476    872.80917    36500.952 
  519000    298.02828   -1519.8154    496.73874    323.68566    243.34097    36500.952 
  519100     294.0047   -1506.8922    504.22379    325.91176    115.75656    36500.952 
  519200    310.62505   -1531.4145    511.95673    384.22823   -286.23931    36500.952 
  519300    294.74756   -1534.3166    515.26095    312.88149   -579.18723    36500.952 
  519400    287.56652   -1556.4961    512.89002    255.88054   -116.00965    36500.952 
  519500    291.27264   -1548.4696    501.15574    268.92042      468.734    36500.952 
  519600    299.89329   -1522.6686      493.799    326.32058   -5.4056479    36500.952 
  519700    297.66512   -1526.4958    535.43502    354.06051   -419.44593    36500.952 
  519800    304.80922   -1553.4368    483.40633    307.37434    -351.4231    36500.952 
  519900    313.46769   -1509.8746    512.81677    419.47389   -225.67546    36500.952 
  520000    293.29934   -1504.2232    509.15528    330.32481   -421.82403    36500.952 
  520100    300.76897   -1494.8497    532.82985    397.12747   -198.35787    36500.952 
  520200    285.30075   -1553.6566     515.6846    251.27583   -286.89976    36500.952 
  520300     304.9262   -1489.3805    550.78963    439.34262   -841.82568    36500.952 
  520400    296.12706   -1489.7005    493.31628    341.78678   -979.47101    36500.952 
  520500    303.30803   -1486.6693    527.10439    411.05615   -727.02439    36500.952 
  520600    292.55919   -1529.4399    521.21182    313.81995   -458.17157    36500.952 
  520700      296.462    -1556.142    514.68107    298.22357    -932.2452    36500.952 
  520800    301.82581   -1525.7828    529.48205    367.62235   -591.01169    36500.952 
  520900    312.86159   -1512.6395    524.35717    425.51041   -271.43342    36500.952 
  521000    291.23152   -1550.1136    507.56115    273.49597   -545.41829    36500.952 
  521100    293.51566    -1557.557    532.39309    301.20637    87.088297    36500.952 
  521200     308.4174   -1558.6034    531.66778    366.77422   -116.70754    36500.952 
  521300    305.03935    -1547.433    502.55489    333.56664    -76.09213    36500.952 
  521400    308.09845   -1579.4558    503.60965     316.4224    205.73836    36500.952 
  521500    308.37907   -1559.1054    521.25467     355.6859    383.41428    36500.952 
  521600    301.56528   -1567.1203    513.90848     309.5339     404.4339    36500.952 
  521700    292.14898   -1576.0756    512.45442    256.57316    178.63824    36500.952 
  521800    290.86411   -1556.0305    521.21056    279.56818   -234.31457    36500.952 
  521900    299.27746   -1529.6019    498.98999    321.79536   -193.04227    36500.952 
  522000    302.99017   -1567.4735    531.79336    333.50456   -108.91659    36500.952 
  522100     296.5749    -1564.589    488.59293    264.19867   -183.71484    36500.952 
  522200    302.86983   -1577.7568    550.08311    340.96727    226.24736    36500.952 
  522300    295.20754   -1586.7876    504.99028    252.21843    225.25824    36500.952 
  522400    297.25206   -1555.9189    517.94862    305.28443   -308.95503    36500.952 
  522500    292.61666   -1508.5415    515.05989    328.82616    137.27192    36500.952 
  522600    306.74133   -1556.4483    515.50591    345.19353    436.99423    36500.952 
  522700    304.41208   -1549.0217    526.03474     352.6232    193.50444    36500.952 
  522800    289.79449   -1564.7537    515.34709    260.14802    199.19875    36500.952 
  522900    297.04518   -1542.8682    527.78664    327.23834    499.22049    36500.952 
  523000    293.44655   -1536.4831    524.87509    314.45002    538.41728    36500.952 
  523100    293.18428   -1532.6707     542.9781    335.18015    507.08484    36500.952 
  523200    299.45272   -1539.2333    508.81009    322.77607    123.07849    36500.952 
  523300    302.58735   -1588.4009    500.94162    279.90519    597.95152    36500.952 
  523400     286.1678   -1569.9432    519.48332    242.70607     316.1977    36500.952 
  523500    292.23465   -1558.0624    525.18597    287.70508    403.03296    36500.952 
  523600    300.48106   -1525.9502    516.34403    348.24013   -138.95923    36500.952 
  523700    304.74929   -1527.6461    509.10139    358.58936    156.84848    36500.952 
  523800    297.58644   -1545.8473     517.5577    316.47612    356.47516    36500.952 
  523900     298.4936    -1555.136    528.87539    322.60452    629.29018    36500.952 
  524000    291.09824   -1559.9064    528.38322    283.92302     198.4552    36500.952 
  524100    296.47229   -1536.2556    511.91582    315.39127    347.73798    36500.952 
  524200    295.78876   -1536.9198    525.18608     324.9085    274.26346    36500.952 
  524300    302.30824    -1545.153    524.31995    345.27012    11.363188    36500.952 
  524400    301.26676   -1525.4867    538.51365    374.42374   -549.67221    36500.952 
  524500    293.17856   -1562.2922    524.47233    287.02708   -127.96473    36500.952 
  524600    309.17308   -1538.4258    501.74725    360.44618    36.695483    36500.952 
  524700    301.71257   -1546.7726    510.10924    326.74799    129.53749    36500.952 
  524800    314.57168   -1561.0063    515.96263    376.47686    207.59117    36500.952 
  524900    296.49234   -1583.3741    486.76064    243.20811   -98.240597    36500.952 
  525000    303.53475   -1533.0869    501.60888    340.16762   -21.737663    36500.952 
  525100    289.49507   -1584.7499    508.83257    232.28431   -234.98878    36500.952 
  525200    306.13955   -1537.3139    506.03115    352.13374     173.0139    36500.952 
  525300    297.08212   -1595.6813    510.63065    257.43613    12.559267    36500.952 
  525400    303.21425   -1561.1881    506.44778    315.45696    710.88142    36500.952 
  525500    289.60175   -1554.9627     517.1362    270.85723    -506.1612    36500.952 
  525600    306.86656   -1526.6786    529.18446     389.2076   -307.11637    36500.952 
  525700    298.54145   -1571.2546    511.83372    289.66047    -159.8217    36500.952 
  525800    298.69897    -1569.001    508.43156    289.22377   -446.79594    36500.952 
  525900     303.2058   -1608.7816    487.62821    249.00572    139.82402    36500.952 
  526000    295.44193   -1613.9534    496.38787    217.50934   -647.44487    36500.952 
  526100    309.37403   -1622.5748    495.24356    270.70153    253.92581    36500.952 
  526200    305.07044   -1578.9387    497.32708    296.97363    45.258838    36500.952 
  526300    311.05079   -1630.9871    522.67253    297.29537   -507.20942    36500.952 
  526400    300.08216    -1620.444    508.61648    244.21619    297.59234    36500.952 
  526500    289.88744   -1627.9723     501.2339    183.23629    141.49543    36500.952 
  526600    292.45439    -1594.844    520.22038    246.95083    249.81686    36500.952 
  526700    300.50796   -1605.9248    503.15722    255.20023    378.61877    36500.952 
  526800    305.38793   -1584.7072    554.26185    349.57464   -67.466927    36500.952 
  526900    293.57161   -1569.9799    496.68955    253.33271   -73.342774    36500.952 
  527000    289.54871    -1560.193    514.95324    263.20422   -398.78885    36500.952 
  527100    305.93204   -1576.4019    499.21292    305.28975   -947.88217    36500.952 
  527200      293.631   -1591.4168    483.40576    218.88042   -1284.6554    36500.952 
  527300    302.44878   -1572.3758    515.99247    310.35486   -602.52094    36500.952 
  527400     295.1519   -1561.3446    509.95568    282.37535   -388.72848    36500.952 
  527500    303.23107   -1583.6628    533.46344    320.07392   -553.25655    36500.952 
  527600    303.86805   -1596.8558    497.08624     273.3822    -258.8222    36500.952 
  527700    303.92854   -1586.5073    510.60429    297.52215   -6.2790254    36500.952 
  527800    302.50447   -1555.9722    511.56318    322.58085    331.07881    36500.952 
  527900    300.95403   -1523.7559    537.76655    373.99429    315.24133    36500.952 
  528000    301.73586   -1574.8438    495.05098    283.72384   -223.81218    36500.952 
  528100    295.66963   -1576.9632     529.7309    288.87152    312.72706    36500.952 
  528200    305.62557   -1552.7984    525.51685    353.81232    481.82007    36500.952 
  528300    297.16183   -1610.6437    498.18863    230.39186    268.90071    36500.952 
  528400    309.82377   -1574.1317    522.30884    348.24226    213.22715    36500.952 
  528500    296.42061   -1580.4841    493.42595    252.43937    92.620528    36500.952 
  528600    298.68167   -1579.9869    544.23368    313.96185    136.28489    36500.952 
  528700    312.71111   -1604.9829    494.92953    303.05934    541.88089    36500.952 
  528800    295.85995   -1583.7862    488.26275    241.44042   -593.07826    36500.952 
  528900    303.12774   -1557.5912    511.43357    323.64875    -544.3034    36500.952 
  529000    298.05937   -1589.9607    489.67359    246.61583     -141.529    36500.952 
  529100    308.67565   -1583.2577     479.5478    291.16699   -16.697001    36500.952 
  529200     303.1962   -1606.4642    512.06683    275.71839    256.17681    36500.952 
  529300    293.20174   -1597.9204    505.32128    232.35257   -128.59706    36500.952 
  529400    305.41681   -1612.4646    494.87317    262.55901    -61.58445    36500.952 
  529500    300.39044   -1566.8288    558.06485    348.67285   -248.75716    36500.952 
  529600    302.58661   -1600.0827    486.82773    254.10613   -89.360589    36500.952 
  529700    298.37708   -1571.1234    537.38631    314.60149   -293.39443    36500.952 
  529800    300.43124   -1584.9758    490.94499    263.59038    113.99772    36500.952 
  529900    299.67128   -1564.1619    492.86007    282.88506   -27.904534    36500.952 
  530000    299.07321   -1587.3128    509.67225     273.8438     166.9053    36500.952 
  530100    312.16936   -1596.6735    500.31889    314.31001    505.05569    36500.952 
  530200    297.09681   -1554.2207    520.29545    308.62797    380.52739    36500.952 
  530300    294.61497   -1565.2123    487.53214    253.65775   -142.84833    36500.952 
  530400    296.47582    -1566.685    532.04757    305.10956   -542.62878    36500.952 
  530500     300.5972   -1625.0151    488.44289    221.79885   -187.19402    36500.952 
  530600    291.56866   -1584.6346     506.3112    239.24861    -416.5575    36500.952 
  530700    294.93465   -1537.8151    511.09923    306.06666   -450.80042    36500.952 
  530800    290.18757   -1556.3577    511.87405    266.84731    -958.1071    36500.952 
  530900    290.59762   -1534.9986    508.84737    287.03268    -610.7899    36500.952 
  531000    290.21845   -1562.5311    507.54756    256.48694    -536.6136    36500.952 
  531100    293.06246   -1597.0526    495.93866    223.20839   -25.956787    36500.952 
  531200    295.66491   -1562.9774    501.07447    274.17964    678.33118    36500.952 
  531300    311.12173   -1543.1851    529.97112    392.71646    433.09856    36500.952 
  531400    297.28054   -1536.3285    511.07235    318.12727   -15.087265    36500.952 
  531500    305.29254   -1465.8563    509.26937    423.00192    466.73783    36500.952 
  531600    288.36851    -1490.307    524.65151    337.45526    97.989809    36500.952 
  531700    300.05333     -1508.39    499.69745    347.22084   -65.642676    36500.952 
  531800    301.31379   -1518.5341     518.9773    362.05249    479.73805    36500.952 
  531900    287.79286   -1547.9687    520.45534    272.99611    175.87409    36500.952 
  532000    296.78852   -1563.7203    488.26521    265.70494   -726.88274    36500.952 
  532100    300.83844    -1584.143    498.65168    273.96991    255.83948    36500.952 
  532200    300.28214   -1573.2138    514.23302    297.96658    71.845332    36500.952 
  532300    299.30239    -1587.768    494.91085    259.66287   -29.157078    36500.952 
  532400     302.7353   -1588.7345    498.86062    278.15912    762.10317    36500.952 
  532500     304.9198   -1588.1567    521.25522    311.00308    366.55203    36500.952 
  532600    297.64034    -1559.913    526.57556    311.67191    213.28171    36500.952 
  532700    296.08958   -1589.3048    507.16427     255.8611    117.29118    36500.952 
  532800    304.35992   -1658.6888    504.45279     221.1385    102.00802    36500.952 
  532900    301.76786   -1624.0619    483.36867    222.96803    115.15734    36500.952 
  533000    303.46125   -1596.9109    517.78168    292.18426    425.57179    36500.952 
  533100    298.33559   -1586.5382    486.39371    248.00658    607.88721    36500.952 
  533200    299.98511   -1579.3598    518.54408    294.78945    600.51394    36500.952 
  533300    299.80176   -1621.8955     504.5883    237.46937    981.22919    36500.952 
  533400    307.37629   -1603.9762    522.80903    307.83808    386.34661    36500.952 
  533500     301.1658   -1575.0142    498.61309    284.53947    275.84236    36500.952 
  533600    293.61402   -1598.0293    499.48269    228.26817    9.3002546    36500.952 
  533700    306.37711     -1547.75    515.49062    352.23062    216.26817    36500.952 
  533800    311.86555   -1547.2012    507.99975    370.09029   -183.76615    36500.952 
  533900    283.82661   -1554.5105    508.36734    236.44323   -186.76037    36500.952 
  534000     307.4387   -1552.6561    517.60419    354.23532   -506.38843    36500.952 
  534100    305.43164   -1555.6536    510.63664    335.20051   -579.33284    36500.952 
  534200    301.29539   -1565.4793    528.07732    324.12418   -86.676092    36500.952 
  534300    306.76043    -1566.225    529.83487    349.83207   -470.83867    36500.952 
  534400    303.74998   -1547.5183    521.35514    346.45508   -679.04127    36500.952 
  534500    296.02566   -1555.2029    474.11914    256.62895   -264.11514    36500.952 
  534600    287.35567   -1531.2453    561.43857    328.72711   -471.09381    36500.952 
  534700    304.69714   -1548.7366    518.47475    346.63654   -124.61901    36500.952 
  534800    304.90192   -1589.2753    506.64275    295.19121   -100.30916    36500.952 
  534900    306.83716    -1549.285    519.98537    357.26932    813.54479    36500.952 
  535000    296.66455   -1564.1483    515.60822     292.0597    162.83024    36500.952 
  535100    294.04324    -1576.157    493.49702    246.09439    168.78898    36500.952 
  535200    295.78436   -1570.2418    522.32055    288.70109     358.9593    36500.952 
  535300    299.59256   -1536.6651    510.76588    327.93197    146.90773    36500.952 
  535400    299.63938   -1560.8057    514.08227     307.3194     462.2116    36500.952 
  535500    291.65929   -1587.1814    545.65345    276.45361    -127.2749    36500.952 
  535600    298.20599   -1573.3278    501.67556    275.91317   -41.329101    36500.952 
  535700    304.09483   -1578.9674    531.15486    326.36399    254.96309    36500.952 
  535800    293.94602   -1536.2503    503.29604    295.36076   -360.92735    36500.952 
  535900    305.16031    -1532.436    519.71751    366.27284    396.03688    36500.952 
  536000    289.00969   -1555.1738    541.67321    292.50759    288.93694    36500.952 
  536100    298.03318   -1552.1824    487.34228    281.94442    28.807834    36500.952 
  536200    306.01521   -1593.9296    508.68909    297.61409   -261.68925    36500.952 
  536300    292.69799   -1541.8355    520.93526    301.77502   -142.36459    36500.952 
  536400    293.00175   -1577.3231    507.26893    253.99373    25.585469    36500.952 
  536500     303.7866   -1558.3732    522.45399    336.86452   -26.695393    36500.952 
  536600    293.38605   -1558.9212     524.0404    290.90384    120.15225    36500.952 
  536700    296.10839    -1598.507    512.53916    252.11871   -175.34562    36500.952 
  536800    301.10135   -1542.0484    546.07678     364.6777    378.94896    36500.952 
  536900    293.70177   -1527.5847    506.98139    306.60796    248.24937    36500.952 
  537000    303.91503     -1516.16    531.82774     389.0318     559.9175    36500.952 
  537100    296.01994   -1500.3153    526.99173    364.36332    218.76315    36500.952 
  537200     301.4975   -1540.3335    495.25099    317.35694    553.01519    36500.952 
  537300    288.69555   -1524.7782    530.39649    310.20688    650.13445    36500.952 
  537400     299.9359   -1476.0072    509.89212    389.26766    287.62262    36500.952 
  537500    294.86022   -1509.7874    518.65897    341.31778   -230.35847    36500.952 
  537600    303.88273   -1543.6732     505.1878    334.73268   -36.543312    36500.952 
  537700    307.08923   -1535.4346    479.83825    332.11157    222.67425    36500.952 
  537800    296.24043   -1549.3884    523.85006    313.14496    21.548487    36500.952 
  537900    303.35284   -1507.6806    512.16709    375.31007    429.47577    36500.952 
  538000    302.16621   -1530.7291    521.77922    356.51144    441.02349    36500.952 
  538100    307.57534   -1532.4635    511.25417    368.69531    441.08938    36500.952 
  538200    297.70606   -1469.9543    545.19211    420.54411   -93.439929    36500.952 
  538300    301.85483   -1489.0452    520.41226    395.42127     495.2849    36500.952 
  538400    301.23646   -1515.9273    503.38158    348.71414    106.25425    36500.952 
  538500    303.89255   -1538.4401    483.62581     318.4482    806.79971    36500.952 
  538600    293.47969   -1475.8758    526.15793    376.48988     187.0881    36500.952 
  538700    291.86453   -1529.5229    508.35876    297.74483   -113.44187    36500.952 
  538800    292.51822   -1524.4978    490.80712    288.17221   -297.88063    36500.952 
  538900     298.1132   -1515.5604    495.88181    327.46749   -100.78415    36500.952 
  539000     298.4525   -1522.8895    521.31946    347.10936   -62.115501    36500.952 
  539100    296.24135   -1533.0006    545.75544    351.44229   -265.77977    36500.952 
  539200    302.04455    -1499.454    520.93953    386.39708   -334.23838    36500.952 
  539300    303.70619   -1506.5985    522.34917    388.17097    199.20327    36500.952 
  539400    299.89596   -1522.6623    526.86534    359.40533   -286.87612    36500.952 
  539500    302.11623    -1558.564    498.24486    304.91633    623.59687    36500.952 
  539600     285.3721   -1491.8742    528.94034    326.63639    468.60867    36500.952 
  539700    301.62371   -1511.4289    521.70072    373.28159    467.76432    36500.952 
  539800    292.44442   -1510.0956    534.25895    345.69281    163.84935    36500.952 
  539900    302.12931   -1523.0333    508.04363    350.30496    244.17718    36500.952 
  540000    309.14234   -1554.0228    483.60584    326.56885    350.71947    36500.952 
  540100    295.49409   -1526.0925    509.02464    318.24273    400.34725    36500.952 
  540200    297.24402   -1527.1417     555.5589    371.63559    740.86018    36500.952 
  540300    294.47574   -1580.3905    488.49707    238.81533    667.68792    36500.952 
  540400    293.95864   -1522.9827    516.97835    322.36776    244.67889    36500.952 
  540500    311.72351   -1476.5542    508.94011    441.03577    335.55719    36500.952 
  540600    288.96815   -1513.4459    497.27697    289.65155   -377.99298    36500.952 
  540700    311.16089   -1533.4171    508.28813    380.97845   -609.96883    36500.952 
  540800    298.85169   -1545.4135    486.95198    292.02174    15.012534    36500.952 
  540900    298.16895   -1547.3125    480.76247    280.84803   -197.70031    36500.952 
  541000    311.51056    -1523.196    518.09795    402.58945   -34.323091    36500.952 
  541100    306.73154   -1485.6068    527.78359    428.26841   -91.756385    36500.952 
  541200    289.91579   -1508.3101     506.4746     308.2673    174.24467    36500.952 
  541300    288.56186    -1490.973    520.07576     333.0873   -463.42379    36500.952 
  541400    296.15404   -1504.4461    480.10421    313.95099   -530.36603    36500.952 
  541500    310.31829   -1519.2495    511.24019    394.29053   -574.13824    36500.952 
  541600    298.24348   -1556.1697    488.85427    280.41941    11.879356    36500.952 
  541700     295.6769   -1555.8521    503.55617    283.84081    128.32631    36500.952 
  541800    306.47757   -1519.2504    494.67026    360.36386    -266.4793    36500.952 
  541900    303.37215    -1484.619    535.31167    421.60354   -188.53384    36500.952 
  542000    292.57499   -1536.1189    466.54372    252.54428   -645.97283    36500.952 
  542100    294.61701   -1526.4075    536.36063    341.30028   -663.85134    36500.952 
  542200    298.47685   -1555.7426    494.46755    287.51436   -399.44984    36500.952 
  542300    304.88896   -1513.5008    491.66992    355.93429   -250.85894    36500.952 
  542400    295.91088   -1551.8153    499.40977    284.78853   -691.79513    36500.952 
  542500    302.88447   -1536.6044    489.35168    321.45436   -99.050951    36500.952 
  542600    301.31922   -1539.2721    515.65937    338.02109   -997.80223    36500.952 
  542700     301.6201   -1473.4859    504.06934    393.57695   -159.41646    36500.952 
  542800    298.47941   -1532.6602    557.67766    373.81845    60.162773    36500.952 
  542900      287.312   -1530.2493    519.02167    287.10886   -168.27449    36500.952 
  543000     301.7385   -1519.5845    524.38046    368.32445   -575.13821    36500.952 
  543100    312.07144   -1468.1924    512.69925    454.72903   -218.56785    36500.952 
  543200    308.20568   -1480.4036      499.834    412.18355    -37.57556    36500.952 
  543300    298.43296   -1486.8254    510.39323    372.15893   -291.40115    36500.952 
  543400    304.77724   -1494.8066    528.92875    411.38248    240.01115    36500.952 
  543500    299.60657   -1509.4058    521.02915    365.51788    351.33774    36500.952 
  543600    296.29926    -1539.963    494.04224     293.0284    370.52857    36500.952 
  543700    302.50678   -1568.5411    520.09488     318.5541    208.16383    36500.952 
  543800    305.88688   -1576.6702    470.09069    275.69519    -285.7133    36500.952 
  543900    308.25996   -1558.9093    531.58963    365.67873   -481.16122    36500.952 
  544000    292.10114   -1583.7616    476.26026     212.4768   -876.91024    36500.952 
  544100    299.79836   -1552.8461     500.4453    302.36043   -5.6364591    36500.952 
  544200    297.14317    -1554.289    520.43984    308.91351   -1145.2493    36500.952 
  544300    297.58702   -1544.5211    503.28998    303.53726   -626.86874    36500.952 
  544400    299.32756   -1514.0366    500.41343    339.01055   -628.09577    36500.952 
  544500    300.42307   -1529.1945    502.61261    331.00234   -313.33943    36500.952 
  544600    289.38925   -1556.1483    502.60967    254.18483    254.76708    36500.952 
  544700    296.99608   -1550.9114     530.4583    321.64492    -242.4077    36500.952 
  544800    304.77144   -1559.4112    516.47815    334.30105    37.212053    36500.952 
  544900    313.52205   -1545.1531    496.77799    368.40226    210.70283    36500.952 
  545000    301.25172   -1533.6312    488.10076    315.79835   -269.64902    36500.952 
  545100    282.72349   -1570.5537    503.26291     210.3107   -649.01918    36500.952 
  545200    302.13837   -1605.3921    475.10857    235.05195   -490.33688    36500.952 
  545300    299.75388   -1592.0396    488.70047    251.22104   -442.72776    36500.952 
  545400    292.68568   -1564.3468    490.90563    249.17851   -366.06873    36500.952 
  545500    298.51491   -1550.9068    492.15664    290.21126    79.005982    36500.952 
  545600    313.72545   -1584.5032    520.53967    353.73292    260.15143    36500.952 
  545700    291.64801   -1564.6555    496.52277    249.79776    348.84368    36500.952 
  545800    299.55548   -1566.6189    514.49498     301.5397    937.71131    36500.952 
  545900    293.39999   -1541.9662    533.70956    317.59099    775.40101    36500.952 
  546000    296.02703   -1533.5071    531.36646    335.57828    354.58752    36500.952 
  546100    302.79321   -1535.9154    497.16204    329.54136    79.415985    36500.952 
  546200    289.85031   -1543.1811    525.11702    291.74278      688.899    36500.952 
  546300    294.97151   -1521.6672    508.74757    320.02945    281.13955    36500.952 
  546400    302.42675   -1494.5795    493.82146    365.88066    273.57281    36500.952 
  546500    300.96123    -1498.992    516.19272     377.2169   -205.84891    36500.952 
  546600    301.18837   -1516.0969    528.35091    373.29658   -58.217876    36500.952 
  546700    310.26733   -1523.1622    499.67496     378.5823    5.4387897    36500.952 
  546800    309.18091   -1522.9852    506.73479    380.90967    412.94658    36500.952 
  546900    307.76456   -1524.0419    504.94259    371.66047    169.21761    36500.952 
  547000    308.25194   -1550.3114    491.06449    333.71524   -312.01679    36500.952 
  547100       296.83   -1570.8798    510.06566    280.53338   -47.023004    36500.952 
  547200    298.47859   -1566.0963    488.15778     270.8588   -364.37202    36500.952 
  547300    298.03955   -1572.0265    500.05523    274.84209   -263.95035    36500.952 
  547400    300.90009   -1576.7682    536.14072    319.11238    192.25587    36500.952 
  547500    296.48413   -1571.6523    483.59064     251.7228    4.8811939    36500.952 
  547600    290.39303   -1555.7827     529.6118    286.08853   -154.20711    36500.952 
  547700    302.77124   -1612.9554    471.03598    226.27601    295.29264    36500.952 
  547800    313.58344   -1553.7546    504.97026    368.27041    -48.41664    36500.952 
  547900    293.85248   -1539.6268    490.47268    278.73824    106.67553    36500.952 
  548000    309.71086   -1523.6361    499.02544    374.94421    572.22589    36500.952 
  548100    306.69314   -1543.3276    490.15201    332.74251    216.70393    36500.952 
  548200    295.35942   -1526.4941    524.69615    332.90412    447.85529    36500.952 
  548300    298.27293   -1488.0857      475.119    334.90128    94.036319    36500.952 
  548400    293.14155   -1525.9494     507.0312    305.76152   -142.67825    36500.952 
  548500     305.0858   -1558.6897    485.30238    305.26739   -383.42617    36500.952 
  548600    296.22948   -1514.7857    481.97445    305.82257    267.90635    36500.952 
  548700    301.96604   -1545.5021    470.96139    290.01602    -110.7393    36500.952 
  548800    306.51192   -1498.1602    531.55392    418.49292    38.093799    36500.952 
  548900     306.4119   -1512.5463    491.57835    363.67922    853.56071    36500.952 
  549000    302.15852   -1520.7948    508.68074    353.31255   -44.036787    36500.952 
  549100    297.91882   -1501.0647    526.24414    371.44718   -96.727492    36500.952 
  549200    294.00247   -1514.2095    490.81914    305.17977   -120.20954    36500.952 
  549300     299.4243    -1540.236    509.35483    322.18974    302.55365    36500.952 
  549400    301.29169    -1571.382    491.80886    281.93623    250.84011    36500.952 
  549500    309.45714   -1581.8453    496.63566    313.19877    399.95206    36500.952 
  549600    290.62444   -1582.9864    515.70966    246.02838    307.09467    36500.952 
  549700    297.85608   -1570.6995    516.62333    291.90807   -18.965745    36500.952 
  549800    288.88475   -1574.7127    526.06309    256.79404   -4.9716342    36500.952 
  549900    297.26327   -1566.2332    480.54525    257.61741    238.30011    36500.952 
  550000    304.76186   -1575.8051    509.98738    311.37311   -226.17997    36500.952 
  550100    294.74192   -1572.5972    509.07581    268.39022   -617.89328    36500.952 
  550200    302.87262   -1588.8224    499.38969    279.22084   -175.34911    36500.952 
  550300    287.81178   -1595.9759     513.9099    218.52893    421.97978    36500.952 
  550400    294.14732   -1528.4304    519.16303    319.95728     566.8866    36500.952 
  550500    292.22394   -1501.7287    536.17872    354.98312    521.33818    36500.952 
  550600    306.32836   -1520.5335    536.01271    399.74891    712.71751    36500.952 
  550700    299.95828   -1525.3208    503.49289    333.65603   -482.75364    36500.952 
  550800    299.70826    -1562.675      491.399    283.07808   -336.75153    36500.952 
  550900    310.99044   -1586.5577    504.33599    323.11544    180.38196    36500.952 
  551000    304.65126    -1566.135    492.34896      302.905   -206.97929    36500.952 
  551100    297.25619   -1538.6632    513.63323    318.24339   -73.668328    36500.952 
  551200    296.25029   -1523.6595    504.23456    319.30285    122.95098    36500.952 
  551300    293.32552   -1545.5881    532.41719     312.3401   -3.1365786    36500.952 
  551400    299.95957    -1573.692    493.17757    274.97525   -263.91944    36500.952 
  551500    292.67407    -1501.184    489.45771     310.8409    -214.3094    36500.952 
  551600    295.55261   -1522.5011    508.45491    321.52885   -268.18085    36500.952 
  551700     300.9239    -1524.027    493.06812     328.8886   -211.22302    36500.952 
  551800    304.07141   -1519.5745    519.88859    374.38484    170.90824    36500.952 
  551900    289.77137   -1491.6899    507.01634    324.77658     191.1578    36500.952 
  552000    310.63609   -1497.3692     517.3087    423.67543   -337.64919    36500.952 
  552100     297.5678   -1532.1671    506.84893    319.36341   -502.11863    36500.952 
  552200    299.76565   -1533.8664    510.10281    330.84985   -446.54716    36500.952 
  552300    297.04131   -1530.4327    504.33127    316.20092   -668.01625    36500.952 
  552400      308.734   -1558.0293    505.86947    342.98073   -412.74901    36500.952 
  552500    291.11804   -1531.8276    508.56484    292.27289   -562.79112    36500.952 
  552600    306.04509   -1537.3634    511.42809    357.05431   -108.76353    36500.952 
  552700    301.23067    -1511.606    505.35128    354.97894    210.74322    36500.952 
  552800    296.19347     -1545.37     532.9762    326.07724    527.81805    36500.952 
  552900    307.78316   -1517.3333    511.10598    384.61645     432.2302    36500.952 
  553000    306.38977   -1566.6312    507.26235    325.17833    380.45901    36500.952 
  553100    293.82937   -1544.4651    515.81694    299.13978    705.77063    36500.952 
  553200    289.42857   -1551.5363     508.0905    264.45524    7.0940691    36500.952 
  553300    303.75365   -1549.4878      498.478    321.62501   -273.63933    36500.952 
  553400     294.2669   -1556.5151    515.38927    288.63927   -739.03136    36500.952 
  553500    283.60799   -1560.3599    538.32654    259.56505    176.76876    36500.952 
  553600    292.83665   -1573.7082    500.27275    249.86647    80.074527    36500.952 
  553700    305.19363   -1574.7854    491.48986    295.84638    322.66794    36500.952 
  553800    308.94644   -1555.9114    516.07601    356.26519    385.83454    36500.952 
  553900    313.35549   -1569.3954    488.63715    335.26637   -53.157964    36500.952 
  554000    296.50297   -1525.1117     499.5775    314.33541   -580.56131    36500.952 
  554100    302.86511   -1555.4047      528.607    341.82188   -1273.7525    36500.952 
  554200    303.57792   -1552.0529    499.56637    319.35418   -662.72696    36500.952 
  554300    300.93407   -1561.6301    509.11979    307.38311   -1230.4833    36500.952 
  554400    297.49209   -1566.0079    500.46851    278.79999    74.633541    36500.952 
  554500    301.46506   -1574.3442     485.4765     273.4252   -536.65163    36500.952 
  554600    302.41722   -1584.5041    503.10594    285.19749    -308.0594    36500.952 
  554700    292.15384   -1619.8804     480.3537    180.68966   -454.81528    36500.952 
  554800    292.34523    -1565.062    499.92365    255.94286   -196.28263    36500.952 
  554900     308.2638   -1557.0192    539.25401    375.25059    280.47986    36500.952 
  555000    298.56286   -1555.5365    516.89208    310.53372    70.165881    36500.952 
  555100    295.38996   -1587.4608    521.32065    268.69991   -54.932272    36500.952 
  555200    293.84311   -1539.1903    502.22622    290.88586     276.5071    36500.952 
  555300    308.28229   -1541.8681    520.90595    372.13719    357.57921    36500.952 
  555400    302.30577   -1570.6754    524.14186    319.55844    293.47175    36500.952 
  555500    299.66154   -1606.9521    503.59776    250.78855    491.91891    36500.952 
  555600    308.52675   -1593.0026    502.75927    303.96068    347.91783    36500.952 
  555700    306.31373   -1590.1455    528.35741    322.41548    393.62164    36500.952 
  555800    302.54138   -1596.4806    497.21478    267.89082    107.63721    36500.952 
  555900    307.85192   -1536.3819    524.51062    379.28321    312.05792    36500.952 
  556000    296.91994   -1630.7116    512.55651    223.59879   -533.89368    36500.952 
  556100      289.825   -1571.6892      523.579    261.58229    282.21575    36500.952 
  556200     299.4084   -1602.9057    509.02798    259.12136   -6.3169534    36500.952 
  556300    295.57741   -1613.7412     520.4911    242.43701    491.04803    36500.952 
  556400    288.16149   -1604.0062    512.35403    210.52315    404.31422    36500.952 
  556500    316.13327   -1586.0381    515.43054    357.96957    534.07591    36500.952 
  556600    302.81321   -1566.9053    498.28059    299.76034    211.36852    36500.952 
  556700    278.10441   -1563.9521    510.97827    203.75441   -6.1370788    36500.952 
  556800    306.17294   -1546.4632    524.94102    362.04516   -127.75793    36500.952 
  556900    299.44514   -1551.7506    515.54412    316.95855    -538.0634    36500.952 
  557000    307.93429   -1570.6462    508.70654    329.58702    -562.5945    36500.952 
  557100    296.64675   -1606.5395    489.01647    222.99639   -427.78473    36500.952 
  557200    309.39005    -1547.339    503.39746    354.16363     -201.336    36500.952 
  557300    293.21589   -1550.6129    521.35818    295.76097   -16.788535    36500.952 
  557400    303.66942   -1519.0061    514.15854    367.40662   -108.69264    36500.952 
  557500    300.95788   -1526.8756    528.89126    362.01663   -285.99719    36500.952 
  557600     289.8823   -1552.8503    504.66036     261.7615    -695.4792    36500.952 
  557700    291.03574   -1498.7951    528.53065     344.8993   -239.39976    36500.952 
  557800    289.48127   -1543.5262    540.85949    305.47247   -39.728337    36500.952 
  557900    310.99244   -1553.9898    500.07926    351.43572    161.11984    36500.952 
  558000    309.37526   -1536.2276    528.06404    389.87483   -534.95764    36500.952 
  558100    309.01807   -1545.1216    504.63004    355.93265   -287.34537    36500.952 
  558200    298.40705   -1570.4008     516.1746    294.24787   -6.7022084    36500.952 
  558300    291.53385   -1514.4927    539.33558    342.25756   -674.17208    36500.952 
  558400    301.55143   -1536.7852    491.54932    317.44725   -141.15476    36500.952 
  558500     298.6332   -1570.7737    527.08105     305.8033   -379.72823    36500.952 
  558600    300.36634   -1506.6951    548.41127    399.04409   -576.68623    36500.952 
  558700    306.03114   -1498.5124    495.71777    380.13193   -131.33122    36500.952 
  558800    299.57412   -1542.3819    526.22476    337.59073   -476.02417    36500.952 
  558900    293.80214   -1552.9552    521.84569    296.55535    117.00445    36500.952 
  559000     296.5057   -1546.7963    526.08552    319.17118    159.25323    36500.952 
  559100    298.51688   -1505.9537    534.73756    377.75415    296.89067    36500.952 
  559200    298.95205   -1511.4059    525.97514     365.5061   -139.62906    36500.952 
  559300     296.6636   -1521.9169    566.80201     385.4806    77.949543    36500.952 
  559400     301.3092   -1566.7887    531.47987    326.27974    525.04153    36500.952 
  559500    312.82609   -1489.0906    506.85613    431.39788   -93.502365    36500.952 
  559600    312.08131   -1504.0387     540.4403    446.66833   -477.31412    36500.952 
  559700    310.12135    -1503.186    513.37535    411.59919   -158.46447    36500.952 
  559800    311.88104   -1531.5543    519.29049     397.0979     436.9375    36500.952 
  559900    302.85986   -1528.1237      549.017    389.48913    261.53675    36500.952 
  560000    305.59394   -1547.5109    542.11316    375.55315    331.51031    36500.952 
  560100    308.98924   -1545.4129    546.16311    397.04419    107.17113    36500.952 
  560200    291.89422    -1533.807     515.3558    300.59196    146.78332    36500.952 
  560300    299.73306   -1542.2491    530.10416    342.32116   -214.84207    36500.952 
  560400    305.96282   -1522.2195    524.74922    385.14755   -179.04086    36500.952 
  560500    297.53013   -1533.3333    524.50852    335.68649   -209.59819    36500.952 
  560600    298.03018   -1542.4766    530.90383    335.19816     59.70607    36500.952 
  560700    295.37965   -1547.8664    520.41844     307.3455   -139.73383    36500.952 
  560800    292.43157   -1517.3324    518.62645    322.76538    18.152896    36500.952 
  560900    300.82774   -1539.6695     536.9588    356.70213     139.7772    36500.952 
  561000    293.45102   -1546.2572    508.05197    287.87292    714.21595    36500.952 
  561100    295.18812   -1538.9972    501.00954    295.94033    -23.57167    36500.952 
  561200    296.98566   -1530.0969    516.54837    328.50237   -144.21426    36500.952 
  561300    291.47568   -1533.8862    517.95179    301.21738    67.828956    36500.952 
  561400    293.35163   -1539.7977    519.28271    305.11403   -79.544417    36500.952 
  561500    301.23682   -1513.6996    510.36801     357.9299   -83.971115    36500.952 
  561600     306.3927   -1526.9453    507.64715    365.26226    215.48425    36500.952 
  561700    285.90164   -1560.0773    522.29497    254.18087   -272.00653    36500.952 
  561800    303.74964   -1559.8345    516.84738    329.62957   -29.851786    36500.952 
  561900     310.5036   -1564.3305    524.68732    363.49407    56.135477    36500.952 
  562000    291.02103   -1572.1939    496.58268    239.48605    457.41886    36500.952 
  562100    297.49796   -1504.9462     540.6236    380.04329    160.24387    36500.952 
  562200    304.49127   -1508.9626    534.12786    401.13333     333.7547    36500.952 
  562300    298.82084    -1522.635    523.03208      350.741   -83.600588    36500.952 
  562400    293.39524   -1542.7596    515.49003    298.55655   -165.62935    36500.952 
  562500    286.49831   -1509.3201    542.72573    328.06517   -205.45434    36500.952 
  562600    303.70952   -1487.4122    507.76925    392.79243   -131.08287    36500.952 
  562700    304.74496   -1535.4353    508.40631    350.08549   -367.68653    36500.952 
  562800    299.00925   -1518.5919    514.63149    347.23483    112.73604    36500.952 
  562900    290.05354   -1546.6125    506.97141     271.0842    391.60132    36500.952 
  563000    301.75364   -1549.9557    519.52799    333.16923   -13.664544    36500.952 
  563100    311.06252   -1552.5094    500.60216    353.75569    643.06226    36500.952 
  563200    298.45022   -1582.4352     504.4535    270.68736    659.57402    36500.952 
  563300    306.69028   -1561.3011    507.25611    331.86016     805.6899    36500.952 
  563400    307.11831   -1594.3744    488.14706    281.61207     505.9217    36500.952 
  563500    293.49108   -1599.1391    487.25716    214.37726     209.9726    36500.952 
  563600    306.32666   -1583.1049    523.26756    324.42465    41.989867    36500.952 
  563700    306.63841   -1558.2624    471.61979    299.02819   -53.407584    36500.952 
  563800     296.7036   -1509.7557    507.96908    338.98971   -164.44136    36500.952 
  563900     297.4753   -1549.8782    499.18268    293.56798   -778.09139    36500.952 
  564000    300.90005    -1546.296    512.86727    326.31096   -399.52036    36500.952 
  564100    291.16565   -1577.6682    515.04655    253.12911   -168.43444    36500.952 
  564200    290.82692   -1550.6034    510.02218    273.63889    210.99501    36500.952 
  564300     303.1332     -1542.45    512.11867    339.49972    310.44052    36500.952 
  564400    289.78509   -1493.6122    519.91439    335.81434    17.734694    36500.952 
  564500    298.63147   -1522.6867    494.65432    321.45577    77.072029    36500.952 
  564600    306.03844   -1524.9024    543.81039    401.86756   -35.158108    36500.952 
  564700    298.58321   -1558.5778    494.36299    285.05526    119.76453    36500.952 
  564800    301.09675   -1566.8366    501.63951     295.4314    411.50322    36500.952 
  564900    300.23983   -1551.2697     502.7917    308.27819    886.07112    36500.952 
  565000    301.87352   -1528.2016    519.84108     355.7782    846.93082    36500.952 
  565100    297.40453   -1527.8897    501.98612    318.04018    454.20229    36500.952 
  565200    314.92717   -1512.3661    495.00987     405.7707    316.47957    36500.952 
  565300    303.43457   -1496.2496    536.83761    411.78094   -78.698508    36500.952 
  565400    301.47519   -1510.2052     500.3514    352.48488   -392.89808    36500.952 
  565500    295.08598   -1527.6992    514.54215    320.30939    640.70188    36500.952 
  565600    302.52808    -1513.025    549.10291    403.17454    329.11914    36500.952 
  565700     307.7059   -1508.0656    504.59988    387.02895    387.61601    36500.952 
  565800     293.4351   -1529.9262    490.72405    286.80409    884.83568    36500.952 
  565900    311.34478   -1461.5661    497.09703    442.46934    115.85264    36500.952 
  566000     302.5964   -1527.4089    510.55733    350.55373    693.22019    36500.952 
  566100    301.53441   -1558.3795    512.59486    316.82163    540.63744    36500.952 
  566200    303.32613   -1548.8539    522.21325    344.06229    826.16854    36500.952 
  566300    300.63545   -1527.4857    511.31401    342.37226    666.20514    36500.952 
  566400     294.7768   -1513.3391    498.68466    317.41478    95.803775    36500.952 
  566500    296.40943   -1495.9723    523.82528    367.29996    332.80428    36500.952 
  566600    309.44392   -1496.3658    505.85773    407.84062   -617.15749    36500.952 
  566700    288.18136    -1509.849    485.74697    278.16302   -567.70401    36500.952 
  566800     299.5469     -1504.63    490.60366    339.59855   -622.11996    36500.952 
  566900    298.23574   -1527.2196    477.30102    297.78128   -871.38629    36500.952 
  567000     300.3054   -1583.1412    513.79868    287.70997   -68.924385    36500.952 
  567100    305.66824   -1549.4598    499.15334    330.98023   -261.31266    36500.952 
  567200    300.39024   -1544.4968    505.72638    318.66542    220.64787    36500.952 
  567300    289.68328   -1523.1244    504.43033      290.358    55.073983    36500.952 
  567400     299.5891   -1539.4366    486.01759    300.39664     687.0503    36500.952 
  567500    300.51272   -1539.9811    494.15476    312.16304    404.68444    36500.952 
  567600    311.19406   -1556.8282    488.62622    338.05538    -148.5609    36500.952 
  567700    298.61194   -1556.0098    466.45001    259.84013   -241.89344    36500.952 
  567800    298.22658   -1567.0079    502.31872     282.9693    113.89198    36500.952 
  567900    290.92863   -1561.3867     489.6411    242.93414     334.0911    36500.952 
  568000    292.54848   -1552.3016    501.59462    271.29267    28.475532    36500.952 
  568100    295.32946   -1579.9451    456.95483    211.57639   -58.104856    36500.952 
  568200    302.96651   -1521.5169    503.58204    351.14287     595.4854    36500.952 
  568300    307.92964   -1513.4849    519.15367    397.17449    204.47846    36500.952 
  568400    303.94987   -1482.4866    531.95924    422.99416    137.63149    36500.952 
  568500    307.16912   -1497.9397    485.15716    375.28644    587.41365    36500.952 
  568600    312.62985    -1513.469    484.17804    383.45455    339.23641    36500.952 
  568700    307.71518   -1490.6152    507.11042     407.0318    334.66461    36500.952 
  568800    300.58191   -1512.6718    486.30257    331.93282    107.23178    36500.952 
  568900     305.9449   -1518.4679     511.5462     375.6152   -206.03611    36500.952 
  569000     297.0068   -1520.0868    468.46674    290.52638   -446.11643    36500.952 
  569100    295.35809   -1491.4943    478.13642     321.3382   -279.78789    36500.952 
  569200    310.81708   -1535.4192    478.75736    347.89193    -171.5981    36500.952 
  569300      308.988   -1547.0218    471.82774    321.09435    603.66845    36500.952 
  569400    295.16269   -1486.6412    534.63663    381.80848    456.46086    36500.952 
  569500    295.41145    -1538.019    476.32341    273.24162   -55.717895    36500.952 
  569600    307.33884   -1524.4597    501.88446    366.26069     173.2001    36500.952 
  569700    285.71402    -1472.318     512.3384    331.13581    100.29743    36500.952 
  569800    303.51115   -1469.9035    520.12513    421.76061   -468.23958    36500.952 
  569900    308.18868   -1494.5361    494.68002    392.82019   -224.86124    36500.952 
  570000    304.76702   -1528.3896    497.21139    346.03589   -722.29372    36500.952 
  570100    302.01832   -1524.4946    484.44172    324.74016   -391.48775    36500.952 
  570200    299.73994   -1498.1023    523.46314    379.85806   -897.02543    36500.952 
  570300    290.21821   -1520.1916    486.18997     277.4678   -704.67487    36500.952 
  570400    305.45783   -1520.1997    499.49157    359.62775   -1267.2757    36500.952 
  570500    307.10126    -1491.178    503.93237    400.51677   -926.53492    36500.952 
  570600    298.20114   -1493.9429    497.28505    350.88565   -210.55217    36500.952 
  570700    283.61703   -1534.8423    506.30669    253.10365    162.49097    36500.952 
  570800    290.04994   -1521.5783    508.56163    297.69234   -23.096367    36500.952 
  570900    302.30021   -1556.6008    485.72299    295.18898    142.64267    36500.952 
  571000     300.6363   -1545.5151    479.14818    292.18081   -52.225117    36500.952 
  571100    309.53186   -1541.8945    510.90265    367.75414    49.592166    36500.952 
  571200    309.09623   -1551.3496    502.57469    348.00246   -486.73713    36500.952 
  571300    295.18635   -1558.0861    494.21459    270.04847   -295.75045    36500.952 
  571400    303.19396   -1542.5284    512.94806    340.52524   -622.31246    36500.952 
  571500    293.07438   -1542.5269    487.75477     269.6041   -505.43432    36500.952 
  571600    306.65323   -1560.8911    479.48126    304.32792   -854.81515    36500.952 
  571700    307.60526   -1567.6937    524.76605    347.11219   -546.79526    36500.952 
  571800    309.02728    -1595.155     465.3794    266.69032    8.9298815    36500.952 
  571900    304.94279   -1555.8665    518.13875    340.28064    263.41099    36500.952 
  572000    305.07013   -1545.0946    485.10209    318.59136   -50.388317    36500.952 
  572100    300.37585   -1551.0455    504.48158    310.80693   -262.68763    36500.952 
  572200    294.05774   -1512.3334    491.94139    308.42785    379.41226    36500.952 
  572300    295.31614   -1540.8146    481.23009    274.92198   -302.82645    36500.952 
  572400    302.52211   -1549.5042    504.31233    321.87776   -90.642386    36500.952 
  572500    297.75696   -1538.7066    491.96084    298.79057   -49.158489    36500.952 
  572600    293.36298   -1536.9226    478.29204    267.04976   -565.13054    36500.952 
  572700    300.46872   -1517.0843    498.86484      339.571    504.89766    36500.952 
  572800    308.57092   -1560.4134    480.00474    313.99494    347.15922    36500.952 
  572900    293.25101   -1548.5547    510.12572    286.74534    378.96507    36500.952 
  573000    297.56633   -1521.5252    495.14547    318.29512    396.00185    36500.952 
  573100    305.89258   -1539.2816    496.21328    339.23212    -54.76551    36500.952 
  573200    304.53484   -1498.2267     500.6869    378.62518    -145.4995    36500.952 
  573300    299.06831   -1511.9638    474.74836     314.2467   -589.45405    36500.952 
  573400    303.74314    -1527.707    509.49787    354.37824   -57.085257    36500.952 
  573500    292.15722   -1535.5034    504.97401    289.70225   -133.80842    36500.952 
  573600    309.83867   -1508.6261    503.41079    394.91711    495.07638    36500.952 
  573700    288.17305   -1516.5798    504.85431    290.50203    161.19559    36500.952 
  573800    303.73729   -1466.4869    526.33258    432.40652    276.77287    36500.952 
  573900    289.02597    -1485.376    497.18267    317.88847   -26.538544    36500.952 
  574000    297.55093   -1500.0791    483.21365    327.73981    239.69782    36500.952 
  574100    310.30477   -1482.7718    512.76127     432.2282   -242.17672    36500.952 
  574200    301.73649   -1476.0314    482.09284    369.58091    505.38939    36500.952 
  574300    305.23816   -1521.4763    510.07935    367.94621    324.30871    36500.952 
  574400    294.24232   -1491.5449    494.92018    333.02921   -278.87189    36500.952 
  574500    285.65903   -1483.5382    508.06608    315.39482   -760.56363    36500.952 
  574600    297.00442   -1500.7264    509.92954    351.33879   -653.74937    36500.952 
  574700     301.8084   -1475.0943    497.70819    386.45832   -638.73128    36500.952 
  574800    300.64316     -1495.84    500.16512     362.9039   -106.28973    36500.952 
  574900     302.2808   -1516.2867    495.55886    345.25129   -628.38049    36500.952 
  575000    305.33959   -1518.7267    489.26421    350.33907   -329.23174    36500.952 
  575100       300.98   -1539.5752    500.48207    321.00783   -610.54291    36500.952 
  575200    299.37674   -1546.4034    527.85379    334.30633   -655.89635    36500.952 
  575300    308.64031   -1580.5975    485.05742    299.17713    9.9472293    36500.952 
  575400    302.64786   -1575.1828    469.48132    261.93636   -14.165569    36500.952 
  575500    293.97447   -1547.9309    508.92207    289.43481   -152.10798    36500.952 
  575600    300.55862   -1603.3438    473.95548    228.80845    234.72378    36500.952 
  575700    298.66755   -1552.3243    476.18614    273.51305   -221.57256    36500.952 
  575800    301.26764   -1577.4581    484.75597    268.69864   -129.04617    36500.952 
  575900    293.39723   -1545.2121    470.88264    251.50561    200.17153    36500.952 
  576000    306.93146   -1549.6278    501.05079    338.41807    249.17843    36500.952 
  576100    312.21714    -1561.149    489.65228    339.38376    387.30352    36500.952 
  576200    301.70587   -1507.4181    509.55134    365.51431    376.60412    36500.952 
  576300    299.02431   -1524.0543    477.59743    304.80647   -558.10643    36500.952 
  576400    309.41113   -1513.9285    504.44859     388.7205    174.62839    36500.952 
  576500     303.6801   -1493.5246    524.73441    403.51228    -362.0055    36500.952 
  576600    298.83031   -1512.6544    490.87217    328.60446   -328.45831    36500.952 
  576700    289.61304   -1534.0149    510.55875    285.27848   -463.57419    36500.952 
  576800    311.34015   -1519.2402    490.98863    378.66595    -109.6994    36500.952 
  576900     299.6711   -1547.3118    489.99338    296.86768   -102.86123    36500.952 
  577000    302.20655   -1555.2944    479.87253    290.22175   -47.763272    36500.952 
  577100    294.98262   -1535.3477    481.74812    279.39977    343.73144    36500.952 
  577200    303.33366   -1571.5379      477.068    276.26705    31.409703    36500.952 
  577300    300.01392   -1587.0132    501.28748    270.00964    582.29111    36500.952 
  577400     295.5638   -1576.9871    489.14891    247.78742     15.78069    36500.952 
  577500    299.62357   -1533.5889    476.09345    296.47593    158.75913    36500.952 
  577600    303.54012   -1519.6965    503.52344     355.4968    141.57278    36500.952 
  577700     305.1753   -1534.8543     480.5761    324.78091    131.77567    36500.952 
  577800    290.07813   -1523.2565    514.40944    301.98935    201.27837    36500.952 
  577900    306.71287    -1522.884    490.00785    353.13112     649.0714    36500.952 
  578000    304.50981   -1535.0565    484.35837    325.35374    334.48105    36500.952 
  578100    302.61003   -1513.2994    509.04584    363.21338    248.06776    36500.952 
  578200    293.90419   -1540.6677    469.52007    256.97834   -89.488904    36500.952 
  578300    297.56144   -1511.2801    498.22909    331.60181   -147.96025    36500.952 
  578400    299.29056   -1497.3153    495.25702    350.40823   -409.71942    36500.952 
  578500    288.68716   -1492.1874    493.32999    305.69336   -1000.4586    36500.952 
  578600    295.64683   -1494.3056    487.01241    328.70764   -1077.5435    36500.952 
  578700    308.24736    -1460.951    499.21677    431.20722   -1358.7661    36500.952 
  578800    297.57545   -1451.1536    492.84027    386.40279   -699.87928    36500.952 
  578900    297.92146   -1472.5773    490.33092    364.03333   -520.40692    36500.952 
  579000    291.39996   -1500.1355     503.4169    320.09099    204.46096    36500.952 
  579100    317.95579   -1524.2586    512.13424    424.68861   -172.54834    36500.952 
  579200    295.88526   -1497.1507    485.63806    325.56565   -150.59141    36500.952 
  579300    308.35192   -1468.8664    520.67301     445.2206   -652.96896    36500.952 
  579400    289.00878   -1483.4095    482.01405    304.60867    74.198833    36500.952 
  579500    294.49065   -1505.8958     498.4983    323.37873   -436.49206    36500.952 
  579600    298.03662    -1468.405    498.69118    377.08626   -463.27771    36500.952 
  579700    304.01467   -1467.2324    476.71223    383.29419   -843.01139    36500.952 
  579800    299.85698   -1477.7449    498.36099    375.64216   -1240.5667    36500.952 
  579900    295.68494   -1482.8946    493.80355    347.08202   -783.14293    36500.952 
  580000    304.25407   -1509.0292    488.30721    354.17418   -336.03926    36500.952 
  580100    289.68262    -1510.396    478.85678     277.5099    -311.6402    36500.952 
  580200    298.82997   -1489.5595    507.03933    367.86497     336.9367    36500.952 
  580300    298.12214   -1515.3725    491.74925    323.56334    52.462875    36500.952 
  580400    299.86188   -1504.8506     499.0949    349.29258    460.39567    36500.952 
  580500    294.12986   -1505.7531    520.74642    344.13911     529.8794    36500.952 
  580600     300.0689   -1431.1043    533.30525    458.18468   -12.359081    36500.952 
  580700    296.15989   -1451.6198    484.93036    371.62985    389.18266    36500.952 
  580800    290.02636   -1475.3751     532.1575     367.3848   -7.5473363    36500.952 
  580900    304.33667   -1482.0121     504.0848    397.34212    109.61637    36500.952 
  581000    295.36655    -1429.235    500.70713    406.20636   -168.83938    36500.952 
  581100    295.92052   -1466.5195     519.4984    390.21649   -326.92466    36500.952 
  581200    296.73848   -1469.8052    492.41565    363.54432    293.97058    36500.952 
  581300     290.0079   -1478.9288    529.74023    361.33043   -109.07787    36500.952 
  581400    302.33532   -1476.4955    524.01596    413.74597    49.341234    36500.952 
  581500     304.1444   -1482.1586    505.22343    397.46542    1308.6756    36500.952 
  581600    297.82972   -1471.7739    507.20647    381.29769    522.29504    36500.952 
  581700     305.7668   -1440.7281    516.19997    457.20395    71.756539    36500.952 
  581800    297.49982   -1474.2589    508.49598    378.61136   -136.44208    36500.952 
  581900    299.84001   -1438.5034    507.69289    424.13888   -214.94767    36500.952 
  582000    296.83727   -1442.9261    506.80876    405.26292    -361.9441    36500.952 
  582100    300.54892    -1477.959    499.67397    379.86785   -324.94354    36500.952 
  582200    301.31905   -1438.0464    517.40883    440.99554   -743.22668    36500.952 
  582300    300.74524   -1480.1188    479.69649    358.61776   -545.03028    36500.952 
  582400    292.43477   -1420.3176    522.66508    423.83326   -706.81139    36500.952 
  582500    303.59066   -1425.7747    533.07249    479.19608    230.05431    36500.952 
  582600    301.61854   -1436.9382    510.07117    436.11946    730.52907    36500.952 
  582700    302.06702   -1419.7425    499.11296    444.38355    694.38544    36500.952 
  582800    314.33974   -1458.1071    518.46863    480.83386    935.54987    36500.952 
  582900    310.42331   -1453.0759    506.68923    456.38767    743.94185    36500.952 
  583000    306.60337   -1431.6513    507.48336    461.34454    448.63486    36500.952 
  583100    293.35711   -1448.0768    499.32679    376.90379   -184.90112    36500.952 
  583200    302.83237   -1423.7979    497.72347    442.39719    1046.2416    36500.952 
  583300     312.2892   -1421.1918    499.00061    489.01498    149.49708    36500.952 
  583400    291.80586   -1451.2819    510.67334    378.03524    139.59005    36500.952 
  583500    302.94892   -1468.5819    498.69918    399.11559    335.19512    36500.952 
  583600    295.86709   -1447.7868    504.67031    393.87964    265.06045    36500.952 
  583700    306.97898   -1470.9941    517.04967    433.26532    462.24783    36500.952 
  583800    290.96883   -1502.8706    508.19158    320.18243    389.20736    36500.952 
  583900    307.96681   -1485.1416    514.97108    421.50314    783.81631    36500.952 
  584000    295.71676   -1522.6442    514.09606    327.76871    448.18332    36500.952 
  584100    301.54352   -1490.2942    509.96265    382.31594    276.90869    36500.952 
  584200    301.13166   -1496.1656    496.35802    360.97867    150.50991    36500.952 
  584300    293.86297   -1458.9809    506.06833    375.02711    -166.6313    36500.952 
  584400    309.62781   -1450.0734    483.58427    432.69045   -335.67963    36500.952 
  584500    298.89499   -1450.7975    510.33596    410.21738   -285.30554    36500.952 
  584600    308.11729   -1417.4197    494.06831    469.00233   -416.39785    36500.952 
  584700    306.02981   -1455.7516    499.71403    426.88304     493.5421    36500.952 
  584800    302.78557   -1431.2159    502.27485    439.31914   -543.78161    36500.952 
  584900    296.51188   -1469.6777    479.21181    349.44406   -772.75606    36500.952 
  585000    296.34863   -1477.9491    471.58703     332.8102   -867.18585    36500.952 
  585100    291.06487   -1502.7546    519.46194    332.00274   -402.90743    36500.952 
  585200     299.6434   -1490.0653    494.38088    358.37658    59.646038    36500.952 
  585300    307.17239   -1513.6655    484.73662    359.15497   -216.79545    36500.952 
  585400    300.78936   -1482.5952    498.10188    374.74609    -901.5503    36500.952 
  585500    311.11254   -1514.8158    470.41218    361.48537   -1169.4369    36500.952 
  585600    302.60648   -1509.3266    485.01247    343.13675   -957.45708    36500.952 
  585700    306.97204   -1528.7813    490.52734    348.92448   -616.46903    36500.952 
  585800    298.74348   -1542.8093    505.56398    312.74894   -232.45589    36500.952 
  585900    297.24836   -1494.5244    476.71557    325.42919   -238.64619    36500.952 
  586000    288.37464   -1506.2826    521.52779    318.38365   -283.36722    36500.952 
  586100    292.84305   -1546.5772    490.78754    267.54117    -534.5982    36500.952 
  586200    299.31686   -1560.6411    461.79438    253.73863   -560.94363    36500.952 
  586300    302.21322   -1490.8757    484.12369    358.92169    -184.8892    36500.952 
  586400    286.80273   -1507.0442    482.10596    271.09697   -585.86896    36500.952 
  586500    307.84991   -1532.0091    491.57653    350.71282   -307.63542    36500.952 
  586600    305.13582   -1523.1929    475.92325    331.61101   -420.19942    36500.952 
  586700    304.89252   -1509.9096    523.30592    391.17755    106.92702    36500.952 
  586800    301.61576    -1479.149    513.10683    396.93174    188.53734    36500.952 
  586900    306.70026   -1449.9223    513.50314    449.53115   -458.97551    36500.952 
  587000    287.82503   -1438.0278    509.09169    371.71871    -381.2783    36500.952 
  587100    300.72625   -1494.3814    479.85466    344.42756   -56.103112    36500.952 
  587200    296.47364   -1513.8569    528.35259     354.2328     703.8937    36500.952 
  587300    296.06591   -1503.7292    513.00291    347.16831   -243.15636    36500.952 
  587400    293.34362    -1481.402    514.10289    358.29373    402.36448    36500.952 
  587500     302.8569   -1499.8238    506.47783    375.23654    383.29335    36500.952 
  587600    303.64973    -1491.346    525.89643    406.71566   -283.08519    36500.952 
  587700    303.65571   -1492.1263    501.05494    381.12083   -89.431904    36500.952 
  587800    294.94653   -1538.8491    522.25783    316.24495   -137.32515    36500.952 
  587900    297.88524   -1486.7094    491.28689    350.69348   -386.54481    36500.952 
  588000    302.32725   -1480.0848    516.17426    402.27846   -50.887581    36500.952 
  588100    298.49807   -1523.8335    495.01879    320.07062    7.9947197    36500.952 
  588200    299.21022   -1503.3267    517.54883    366.32556     26.14418    36500.952 
  588300    294.43998   -1506.0961    509.20408    333.65514    242.92342    36500.952 
  588400    298.61242    -1485.895    510.62841    374.13549    174.53595    36500.952 
  588500    291.11373   -1503.2095    513.47258     325.7792   -153.86888    36500.952 
  588600    308.02065    -1518.076    498.83209    372.67304   -838.57727    36500.952 
  588700    312.53578    -1466.748     498.7359    444.30837   -507.25506    36500.952 
  588800    296.06029   -1486.2077    500.57145    352.23297     131.0187    36500.952 
  588900     302.1972   -1505.7824    530.72368    390.54264    214.63883    36500.952 
  589000    296.68506   -1499.7767    509.83561     350.7514   -215.43098    36500.952 
  589100    304.72467   -1497.7453    506.63733    385.91481   -75.220306    36500.952 
  589200    295.25434    -1500.397    500.93081      334.761   -235.55561    36500.952 
  589300     298.2968   -1516.5345    481.30139    312.74269    99.358508    36500.952 
  589400    301.05468   -1518.0993    515.65591    357.99499    339.50632    36500.952 
  589500    301.91225   -1518.9329    494.76735    340.14811    206.17965    36500.952 
  589600    310.80296   -1536.5021    483.06006    351.04791   -157.92576    36500.952 
  589700    302.86643   -1521.4574    476.55523    323.72341    94.610508    36500.952 
  589800    297.57803   -1566.9655    512.25167    290.01396   -397.35542    36500.952 
  589900    309.99255   -1549.1956    476.65133    328.28351   -435.34588    36500.952 
  590000    294.15993   -1571.5216    485.45065    243.21074   -162.62026    36500.952 
  590100    293.02894   -1556.8053    500.80781    268.17333    324.54066    36500.952 
  590200    308.44836   -1553.9752    467.01448    306.88907   -64.256698    36500.952 
  590300    297.78184   -1507.1122    527.51928    366.05585    145.24569    36500.952 
  590400    300.48539   -1477.4343    486.58263    367.01418      327.041    36500.952 
  590500    292.49816   -1499.0427    495.68471    318.41427   -343.70663    36500.952 
  590600    305.22917   -1490.5672    480.09973    368.83511   -59.305645    36500.952 
  590700     301.1529   -1484.7545    472.44221       348.57   -91.383001    36500.952 
  590800    291.16518   -1501.9625    499.39322    313.17937    -170.3026    36500.952 
  590900    295.73934   -1534.1324    502.79441    305.08086   -119.60334    36500.952 
  591000    303.43762   -1499.0022    504.05536    376.25982   -479.51281    36500.952 
  591100    302.34608   -1458.8659    491.26154     398.6698   -485.13039    36500.952 
  591200    302.96209   -1442.4768    483.47055    410.05159   -1060.3797    36500.952 
  591300     291.6969   -1480.7805    498.40617    335.77712   -965.89256    36500.952 
  591400    304.84671     -1456.16    499.92274    421.33699   -743.36203    36500.952 
  591500    298.96614   -1443.4432    497.60349    405.16076   -777.41046    36500.952 
  591600    298.70698   -1455.3627    505.81339    400.28003   -418.73779    36500.952 
  591700    299.74044   -1486.3376    505.00263    373.16453    96.065481    36500.952 
  591800    298.76122   -1481.2861    500.94836    369.73675    412.44437    36500.952 
  591900    295.23167   -1487.6189    502.56641    349.07232    297.47891    36500.952 
  592000    300.16018   -1481.6777    496.02864    370.74725    259.11659    36500.952 
  592100    298.51937   -1485.7985    557.75085    420.93392   -268.96901    36500.952 
  592200    301.87866   -1481.7252    479.09727    361.53396    -232.5643    36500.952 
  592300    300.21647   -1481.5938    495.85721    370.91403   -297.99626    36500.952 
  592400    299.48828   -1516.3781    517.64917    354.63102   -241.81161    36500.952 
  592500    301.62599   -1497.1898    492.20766    358.03795   -585.58804    36500.952 
  592600     294.3421   -1453.5284    501.94075    378.51724   -231.70422    36500.952 
  592700    298.55654   -1509.1254    494.05213    334.07632   -573.57675    36500.952 
  592800    290.09724   -1451.2382    530.20181    389.88635    78.154873    36500.952 
  592900    302.83271   -1433.0914    492.77214    428.15394    383.14754    36500.952 
  593000    296.44487   -1467.7315    529.71489    401.59056    582.52434    36500.952 
  593100    292.75848   -1479.4068    482.47375    326.01564    254.38513    36500.952 
  593200    300.24662   -1502.4732    497.33875    351.65241   -24.007555    36500.952 
  593300    311.27227   -1467.9618    499.06884    437.71783   -339.71036    36500.952 
  593400    291.69388   -1481.1464    480.54121    317.53257    -103.7445    36500.952 
  593500    291.69783   -1479.2124    501.84767    340.79086   -62.212422    36500.952 
  593600    304.93837   -1468.6471    518.68441    428.02576     67.44363    36500.952 
  593700    297.55099   -1428.5676    502.94127    418.97922   -467.32687    36500.952 
  593800    304.93489   -1475.1239    520.13651    422.98537    24.707731    36500.952 
  593900    301.85111   -1479.4277    526.95429    411.56399   -37.779902    36500.952 
  594000    299.67646   -1508.5421    486.11495    331.78327   -38.577237    36500.952 
  594100    305.72537   -1458.6529    529.33565    452.22761    391.84304    36500.952 
  594200    298.42661   -1463.6311    494.69268    379.62402    193.91839    36500.952 
  594300    303.58923   -1456.6495     500.1642    415.40652    569.01759    36500.952 
  594400    296.48422   -1483.5783    496.63993    352.84655    18.723019    36500.952 
  594500    295.88866   -1495.7371    491.41048    332.76705    176.33022    36500.952 
  594600    300.96074   -1554.4717    500.55403     306.0962     272.5543    36500.952 
  594700    297.85592   -1519.7552    489.04368      315.272    -103.1864    36500.952 
  594800    304.03173    -1534.067    500.65296     340.4774    139.33036    36500.952 
  594900    299.77453     -1491.02    512.46394    376.09754   -247.00571    36500.952 
  595000    293.23309    -1524.101    479.70466    280.69702   -233.35946    36500.952 
  595100    306.40273    -1552.707    516.89538    348.79414    339.50624    36500.952 
  595200    298.13895   -1506.4308    485.76233    326.59405    278.39225    36500.952 
  595300     289.4194   -1496.2088    511.98169    323.63253    379.60681    36500.952 
  595400    300.78736   -1525.6896    492.10443    325.64524    217.96361    36500.952 
  595500    300.35487   -1510.0408    505.30502    352.54029   -141.37811    36500.952 
  595600     299.3079   -1492.6977    495.55026     355.3974   -178.55935    36500.952 
  595700    298.83414   -1474.9532    501.70025    377.15106    438.11827    36500.952 
  595800     292.7879   -1485.1173    471.74042    309.70469    23.792324    36500.952 
  595900    297.66652   -1495.4763    513.13612    362.78749     128.8456    36500.952 
  596000    302.94806   -1478.0941    510.13736    401.03769    -655.6372    36500.952 
  596100    300.83432   -1460.4983    500.44807    399.39244   -63.167465    36500.952 
  596200    296.54383    -1520.718    508.27953    327.61585    379.94359    36500.952 
  596300    304.20278   -1513.8703    523.79473    384.58881    225.45257    36500.952 
  596400    293.14429   -1541.5628    508.89135    292.02067    146.60356    36500.952 
  596500    295.82116   -1519.8204    481.68655    298.65476     13.92772    36500.952 
  596600    305.54322   -1520.2058    493.85272    354.36866     502.8091    36500.952 
  596700    301.03226   -1463.7682    522.79376    419.36266   -439.57591    36500.952 
  596800    298.40202   -1485.2844    525.98096    389.14792   -554.45288    36500.952 
  596900    294.55896   -1489.3499    506.98397    348.71897   -344.87015    36500.952 
  597000    312.25974   -1517.0967    492.26328    386.23958   -679.21172    36500.952 
  597100    306.91755   -1522.4141    522.00764    386.52578    -1187.304    36500.952 
  597200       299.61   -1494.4198    494.34047    353.83069   -640.31675    36500.952 
  597300    307.12879   -1478.4782    528.53681    437.94539   -973.27788    36500.952 
  597400     298.4492   -1496.4415    472.56429    324.78729    -429.2012    36500.952 
  597500    292.91494   -1517.6835    499.76121    305.73339   -717.31179    36500.952 
  597600     296.6783   -1495.1154    489.88582    335.43241   -308.05386    36500.952 
  597700    309.89551   -1525.2537    514.86853    390.00409    21.023482    36500.952 
  597800    285.41858   -1515.6495    512.85606     286.9869    145.00917    36500.952 
  597900    299.12017   -1490.2759     505.7976    367.21824   -236.18921    36500.952 
  598000    299.88723   -1542.4057    514.10503     326.8621    478.96769    36500.952 
  598100    288.93637   -1520.5736    497.96236    283.06565    616.81777    36500.952 
  598200    302.60977   -1523.6543    516.90911    360.72052    118.47299    36500.952 
  598300    309.83942   -1490.4411    492.95671    402.65148    236.54032    36500.952 
  598400    303.45796   -1521.6431    515.14118    364.79665    -168.1727    36500.952 
  598500    301.74155   -1537.0803     496.6588    323.12081    227.83004    36500.952 
  598600    297.32577   -1570.1886    495.95226    269.35146   -23.464219    36500.952 
  598700    305.14109    -1537.441      521.637    363.10054   -587.09994    36500.952 
  598800    306.02339   -1544.1027    509.97597    348.76479   -452.55034    36500.952 
  598900    293.89781   -1514.8447    497.93903    311.19153     156.9596    36500.952 
  599000    299.06428   -1518.8541    509.93713    342.52698    441.44608    36500.952 
  599100    305.65988   -1577.3231    503.03363    306.95936    -47.99938    36500.952 
  599200    292.87365   -1583.8767    482.93066    222.52301   -86.595041    36500.952 
  599300    292.90348   -1558.9488     517.2026    281.85765   -226.28699    36500.952 
  599400    294.25637   -1528.5618    494.23355    295.38924    126.92882    36500.952 
  599500     296.4497   -1551.6453    515.52962    303.51326   -251.51362    36500.952 
  599600    304.43338   -1534.4652    500.50028    341.74155   -625.14586    36500.952 
  599700    300.25582   -1533.7767    495.02329      318.075   -291.64902    36500.952 
  599800    295.83156    -1527.991    524.74471    333.58934   -361.32243    36500.952 
  599900    305.55186   -1499.7106    545.91984    426.96994   -17.031991    36500.952 
  600000    300.13537   -1544.8913    501.06493    312.45777    31.305398    36500.952 
  600100    308.62519   -1551.6804     516.2748    359.24328   -60.495719    36500.952 
  600200     299.2796   -1517.7496    528.47405    363.14145   -186.32404    36500.952 
  600300    305.16076   -1541.8327    490.96642    328.12711    19.794918    36500.952 
  600400    304.18648    -1581.647    510.84824    303.79196    415.63297    36500.952 
  600500    298.78925   -1602.3953     522.0265    269.83234    -262.9862    36500.952 
  600600    285.94315   -1563.0736    533.34724    262.42439   -89.542783    36500.952 
  600700     301.6487   -1595.4246    490.63988    258.33802   -104.96018    36500.952 
  600800    291.75572    -1629.326    512.07319    201.16446    -162.4231    36500.952 
  600900    298.48295   -1645.2062    481.59292     185.2037   -676.49309    36500.952 
  601000    300.83281   -1583.1983    487.21924    263.45676   -940.62947    36500.952 
  601100    290.81168   -1605.6673    486.59641    195.08038   -719.34267    36500.952 
  601200    298.61192    -1602.493      486.799    233.70578   -214.37683    36500.952 
  601300      304.764   -1609.2873    502.13561    270.04878   -293.48926    36500.952 
  601400    303.91457   -1576.4852    500.91362    297.79045    373.54221    36500.952 
  601500    297.82327   -1598.2883    514.87533    262.42306    344.42874    36500.952 
  601600    301.88321   -1586.9353    505.24922     282.4964    99.426739    36500.952 
  601700    286.35454   -1615.6364    506.52344    184.89691   -361.74589    36500.952 
  601800      307.071   -1579.6165    499.73097    307.74003   -181.30708    36500.952 
  601900    292.21602   -1590.2835    482.71601    212.92979    -362.5315    36500.952 
  602000    305.04688   -1626.8192    478.80553    230.46515   -341.41201    36500.952 
  602100     297.5219    -1603.774    502.28097    242.98108   -27.681742    36500.952 
  602200    301.27914   -1603.4934    508.46947    266.42875    43.505262    36500.952 
  602300    298.37396   -1609.3682    478.66332    217.61964   -590.17107    36500.952 
  602400    300.98416   -1577.6705    498.38963    280.83889    106.53568    36500.952 
  602500    292.85424   -1606.6677    488.52605    205.23974   -690.46169    36500.952 
  602600    300.89056   -1587.4932    488.82721    261.03078    18.540028    36500.952 
  602700    300.18582   -1593.6007    504.82071    267.73209    469.10846    36500.952 
  602800    296.04127   -1565.1038    492.40314    265.08256   -81.643829    36500.952 
  602900    299.67632   -1609.1488    489.76824    234.82919    590.09491    36500.952 
  603000    309.76324   -1574.0741    501.33724    327.05473    242.10571    36500.952 
  603100    296.39797   -1580.6943    492.30028    251.00114   -128.38513    36500.952 
  603200    295.53376   -1586.0061    486.63565    236.11942      35.4492    36500.952 
  603300    297.83055   -1588.7861    503.95473    261.03749    -391.3318    36500.952 
  603400    294.26659   -1558.1575    492.77732     264.3835   -313.79266    36500.952 
  603500    302.78966   -1516.2293     487.3757    339.42502   -192.32753    36500.952 
  603600    302.53014   -1536.3939    500.92579    331.63778    203.08667    36500.952 
  603700    304.31784   -1553.7626    499.13796     320.5597   -120.57818    36500.952 
  603800    294.81142   -1537.5537    494.01077    288.68272    146.91676    36500.952 
  603900    306.15685   -1509.9105    532.42638     406.0105    473.54631    36500.952 
  604000    296.43308   -1539.6141    482.85164    282.79133    202.02783    36500.952 
  604100    307.83937   -1589.4078    489.51397    291.20399    552.94444    36500.952 
  604200    314.28775   -1525.7384    518.44526    412.94431    197.30314    36500.952 
  604300    309.75947   -1530.6763    477.98538    347.08359   -269.92911    36500.952 
  604400    295.21767     -1533.03    496.03054      297.062   -321.55421    36500.952 
  604500    307.38101   -1549.0424    482.40195    322.38604   -247.55518    36500.952 
  604600    300.83808   -1484.2608    523.28301    398.48182    101.62626    36500.952 
  604700    302.07135   -1537.6569     495.5308    322.90655   -160.44907    36500.952 
  604800    313.48264   -1534.0296    472.20052    354.77016   -299.30355    36500.952 
  604900    300.83693   -1527.0317     497.6108    330.03356   -320.62269    36500.952 
  605000     304.1615   -1518.2893    503.92964    360.11823   -167.19371    36500.952 
  605100    290.25585   -1478.3044    529.01048    362.34555   -204.31375    36500.952 
  605200    292.31648   -1511.2915    486.22412    295.88394   -232.05718    36500.952 
  605300    305.66725   -1554.6074     534.7234    361.39823    138.31651    36500.952 
  605400    303.88823   -1529.7517     490.5253    334.01653   -202.33832    36500.952 
  605500    301.20253    -1528.416    510.40546    343.09605   -372.25109    36500.952 
  605600    306.27268   -1552.5534    515.99084    347.45554   -278.93106    36500.952 
  605700    301.30267   -1497.9794    500.00644     363.5861   -374.35232    36500.952 
  605800     298.7734   -1496.0654    503.04251    357.10659   -469.44246    36500.952 
  605900    303.85586    -1526.748    505.74281    352.09155   -462.59262    36500.952 
  606000    302.54944   -1475.2032    500.27387     392.2638    5.6265699    36500.952 
  606100    287.63752   -1550.4038     484.5372    233.94087   -125.36178    36500.952 
  606200    308.91862   -1532.9782    493.83069    356.82733    -623.1137    36500.952 
  606300    298.03624   -1476.5497    490.60092     360.8496    90.393462    36500.952 
  606400    308.10548   -1537.9707    538.41846    392.74812    120.99354    36500.952 
  606500    300.96466   -1490.3504    511.09994    380.78114    143.34687    36500.952 
  606600    303.91266   -1492.2157    526.34606    407.48374    243.84182    36500.952 
  606700    300.15976   -1520.1836    514.22502    350.43581    344.53243    36500.952 
  606800     298.7603   -1529.4848    494.23484    314.82041   -77.884176    36500.952 
  606900    296.07619   -1535.3008     528.8861    331.52641    400.61065    36500.952 
  607000     297.1544   -1500.3958    501.69568    344.11328    123.89721    36500.952 
  607100    312.48766    -1513.647     493.9865    392.44245   -200.89276    36500.952 
  607200    303.93324    -1517.355    504.51682    360.60815   -333.08618    36500.952 
  607300    301.89873   -1531.5361    494.40845      327.125    598.26189    36500.952 
  607400     298.9303   -1544.3836    502.17428     308.6292   -20.856053    36500.952 
  607500    302.49823    -1574.617    510.69411    303.03883    268.78568    36500.952 
  607600    297.85938   -1537.4664    516.89901    325.43178    737.22883    36500.952 
  607700    295.05002   -1583.6751    455.11971    204.74855    105.53742    36500.952 
  607800    305.95556    -1544.583    510.96956    348.97163    140.27942    36500.952 
  607900    304.17437   -1568.9561    499.19098    304.77089     -6.24894    36500.952 
  608000    283.37306   -1532.6854    514.31748    262.16886    350.62997    36500.952 
  608100    304.99377   -1566.5981    481.96441     293.6051    146.37741    36500.952 
  608200    303.55544   -1496.9367    500.69906     375.5015   -13.749245    36500.952 
  608300     294.1215   -1569.7817     513.2804    272.60669   -18.326394    36500.952 
  608400    299.26175   -1557.9357    485.58707    279.98772   -317.31679    36500.952 
  608500    309.49192    -1508.447    498.03848    388.15701    -131.9628    36500.952 
  608600    295.13811   -1511.7531    503.15367    325.10254   -41.169802    36500.952 
  608700    303.03115   -1537.8544    496.17619    327.69168     145.3237    36500.952 
  608800    299.77275   -1506.8973     514.7133    362.46153    39.781487    36500.952 
  608900    314.51938   -1515.9773    500.26479    405.57162    75.610287    36500.952 
  609000    303.74292   -1549.5457    509.05284    332.09349   -408.30889    36500.952 
  609100    293.11665   -1535.2272    490.36955    279.70952    282.94544    36500.952 
  609200    300.69474   -1517.3775    498.44224    339.87659    190.66678    36500.952 
  609300    296.37364   -1488.9704     507.4892    357.80404    1005.3753    36500.952 
  609400     296.4569   -1475.0357    509.16289     373.7886   -17.458037    36500.952 
  609500     297.4956   -1492.7949    485.97616    337.53653    189.22193    36500.952 
  609600    298.91192   -1515.6393     488.3311    323.44729   -69.864522    36500.952 
  609700    293.17467   -1528.1696    510.31693    306.97668    378.12411    36500.952 
  609800    300.92333   -1497.2074    496.68876     359.3262    -438.4074    36500.952 
  609900    307.46913   -1464.5007    515.50863    440.43267   -571.92365    36500.952 
  610000    294.31195   -1512.0935    531.03392    348.90908   -949.21613    36500.952 
  610100    299.88656   -1536.0007    481.39387    300.55291   -272.09476    36500.952 
  610200    303.69053   -1571.3419    482.78969    283.79741   -581.41745    36500.952 
  610300    293.68913   -1521.5155    506.56841    312.20711   -181.87738    36500.952 
  610400    293.09592   -1526.6124    487.08452    284.94563   -684.86969    36500.952 
  610500    295.59441   -1544.2812      485.735    277.21776   -792.89421    36500.952 
  610600    290.28384   -1503.0515    472.58067    281.29513   -811.23448    36500.952 
  610700    307.50444   -1465.2252    485.57463    409.93377   -66.477094    36500.952 
  610800    304.10744   -1487.6678    484.93282    371.49854    12.076062    36500.952 
  610900    310.49409   -1470.6946    488.93758    421.33721   -85.854419    36500.952 
  611000    300.39983    -1524.891    502.93669    335.52491   -60.419269    36500.952 
  611100    296.04535   -1537.4777    490.80042    291.12444   -348.65405    36500.952 
  611200    304.21795    -1517.815    503.45718    360.37511   -220.61392    36500.952 
  611300    292.11669   -1519.6149    470.59519    271.02878   -668.07842    36500.952 
  611400     299.7641   -1511.8588    479.18143    321.92903   -205.51737    36500.952 
  611500    306.83795   -1521.7251    489.77917    354.62656   -592.80493    36500.952 
  611600     299.7906    -1519.725    475.87221     310.8734   -103.12381    36500.952 
  611700    295.11987   -1499.1764    477.90247    312.34557   -410.88282    36500.952 
  611800    301.21607     -1506.64    504.22309    358.75082   -597.08561    36500.952 
  611900    304.38544   -1549.9904    508.79628    334.29568   -371.66342    36500.952 
  612000    292.38058   -1474.4151    503.51362    350.33947   -522.35351    36500.952 
  612100    308.75942    -1487.173    496.17439    404.25686     -181.208    36500.952 
  612200    296.25979   -1499.0433    533.19442    372.92181   -40.367994    36500.952 
  612300    299.86578   -1518.1871    488.42073    325.29949   -449.06454    36500.952 
  612400    299.84855    -1483.671    487.31973    358.63679   -541.86273    36500.952 
  612500    299.12269   -1494.8305    523.63547    380.51292    264.21178    36500.952 
  612600    296.66209   -1476.7561    501.22044    365.05305   -101.25011    36500.952 
  612700    299.97204   -1483.4039    508.89578    381.03793   -141.99675    36500.952 
  612800    296.30556    -1431.574    542.07821     449.4818    289.54803    36500.952 
  612900    306.66583   -1443.7993    517.68139    459.67673   -62.024873    36500.952 
  613000    304.55229   -1476.4886     487.8771    387.63223   -350.32078    36500.952 
  613100     308.8217   -1493.8543    515.15586    416.83839   -833.27871    36500.952 
  613200    300.42663   -1488.1464    491.60764    361.06154   -376.24833    36500.952 
  613300    296.98627   -1494.4301    481.98945    329.61297    222.43761    36500.952 
  613400    303.79315   -1511.8107    474.77375    335.77633    75.807544    36500.952 
  613500    309.93484   -1463.0199    528.17305    465.72021    255.53356    36500.952 
  613600    303.28924   -1523.4258    474.21326    321.32365   -300.11544    36500.952 
  613700    301.86657    -1447.229    487.03163    403.90992   -5.8635181    36500.952 
  613800    296.68929   -1502.6114    531.05487    369.15509     366.3966    36500.952 
  613900    296.38446   -1513.0713    520.95185    347.21463    872.18139    36500.952 
  614000    308.34295   -1506.6047    517.12443    403.89322    730.03755    36500.952 
  614100     301.4875   -1466.0543    476.54919    372.88915    437.13201    36500.952 
  614200    305.98586   -1491.0904    508.58452    400.21608   -605.11224    36500.952 
  614300    304.48825   -1518.7367    520.02028    377.23799   -591.82756    36500.952 
  614400    299.91165   -1520.3758    484.21821    319.11557   -425.46795    36500.952 
  614500    302.41165   -1506.5851    505.80584    365.79123   -75.056566    36500.952 
  614600    303.39547   -1556.2766    511.89381    326.63341   -293.56909    36500.952 
  614700    306.87761    -1547.964    493.84881    332.63651   -115.61872    36500.952 
  614800    303.48424   -1522.4585    486.79609    335.75493   -891.01532    36500.952 
  614900    302.72345   -1550.5386    538.81057    356.25135   -427.84534    36500.952 
  615000    287.08558    -1522.699    484.97027    259.58461   -136.80359    36500.952 
  615100     294.4759    -1517.623    518.05484    331.14131    -48.38375    36500.952 
  615200    303.39912   -1520.5248    495.81681    346.32474   -299.57104    36500.952 
  615300     304.2822   -1589.6978    482.28259    267.60808    267.09068    36500.952 
  615400    310.35419   -1561.3528    493.39084    334.50012    31.640541    36500.952 
  615500    297.90037   -1543.4435    500.32774    303.06862    582.02754    36500.952 
  615600    305.23114   -1588.0112    523.99283    315.29309    423.67574    36500.952 
  615700    300.58457   -1576.9517    522.86681    304.22916     458.9023    36500.952 
  615800    303.94048   -1592.2342    479.37627    260.62116   -474.22777    36500.952 
  615900    296.44758   -1582.9357     483.5802    240.26384   -903.18188    36500.952 
  616000    301.78328   -1573.9517    484.70669    274.48587    -316.7806    36500.952 
  616100    302.36255   -1528.7687    517.80584    355.38572    -371.4168    36500.952 
  616200    307.03432    -1516.383    487.84214    358.91902   -163.12346    36500.952 
  616300    309.06897   -1541.5079     491.8188    346.96521   -235.15925    36500.952 
  616400    291.77099   -1535.4184    532.76326    315.83116    639.04552    36500.952 
  616500    303.04858   -1526.8555    510.17949    352.77264    395.53176    36500.952 
  616600    304.40263   -1527.7801    484.03489    331.82226    125.57051    36500.952 
  616700    299.42694   -1524.6422    492.46619    320.90682     92.40194    36500.952 
  616800     297.7158   -1485.8939    499.90271    359.35919    57.729449    36500.952 
  616900    306.29373   -1518.2577    496.70857    362.56402     37.60382    36500.952 
  617000    303.05812   -1535.9331    524.04853    357.60719    511.63177    36500.952 
  617100    302.40608   -1526.5479    490.92117    330.91854    212.08565    36500.952 
  617200    295.78696   -1502.5426    500.56861    334.66013    226.45626    36500.952 
  617300     297.4745    -1479.867    519.20055    383.59343    4.0830611    36500.952 
  617400    289.90414   -1460.8926    480.92761    330.08518   -385.44298    36500.952 
  617500    307.48773   -1445.3443    528.59242    472.75692   -373.13803    36500.952 
  617600    290.55478   -1429.0006    497.25167    381.24135   -878.98931    36500.952 
  617700    306.25003   -1472.3004    523.56268    435.17795   -641.64645    36500.952 
  617800    307.73625   -1475.7166    489.00381    403.91901    -455.2321    36500.952 
  617900    302.11039    -1470.833    491.50701    385.88307   -771.49674    36500.952 
  618000    303.51099   -1471.0254    532.97286    433.48569   -623.77544    36500.952 
  618100    299.55308   -1433.7713    508.05802    427.93951   -544.04129    36500.952 
  618200    311.38092   -1457.9693     500.2593    449.39173    217.20115    36500.952 
  618300    312.32487     -1475.89    494.07631    429.55369   -659.22215    36500.952 
  618400    297.71089   -1461.2614    542.00186    426.06862   -811.26664    36500.952 
  618500    301.24134   -1479.6346    493.47584    375.12318     181.8521    36500.952 
  618600    302.03579   -1466.4637     493.2723    391.68054   -189.06311    36500.952 
  618700    297.62497   -1449.5741    494.46079    389.82654    458.69145    36500.952 
  618800    305.23846   -1497.6931     507.6434    389.29485    276.50495    36500.952 
  618900    300.58956   -1526.2657    514.70564     346.7765    273.68563    36500.952 
  619000    300.11899   -1538.8138    504.95168    322.34801   -553.99469    36500.952 
  619100    306.97363   -1510.4045    512.47557    389.25665    249.29172    36500.952 
  619200    300.64416   -1537.5611     506.8174    327.83967   -322.58123    36500.952 
  619300    296.32971   -1539.2047    516.03752    315.91946   -388.46445    36500.952 
  619400    289.61406    -1539.047     484.6925    254.38479   -106.13106    36500.952 
  619500    299.33086    -1526.977    494.27769    319.94935    163.97942    36500.952 
  619600    308.98706     -1544.09    501.88169    354.07585   -175.28634    36500.952 
  619700    294.94771    -1500.288    500.48607    333.03966   -23.538008    36500.952 
  619800    303.21584   -1500.5358    503.35309    373.02179    474.66341    36500.952 
  619900    304.10222   -1494.8079    490.69417    370.09625     183.1872    36500.952 
  620000    294.29665   -1513.7797    511.27561     327.3954    95.144342    36500.952 
  620100    294.68489    -1531.831    499.88195    299.70484    57.487124    36500.952 
  620200    298.99653   -1507.3238    486.47187    330.28584   -22.993253    36500.952 
  620300    294.29193   -1523.5063    466.61654    272.98842   -147.04143    36500.952 
  620400    301.93357   -1538.0098    481.09444    307.49471   -153.38194    36500.952 
  620500     302.1327   -1567.9888    499.52865    296.84974    -92.56547    36500.952 
  620600    295.43077   -1521.6845    500.57365    313.91366    30.121707    36500.952 
  620700    297.51477   -1513.2719    493.66304    324.83304    387.77796    36500.952 
  620800    293.61316   -1526.4835    484.38604    284.71343    17.108565    36500.952 
  620900    299.16172   -1534.8129    494.32841    311.39985   -297.19655    36500.952 
  621000    305.60505   -1528.8382    464.78941    316.95232   -388.26493    36500.952 
  621100    296.97957    -1538.548    500.48001    303.95536   -870.22596    36500.952 
  621200    303.69663   -1520.0018    500.85405    353.22938    164.54839    36500.952 
  621300    309.66823   -1504.8657    499.95848    394.45499   -179.79466    36500.952 
  621400    304.14623   -1500.2255    487.88908    362.07238     126.4727    36500.952 
  621500    295.51752   -1514.7749     492.2792    312.92084   -478.68616    36500.952 
  621600    298.04825   -1486.6704    492.97246    353.15475   -502.80568    36500.952 
  621700    312.31551   -1449.4527     482.8703    444.74265   -549.75547    36500.952 
  621800    295.95552   -1457.4045    527.29275    407.28398   -406.99749    36500.952 
  621900    307.08648   -1477.2341    503.03059    413.49206    607.94167    36500.952 
  622000    303.76707   -1481.7852    489.71169    380.62192    295.36835    36500.952 
  622100    309.16883   -1472.2951    493.33479    418.14521    753.43939    36500.952 
  622200    305.11622   -1492.4432    499.92592    386.27489    645.04643    36500.952 
  622300     300.1306   -1455.3522    504.21981    405.13013    521.76365    36500.952 
  622400     297.0057   -1467.9555    505.38584    379.57182     472.0072    36500.952 
  622500    307.23137   -1437.6387    492.50141    443.21299   -145.27636    36500.952 
  622600    305.44256   -1416.1116    490.52615    454.68138    -422.4726    36500.952 
  622700    292.93933   -1456.6571    507.17856    374.28737   -389.52973    36500.952 
  622800    293.56724   -1483.8132     508.8172    351.60738    8.2395874    36500.952 
  622900    290.40497   -1462.1682    475.67039    325.81549   -480.94497    36500.952 
  623000    305.99138   -1458.7604    513.16019    437.14671   -240.50369    36500.952 
  623100     295.2446   -1500.2066    492.14014    326.11675   -209.43659    36500.952 
  623200    295.88065   -1503.3753    514.78993    348.47207   -612.10459    36500.952 
  623300    302.93652    -1479.137    503.61125    393.41652   -283.64276    36500.952 
  623400    311.34038   -1514.8545    480.84558    372.90966    344.17574    36500.952 
  623500    302.19418   -1496.2606    491.62446    360.95161   -552.48454    36500.952 
  623600    291.55912   -1551.5295     492.1257    258.12506   -202.52323    36500.952 
  623700    306.63744   -1532.6608    487.84916     340.8548    69.884674    36500.952 
  623800    300.90664   -1564.3794    476.16695    271.55695   -250.14332    36500.952 
  623900    292.03381    -1567.313    476.43415    228.79506   -459.26069    36500.952 
  624000    304.30361   -1537.8758    493.65695    330.90121    2.6333313    36500.952 
  624100    297.38083   -1568.5475    508.58499    283.87418   -380.34094    36500.952 
  624200    302.35633   -1521.0847     521.7713     367.0071    138.30453    36500.952 
  624300    302.24369   -1552.8422    484.99205    297.96128   -106.20204    36500.952 
  624400    299.61158   -1582.1662    484.33901    256.08994   -269.38639    36500.952 
  624500    287.02847   -1533.8551    514.85919    278.05939   -443.13241    36500.952 
  624600    294.02999    -1523.939    499.37549    304.13091   -369.29923    36500.952 
  624700    301.29805   -1492.6354    491.40829    360.31106   -33.557166    36500.952 
  624800    308.96161   -1512.4482    528.35437    412.07532   -325.61364    36500.952 
  624900    288.34362   -1525.5844    503.57975    280.99367   -216.20167    36500.952 
  625000    307.39829   -1507.7007    493.00882    374.41275   -395.00104    36500.952 
  625100    300.29207   -1486.4631    485.10901    355.63818    123.29655    36500.952 
  625200    306.21035      -1458.7    514.70493    439.74129   -505.29471    36500.952 
  625300    308.48548   -1482.7008    516.01998    427.33664    295.62433    36500.952 
  625400    303.85216   -1484.5426    496.35101    384.88836    752.63924    36500.952 
  625500    310.16785   -1507.6742    511.68416    405.62994    651.14973    36500.952 
  625600    298.92337   -1518.9763    507.87837    339.70933    139.02111    36500.952 
  625700    308.24975   -1500.8227    516.30082    408.43038   -32.496556    36500.952 
  625800    288.10753   -1502.2153    503.38248    303.09865   -340.49579    36500.952 
  625900    288.93533   -1498.5183    508.26245    315.41636    30.243498    36500.952 
  626000    301.24475   -1493.2418    501.39786    369.45343   -245.75077    36500.952 
  626100    302.26643    -1550.691    490.48672    305.70997   -635.71146    36500.952 
  626200    299.84396   -1515.6242    499.20041     338.5435   -772.48701    36500.952 
  626300    305.75277   -1495.6391    489.74256    375.77209   -191.60583    36500.952 
  626400    300.42165   -1503.4817     498.2196    352.31575   -16.054508    36500.952 
  626500    301.37236   -1492.4684    522.63305    392.03862   -10.053023    36500.952 
  626600    304.39359   -1553.6245    518.99996    340.90208    -703.5825    36500.952 
  626700    310.39767   -1555.1344    492.66105    340.18513    181.42768    36500.952 
  626800    299.21012   -1545.1769    486.46501    293.39118   -697.03179    36500.952 
  626900    299.78795   -1550.9946     489.7017    293.42124   -826.91625    36500.952 
  627000    296.11275    -1535.903    495.98164    298.18497   -40.062888    36500.952 
  627100    306.34594   -1562.9135     505.8995    327.33515   -927.38631    36500.952 
  627200     304.8287   -1538.1593    511.49016    350.82372   -229.97786    36500.952 
  627300     291.8189   -1533.8287    479.36381    264.23788   -199.15197    36500.952 
  627400    294.79289   -1513.9593    510.34825    328.53089    166.85838    36500.952 
  627500    279.84602   -1501.5384    509.67307    272.73307   -156.56974    36500.952 
  627600    294.54037   -1502.9808      520.071    348.09098   -25.609318    36500.952 
  627700    294.46944    -1501.129    469.26332    298.81465   -250.65458    36500.952 
  627800    305.42623   -1545.0457    502.87812    338.02547   -242.84566    36500.952 
  627900    310.97322   -1545.9288    501.53441    360.86498     14.93621    36500.952 
  628000    290.27861   -1557.4959    482.39369    236.64008   -45.542897    36500.952 
  628100    320.11981   -1537.0954    479.19403    388.69063    212.93944    36500.952 
  628200    298.58535   -1516.7659    465.08854    297.60236    541.79035    36500.952 
  628300    304.68177   -1564.7019    521.24526    333.37224    351.51078    36500.952 
  628400    302.62831    -1557.672    482.17799    292.05546    287.51345    36500.952 
  628500    302.96875   -1542.8417    498.00979    324.25599    -76.58198    36500.952 
  628600    301.43224   -1540.1092    476.80529    298.84069   -306.47299    36500.952 
  628700    306.02538   -1557.0702    502.59192    328.42225    72.036252    36500.952 
  628800    299.98427    -1552.583     490.1289    293.14722    507.84168    36500.952 
  628900    302.94832   -1523.4593     500.9186    346.45489    201.04173    36500.952 
  629000    308.93726   -1546.9511    534.22204    383.33005    -104.8669    36500.952 
  629100    300.13497    -1489.717    504.88204    371.44731    532.89675    36500.952 
  629200     299.3429   -1523.6986    505.38086     334.3853    17.018863    36500.952 
  629300    307.11069   -1537.1999     484.3424    334.94745   -56.771061    36500.952 
  629400     292.9971   -1535.2634    529.15347    317.91705   -128.97879    36500.952 
  629500    300.41254   -1529.4686    488.50341    316.57149    21.309138    36500.952 
  629600    291.98104   -1540.6878    513.97247    292.72013    687.08787    36500.952 
  629700    299.94315   -1577.3691    538.78269    316.82907    762.92601    36500.952 
  629800    297.16472    -1532.508    512.47228    322.82426    197.03552    36500.952 
  629900    295.11457   -1504.4223    497.31511    326.48839    43.787134    36500.952 
  630000    301.62919   -1530.4048    515.39392    348.02372    698.90566    36500.952 
  630100    288.09054   -1571.9497    461.95345    191.85838    164.65143    36500.952 
  630200    293.69836   -1594.2391    514.49806    247.45484    249.36496    36500.952 
  630300    297.87522    -1564.409    489.54491    271.20666    629.97668    36500.952 
  630400    301.00247   -1574.2372    509.10113     295.0664    21.074243    36500.952 
  630500    290.70637   -1582.3501    495.42997    226.75523    488.93974    36500.952 
  630600    299.75528   -1579.5904    525.76211    300.73823    369.03891    36500.952 
  630700    298.75775   -1554.4298    505.71184    301.34089    597.55122    36500.952 
  630800    305.36807   -1601.4585    530.64078    309.11253    639.49595    36500.952 
  630900    290.67315   -1575.4813    519.73931    257.78328    281.82022    36500.952 
  631000    307.63788   -1536.0811    515.61766    369.72389   -338.87933    36500.952 
  631100    314.38727   -1570.4367    516.65824    366.90867   -556.00003    36500.952 
  631200    310.43817   -1536.1086     490.5644    357.29739    150.57321    36500.952 
  631300    308.78658   -1566.9311    494.11605    322.56307   -8.9750385    36500.952 
  631400    312.82648   -1598.8525    485.80376    300.58539    63.551708    36500.952 
  631500    302.33629   -1561.7548    483.17518    287.65025    527.99865    36500.952 
  631600    290.39692   -1563.5242      518.327    267.07977    185.47997    36500.952 
  631700    295.26826   -1502.0952    506.75929    338.95419    287.20045    36500.952 
  631800    298.21055   -1541.4502    480.81594    286.95173    369.87014    36500.952 
  631900    303.88775   -1522.1777     517.4838    368.54687    356.25397    36500.952 
  632000    294.74354   -1509.5705    493.38007    315.72851   -41.376847    36500.952 
  632100     301.1408   -1505.4627    507.34735    362.71224    11.432119    36500.952 
  632200     299.1837   -1500.0624    534.10351    386.02473    122.57339    36500.952 
  632300    284.74259   -1537.0954    514.26212     263.8923   -223.27997    36500.952 
  632400    299.32717   -1516.6435    562.05482     398.0433   -28.171937    36500.952 
  632500    298.72729   -1511.1758    499.99264    338.73805    223.31878    36500.952 
  632600    297.57622   -1488.9939    520.38921    376.11483    27.832739    36500.952 
  632700    301.29786   -1514.1492    526.22019    373.60832    -442.0282    36500.952 
  632800    297.45245   -1536.5318    471.01758    278.64598   -292.67865    36500.952 
  632900    293.08008   -1510.8642     512.7652    326.30295   -443.80553    36500.952 
  633000    286.98138   -1488.1957    521.67421    330.32099   -157.43342    36500.952 
  633100    309.08299   -1550.8602    489.41969     335.2771    583.77833    36500.952 
  633200    308.69854   -1509.1765    523.24359    409.04736    611.80311    36500.952 
  633300    306.53607   -1525.4242     509.3341    369.11819    131.64199    36500.952 
  633400    297.74998   -1567.9125    494.05392     271.6462    572.57027    36500.952 
  633500    291.01672   -1558.0638    511.34482    268.35882    254.04311    36500.952 
  633600    295.15928   -1540.3463    498.42693    291.87829    -546.0528    36500.952 
  633700    312.35864   -1514.3601    530.34788    427.50776    365.74962    36500.952 
  633800    292.26595   -1497.9789    504.74278    327.48685     375.3124    36500.952 
  633900     307.2861   -1517.4907    505.27409    376.38101    307.68191    36500.952 
  634000    288.63454   -1511.9603    505.93675    298.28941    604.74891    36500.952 
  634100    299.15729   -1505.8051    500.51954    346.57872    460.52787    36500.952 
  634200    299.50834   -1509.7781    494.78499    338.45753    438.54606    36500.952 
  634300    302.78401   -1507.0482     515.5849    376.78981    149.34952    36500.952 
  634400    305.59538   -1474.9948    488.33839    394.30098   -328.57678    36500.952 
  634500    304.46736    -1511.373    535.66242     400.1494    177.43791    36500.952 
  634600    309.77896   -1528.5616    484.18048    355.48152    404.47947    36500.952 
  634700    311.86821   -1523.0358    497.74938    384.01736    15.048565    36500.952 
  634800    308.20591   -1506.6259    495.82739    381.95564    403.08649    36500.952 
  634900    294.35066   -1498.0401    529.04188    361.14529    18.793498    36500.952 
  635000    295.14195   -1434.9832    499.17607    397.91218   -351.59366    36500.952 
  635100    289.44284   -1492.5359    501.45985    316.88956   -148.94943    36500.952 
  635200    301.30907   -1475.5008     513.4159    399.50307   -154.36379    36500.952 
  635300    295.85889   -1440.3964    508.82617    405.38886   -1151.6523    36500.952 
  635400    296.25072   -1451.5182    513.82481    401.03637   -776.92703    36500.952 
  635500    302.59194   -1448.2289     513.2052     432.3614   -1082.7727    36500.952 
  635600    298.09775   -1440.8165    488.73888    394.99876   -997.06137    36500.952 
  635700     309.8452   -1461.3239    512.71042    451.54843   -895.40011    36500.952 
  635800     294.0601   -1462.9961     491.9568    357.79121   -376.61049    36500.952 
  635900    297.01005   -1475.2926     501.0899    367.95843   -193.34005    36500.952 
  636000     304.3349    -1506.729    488.53067    357.06309   -278.95816    36500.952 
  636100    298.64247   -1527.3823    501.16524    323.32078    85.372402    36500.952 
  636200    300.06491   -1533.0115    472.38808    295.34227   -606.53803    36500.952 
  636300    297.85726   -1510.7439    505.15727    340.40291     101.1481    36500.952 
  636400    292.88272   -1513.6191    466.69801    276.58897    -492.4453    36500.952 
  636500    304.03825   -1519.2279    483.75419    338.44716   -472.17842    36500.952 
  636600    295.93604   -1512.9046      489.417     313.8201   -281.71693    36500.952 
  636700    303.59871   -1499.3201    514.63718    387.25177   -361.04765    36500.952 
  636800    294.01485   -1493.3868    494.14104    329.38028   -544.23012    36500.952 
  636900    292.88986   -1506.8251    488.81824    305.53551   -906.95635    36500.952 
  637000    303.79683   -1482.0533    487.58533    378.36198   -250.35733    36500.952 
  637100    306.65327   -1492.4758    506.25927    399.52141    61.941907    36500.952 
  637200    296.69329   -1514.3661    497.71323    324.07685    322.70092    36500.952 
  637300    305.88073   -1514.5686    471.75569    339.43391   -61.627018    36500.952 
  637400    297.54152   -1513.3785    497.13454     328.3188   -358.66421    36500.952 
  637500    307.00709   -1470.8824    474.18826    390.64269    145.97658    36500.952 
  637600    312.28239   -1538.5464    495.99669    368.62572    404.77304    36500.952 
  637700     303.6221   -1505.3479    471.45763    338.15013   -342.52294    36500.952 
  637800    294.24253    -1548.834    481.21581    262.03673   -509.01096    36500.952 
  637900    301.31936   -1526.9948    498.44356    333.08328    -564.0709    36500.952 
  638000    291.19582   -1532.9354    507.99595     290.9477   -468.91897    36500.952 
  638100    303.64924   -1571.1464    483.06821    284.08483    561.90567    36500.952 
  638200    297.33051   -1493.2022    495.10958    345.51658     221.5272    36500.952 
  638300    302.03268   -1523.7441    502.42905    343.54288   -266.77237    36500.952 
  638400    291.86971   -1517.7513    488.82253    290.00362   -39.801917    36500.952 
  638500    292.23435    -1536.842     495.6029    279.34104   -181.52312    36500.952 
  638600    331.44374    -1523.842    476.57009    450.49194    18.848064    36500.952 
  638700     292.0839   -1509.0448    527.16437    338.01983    23.285549    36500.952 
  638800    294.02614   -1540.9006    470.39777    258.17423   -32.341175    36500.952 
  638900    292.69879   -1531.4417    482.85935     274.0966   -502.20391    36500.952 
  639000    299.97569   -1562.5715    498.00715    290.99826    92.344436    36500.952 
  639100    290.82537   -1557.5723    497.11889    253.75967   -178.40891    36500.952 
  639200    293.96501   -1537.7898    491.12321    281.73426    152.67157    36500.952 
  639300     291.2802   -1522.5888    498.17291    291.85258    285.87081    36500.952 
  639400    296.10886   -1516.4364    488.41407    310.06637    867.95116    36500.952 
  639500    300.04893   -1555.6959    487.57297    287.77064     214.0397    36500.952 
  639600    307.46188   -1569.3622    495.34888     315.3787   -32.219096    36500.952 
  639700    298.29469   -1559.4426    462.17449     250.6982    450.70136    36500.952 
  639800    307.91144   -1568.3236    501.81983    324.91972    718.96522    36500.952 
  639900    303.44365   -1545.4096     488.6292    314.45352    429.78272    36500.952 
  640000    307.68482   -1529.1271    473.55509    334.82738    75.769568    36500.952 
  640100    301.56926   -1530.5677     478.3895    310.58553    110.13422    36500.952 
  640200    295.81372   -1511.1372    491.67195    317.28974    37.016155    36500.952 
  640300       301.22   -1508.6483    481.30154    333.83875   -67.752219    36500.952 
  640400    306.15884     -1510.25    484.15871    357.41234   -563.50691    36500.952 
  640500    293.24931   -1533.4184    505.50076    297.24901    298.46766    36500.952 
  640600    307.39836   -1529.4183    491.80806    351.49463    104.06263    36500.952 
  640700    295.06463   -1552.4627    487.28737    268.19465   -171.32511    36500.952 
  640800    299.93063   -1587.1611    469.05044    237.24831    183.39398    36500.952 
  640900     297.7853   -1527.2033    484.73662    303.19774    276.95558    36500.952 
  641000    296.02438   -1510.6982    504.01022    331.01899    700.79567    36500.952 
  641100    309.15685   -1495.2373    480.12778    381.94183    712.97377    36500.952 
  641200    301.75475   -1569.5633    491.44665    285.48533    953.41258    36500.952 
  641300    298.28992   -1526.3328    516.45269    338.06459    1026.9142    36500.952 
  641400    296.04428   -1488.0685    501.10758    350.83592    92.445429    36500.952 
  641500     300.2867   -1509.0749    507.41327    355.30635    520.31906    36500.952 
  641600    310.07313   -1472.8022    494.98475    423.37455    10.267567    36500.952 
  641700     286.8792   -1532.0494    481.04478    245.37611   -128.13284    36500.952 
  641800    307.02929   -1549.7477    515.77404    353.46348     680.9309    36500.952 
  641900    304.39564   -1520.2558    465.02426    320.30434    484.63401    36500.952 
  642000    304.41359   -1544.1967      498.824    330.24433    416.12188    36500.952 
  642100     299.2945   -1553.7774    506.01615     304.7231    669.39981    36500.952 
  642200     295.5439   -1495.4987    466.62981    306.66679    483.54902    36500.952 
  642300    312.50838   -1473.9564    463.12668    401.36694    590.03711    36500.952 
  642400    292.23909   -1477.5415    486.25284    329.31294    279.93404    36500.952 
  642500    304.64224   -1472.1884    489.26242    393.72425   -59.143227    36500.952 
  642600    299.02866   -1459.7929    479.58061    371.07069   -292.48161    36500.952 
  642700    288.86076   -1517.9418    478.10886    265.50223   -449.52782    36500.952 
  642800    296.21663   -1474.4859      504.032    368.12181   -440.21131    36500.952 
  642900    305.27378   -1466.0579    483.32343    396.76971    274.46836    36500.952 
  643000    299.58679   -1522.3126    504.65971    336.15229   -487.83923    36500.952 
  643100    299.74596   -1486.3634    518.50553    386.66657   -95.106217    36500.952 
  643200    309.05819   -1468.9745    476.54858    404.17966   -266.84265    36500.952 
  643300    285.18595   -1486.4143    486.49812    288.81286   -428.54958    36500.952 
  643400    307.98424   -1457.2672    478.66922    413.15451    559.37738    36500.952 
  643500    290.78367   -1501.1056    505.53185     318.4509    521.29912    36500.952 
  643600    299.04722   -1514.3087    476.12173    313.17986    104.10206    36500.952 
  643700    298.90228    -1515.935     473.8079    308.58485   -199.51742    36500.952 
  643800    296.22955   -1477.3599    513.44217    374.71634    120.45734    36500.952 
  643900    290.84803   -1524.8341    501.85159    291.33296    242.79881    36500.952 
  644000    302.47885   -1516.5958    495.56089    345.83921    50.041883    36500.952 
  644100    306.33671    -1502.795    483.01907    364.53149    121.30761    36500.952 
  644200    307.05393   -1472.7234    478.77168    393.59673   -718.01149    36500.952 
  644300    297.01155    -1484.975     468.3977    325.59062   -158.43915    36500.952 
  644400    284.07934   -1528.2975    484.84684    240.27777    233.00866    36500.952 
  644500    303.47826   -1542.9065    480.06447    308.54836      405.912    36500.952 
  644600    298.60643   -1511.5322    484.52958    322.37241    629.95061    36500.952 
  644700    302.22498    -1508.616    498.00547    355.11639    180.17542    36500.952 
  644800    295.32586   -1536.8825    479.19286    276.86075    458.67197    36500.952 
  644900     301.4861   -1485.1105    507.24586    384.52335   -211.40011    36500.952 
  645000    284.37866    -1483.307    487.07177    288.84574   -320.39186    36500.952 
  645100    309.89706   -1498.5708    495.25066     397.0762   -277.27261    36500.952 
  645200    294.95747   -1493.1473    476.26804    316.00643   -283.30022    36500.952 
  645300    307.12841   -1537.4369    487.44919    337.89737   -396.16024    36500.952 
  645400    305.84091    -1485.239    460.83465     357.6626    397.29426    36500.952 
  645500    290.91697   -1545.6277     472.6341    241.63348    482.15278    36500.952 
  645600     313.2531   -1522.4312    470.74853    363.87927    53.137009    36500.952 
  645700    295.98966   -1485.2592    497.35069    349.64159   -5.0552079    36500.952 
  645800    297.09613   -1488.0185    496.29719    350.82878   -587.24987    36500.952 
  645900    302.45746   -1534.4334    500.34323    332.68728   -287.78683    36500.952 
  646000    293.10725    -1518.153    478.72399    285.09569    429.33699    36500.952 
  646100    303.42764   -1554.5283    462.19028    278.82358    313.28663    36500.952 
  646200    302.39928   -1503.9911    474.35513    336.87859    296.08015    36500.952 
  646300    297.36969   -1521.2436    490.27809    312.82081   -150.33653    36500.952 
  646400    305.62422   -1548.0745    511.78518     344.7984    434.78509    36500.952 
  646500    296.19806   -1509.8687    485.06864    313.69174    -101.2264    36500.952 
  646600    302.79013    -1510.089    467.38173    325.57349    2.5748486    36500.952 
  646700    298.89174   -1501.0216    482.95886    332.60158    486.76829    36500.952 
  646800    303.24349   -1491.6056    511.10401    389.82785    631.91692    36500.952 
  646900    304.14704     -1482.34    499.79517    391.86771    434.96396    36500.952 
  647000    300.67028   -1489.9765    474.27092    342.99572   -28.976201    36500.952 
  647100    304.78551   -1497.9094     469.3537      348.742   -387.39313    36500.952 
  647200    295.03712   -1428.8523    516.42319    420.81648   -207.69973    36500.952 
  647300    298.78125   -1515.6834     489.6807     324.1623    323.86298    36500.952 
  647400    295.93178   -1502.6767    480.03654    314.64831    214.55207    36500.952 
  647500    296.08346   -1485.3705    490.86925    343.47264    682.63556    36500.952 
  647600    298.81614   -1458.7674    497.51336    389.06866    97.964277    36500.952 
  647700    301.68441   -1482.6248    501.78966    382.44898   -441.75809    36500.952 
  647800    299.33231   -1430.0536     520.7794      443.381   -261.90654    36500.952 
  647900     301.7072   -1446.5406    458.83258    375.67914   -459.46583    36500.952 
  648000    296.48156   -1437.0679    491.27891    393.98396   -384.64624    36500.952 
  648100    298.24688   -1446.4195    497.48905    398.81973    -688.7484    36500.952 
  648200    315.32448   -1454.0186    477.52954    448.43327   -569.61762    36500.952 
  648300    297.18985    -1488.646    518.91748    373.24509   -913.27768    36500.952 
  648400     296.9298   -1468.0463    513.72446    387.47662   -1043.7139    36500.952 
  648500    298.25572   -1455.6213    505.49489    397.66379   -340.06189    36500.952 
  648600    296.65615   -1451.7064    511.98774    400.84325    62.912604    36500.952 
  648700    298.05643    -1414.995    502.23926    434.13389    225.32637    36500.952 
  648800    302.43377   -1431.8951    513.38836    448.16368   -80.213675    36500.952 
  648900    299.27222   -1441.5714    495.31015    406.12239    195.32833    36500.952 
  649000    304.32373   -1451.3724     493.0896    416.92809    958.37098    36500.952 
  649100    296.81006   -1482.5918    499.29727    357.96282    907.82381    36500.952 
  649200    297.40909   -1493.9315    482.16107    332.19388    501.76181    36500.952 
  649300     300.0125   -1483.9754     499.1419    370.89544   -74.053988    36500.952 
  649400    292.15807   -1460.3168    480.61787    340.53647    19.304061    36500.952 
  649500    290.44642   -1449.7335    497.99183    360.75902   -301.66627    36500.952 
  649600    299.84902   -1502.7645    492.55123    344.77682   -811.02258    36500.952 
  649700    301.30392   -1483.9694     466.5942    344.18951   -698.00639    36500.952 
  649800    302.20048    -1495.265    510.64141    380.99262   -842.59076    36500.952 
  649900    307.21372   -1519.1392    500.54363    369.67496   -211.13957    36500.952 
  650000    306.37085   -1506.6439    521.97188    399.78972   -600.15418    36500.952 
  650100    292.58021    -1482.197    478.43842    318.38445   -334.98669    36500.952 
  650200    298.15293   -1527.6182    493.24582    312.95333    -555.4269    36500.952 
  650300    299.31684    -1501.362    484.74525    335.96852    287.90187    36500.952 
  650400    297.65976   -1474.3764     498.4807    369.20142    969.69887    36500.952 
  650500    296.56726   -1491.5784    500.61287    349.19462    246.69418    36500.952 
  650600    299.76227   -1475.0815    509.52944    389.04603    498.91995    36500.952 
  650700    297.54589   -1492.2891    513.65809    365.95152   -204.27383    36500.952 
  650800    297.71741   -1477.0137    474.76758    343.11152    372.42998    36500.952 
  650900    285.90148   -1496.7629    502.97347    298.17304   -462.50146    36500.952 
  651000    290.92229   -1485.7538    512.60102    341.49828    163.66603    36500.952 
  651100    301.13284    -1464.986    492.27068    388.07625   -341.65815    36500.952 
  651200    293.25985   -1471.7026    520.47205    373.98377   -590.99804    36500.952 
  651300    304.77262   -1471.2201    489.42164    395.44102   -597.55172    36500.952 
  651400    296.54339   -1488.2447     488.1563    339.96389   -137.85463    36500.952 
  651500    307.15079   -1519.2759    495.40453    364.11484    -219.7582    36500.952 
  651600    297.25685   -1518.1795    473.73035    298.82717   -584.09435    36500.952 
  651700    303.78683   -1493.5831    501.66197     380.8636   -235.59445    36500.952 
  651800    297.70022   -1513.1378    488.54125    320.68333   -62.340616    36500.952 
  651900    302.93185    -1504.893     497.2945    361.32266    188.18279    36500.952 
  652000    306.62873   -1516.0467    506.01401    375.59436    111.62215    36500.952 
  652100    305.61715   -1495.2895    491.27293    377.03919    -278.2889    36500.952 
  652200    305.34751   -1526.5558    471.77992    325.06149    117.91412    36500.952 
  652300    294.14804   -1492.1623     509.5709    346.63653   -230.94405    36500.952 
  652400    308.80015   -1486.1172    495.37067    404.69299   -425.91334    36500.952 
  652500    292.23819   -1509.0668    492.44516    303.97588   -655.20212    36500.952 
  652600    284.86407   -1507.5781    491.75676    271.45314   -282.70305    36500.952 
  652700    290.11276    -1522.474    496.28005    284.79896    -395.0904    36500.952 
  652800    306.52687   -1450.9334    533.56825    467.80158   -511.22011    36500.952 
  652900    300.02016   -1513.3155    495.49934    337.94741   -296.38748    36500.952 
  653000    309.02551     -1538.71    485.66096    343.40882   -405.80914    36500.952 
  653100     305.9394   -1508.5087    486.79332    360.79665   -430.62513    36500.952 
  653200    295.47063   -1517.7448     506.8141    324.27396   -69.495653    36500.952 
  653300     293.2212   -1499.9311    476.02061    301.12912   -118.93489    36500.952 
  653400    290.38172   -1493.7684    517.15264    335.59254   -406.39393    36500.952 
  653500    303.33445   -1518.1899    478.35948    330.91006    413.13582    36500.952 
  653600    311.64446   -1473.2657    509.17087    444.19787    325.67006    36500.952 
  653700    310.13741    -1526.146    510.37962    385.71604    542.97851    36500.952 
  653800    308.96549   -1467.6567    494.61353    423.14341   -108.62769    36500.952 
  653900     307.2097   -1497.1412    487.86819     378.9794   -543.21743    36500.952 
  654000    294.86397   -1455.8449    493.62827    370.24653   -513.28621    36500.952 
  654100    295.73184   -1455.1087    523.49678    404.77304   -106.76399    36500.952 
  654200    296.86755   -1479.1054    497.59958    360.01137   -45.251484    36500.952 
  654300    316.57793   -1471.1027    484.49905    443.98295     559.2807    36500.952 
  654400    300.19903   -1503.0264    511.21864    364.76404    558.44719    36500.952 
  654500    301.83227   -1497.6724    507.38953     373.6694   -114.68352    36500.952 
  654600     295.0051    -1505.256    478.06832    305.91326   -40.596454    36500.952 
  654700    294.82363   -1517.2508    493.02964    308.05972    397.26609    36500.952 
  654800    294.25552   -1504.7747     500.2155     325.1544    580.96607    36500.952 
  654900    286.69836   -1535.5314     483.0452    243.07733    310.05694    36500.952 
  655000    304.03243    -1559.454    481.33565    295.77624    236.24476    36500.952 
  655100    293.26251   -1511.3515    494.74456    308.61943    128.58488    36500.952 
  655200    297.48967   -1487.7564    511.66788    368.23992    284.87195    36500.952 
  655300    299.68458   -1488.7415    494.09884    359.60436    232.18121    36500.952 
  655400    312.16233   -1464.6237    534.72237    480.73146    168.61828    36500.952 
  655500    301.90476   -1430.5094    486.49899    420.26945    173.39743    36500.952 
  655600    294.81661   -1510.0657    495.99806    318.18154     350.1922    36500.952 
  655700    295.46739   -1490.5991    504.83533    349.42618    114.02716    36500.952 
  655800    297.11624   -1487.9636    488.98579    343.66315    546.65738    36500.952 
  655900    309.81206      -1483.4    475.79694     392.4091    317.64607    36500.952 
  656000    302.26039   -1523.0954      498.627    341.41852    408.65544    36500.952 
  656100     304.9788   -1515.2851    482.92034    345.80637   -178.34282    36500.952 
  656200    295.47347   -1525.9866    490.12083    299.35163   -285.19763    36500.952 
  656300    303.18235   -1483.2232    519.46503    406.29499   -178.13083    36500.952 
  656400     311.1857    -1490.137    512.07451    428.15703   -538.05025    36500.952 
  656500    317.49524   -1503.2203    477.75592     409.2674    -736.5904    36500.952 
  656600    293.61275   -1496.4365    483.26335    313.63588   -1412.5107    36500.952 
  656700     289.4087   -1497.2472    501.60808    312.17223   -960.40853    36500.952 
  656800    300.24864   -1497.8954    528.00196    386.90256   -367.50369    36500.952 
  656900    302.24652   -1499.2968    468.05279    334.58025   -1003.1267    36500.952 
  657000    298.50249   -1518.9355    515.00082    344.97064    360.14208    36500.952 
  657100    303.18085   -1519.3683    519.71561    370.39367    426.59203    36500.952 
  657200    290.02412     -1477.66    502.85767    335.78998   0.89089789    36500.952 
  657300    296.92983   -1490.7611    505.45421    356.49171    394.95502    36500.952 
  657400    301.85889   -1472.3642    474.85542    366.56384    687.02536    36500.952 
  657500    297.01571   -1496.8977    490.75805    336.04705   -32.222906    36500.952 
  657600     306.3624   -1499.8385    506.08498    390.67004    50.867064    36500.952 
  657700    298.49046   -1502.4286    500.89187    347.31421    44.197375    36500.952 
  657800    298.05123   -1547.0044    502.94895    302.81064    67.221429    36500.952 
  657900    304.13294   -1583.3368    478.78842    269.80043    214.79631    36500.952 
  658000    297.62966   -1520.3029    471.41866    296.07683   -188.90178    36500.952 
  658100    310.44663   -1484.3037    495.28072    413.85675   -293.79063    36500.952 
  658200    302.07306    -1467.938    490.13844    387.24081   -351.22561    36500.952 
  658300    300.91894   -1555.7186    479.97818    284.08461    295.73228    36500.952 
  658400    306.68535      -1532.4    490.02916    343.51204    219.39548    36500.952 
  658500    296.75194    -1500.588    490.72038    331.12713    148.03822    36500.952 
  658600    296.66275   -1522.0724    488.63876    307.15805   -135.19305    36500.952 
  658700    299.43311   -1529.6631    498.90847    322.35606   -305.25919    36500.952 
  658800    286.78357   -1496.7932    501.22482    300.38023    165.32528    36500.952 
  658900    301.63907   -1507.2556    488.48257    344.30617    442.74047    36500.952 
  659000    290.81374   -1498.1446    480.32832     296.3443    440.81846    36500.952 
  659100    295.28308   -1511.9705    502.89441      325.281    492.59089    36500.952 
  659200    302.57483   -1469.6784    470.20852    367.83795    450.12684    36500.952 
  659300    307.28968   -1525.3726    494.05923    357.30044    32.532038    36500.952 
  659400    295.37073   -1564.7045     496.5672    266.61588    17.985708    36500.952 
  659500    300.37933   -1534.8513     487.9402     310.4755   -798.25844    36500.952 
  659600    303.25805   -1507.0759    487.95447    351.27382    53.250681    36500.952 
  659700     297.5437   -1497.0563    499.92502    347.44127   -118.82897    36500.952 
  659800    304.11589   -1503.8978    522.43593    392.80991    209.37602    36500.952 
  659900    292.33067   -1457.3823    497.39182    361.02488    331.16604    36500.952 
  660000    301.47267   -1485.6904    529.91978    406.55663    348.67322    36500.952 
  660100    298.51504   -1499.3617    507.49436    357.09467    544.16819    36500.952 
  660200    301.31935   -1545.7934    503.76345    319.60449    62.499613    36500.952 
  660300    292.52013   -1529.3359    492.39003    284.92572    956.82077    36500.952 
  660400    301.33216   -1526.1309    508.35511    343.91648    571.91268    36500.952 
  660500    291.67295   -1484.9813    510.31181    343.37379    1512.7749    36500.952 
  660600    296.95947   -1511.1484    485.20023    315.98434     434.2361    36500.952 
  660700    299.06439   -1524.8972    478.19055    304.73777    27.765737    36500.952 
  660800    300.09692   -1530.1429    502.19571    328.16322   -283.64782    36500.952 
  660900    301.12193   -1577.9182    460.05998    242.88409    57.049209    36500.952 
  661000    295.11547    -1533.751     492.8539    292.70255    337.00765    36500.952 
  661100    301.05669   -1517.7118     499.4772    342.21291    176.99942    36500.952 
  661200    302.66213   -1528.3553    468.02316    307.37014   -84.825344    36500.952 
  661300    290.49465   -1528.2392    499.36053    283.83989    41.923473    36500.952 
  661400    303.74246   -1522.6462    503.26189    353.19992   -417.72842    36500.952 
  661500    292.79645   -1508.4297    486.42947    301.12001    -117.3458    36500.952 
  661600    300.42599   -1521.3926    488.98732    325.19215    127.24421    36500.952 
  661700    305.55947   -1501.9801    490.39756     369.2126   -521.81672    36500.952 
  661800     299.3074   -1513.5446     498.2561    337.25413   -88.790988    36500.952 
  661900    307.94643   -1567.1075    481.58482    306.05889    273.16483    36500.952 
  662000    303.53926   -1505.4934    498.47298    364.64561    207.15544    36500.952 
  662100    305.98233   -1490.5364    497.47538      389.645    283.44623    36500.952 
  662200    295.27788   -1507.7528    503.13889    329.71969     205.4046    36500.952 
  662300    299.98365   -1541.8691    481.89859    295.62801    51.718764    36500.952 
  662400    298.64797    -1504.573    515.98192    360.97164    372.06405    36500.952 
  662500    293.71461   -1529.6274    500.91227    298.55423   -253.64512    36500.952 
  662600    298.70583   -1518.1304    509.63993     341.3337    233.83727    36500.952 
  662700    301.20475   -1513.9863    504.06048    351.19079    66.132098    36500.952 
  662800    295.13693    -1515.531    505.68744    323.85307    253.51493    36500.952 
  662900    299.45077   -1519.0795    498.39228    332.50323   -20.339186    36500.952 
  663000    301.03041   -1485.5582    476.37736     351.1479    -707.5366    36500.952 
  663100    288.61445   -1506.7208    483.42497    280.92637    -791.1908    36500.952 
  663200    298.40375   -1513.1287    504.21766    339.54804   -158.24894    36500.952 
  663300    299.68816   -1523.3153    495.88466    326.83253   -127.13943    36500.952 
  663400    305.59531   -1554.7982    489.62532    315.78421   -190.55951    36500.952 
  663500     300.5824   -1539.0133    504.01183    323.30276   -170.45483    36500.952 
  663600    308.47305   -1489.0651     493.4854    398.38167   -110.09589    36500.952 
  663700    298.14103   -1480.7716    481.10428    347.60452    -468.1507    36500.952 
  663800    291.07644   -1495.4967    519.16588    339.01683   -209.34119    36500.952 
  663900    297.33898   -1523.6273    497.39618    317.41638   -33.448574    36500.952 
  664000    287.34921   -1533.9112    506.97102    271.56452    122.75486    36500.952 
  664100    307.60008   -1477.9714    481.42029    393.46541   -192.58873    36500.952 
  664200    283.11535   -1469.7924      520.455     330.0348    476.29582    36500.952 
  664300    299.50437   -1497.9732    510.27582    365.73534     447.8429    36500.952 
  664400    308.00905   -1473.6282     521.7066    439.94296    233.31982    36500.952 
  664500    299.28831   -1510.7478    516.85061    358.55916   -115.17235    36500.952 
  664600    312.56083   -1502.8144    480.79545    390.41475    16.880828    36500.952 
  664700    301.45317   -1499.2176     511.0231    374.04464   -463.36524    36500.952 
  664800    301.19394   -1482.4424    509.80489     388.4302   -240.86807    36500.952 
  664900    292.64234   -1485.4921    495.47562    332.40734   -542.99972    36500.952 
  665000    300.10278    -1506.604    508.38765    357.92049    86.542333    36500.952 
  665100    300.92407   -1517.1776    518.24856    360.91917    356.72299    36500.952 
  665200    300.49367   -1486.9017    482.15936    353.16093    599.76024    36500.952 
  665300    294.55697   -1490.9135    480.14257    320.30492    388.15319    36500.952 
  665400    296.11119   -1490.2265     495.2255    343.09822   -182.53447    36500.952 
  665500    293.04583   -1471.8871    508.45217    360.81221   -43.874366    36500.952 
  665600    304.10608   -1506.2582     496.0953     364.0645   -349.32767    36500.952 
  665700    288.07747   -1484.3163    479.87452    297.35383   -354.81014    36500.952 
  665800    305.96951   -1495.3545    491.98349    379.27708    177.10897    36500.952 
  665900     303.0089    -1534.241    471.54203    306.57038    -113.2977    36500.952 
  666000    301.38802   -1487.9923    485.18345    359.13589    -74.49302    36500.952 
  666100    291.48973   -1517.1851    483.03894    283.06918    137.40261    36500.952 
  666200     310.1703   -1555.2429    504.08923    350.47742    55.234079    36500.952 
  666300    308.49601   -1495.7461     477.6544    375.97343   -386.48068    36500.952 
  666400    290.47598   -1481.8157    511.83449    342.65303   -60.618533    36500.952 
  666500    305.08763   -1507.4134    487.29004    358.53965   -203.45894    36500.952 
  666600    298.70439   -1500.3458    500.78028    350.25214    192.25068    36500.952 
  666700      305.638     -1473.98    476.97854    384.14859     562.4883    36500.952 
  666800    303.13492   -1532.6541     480.5131    317.69784    186.69484    36500.952 
  666900    300.03734   -1507.4451    490.25107    338.64717    414.87572    36500.952 
  667000    298.27857   -1504.0261    511.91027     355.7776    150.07902    36500.952 
  667100    290.41134   -1503.8197    475.51688    284.03933   -247.77784    36500.952 
  667200    304.80713   -1516.1457       487.55    348.79972   -201.82957    36500.952 
  667300    296.98401   -1517.6928     496.2055    320.55614    131.61739    36500.952 
  667400    299.78884   -1546.0188    508.01931    316.71869    170.75542    36500.952 
  667500    285.68728   -1501.8936    504.69351    293.79441    621.00064    36500.952 
  667600    290.09995   -1514.0287    509.10261    306.00893    298.86659    36500.952 
  667700     286.8578   -1548.8124    472.02181    219.49349    271.45257    36500.952 
  667800    287.67292   -1496.3142    509.30228    312.95557    85.523282    36500.952 
  667900    296.06755   -1463.0928    518.27906    393.08829     148.8826    36500.952 
  668000    311.19425   -1469.6259    502.56968    439.20198    282.75034    36500.952 
  668100    304.55209   -1513.1705    511.63117     374.7036    1164.1675    36500.952 
  668200    306.71934   -1463.7348    497.05934    419.36101    836.55042    36500.952 
  668300    301.05212   -1467.9345    506.59088    399.08321    300.64874    36500.952 
  668400    303.46594   -1485.7412    496.57731     382.1708    421.09032    36500.952 
  668500    299.37091   -1485.1225    522.15513    389.86222    197.88879    36500.952 
  668600    293.62429   -1431.9916    492.19718     387.0667    209.43427    36500.952 
  668700    311.68606   -1445.3354    485.75696    448.90224    213.33222    36500.952 
  668800    296.49998   -1482.8599    500.20381    357.20005      178.138    36500.952 
  668900    305.73447   -1485.9712    496.66211    392.27682    542.33733    36500.952 
  669000    302.92016   -1448.7402    510.46076    430.58892    659.32332    36500.952 
  669100    294.87272   -1477.1327    484.81285    340.18285    103.30457    36500.952 
  669200    300.43252   -1474.8817    500.69781    383.44299    210.21181    36500.952 
  669300    293.77266   -1457.7391    474.33708     344.1296    -1.812258    36500.952 
  669400    297.24562   -1493.6835    503.70905    353.25121    264.47027    36500.952 
  669500    293.60715   -1474.1944    496.54159    349.13084     292.0359    36500.952 
  669600    301.27959   -1507.4462      457.983    311.99159    384.36178    36500.952 
  669700    292.38481   -1501.6446    519.70187    339.31734    13.289774    36500.952 
  669800    289.18178   -1519.5973    481.01825    268.20686   -326.38936    36500.952 
  669900    312.99942   -1508.6979    484.06366    389.78138   -772.79516    36500.952 
  670000    300.31075   -1513.9455    473.10779    316.23893   -285.34777    36500.952 
  670100    302.35609   -1493.8986    503.94431    376.36507   -534.31511    36500.952 
  670200    309.71258    -1462.292    487.85543    425.12606    27.291694    36500.952 
  670300    302.24442   -1508.5374    510.37761    367.65497    468.40018    36500.952 
  670400    293.38226   -1519.2341    509.30056    315.83385    26.172813    36500.952 
  670500    301.81528   -1516.2713    506.16633    353.77052    456.70635    36500.952 
  670600    301.75945   -1481.7332    494.72193    376.61193    499.16891    36500.952 
  670700    294.39681   -1516.8025    511.54515    325.09473    148.57608    36500.952 
  670800    307.04489    -1492.488      491.281    386.30063    -131.4257    36500.952 
  670900    317.32052   -1474.9077     520.6461    479.68069   -337.71673    36500.952 
  671000    303.44565   -1501.5775    508.32618    377.99172   -494.12686    36500.952 
  671100    303.92405   -1498.2559    474.58978    349.73869    73.106738    36500.952 
  671200    301.27851   -1471.3346    500.88582     391.0011    726.27042    36500.952 
  671300    300.91469   -1496.3916     501.3546     364.7688    211.25481    36500.952 
  671400    293.40889   -1522.4411    498.16308    301.60974      681.671    36500.952 
  671500    292.22063   -1504.6646    503.84215    319.69573    597.23752    36500.952 
  671600    317.01807   -1522.3566     526.2957    436.51463    424.10813    36500.952 
  671700    301.35917   -1473.5453    498.77638    387.04549    500.14018    36500.952 
  671800    295.82449     -1467.07    535.45549    405.18914    633.81301    36500.952 
  671900    297.34251   -1457.7603    498.71834    384.62145    323.98423    36500.952 
  672000    298.81837   -1511.3952    505.62423    344.56173    215.24956    36500.952 
  672100    307.96212   -1554.5037    490.82477    327.97358   -219.01951    36500.952 
  672200    307.80126   -1488.5864    495.44152    397.78072    109.86388    36500.952 
  672300    297.34746   -1524.1749    517.39183    336.90272    159.60509    36500.952 
  672400    307.76651   -1548.2321    521.42401    363.96052    457.11216    36500.952 
  672500    294.30844   -1538.4262    491.14173    282.66827    74.312638    36500.952 
  672600     303.4115   -1503.4508    489.73413    357.37203    158.86277    36500.952 
  672700    293.67825   -1569.1904    491.66773    249.58231    226.63995    36500.952 
  672800    304.33686   -1514.3635    515.35241    376.25926    446.76294    36500.952 
  672900    311.16903   -1520.1236    509.93275    395.95342    174.84528    36500.952 
  673000     306.7458   -1526.4729    454.52113    314.20433   -100.77327    36500.952 
  673100    307.61211   -1521.2582    525.72783    394.54045   -235.90363    36500.952 
  673200     300.1939   -1537.5389    493.16227    312.17197   -268.83247    36500.952 
  673300    298.98521   -1576.5283    475.51963      250.078    249.54465    36500.952 
  673400    303.50387   -1585.8408     462.4626    248.12785    52.115491    36500.952 
  673500    293.22606   -1614.9224    518.03077    228.17003   -28.342814    36500.952 
  673600    295.84385   -1593.9476    503.14484    246.08836    490.11052    36500.952 
  673700    300.38343   -1554.2592    506.46447    309.61041    709.15191    36500.952 
  673800    296.03077   -1583.1482    491.20799    245.79561    234.77474    36500.952 
  673900    300.61497   -1550.0412     474.8523    283.26252    291.05173    36500.952 
  674000    300.79424   -1530.8045    520.88964    349.34666    716.65898    36500.952 
  674100     302.4498    -1532.174    513.92285    348.49173    609.37293    36500.952 
  674200    294.00523   -1507.5115    496.93776    318.00891    492.63626    36500.952 
  674300    291.37793   -1522.5617    495.89414    290.04249    102.10019    36500.952 
  674400    305.23485   -1556.9287    481.05948    303.45898    99.407087    36500.952 
  674500     292.3208   -1579.3159    492.27162    233.92653   -386.79694    36500.952 
  674600    298.02579    -1548.013    500.74071    299.47881    43.445066    36500.952 
  674700    295.83083   -1588.0726    481.18554    229.94525   -528.23535    36500.952 
  674800    305.37599   -1546.0103    504.69283    338.64855   -136.46582    36500.952 
  674900    299.64574   -1521.5854    506.22081    338.70701   -182.88236    36500.952 
  675000    299.17403   -1530.7322    481.59889    302.80663    29.103749    36500.952 
  675100    298.98139   -1561.2496    496.96242    286.78222    344.39562    36500.952 
  675200     294.7513   -1529.2111    470.23702    272.97996   -413.94557    36500.952 
  675300    300.71495   -1511.8299     487.5523    334.62565   -757.99513    36500.952 
  675400    296.81294   -1509.1945    512.20637    344.28227   -326.99774    36500.952 
  675500    301.75798   -1518.0915    484.17543    329.70047   -253.82023    36500.952 
  675600    304.15233   -1515.3243    490.95391    350.06607    -188.5633    36500.952 
  675700    301.40284   -1471.8697    487.21422    377.35622    595.24098    36500.952 
  675800      289.912   -1487.8389    493.66632    315.91305   -59.469087    36500.952 
  675900    300.17324   -1472.2605    523.02065     407.2154    72.913489    36500.952 
  676000    297.10037    -1493.496     493.7505    342.82382    304.09196    36500.952 
  676100    304.38741   -1501.5524    481.10054    355.04689    532.57416    36500.952 
  676200    291.85228   -1514.7024    499.67156    303.82281    1209.4565    36500.952 
  676300    309.79185   -1547.2803     503.0106    355.65116    810.46903    36500.952 
  676400    297.11385   -1524.9266    519.77878    337.48236    222.99106    36500.952 
  676500    310.17745   -1475.3216    511.91732     438.2591      119.541    36500.952 
  676600    300.57482    -1465.447    479.60833    372.43129    162.26751    36500.952 
  676700    311.04437   -1510.8371     507.5924    402.33623    569.30684    36500.952 
  676800    292.51345   -1516.1291     486.9028     292.6151    232.19443    36500.952 
  676900    302.16654   -1512.6207    487.87505    340.71712   -193.47905    36500.952 
  677000    299.93865   -1516.9575    496.90058    335.33823    18.806811    36500.952 
  677100    312.83651     -1470.43    510.62489    453.87428   -406.02189    36500.952 
  677200    294.38928   -1475.0076    497.68819    352.99864   -216.23934    36500.952 
  677300    300.00147   -1495.8158    509.13588    368.99914   -236.25243    36500.952 
  677400    307.50343    -1501.897    505.44803    393.13078   -11.778932    36500.952 
  677500    311.25348   -1532.3562    508.82139    382.99099   -237.50162    36500.952 
  677600    297.81308   -1501.4304    539.27735    383.63681    160.41817    36500.952 
  677700    300.66395    -1546.684    493.14446     305.1332   -63.088807    36500.952 
  677800    288.91526   -1505.4635     494.7363    294.85427   -224.65078    36500.952 
  677900    303.21719   -1503.7525    502.15069    368.60878   -214.35819    36500.952 
  678000    288.31663    -1490.576    504.34834    316.64867   -179.81132    36500.952 
  678100    292.85989   -1491.5147    510.71479    342.60697    13.856188    36500.952 
  678200    300.41786   -1472.5061    528.81665    413.87126    381.37267    36500.952 
  678300    301.12329   -1485.0309    469.90468    345.62222    324.42442    36500.952 
  678400     310.2172   -1531.4731    497.90857    368.27848    1007.4148    36500.952 
  678500    298.04628   -1540.5933     479.5067    285.75711     283.5761    36500.952 
  678600    304.71068   -1501.4857    506.61398    382.08783    299.68477    36500.952 
  678700    303.02766   -1516.5727    497.90969    350.69113     225.2047    36500.952 
  678800    298.39792    -1530.817    491.66229     309.2781    -809.9023    36500.952 
  678900    301.29584   -1521.6233    490.06254    329.96746   -102.85674    36500.952 
  679000    294.73356   -1484.3504    494.87174    342.39517   -624.56059    36500.952 
  679100    294.46268   -1512.0911    497.90931    316.46797   -789.04025    36500.952 
  679200     306.5143   -1521.0006     496.8743    360.98363   -432.42416    36500.952 
  679300    292.64095   -1486.3658    503.92369    339.97545   -256.17098    36500.952 
  679400    308.25827   -1482.7508    517.88462    428.12463    131.45581    36500.952 
  679500    309.69246   -1501.6653    494.56761    392.37403    549.32927    36500.952 
  679600    304.77008   -1491.3394    499.78792    385.67654    907.24994    36500.952 
  679700    292.87408   -1455.8979    527.87099    395.44411    293.69977    36500.952 
  679800    300.11853   -1511.0328    490.36123    335.53644    213.89141    36500.952 
  679900    290.25884   -1492.1943    504.74746    324.20616   -377.48681    36500.952 
  680000    298.82565    -1509.891    498.33196     338.8066   -566.80997    36500.952 
  680100    291.86041   -1493.0826    489.70649    315.51418   -831.84979    36500.952 
  680200    301.88868   -1511.7916    497.76915     350.1847   -1068.4115    36500.952 
  680300     303.3264   -1520.4091    492.32707    342.62206   -621.12306    36500.952 
  680400    299.77544    -1557.685    465.03033    262.00294   -269.96449    36500.952 
  680500    300.16047    -1540.466     494.3928    310.32439   -327.19159    36500.952 
  680600    301.93912    -1562.895    475.80996    277.35002    184.28053    36500.952 
  680700    299.41107   -1545.5999    486.21227    293.62348    424.32649    36500.952 
  680800    312.69588   -1535.2606    500.97131    378.75466    297.83015    36500.952 
  680900    300.69154   -1539.2317    474.47314    294.03885    40.658787    36500.952 
  681000    306.36088   -1577.2746    501.41589    308.55789   -360.55293    36500.952 
  681100    305.52823   -1522.3706    490.53178    348.81515   -131.88058    36500.952 
  681200    298.41503   -1531.1813    497.13113    314.45997   -353.34378    36500.952 
  681300    306.91413   -1541.5477    498.01644    343.38549   -166.71182    36500.952 
  681400    292.35739   -1521.7577    519.89792    319.27633   -179.96362    36500.952 
  681500    293.69756   -1513.3711    466.56507     280.3862    143.83569    36500.952 
  681600     296.6831   -1522.9625    477.29445    295.01564   -903.89109    36500.952 
  681700     298.2166    -1541.641    498.43327    304.40564    168.52135    36500.952 
  681800    313.80347   -1537.8861    489.77655    369.93943    174.52579    36500.952 
  681900    290.74382   -1534.8495    476.45122    255.44631    42.809039    36500.952 
  682000    305.95143   -1544.5407    517.22896    355.25467   -3.1251163    36500.952 
  682100    297.46742   -1530.4498    465.77919     279.5573    -149.6623    36500.952 
  682200    305.99877   -1514.6375    490.50737    358.65014    241.67794    36500.952 
  682300    289.77421   -1554.5166    485.03516    239.98152   -73.249749    36500.952 
  682400    301.30295   -1548.6615    503.77885    316.67764   -30.295707    36500.952 
  682500    304.80712   -1528.5706    497.60721    346.43201   -289.31413    36500.952 
  682600    303.17253   -1511.4796    502.39498     360.9242   -31.329919    36500.952 
  682700    311.67718   -1518.0635    485.77722    376.15426   -331.71435    36500.952 
  682800    297.90269   -1554.7537    487.37988     278.8211   -3.9537754    36500.952 
  682900     309.8561   -1536.0668    483.54086    347.68525     119.5476    36500.952 
  683000    297.06834     -1529.13    490.66968    303.96417    674.28536    36500.952 
  683100    307.48854   -1562.4029    491.06951    318.17906    131.04906    36500.952 
  683200    288.31881   -1566.4509    474.07049    210.50575   -287.18109    36500.952 
  683300    305.27009   -1589.0878    467.75426    258.15388   -13.730936    36500.952 
  683400    307.09784    -1589.151    491.57799    290.17387   -429.22196    36500.952 
  683500    302.83634   -1597.1024    470.51994    241.90713   -110.38609    36500.952 
  683600     299.8344   -1572.9711    487.37405    269.32704    8.1443949    36500.952 
  683700    295.41776   -1568.4964    514.20107     280.6704   -54.108405    36500.952 
  683800    307.22204   -1572.7304    503.51911    319.09682    649.04342    36500.952 
  683900    305.05738   -1567.8361    461.48395     272.1741    510.34513    36500.952 
  684000    297.82157   -1583.2423    488.63459    251.22061    562.28284    36500.952 
  684100    302.13017   -1598.2549    493.11065    260.15416    573.68459    36500.952 
  684200     308.4227   -1562.0255    497.66708    329.37535    43.510184    36500.952 
  684300    299.95936   -1548.9592    498.33163    304.86117   -8.5801227    36500.952 
  684400    307.64404   -1591.4645    459.72908    258.47972    167.29934    36500.952 
  684500    301.55829   -1592.7269    458.87703    228.86429    48.497301    36500.952 
  684600    299.11427   -1571.9898     472.1736    251.85364    542.56559    36500.952 
  684700     286.1183   -1570.0194    484.23269    207.15555    467.55892    36500.952 
  684800    302.47808   -1519.6008    473.52594    320.79573    683.07652    36500.952 
  684900     295.8346   -1566.6183    473.76894    243.99998    410.57917    36500.952 
  685000    305.94318    -1595.786    478.64333    265.38643    122.72129    36500.952 
  685100    296.75109   -1612.2054    470.78766    199.57314   -306.24231    36500.952 
  685200    311.54093   -1525.1603    477.09789    359.76242   -88.965332    36500.952 
  685300    297.33181     -1501.99     477.5596    319.18468   -269.37721    36500.952 
  685400    300.34739   -1568.5213    471.73113    260.45206    -399.9227    36500.952 
  685500     306.3778   -1575.3259    474.16708    283.33435   -101.64354    36500.952 
  685600    297.10744   -1567.1878    486.91534    262.32873   -118.13552    36500.952 
  685700    293.62486   -1577.5994    518.40267    267.66701    8.7113611    36500.952 
  685800    304.87722    -1547.817    478.41597    308.31113    333.19342    36500.952 
  685900    303.85141   -1586.1546    468.81347    255.73541     252.4174    36500.952 
  686000     306.0319   -1566.2945     478.9649    295.60044   -55.887322    36500.952 
  686100    301.23883   -1548.1136    485.72912    298.88611    134.49663    36500.952 
  686200     310.7219   -1586.2544    477.75215    295.62138   -407.99763    36500.952 
  686300    299.00743   -1546.4525    501.39704    306.13161    248.55364    36500.952 
  686400    298.91331    -1504.605    483.14814    329.30491    124.85097    36500.952 
  686500    296.35846   -1500.7988    508.94483    347.36269    683.25635    36500.952 
  686600    298.58005   -1515.0066    481.34408     315.5933    262.41773    36500.952 
  686700    297.51608   -1488.5795    520.74928     376.6176    170.45008    36500.952 
  686800     305.7367   -1502.6507    500.51187    379.45716    361.53083    36500.952 
  686900    314.71153   -1529.7847    465.31785    357.68564    103.44441    36500.952 
  687000    296.39524   -1535.5008    491.91724    295.79929    336.24676    36500.952 
  687100    299.25334   -1529.9434    494.94435    317.29931   -183.73233    36500.952 
  687200    301.07234   -1504.1427    512.83827    369.21376    306.81067    36500.952 
  687300    294.93777   -1520.2718    498.06399    310.58882   -516.39886    36500.952 
  687400    299.31918   -1508.8789    493.79045     337.5074   -600.33263    36500.952 
  687500    293.31934   -1501.8715    511.09054    334.70219   -700.58133    36500.952 
  687600    296.24514   -1497.9258    475.11734    315.89611   -700.94741    36500.952 
  687700    302.13977   -1504.5869    518.89108    379.64603   -804.03897    36500.952 
  687800    301.59697   -1543.7331    496.68068    315.83659    111.06273    36500.952 
  687900    295.19719   -1559.3846    494.06566    268.64999   -182.16698    36500.952 
  688000    299.50518   -1549.1463    478.48005    282.77011   -16.753298    36500.952 
  688100    304.26985   -1535.1465    495.16101    334.98204    387.80667    36500.952 
  688200    304.71811   -1573.1766    479.03604    282.85253    -31.02408    36500.952 
  688300    301.48802   -1511.3342    503.65747    354.71985    181.63675    36500.952 
  688400    300.06369   -1567.7649    504.46384    292.65918    362.63979    36500.952 
  688500    306.55011   -1561.4625    488.19742    312.00666   -41.195755    36500.952 
  688600    301.23954   -1565.0674     481.1125    277.31889   -272.52137    36500.952 
  688700    309.03769   -1539.9058    488.58985    345.19698   -626.86308    36500.952 
  688800    308.31309   -1564.0614     502.1824     331.3595    -63.12975    36500.952 
  688900    291.16621   -1556.3677    496.27437    255.65997  -0.60360702    36500.952 
  689000    306.55821   -1574.6461     472.6477    283.30997    357.56647    36500.952 
  689100    308.65497    -1560.347    500.01357    334.45002   -10.940773    36500.952 
  689200    301.16507    -1543.955    496.30824    313.29047   -275.62713    36500.952 
  689300    298.32754   -1557.1725    487.45341    278.39561   -258.46249    36500.952 
  689400    303.43236   -1568.0934    453.47461    256.56416    -319.1878    36500.952 
  689500    295.54107     -1542.54    481.14856    274.13141    113.88292    36500.952 
  689600     307.7681   -1523.1578    477.38479    345.00279   -97.108308    36500.952 
  689700    290.33452   -1528.0762    482.47944    266.39822    46.893134    36500.952 
  689800    298.41373   -1536.4884    489.29765    301.31346   -369.00267    36500.952 
  689900    306.43215   -1546.7547    488.65307    326.63706    -389.8755    36500.952 
  690000    296.80839   -1524.8095    489.12918    305.56952    43.364955    36500.952 
  690100    300.05361   -1540.1968    500.02295    315.74087    12.424583    36500.952 
  690200    305.89224   -1559.0022    465.51798    288.81464    404.92848    36500.952 
  690300    298.96374   -1549.1331    475.42004    277.27659    499.81196    36500.952 
  690400      301.704   -1535.0076    474.79294    303.15801    361.40419    36500.952 
  690500    296.75091   -1505.7955    519.39347    354.58805    -200.1572    36500.952 
  690600    289.64992   -1521.8939    470.25883    257.26627   -417.74817    36500.952 
  690700    299.27643   -1568.4968    481.83194    265.73784   -284.94132    36500.952 
  690800    307.37693     -1516.06    472.61817    345.56627    301.60111    36500.952 
  690900    296.37646    -1490.207    475.89685    324.98777   -396.78354    36500.952 
  691000    305.56668   -1481.6543    522.91451    422.08796    158.01958    36500.952 
  691100    288.18418   -1520.5227    513.25255    295.00766   -15.048396    36500.952 
  691200    303.86793   -1495.6596    506.44454    383.93619   -71.385894    36500.952 
  691300      300.569   -1505.9114    490.02195    342.35421   -33.323314    36500.952 
  691400    302.58857   -1489.3067    482.26495    360.32816    207.37428    36500.952 
  691500    299.60863   -1539.1499    479.92913    294.68309    335.64142    36500.952 
  691600    309.46502   -1531.0818    506.68433    374.04649    149.76676    36500.952 
  691700    293.51728   -1551.1783    508.64226    283.84159    266.02238    36500.952 
  691800    305.35861   -1504.6564    484.29386     359.5249    351.42161    36500.952 
  691900    304.95903   -1515.8924    493.67989    355.86931    353.80734    36500.952 
  692000    297.70931    -1474.396    470.36325    341.28819   -226.31002    36500.952 
  692100     293.7243   -1543.9499    464.31365    247.67681   -481.18568    36500.952 
  692200    311.38392   -1509.8874    483.39683    380.62473    317.65021    36500.952 
  692300    288.69083   -1531.9162    483.46919    256.12027   -681.25689    36500.952 
  692400    292.47981   -1471.8593    508.48214    358.31221    -290.6145    36500.952 
  692500    300.64909   -1523.9092    474.16832    308.86472   -124.82828    36500.952 
  692600    303.79855   -1534.4237    506.82497    345.23897   -4.5567041    36500.952 
  692700    296.19154   -1448.4348    510.01796    400.04552     786.4249    36500.952 
  692800    299.40799   -1509.0588    514.61821    358.55655    984.49938    36500.952 
  692900    289.50487   -1520.9274    505.21541    292.53387    1066.0196    36500.952 
  693000    305.03386   -1540.3357    482.67981    320.76412    341.35054    36500.952 
  693100    307.02489   -1519.9847    521.50089    388.93342    416.92618    36500.952 
  693200    302.58618   -1543.1093    491.41284    315.66269    56.415685    36500.952 
  693300    296.05106   -1518.5645     485.6421    304.90516   -317.68567    36500.952 
  693400     295.8339   -1507.4232     520.8147    350.23774   -327.88963    36500.952 
  693500    291.05283   -1473.2799    481.10495    323.06608    65.054056    36500.952 
  693600    300.88694    -1501.017    484.97845    343.64186    103.26893    36500.952 
  693700    302.59187   -1512.7546    517.50524    372.13549   -347.80013    36500.952 
  693800    293.44631   -1496.0591    477.82457    307.82239   -538.97308    36500.952 
  693900     301.7212   -1464.6673    490.10178    388.88481    -787.8826    36500.952 
  694000    304.83039   -1479.5152    486.28238    384.26769   -692.02648    36500.952 
  694100    293.42668   -1464.2493    488.64346    350.36231   -660.72095    36500.952 
  694200    299.72656   -1539.3977    487.64056    302.67966   -509.46084    36500.952 
  694300    304.53247   -1481.5397    510.70569     405.3202   -370.94689    36500.952 
  694400    299.37553   -1468.9327     472.0096    355.92733    -369.4187    36500.952 
  694500    303.13403   -1506.1935    484.97862    348.61989   -159.26294    36500.952 
  694600    295.49758   -1464.3796    496.76402    367.71086   -156.48807    36500.952 
  694700    290.34647   -1481.0873    488.55186    319.51357   -505.32678    36500.952 
  694800    305.19051   -1507.4762    487.02846    358.68005   -59.918924    36500.952 
  694900    291.99462    -1509.599    485.99662    295.89443   -200.45403    36500.952 
  695000    294.16477   -1505.7776    493.13195    316.65789    37.467611    36500.952 
  695100    310.39437   -1480.8707     498.6277    420.40063     487.3436    36500.952 
  695200    299.82885   -1467.7939    519.65855    406.76359    167.97613    36500.952 
  695300    294.24822    -1478.399    503.93313    355.21482   -99.606574    36500.952 
  695400    298.71409   -1548.7207    468.92891    270.06969   -317.72645    36500.952 
  695500    298.98684   -1548.5774    512.78649    315.30314   -144.48984    36500.952 
  695600    297.22565   -1508.4742    481.87525    316.53641   -251.06028    36500.952 
  695700    298.07709   -1485.1113    478.48063     340.3523   -936.74067    36500.952 
  695800    298.89342   -1455.1703    512.09053    407.59208   -709.32235    36500.952 
  695900    306.39323   -1469.2678    494.90643     410.2015   -1003.8998    36500.952 
  696000    301.22317   -1508.7662    524.27639    376.71004   -351.29448    36500.952 
  696100    293.74156   -1533.4976    452.89482    246.78829   -597.05193    36500.952 
  696200    292.18471   -1494.1962    520.57123    346.73089   -718.88701    36500.952 
  696300    302.86592   -1524.5389    528.26849    372.35279    3.2072044    36500.952 
  696400    291.12741   -1553.4612    486.65113    248.76792   0.98944844    36500.952 
  696500    301.07226   -1556.0303      473.064    277.55153   -154.88875    36500.952 
  696600    303.60291   -1556.6546    484.44644    299.74548   -229.13692    36500.952 
  696700    306.01677   -1507.5951    472.55677    347.82333   -836.91932    36500.952 
  696800    304.63778   -1505.6799    492.18324    363.13345   -471.91276    36500.952 
  696900    297.68126   -1508.0939    488.52272    325.62306   -355.30219    36500.952 
  697000    296.55618   -1496.3392    513.95918    357.73011   -459.32406    36500.952 
  697100    304.08002   -1514.2686    478.59928     338.4403    -207.4223    36500.952 
  697200    303.51759   -1495.9196     508.7314    384.37985   -518.31142    36500.952 
  697300    292.46645   -1489.9861    520.12218    351.76505    143.25758    36500.952 
  697400    296.52741   -1514.6854    482.96989    308.26458    44.979258    36500.952 
  697500    293.76133   -1506.9971    485.12791    305.61122    476.25989    36500.952 
  697600    303.77856    -1535.033    488.57344    326.28784    182.98816    36500.952 
  697700    302.03347   -1534.5986    474.50818    304.77108    11.613821    36500.952 
  697800    310.32784   -1535.6254    485.06976    351.78736   -3.2618073    36500.952 
  697900    302.96155    -1556.131    507.39774    320.32217   -322.49728    36500.952 
  698000    305.54078   -1518.7456    492.71873    354.68376   -881.94044    36500.952 
  698100     293.4923   -1538.6258    482.75003    270.38898   -501.90462    36500.952 
  698200    307.81326   -1535.2458    498.74091    354.47493   -163.21601    36500.952 
  698300    296.09929   -1518.6036    494.86989     314.3117   -778.70289    36500.952 
  698400    300.95172   -1559.4299    494.42083    294.96404     -1553.85    36500.952 
  698500    304.31578   -1508.5326    497.51437    364.15682   -1127.5592    36500.952 
  698600    295.59921   -1523.8335    501.24559    313.19771   -672.78587    36500.952 
  698700    295.76058   -1504.2326    474.49821     306.7805   -612.65426    36500.952 
  698800    289.44002   -1527.4959    527.84781    308.30471   -745.88253    36500.952 
  698900    303.93259   -1542.2364    529.97518     361.1822   -452.70376    36500.952 
  699000    303.56968   -1500.7641     502.7336    373.77298     239.4256    36500.952 
  699100    302.16948   -1505.4802    501.85451    361.85043    292.31938    36500.952 
  699200    299.08047    -1517.091    504.10256    338.52874   -191.69409    36500.952 
  699300    309.50199   -1523.4505    501.91389     377.0744    605.44922    36500.952 
  699400    297.92013   -1545.2139    471.48326    272.54299   -170.50333    36500.952 
  699500    312.96321   -1496.4976     502.1909    419.94523    -4.213084    36500.952 
  699600    295.10086   -1487.0093    490.64567    337.16999   -449.89559    36500.952 
  699700    302.90916   -1508.3429    513.08075    373.55643   -354.20142    36500.952 
  699800    300.34444   -1524.7994    500.29479    332.72432   -426.22322    36500.952 
  699900    309.16685    -1512.044    493.18847    378.24106   -369.78407    36500.952 
  700000    289.64638   -1520.5358    492.80189    281.15145   -627.73477    36500.952 
  700100    301.79101   -1530.5128    488.14004    321.39305   -218.62267    36500.952 
  700200    299.49493   -1507.7439    487.51433    333.16052   -457.64756    36500.952 
  700300    293.43239   -1518.3264    494.21891    301.88647      232.323    36500.952 
  700400    307.81483   -1492.9005    499.69229    397.77868    415.53665    36500.952 
  700500    292.51474    -1484.413    490.51134    327.94554    173.77384    36500.952 
  700600    303.24292   -1516.3355    499.52781    353.51912    439.71126    36500.952 
  700700    308.21631   -1538.9731    476.68831    330.51632    123.38733    36500.952 
  700800     298.6563   -1538.3162    499.07505    310.35922   -27.709503    36500.952 
  700900     294.2465   -1509.2341    496.37891    316.81767    127.66321    36500.952 
  701000    306.19377   -1506.0166    495.01772    372.66258   -210.17536    36500.952 
  701100    295.23013    -1508.021     488.5707    314.66751    36.815692    36500.952 
  701200    301.90698   -1506.1585     496.0367    354.16808    216.24718    36500.952 
  701300    299.69213   -1506.0601    515.26442    363.48553    358.23669    36500.952 
  701400    294.24844   -1513.9474    486.95613    302.69036    373.31416    36500.952 
  701500    309.06638   -1539.8271    513.16054    369.97597   -47.100231    36500.952 
  701600    302.68704   -1497.2114    525.60584    396.20937    780.83646    36500.952 
  701700    303.95166   -1474.2894    470.45889    369.69909    837.77655    36500.952 
  701800    293.24589   -1511.2715    531.46783    345.34757    600.88671    36500.952 
  701900    298.19524   -1513.9505    494.87299    328.43937   -180.11832    36500.952 
  702000    293.27135   -1498.7341    495.96064    322.49278    112.22625    36500.952 
  702100    306.34273   -1480.4522    498.61023     402.4927    165.90991    36500.952 
  702200    306.09204   -1539.4537    464.20621    307.95427    -89.40237    36500.952 
  702300    295.80221   -1523.3377    487.49575    300.86103    82.325189    36500.952 
  702400    301.08625   -1475.6619    540.51473    425.43388    394.51098    36500.952 
  702500    309.63151   -1475.4315    520.27791    444.04272    468.89706    36500.952 
  702600    290.79617   -1494.5368    519.79368      339.338    136.84796    36500.952 
  702700    294.79823   -1537.2771    490.90509    285.79403   -458.76097    36500.952 
  702800    301.09707   -1504.5165    480.64039    336.75386   -149.26164    36500.952 
  702900    302.43167   -1522.5176    506.89796    351.04131   -69.284513    36500.952 
  703000    300.72814   -1522.3268    502.82813    339.46413    88.446195    36500.952 
  703100    293.62545    -1542.831    503.16298    287.19839   -161.25741    36500.952 
  703200     317.7731   -1524.4338    482.56777    394.12142    318.93975    36500.952 
  703300    303.02748   -1524.5582     519.0695    363.86462   -130.83639    36500.952 
  703400    302.55255     -1544.64    500.70214    323.26932    44.913798    36500.952 
  703500    303.44106   -1523.9728    511.07791    358.32738    93.263158    36500.952 
  703600    298.64634   -1540.5012    482.19869    291.25279   -1.7377211    36500.952 
  703700    301.51426   -1478.6173     488.8958    372.79369    337.71246    36500.952 
  703800    302.49474   -1499.5515    517.08269    384.47704   -164.53673    36500.952 
  703900    295.01085   -1555.8837    488.86929    266.11249   -336.50168    36500.952 
  704000    293.97114   -1565.2228    470.35597    233.56173   -190.75644    36500.952 
  704100    293.73653   -1554.3956    504.20603    277.17877   -153.15971    36500.952 
  704200    296.67375   -1563.9203     469.3433    246.06441   -478.33253    36500.952 
  704300    296.59662   -1521.2774    536.14617    355.16166   -575.70494    36500.952 
  704400    311.27596   -1540.4439    484.83072    351.01422   -292.16583    36500.952 
  704500    306.68825   -1589.5715    495.24596    291.57045     12.11111    36500.952 
  704600    301.15139   -1571.9784    480.22476    269.12185   -85.632214    36500.952 
  704700    310.33302   -1537.7024    506.51053    371.17457   -640.05958    36500.952 
  704800    296.83075   -1562.7052    486.89217    265.53784   -441.38902    36500.952 
  704900    304.03664   -1527.9054    479.29024    325.29845   -352.62806    36500.952 
  705000    293.05891   -1542.1713    513.35566    295.49062   -396.44844    36500.952 
  705100    307.42112   -1498.4129    513.23508    404.02992    91.341328    36500.952 
  705200    306.83973   -1523.1849    494.56984    357.96548    7.1473397    36500.952 
  705300    304.91943    -1565.844    481.89048    293.94938    211.38029    36500.952 
  705400    310.43562   -1555.1087     551.6726    399.39393    225.77345    36500.952 
  705500    298.15618   -1556.6136    508.97541    299.70216   -220.38653    36500.952 
  705600    294.34426   -1523.9579    498.00674    304.16351     145.3641    36500.952 
  705700    299.39336   -1530.7935    520.01688    342.15444    123.52558    36500.952 
  705800    298.93193   -1553.6443    490.55154    287.75316   -22.295362    36500.952 
  705900    303.95849   -1522.3494    466.86056    318.07161   -548.64907    36500.952 
  706000    296.16438   -1529.4319     529.5325    338.44017   -548.34235    36500.952 
  706100    293.95021   -1565.1918     474.0042    237.14638   -467.83487    36500.952 
  706200    305.70767   -1530.8599    479.85812    330.46309      -739.27    36500.952 
  706300    293.44415   -1547.1035    509.11132    288.05496    22.325143    36500.952 
  706400    297.41349   -1511.7501      496.052    328.28609   -119.36822    36500.952 
  706500    289.70084   -1521.1743    500.97161    288.92878   -26.185209    36500.952 
  706600    292.44949    -1559.259    489.74702    252.04035   -3.4516943    36500.952 
  706700    308.64232   -1531.8326    494.23814    357.13185   -287.76239    36500.952 
  706800    305.56136   -1542.5689      477.185    315.41974    167.69074    36500.952 
  706900     290.4558   -1555.3903    482.61561     239.7684   -172.62769    36500.952 
  707000    311.81207   -1532.4298    513.72302    390.34326    98.608178    36500.952 
  707100    304.61871   -1574.3938    475.50285    277.65295    222.31212    36500.952 
  707200    308.71207   -1588.8484    521.35548    327.54858    182.90457    36500.952 
  707300    297.60673   -1592.5595    492.63243    244.93034    123.26836    36500.952 
  707400    295.92713   -1506.0405    498.13559    329.36263   -40.961926    36500.952 
  707500    304.63236   -1523.3863    511.07523    364.29454    622.51422    36500.952 
  707600    300.62308   -1548.6586     528.8668    338.69623     725.3464    36500.952 
  707700    304.75728   -1568.2101    493.27272    302.23273    282.79875    36500.952 
  707800     318.7405   -1567.3606    494.85331    367.85172    310.40167    36500.952 
  707900    291.43967   -1537.1352    502.23716    282.09097    17.624074    36500.952 
  708000    302.40111   -1544.3997    495.40739    317.53053    159.42812    36500.952 
  708100    303.49883   -1512.6603     510.8474    369.67045    273.61834    36500.952 
  708200    306.80199   -1572.6354    508.24108    322.01564   -28.740547    36500.952 
  708300    290.85831    -1522.204    517.01863     309.1766    53.733396    36500.952 
  708400    300.52932   -1527.3467    508.65495    339.37263   -157.28734    36500.952 
  708500    293.20797   -1511.9353    503.85689    316.90144   -292.57645    36500.952 
  708600    296.32713   -1569.6454    517.47861    286.90827    10.102838    36500.952 
  708700    296.16563   -1577.2673    491.27516    252.35313   -278.39575    36500.952 
  708800    304.15083    -1538.127    476.64321    312.94582   -49.195774    36500.952 
  708900    295.29442    -1547.466     495.3824    282.32478    706.87021    36500.952 
  709000    293.34607   -1532.9391    519.48904    312.15391     50.73437    36500.952 
  709100    293.05535   -1557.0932    523.93164    291.12862    734.48745    36500.952 
  709200    309.12303   -1562.9611    466.25352    300.19094    1004.6892    36500.952 
  709300    294.55753   -1570.4943    497.97539    258.55953    710.43496    36500.952 
  709400    308.65797   -1538.3674    512.48793    368.91756    885.25436    36500.952 
  709500    297.41645   -1528.9411    468.34192    283.39844    226.88417    36500.952 
  709600    305.98947     -1534.89    485.73074      333.579    -6.662204    36500.952 
  709700    300.81908   -1595.3693    487.91917    251.92368   -290.27428    36500.952 
  709800    280.08547   -1572.8689    473.29232     166.1039    26.701435    36500.952 
  709900    300.39988   -1542.5477    474.15066    289.08235     14.07605    36500.952 
  710000    294.42532   -1529.4003     493.6726    294.75324   -309.48605    36500.952 
  710100    298.82369   -1498.1546    498.00818    350.21035   -146.97759    36500.952 
  710200    302.50822   -1540.6173    507.62841    334.01795   -329.92585    36500.952 
  710300     303.0989   -1544.6763    492.53016    317.52994   -458.74465    36500.952 
  710400    297.38724   -1532.5709      478.136    289.43065   -177.59813    36500.952 
  710500    294.67672    -1560.019    507.78778    279.38574   -64.480906    36500.952 
  710600    311.48988   -1529.0579    480.42928    358.96548    486.92408    36500.952 
  710700    298.40451   -1559.5968    509.73943    298.60515    787.43563    36500.952 
  710800    294.31307   -1559.9827    504.77198    274.76297    182.76188    36500.952 
  710900    309.52056   -1584.7218     478.3552    292.32838    203.14704    36500.952 
  711000    297.69804   -1538.7039    510.38442    316.95062   -121.80758    36500.952 
  711100    296.88723   -1542.5548    475.09485    274.14615   -900.10037    36500.952 
  711200    300.39976   -1547.9672    476.65709    286.16876   -3.2187912    36500.952 
  711300    306.96977   -1552.0029    472.67147    307.83674   -432.13237    36500.952 
  711400    297.50477   -1531.2745    463.64907    276.77129   -1154.1915    36500.952 
  711500    298.92491   -1518.6518    518.59775    350.76009    -318.1319    36500.952 
  711600    312.04525    -1556.368     481.9182    335.65395    498.07208    36500.952 
  711700     312.9928     -1536.87    477.53725    355.05292    565.66781    36500.952 
  711800    298.43882   -1560.8382    525.97842    313.75777    29.512693    36500.952 
  711900    293.31261   -1575.7773    498.23862    247.91405   -116.71173    36500.952 
  712000    299.07431   -1574.3898    499.41963    276.51912   -419.95268    36500.952 
  712100    296.92138   -1539.5204    529.29993    331.53999    413.16417    36500.952 
  712200    302.72043   -1562.8355    471.16609    276.29644    3.7955923    36500.952 
  712300    311.32441   -1568.5452    458.36735    296.66857   -18.976139    36500.952 
  712400    297.28193   -1609.3063    480.75237    214.83583    154.57797    36500.952 
  712500    304.42556   -1604.7433    476.25044    247.17828    288.76308    36500.952 
  712600    293.97748   -1589.0443    489.83587    229.24874    367.66382    36500.952 
  712700    303.29293   -1551.6162    514.31635    333.25304    264.79676    36500.952 
  712800    292.69086   -1561.9546    492.84418    253.53268    895.67211    36500.952 
  712900    302.78629   -1563.2558    475.23127    280.23888    585.79208    36500.952 
  713000    298.45551   -1510.4166    511.02855    349.30495    304.20758    36500.952 
  713100    296.10883   -1541.6797    494.50558    290.91446    534.69523    36500.952 
  713200    296.93981   -1561.2458    488.44157    269.03949     187.8366    36500.952 
  713300    305.40459   -1564.1319    506.71207    322.67537    34.477757    36500.952 
  713400    296.28737   -1540.8843     514.3147    312.32582    395.90492    36500.952 
  713500    294.66814   -1561.8763    487.90824    257.61014    395.82661    36500.952 
  713600    293.30295   -1529.7693    468.55653    264.19625    271.23194    36500.952 
  713700    307.43935   -1530.5207    471.40465    330.17414    655.01915    36500.952 
  713800    296.37129   -1579.5869    502.31059     261.9983    26.531442    36500.952 
  713900    302.03483   -1599.2464    479.94863    245.56991    263.21926    36500.952 
  714000    293.99541   -1560.6406    481.60256    249.50017   -449.08003    36500.952 
  714100    292.95932   -1498.6611    484.52808    309.72318    69.052352    36500.952 
  714200     300.0593    -1511.326    469.39009    314.00452    56.630414    36500.952 
  714300     288.7067   -1494.7939    503.50131    313.34639   -450.14739    36500.952 
  714400    301.53124   -1528.0812    480.48186    314.99256   -209.79157    36500.952 
  714500    303.46319   -1501.4368    483.19337    353.07877    77.140566    36500.952 
  714600    299.36324   -1504.8284    503.52542    351.49194   -59.566909    36500.952 
  714700    296.55085   -1529.5249    466.16649    276.72754    246.95874    36500.952 
  714800    305.17356   -1516.3343    495.12242    357.83934    -129.4003    36500.952 
  714900    293.29633   -1518.7201    516.04927    322.70831    168.34777    36500.952 
  715000    306.01962   -1518.8418    490.30138    354.33413    486.68918    36500.952 
  715100    312.11105   -1519.6048    483.25999    374.05628    -57.91034    36500.952 
  715200    287.02065   -1610.6263    495.42117    181.81476   -952.66045    36500.952 
  715300    304.43231   -1544.2317    473.71389    305.18379   -729.44512    36500.952 
  715400    302.74941   -1529.3864     479.5549    318.26527   -407.85403    36500.952 
  715500    297.49457   -1563.0945    492.90402    274.16017   -365.85469    36500.952 
  715600     289.4925   -1542.0385    506.79294    272.94445   -160.25668    36500.952 
  715700    299.49448   -1544.4687    499.81399    308.73337    299.59203    36500.952 
  715800    295.74765   -1571.4627    468.29882    233.29257    35.411025    36500.952 
  715900    295.10717    -1589.138    476.45968    220.88385    432.49727    36500.952 
  716000    312.56518   -1545.2785    478.77292    345.94771   -25.773898    36500.952 
  716100    303.11609   -1513.2322    484.75771    341.27919    191.78512    36500.952 
  716200    307.40593   -1520.5558    485.38321    353.96648   -11.825479    36500.952 
  716300    308.57717   -1541.7993    504.05704    356.68953   -489.42347    36500.952 
  716400    306.42195   -1544.9145     498.8059    338.58402   -356.06717    36500.952 
  716500    301.85814   -1534.4157     497.8509    327.50439   -323.11968    36500.952 
  716600    296.09779   -1539.2316    497.21887    296.02598   -8.7034552    36500.952 
  716700    293.86415   -1517.7844    532.34365    342.50435    166.06792    36500.952 
  716800    289.45177   -1569.9095     496.4309    234.52732   -279.34234    36500.952 
  716900    303.08822   -1510.4009    496.76274    355.98967    260.55236    36500.952 
  717000    290.68032    -1546.133    479.15846    246.58313    179.80948    36500.952 
  717100    307.74943   -1525.2455    499.58448    365.03036    100.97624    36500.952 
  717200    305.90515   -1543.2443    472.95674    312.06971    25.407865    36500.952 
  717300    289.42692   -1524.4393    506.45858    289.91289     195.5513    36500.952 
  717400    306.36847   -1511.4399    484.37011    357.38118    139.15598    36500.952 
  717500    296.61541   -1530.3624    509.45158    319.46694    160.89497    36500.952 
  717600    299.34613   -1529.0371    489.25297    312.93355    395.36455    36500.952 
  717700    296.39392   -1510.7734     504.1617    332.76514    647.57826    36500.952 
  717800    305.11754   -1532.4239    499.24988    345.62408    223.79826    36500.952 
  717900    309.76284   -1542.6745    513.57932    370.69466    19.992807    36500.952 
  718000    287.61893   -1493.1225    523.46829    330.06929   -381.60134    36500.952 
  718100    302.62064   -1501.4309    504.27848    370.36241    37.397367    36500.952 
  718200    300.13206   -1495.4405    504.04713    364.87587    466.07701    36500.952 
  718300    294.43694   -1502.6686    490.38153     318.2464   -217.70132    36500.952 
  718400    294.51152   -1539.0428    479.82756    271.65526    212.45502    36500.952 
  718500    300.47688    -1530.655    491.30897    318.48139    541.65783    36500.952 
  718600    299.77964   -1536.9196     511.7376    329.49459    424.94099    36500.952 
  718700    298.98099   -1586.1522     487.7841    252.69954    307.21198    36500.952 
  718800    300.41026   -1551.3259    483.30191     289.5024   -113.84644    36500.952 
  718900    304.74671   -1545.0158    470.06288    302.16946   -754.08801    36500.952 
  719000    309.43445   -1541.9468    486.81704    343.17603   -1194.8068    36500.952 
  719100    307.59361    -1555.525    507.77299    342.23525   -585.32616    36500.952 
  719200    292.11603   -1544.5346     463.2314    238.74228   -2.8599563    36500.952 
  719300    292.11482    -1512.781    537.80191    345.06092   -36.603528    36500.952 
  719400    307.06469   -1510.6248    487.90521    364.87747   -139.62727    36500.952 
  719500    298.22533   -1496.6409    511.62208    362.63404   -181.98029    36500.952 
  719600    296.49058   -1526.0654    498.52527    312.27358   -253.29935    36500.952 
  719700    302.79421   -1502.6439    486.69253    352.34781   -250.05162    36500.952 
  719800     298.1699   -1507.4567    490.14193    330.08756    -53.15135    36500.952 
  719900     308.5601   -1564.8826    502.18507    331.65721    71.464188    36500.952 
  720000    296.57695   -1544.8606    510.54723     305.8906    164.12613    36500.952 
  720100     297.5454   -1544.0353    512.28794     312.8329    761.49778    36500.952 
  720200    311.03736   -1530.4566    515.08037    390.17297     470.9676    36500.952 
  720300    293.58824   -1554.0653    494.65185     267.2848   -180.30919    36500.952 
  720400    305.59423   -1583.6754    498.15287    295.42966   -95.536224    36500.952 
  720500    301.45645   -1575.3129    481.03197    267.97301    227.17668    36500.952 
  720600    309.90071   -1571.0981    479.47223    308.78691    236.84633    36500.952 
  720700    294.85028   -1603.3988    481.70818     210.7107    257.43225    36500.952 
  720800    287.66031   -1556.3396     506.5581    250.12903    289.93801    36500.952 
  720900    308.39767    -1541.576    478.10093    330.14565    64.770905    36500.952 
  721000    297.54081    -1541.482    489.11789    292.19547   -482.33005    36500.952 
  721100    306.88247    -1581.032    492.66273    298.40434    385.58225    36500.952 
  721200    306.01702   -1533.4745    482.14501    331.53324    22.448501    36500.952 
  721300    285.37807   -1500.8946    509.93282    298.63548    259.54568    36500.952 
  721400    305.64995   -1502.9569     516.3221    394.56919   -235.91595    36500.952 
  721500    296.70811   -1546.6014    479.80422    273.99952   -410.77411    36500.952 
  721600    300.10258   -1573.6079    524.86917    307.39721     282.7187    36500.952 
  721700    284.21024   -1533.3024    495.81513    246.83269    495.89027    36500.952 
  721800    301.75958   -1515.3466    521.25593    369.53314    139.29335    36500.952 
  721900    302.03915    -1534.048    501.92809    332.76719   -100.70035    36500.952 
  722000    299.00017   -1527.4999    483.02573    306.68005    207.20087    36500.952 
  722100    308.27073   -1530.1278     517.1526     380.0719    177.48119    36500.952 
  722200    296.42414    -1496.429    486.73841     329.8228    1.6926412    36500.952 
  722300    303.15632   -1489.0736    513.41962     394.2815    346.87553    36500.952 
  722400    299.30784   -1494.9187    498.33662    355.96251   -237.67575    36500.952 
  722500    299.46037   -1501.8273    509.84533    361.25195   -647.27133    36500.952 
  722600    288.71068    -1515.004    513.63928     303.2923    -393.3889    36500.952 
  722700    297.09072   -1535.5129    480.77982    287.79251   -32.135997    36500.952 
  722800    300.35982   -1527.4194    488.66264    318.54167    1.0392243    36500.952 
  722900    293.57767   -1526.3654    467.08297    267.36805   -6.8171528    36500.952 
  723000    298.67176   -1533.1482    500.45687    316.97888    -84.91928    36500.952 
  723100    288.86345   -1512.0599    483.60022    276.88771    342.41245    36500.952 
  723200    298.50571   -1539.2656    467.72331    277.37753   -134.94407    36500.952 
  723300    305.95067   -1529.2256    492.26759    345.60488   -60.958928    36500.952 
  723400    298.36331   -1498.9447    519.87849    369.21014   -19.036483    36500.952 
  723500    288.38439   -1534.2522    502.82773    271.75804    232.10856    36500.952 
  723600    301.80926   -1510.2505    488.40017    341.99792    125.53543    36500.952 
  723700    308.38301   -1528.6229    515.97095    380.90249   -49.672735    36500.952 
  723800      297.804   -1497.7481    486.24311    334.24386   -431.11653    36500.952 
  723900    293.10376   -1539.6033    502.47778    287.38339   -288.39477    36500.952 
  724000    291.11878    -1505.469    496.55626    306.62625    69.458044    36500.952 
  724100    300.34239   -1495.1106    494.53472    356.64373   -105.90284    36500.952 
  724200    302.11633   -1516.2368    515.82394    364.82304   -570.83418    36500.952 
  724300    297.23663   -1501.5248    490.46139     332.1216    94.400516    36500.952 
  724400    306.74456   -1547.7198    505.18273    343.61336    78.397251    36500.952 
  724500    296.39675   -1474.8727    499.76728    364.28419    -18.55039    36500.952 
  724600    298.21794   -1477.7758    509.05857    378.90217    206.26285    36500.952 
  724700    301.12837   -1504.5201    510.06889     366.3202    295.92859    36500.952 
  724800    296.95531   -1497.0728    483.81632    328.65722   -20.361879    36500.952 
  724900    296.70171   -1559.7229    506.59094    287.63582    -33.03914    36500.952 
  725000    305.99812   -1518.3967     500.4875    364.86817    899.17788    36500.952 
  725100    294.01339   -1564.3781    476.09879    240.34012    229.55432    36500.952 
  725200    295.85628   -1571.1775    515.40414    281.17399    287.69673    36500.952 
  725300     306.4764   -1522.6704    514.79393    377.06224    526.27099    36500.952 
  725400    299.29481   -1540.4726    484.45231    296.46545    -184.2014    36500.952 
  725500    301.12314   -1477.1167    507.49266    391.12371   -21.643901    36500.952 
  725600    297.56507   -1474.3206    498.52645    368.87507   -408.44775    36500.952 
  725700    295.85906   -1512.5137    510.55758    335.00376   -525.89823    36500.952 
  725800    293.41882   -1484.5044    470.75484    312.18308   -131.68623    36500.952 
  725900    305.39607   -1485.8185    535.96754    430.20573    683.21357    36500.952 
  726000    296.60993   -1488.3117    503.67823    355.71957    149.16325    36500.952 
  726100    299.51897   -1480.5253    512.83754     385.8109    809.57482    36500.952 
  726200    304.57749   -1500.1693    497.80477    373.99313    675.94473    36500.952 
  726300    292.54802   -1543.0567    492.84331    271.78419       241.63    36500.952 
  726400    311.45116   -1513.0734    497.00027    391.34601    356.17435    36500.952 
  726500    288.35656   -1532.6451    494.65161    265.06334    188.39886    36500.952 
  726600    310.43274   -1501.3825    498.50849    399.94302    127.54369    36500.952 
  726700    302.06501   -1527.4001    510.88756    348.49146    262.56887    36500.952 
  726800    300.62234   -1550.8639    489.44592     297.0667    202.44048    36500.952 
  726900    300.30165   -1490.9246    503.86696    369.97793   -337.37657    36500.952 
  727000     309.2135   -1505.4332    481.98125    373.85543   -831.53435    36500.952 
  727100    302.03277   -1497.3088    475.90899     343.4585   -211.58293    36500.952 
  727200    291.46281   -1482.1546    536.30302    371.24202   -637.93493    36500.952 
  727300    299.83707    -1455.019    496.43878    396.35595    20.860015    36500.952 
  727400    292.88888   -1474.6382    523.77259    372.67228   -809.27123    36500.952 
  727500    293.38046   -1466.8013    486.00271    344.96068   -112.00232    36500.952 
  727600    303.65296   -1518.4213    528.86614    382.62462   -3.6050731    36500.952 
  727700    306.01396   -1535.9684    507.84819    354.72872    36.554277    36500.952 
  727800    305.83019    -1494.981    509.10272    396.14026    81.532167    36500.952 
  727900    299.34177   -1511.1441    493.92379    335.47762   -1013.4884    36500.952 
  728000    305.18834   -1528.5292    505.73157    356.32039   -670.58918    36500.952 
  728100    296.51244   -1545.8909    501.13068    295.15218   -552.68587    36500.952 
  728200    304.02136   -1515.4398    494.90839    353.31319    372.41585    36500.952 
  728300    297.26837   -1545.2086    492.66587    290.78567   -176.75644    36500.952 
  728400    306.73235   -1500.5704    478.36263    363.88754    483.98245    36500.952 
  728500     308.3436   -1507.0251    469.99394    356.34523    143.71301    36500.952 
  728600    305.11152    -1508.433    493.97859    364.31648   -137.91944    36500.952 
  728700    295.03968   -1479.4091    496.46105    350.30915   -786.30363    36500.952 
  728800    299.96109   -1536.4187    478.27077    297.34869   -295.85526    36500.952 
  728900    302.49282   -1498.5032    491.46568    359.89966     54.22545    36500.952 
  729000    301.57646   -1495.3206    503.20307    370.67879   -800.66021    36500.952 
  729100    296.39118   -1503.8927    495.53741    331.00916   -364.31937    36500.952 
  729200    301.12381   -1535.5308    492.39073    317.61068   -196.50299    36500.952 
  729300    306.12479   -1567.9251     491.3177    306.74233   -280.62202    36500.952 
  729400    289.76143    -1586.004    478.36376      201.765    236.09902    36500.952 
  729500    308.14149   -1557.7542    481.40033     316.1092   -294.84139    36500.952 
  729600    298.87454   -1554.3656    490.27055    286.49149    104.99506    36500.952 
  729700    302.24798   -1616.7046     499.6799    248.80607    34.152506    36500.952 
  729800    294.67004   -1577.4561    517.26576    271.39645   -408.53012    36500.952 
  729900    301.92085   -1535.4357    484.71279    313.62966   -478.31363    36500.952 
  730000    297.25344   -1513.2425    479.37023    309.38872    48.101758    36500.952 
  730100    308.54354   -1528.8223    485.79479     351.2524   -487.32197    36500.952 
  730200    301.96134   -1526.5542    495.25975     333.2411   -375.52001    36500.952 
  730300     298.8571   -1515.1706    519.05216    354.38928   -799.37181    36500.952 
  730400    306.51782   -1500.4521    463.04274    347.71649   -553.55449    36500.952 
  730500    301.87257   -1489.5011    518.23047     392.8638   -513.77024    36500.952 
  730600    309.94576   -1524.3317    494.74591    371.03055    242.54072    36500.952 
  730700    298.61618   -1497.6259    488.88641    340.67956    78.963839    36500.952 
  730800    315.27755   -1491.9817    522.78183    455.51041     418.6221    36500.952 
  730900    292.06687   -1463.2263    530.82561    387.42267    170.45211    36500.952 
  731000    288.81829   -1478.3031    511.38265    338.22282    168.31496    36500.952 
  731100    291.64168   -1497.0948    500.27275    321.07984    162.54385    36500.952 
  731200    310.49826   -1467.8915     525.9973    461.21889    139.35059    36500.952 
  731300    298.54771   -1486.5005    501.26375    363.87287    177.36637    36500.952 
  731400    303.47955   -1498.1236    527.79992    401.07248    15.134734    36500.952 
  731500    297.46433   -1494.8047    551.88197    401.29121    231.54791    36500.952 
  731600    293.88774   -1532.2431    475.61842    271.42695    729.67113    36500.952 
  731700    299.08128   -1516.3493    524.61929    359.79081    568.81437    36500.952 
  731800    290.62722   -1524.5414    523.56729    312.34353   -406.17643    36500.952 
  731900     290.3854   -1507.8155    492.06097    296.47039   -261.52812    36500.952 
  732000    291.84971   -1539.3315    499.00681    278.51729   -568.23071    36500.952 
  732100    301.16641   -1497.7671    479.41548    342.59175    304.80332    36500.952 
  732200     304.9279   -1538.3718    534.37653    373.94589    213.65891    36500.952 
  732300    298.13382   -1498.7335     538.5722    387.07797    11.971916    36500.952 
  732400    294.01712   -1517.7495    475.74203    286.62884   -270.04434    36500.952 
  732500    296.55058   -1523.9721    501.04394    317.15662   -367.95357    36500.952 
  732600    293.06041   -1496.7399    489.25457    316.82766   -6.7415096    36500.952 
  732700    305.19509    -1497.378    504.45218     386.2227   -505.89407    36500.952 
  732800     311.2839   -1481.4352    494.54122    419.76932    173.77326    36500.952 
  732900    302.55094     -1515.97    499.84585    351.07578   -465.35565    36500.952 
  733000    301.06479   -1552.6409    497.60176    305.44498    -760.9711    36500.952 
  733100    288.07056   -1526.1908    511.71881    287.29232   -365.71071    36500.952 
  733200    304.03365   -1524.6423    521.80336    371.06122   -218.31826    36500.952 
  733300    300.01152    -1561.197    462.23283    256.76025    439.89615    36500.952 
  733400    291.95295   -1565.5776    512.08059    265.81156   -55.331099    36500.952 
  733500    293.37208   -1563.7395     499.8259    261.80784   -348.01339    36500.952 
  733600    298.09165   -1557.6575    485.77574    275.16698    115.40756    36500.952 
  733700    267.09928   -1517.9319    505.99993    195.06515   -315.44029    36500.952 
  733800    300.75165   -1529.0591    478.73551    308.74552    893.53567    36500.952 
  733900    290.29732   -1572.8064    506.30648    245.32697   -177.46569    36500.952 
  734000    310.74285    -1547.355    489.41436    346.27771    183.71903    36500.952 
  734100    296.14837   -1501.4364     470.1286    306.95946    -185.3579    36500.952 
  734200    317.80715   -1491.3975    523.20669    467.95048   -180.51393    36500.952 
  734300    299.30128   -1464.6533     505.6585    393.52014    162.36019    36500.952 
  734400    315.48804   -1479.3041    497.00578    443.36312   -59.049075    36500.952 
  734500    298.53185    -1452.823    478.66455     374.8795    221.18465    36500.952 
  734600    293.71896   -1505.8803    522.30937    343.71799   -360.90189    36500.952 
  734700    294.67235   -1522.7625    488.18198    297.01676   -150.92677    36500.952 
  734800    294.00469   -1469.5462      507.923    366.95692    -763.5029    36500.952 
  734900    292.37372   -1460.4588    534.46006    395.21126   -956.28096    36500.952 
  735000    295.67209   -1491.4007    471.80962    316.52384   -944.53448    36500.952 
  735100    300.07344   -1546.5806    515.76647    325.19018   -1178.9118    36500.952 
  735200    303.13769   -1520.5346    499.26336     348.5801   -1039.6615    36500.952 
  735300    317.92003   -1506.1263    491.65277    422.17782   -99.488378    36500.952 
  735400    293.72211   -1513.6432     509.3826    323.04256    96.935425    36500.952 
  735500    295.57694   -1504.9913    515.16432    345.85807   -225.73713    36500.952 
  735600    312.83408   -1512.4772    485.61363    386.80491    66.754379    36500.952 
  735700    300.40016   -1522.9246    504.92228    339.47833    -23.57225    36500.952 
  735800    307.60418   -1530.0896    487.59743    347.54285    651.23051    36500.952 
  735900    300.30766    -1496.639    519.88675     380.3105    843.57833    36500.952 
  736000    301.07647   -1513.1486    487.40553    334.79383    956.63857    36500.952 
  736100    298.52607   -1515.0546    525.93502    359.89233    706.61327    36500.952 
  736200    292.65837   -1458.9763     520.8515    384.37151     273.1287    36500.952 
  736300    293.11475   -1453.8963    505.46114    376.12347    152.67689    36500.952 
  736400    310.37986   -1499.7111    517.21849    420.08545    204.31475    36500.952 
  736500    287.94448    -1500.713    510.46492    310.94658    524.15413    36500.952 
  736600     298.1253   -1543.4229    506.21151    309.98945   -190.41103    36500.952 
  736700    301.34222   -1541.9381    512.59593     332.3956    305.47206    36500.952 
  736800    296.14168   -1582.9936    507.58168    262.82514   -557.20068    36500.952 
  736900    302.81283   -1591.2201    475.69342    252.85666   -305.00708    36500.952 
  737000    310.89017   -1592.6876     484.6717    296.86817    2.8132802    36500.952 
  737100    296.97944   -1567.2093    498.42722    273.24067    -155.7832    36500.952 
  737200     299.2261   -1521.8075    502.70833    333.07601    12.202556    36500.952 
  737300    295.67923     -1532.78    511.09759    314.46483   -64.634617    36500.952 
  737400    300.56751   -1527.4956    496.07576    326.81706   -241.89552    36500.952 
  737500    297.93123   -1551.7712    487.72738    282.27999    -105.8106    36500.952 
  737600    310.34248   -1517.1478    512.23509    397.49641    -469.6413    36500.952 
  737700    292.69718   -1521.9847    492.69974    293.38673   -224.18603    36500.952 
  737800    306.55863   -1538.4224    502.87973    349.76756    188.13678    36500.952 
  737900    311.61964   -1536.8319    509.81705    381.16562   -198.17064    36500.952 
  738000    291.13533   -1517.3366    514.58577    312.86294    90.809106    36500.952 
  738100    297.64041   -1528.2958    499.31302    316.02683    495.71516    36500.952 
  738200    293.31771   -1539.9193    514.57982     300.1363    130.07575    36500.952 
  738300    297.96081   -1561.4915    521.50848    306.47447    55.908853    36500.952 
  738400    293.44102   -1543.5675    506.78711    289.25256    12.968974    36500.952 
  738500     311.5231   -1541.0836    479.92906    346.58965    313.36352    36500.952 
  738600    308.61315   -1571.2212      478.973    302.34629    329.58364    36500.952 
  738700    305.19986   -1576.0363    518.35362    321.48742    319.61197    36500.952 
  738800    305.09983   -1548.8063    512.54517    342.45699    579.11352    36500.952 
  738900    297.89589   -1570.4298    489.84533    265.57965    243.18498    36500.952 
  739000    298.68901   -1572.3058    502.41468    279.85709    773.76434    36500.952 
  739100    302.58638   -1584.0514    510.02487    293.33348    120.13004    36500.952 
  739200    305.91909   -1570.2604    496.36964    308.52949    237.08395    36500.952 
  739300    304.46119   -1567.4083    495.17531    303.59911   -34.641889    36500.952 
  739400    293.16763   -1549.3736    496.73132    272.15528    102.06504    36500.952 
  739500    300.26632    -1585.206    506.80466    278.47457   -266.40811    36500.952 
  739600    303.23814   -1569.0541    497.90803    299.15921   -4.3250596    36500.952 
  739700    301.91576   -1604.9403    486.83499     246.2243   -200.85029    36500.952 
  739800    290.79247   -1518.9408    513.78412    308.90781   -566.08336    36500.952 
  739900    298.72975   -1504.2952    520.40578    366.04284    73.498242    36500.952 
  740000    300.14992   -1519.6764    486.04695    322.72049    136.89831    36500.952 
  740100    314.37153   -1533.0496    500.97402    388.54051   -114.78078    36500.952 
  740200    297.42964   -1546.6184    498.25433    295.69308   -394.52992    36500.952 
  740300    293.33507   -1525.8638    503.93198    303.62238   -365.95394    36500.952 
  740400    296.53555   -1534.5781     480.3498    285.78862    152.11879    36500.952 
  740500    307.39207   -1523.9456    517.40011      382.531   -205.58537    36500.952 
  740600    304.43766   -1550.4116    517.35618    342.67036    164.69724    36500.952 
  740700    301.17384   -1538.7403    481.00824    303.24486   -372.59631    36500.952 
  740800    299.74943   -1524.5371    502.22742    332.23048    -128.6938    36500.952 
  740900    304.45494   -1572.5895     496.0105    299.22489    503.14573    36500.952 
  741000    293.13108   -1530.1096    487.53579    282.05861    274.37931    36500.952 
  741100    307.73151   -1556.5592    521.64578    355.69699    609.64333    36500.952 
  741200    294.86646   -1524.6721    493.29609    301.09848    186.87137    36500.952 
  741300    295.19617   -1532.5463     487.9928    289.41084   -115.32314    36500.952 
  741400    291.48634   -1548.0406    515.37817    284.53753   -133.20497    36500.952 
  741500    304.46504   -1549.8826    496.49185    322.45874    103.85696    36500.952 
  741600    304.28027   -1539.1575    477.63887    313.49593   -66.970165    36500.952 
  741700    290.72367   -1544.2074    507.51118    277.05737    99.120827    36500.952 
  741800    302.90146   -1549.2346    508.63851    328.18779    515.45866    36500.952 
  741900    300.43079    -1569.782    455.86187    243.69895   -473.25299    36500.952 
  742000    301.64673     -1535.53     496.4219    324.00575    22.830855    36500.952 
  742100    296.06756   -1524.3633    501.12891    314.66774   -144.54145    36500.952 
  742200    307.43909   -1560.0873    493.71822    322.91984   -81.669965    36500.952 
  742300    300.05008   -1546.2519    497.12536    306.77223    6.9069749    36500.952 
  742400    292.91182   -1543.9842    477.05158    256.70901   -384.84511    36500.952 
  742500    299.77925   -1496.3092    482.84462    341.21031   -555.98607    36500.952 
  742600    290.26495   -1493.3203    514.22406    332.58436   -409.77112    36500.952 
  742700    299.48934   -1504.7467     511.3335    359.95156    115.33921    36500.952 
  742800     294.0667   -1497.2793    511.95011    343.53117   -36.901015    36500.952 
  742900     293.8135   -1502.4206    473.19508    298.49067   -168.90905    36500.952 
  743000     304.7373   -1534.4557    513.33376    355.95791   -492.90715    36500.952 
  743100    304.85206   -1554.2421    486.08205    309.43839    252.45669    36500.952 
  743200    304.31578   -1493.2318    511.27849     393.2217    85.741284    36500.952 
  743300    299.33984    -1481.411    492.13377    363.41198     109.2039    36500.952 
  743400    295.50243    -1531.481    498.46317    302.33052     203.8372    36500.952 
  743500    288.53496    -1508.079    505.97664    301.76058    124.03424    36500.952 
  743600    299.88152   -1517.8669     499.4941    336.76418    29.221673    36500.952 
  743700    310.33948    -1473.523    503.79553    432.66811   -9.6719336    36500.952 
  743800    289.72585   -1525.1286    512.01557    296.13147    159.63776    36500.952 
  743900    299.87741   -1557.2402    486.37331    284.25153    150.59507    36500.952 
  744000    298.74656   -1559.7683    493.18038     283.4203    693.00013    36500.952 
  744100    292.55497   -1547.9645     502.7759    276.84034     576.8443    36500.952 
  744200     299.8303   -1503.6002    519.99473    371.30007    858.77451    36500.952 
  744300    287.23468   -1505.8838    504.80276    296.90604    448.28635    36500.952 
  744400    299.62717   -1511.7441    506.94116    349.18467     184.4129    36500.952 
  744500      300.489   -1526.5493    499.66363    330.99648    248.37642    36500.952 
  744600    300.03867   -1526.4982    508.27443    337.62334    32.771841    36500.952 
  744700    291.95513   -1525.5362    504.69566    298.47788    104.39864    36500.952 
  744800    303.95704   -1559.0379    498.02158    312.53761   -363.43637    36500.952 
  744900    301.70747    -1564.537    477.39061    276.24192   -423.99169    36500.952 
  745000    293.71024   -1524.2218    484.85881    287.88656    -865.4133    36500.952 
  745100    301.31156   -1515.3442    511.61034    357.86537   -703.50928    36500.952 
  745200    291.77162   -1566.6979    514.78648    266.57769   -760.19566    36500.952 
  745300    307.81403   -1534.1574    486.93431    343.76016   -655.71726    36500.952 
  745400    295.29789   -1496.7789    515.57316    353.21832   -1075.0741    36500.952 
  745500    309.25761   -1525.1455    508.64864    381.00988   -1047.4605    36500.952 
  745600    295.22273   -1499.1574    498.21254    333.13952   -130.19016    36500.952 
  745700     298.4462   -1536.0547    533.96958    346.56583    53.346678    36500.952 
  745800    306.18944   -1461.2217    528.01885    450.43908    252.53781    36500.952 
  745900    299.18531   -1524.6153    496.90835    324.28396   -182.63437    36500.952 
  746000    306.41347   -1518.5001    517.98748    384.14167    -357.8736    36500.952 
  746100    302.43729   -1512.6196    493.23637    347.30306   -249.37636    36500.952 
  746200    303.62991   -1532.7053    506.09097    345.46126   -456.72116    36500.952 
  746300    295.80377   -1549.9771    539.77135    326.50429    149.95579    36500.952 
  746400    300.48522   -1536.3292    492.64737     314.1832   -275.37609    36500.952 
  746500    292.70988   -1557.5581    496.08189    261.25279    240.57222    36500.952 
  746600    290.95334   -1570.8381    496.66133    240.61461    88.451385    36500.952 
  746700    296.48347   -1549.6906     473.8901    263.98107    178.07595    36500.952 
  746800    309.44569   -1558.0477    517.24746    357.55635    141.32237    36500.952 
  746900    299.88507   -1575.7169     507.8942    287.33033   -404.62305    36500.952 
  747000    291.07137   -1569.9392    483.68673    229.07231   -114.16718    36500.952 
  747100    309.17428   -1572.3537    489.82747    314.60396   -319.60476    36500.952 
  747200    301.52938   -1524.0458    487.08153    325.61927   -829.78759    36500.952 
  747300    300.87001    -1565.584    512.29442    306.31436   -340.81133    36500.952 
  747400    297.06872   -1538.4557    521.50643    325.47693   -261.52035    36500.952 
  747500    298.85756   -1537.5899     515.8187    328.73865    77.890604    36500.952 
  747600    301.33686   -1525.9428    518.06049    353.83118    484.66943    36500.952 
  747700    301.84466   -1503.5781    497.77386    358.20398    355.83717    36500.952 
  747800    307.48228   -1518.4548    501.73602    372.76536     720.6581    36500.952 
  747900    301.02339   -1510.1902    523.43584    373.54263     481.5775    36500.952 
  748000    296.01318   -1524.7323    521.22413    334.14817   -155.30497    36500.952 
  748100    312.82873   -1518.2314    504.23936    399.65227    919.35729    36500.952 
  748200    310.27497     -1536.52    535.04222    400.62628   -24.449808    36500.952 
  748300    296.18207   -1523.9336    528.68098    343.16692   -68.421548    36500.952 
  748400    305.31775    -1540.646    541.37207    380.42893   -279.41946    36500.952 
  748500    305.89451   -1517.8692    501.63453    366.07448   -201.22159    36500.952 
  748600    310.88818    -1498.796    525.54982    431.62892    17.974062    36500.952 
  748700    289.37035   -1469.7477    530.95932    368.84963   -416.94106    36500.952 
  748800    298.75125    -1492.216    548.61688    406.43031    262.33147    36500.952 
  748900    295.82999   -1515.6767    513.21262    334.36447   -181.58095    36500.952 
  749000      293.997   -1461.4289    508.22448    375.34099   -56.033348    36500.952 
  749100     300.5211   -1492.2087    509.10923    374.92778   -393.00557    36500.952 
  749200    290.00549   -1517.0167    503.97991     297.4713    -438.3915    36500.952 
  749300    310.56536   -1518.1421    528.46681    413.74099   -349.95092    36500.952 
  749400    296.67824   -1559.2211    499.21651    280.65708   -287.64055    36500.952 
  749500    301.05304   -1532.6416    513.69275    341.48215    83.350876    36500.952 
  749600    282.78203    -1475.557    541.18612     343.4951   -282.30521    36500.952 
  749700    288.56648   -1549.5215    503.63758    258.12145   -325.60864    36500.952 
  749800    294.94826     -1486.28    484.17587    330.73995   -764.73067    36500.952 
  749900    313.82939   -1495.3523    526.06582    448.87964   -271.59897    36500.952 
  750000    294.34836    -1514.417    503.18263    318.89883   -31.246036    36500.952 
  750100    304.69634   -1549.1302    516.41774    344.18225    521.48764    36500.952 
  750200    302.07374   -1542.5362      504.179    326.68631    61.845926    36500.952 
  750300    313.09487   -1500.5724    498.81709     413.0916   -355.87545    36500.952 
  750400    301.07607   -1534.5412    481.80517    307.79905   -219.48437    36500.952 
  750500    314.20949   -1555.1777    507.42683    372.13298   -379.29445    36500.952 
  750600    301.30392   -1482.8529    520.76177    399.47358    -825.0633    36500.952 
  750700    309.89817   -1490.2317    501.78631    411.95593   -588.75777    36500.952 
  750800    299.17373   -1553.5459     512.9719    311.36454   -374.58943    36500.952 
  750900    290.20254    -1552.184    499.05568    258.27031    -618.7117    36500.952 
  751000    298.29207   -1579.2432    503.12957    271.84079   -496.86911    36500.952 
  751100    309.21019   -1515.1311    524.72445    406.88571   -819.98645    36500.952 
  751200    289.30678   -1516.2482    502.73013    293.83266   -998.30702    36500.952 
  751300    291.01185   -1466.1227    503.87356    352.80661   -108.86007    36500.952 
  751400    293.91604   -1520.7451    506.19992    313.63443      370.179    36500.952 
  751500    298.60101   -1511.9976    538.94463    376.29751    837.61174    36500.952 
  751600    294.94661   -1518.5773    535.43409     349.6934    1279.5658    36500.952 
  751700     294.1622   -1522.9159    529.65916    336.03517    1002.5046    36500.952 
  751800    293.85417   -1538.4996    514.33129     303.7317    807.34151    36500.952 
  751900    296.57073   -1557.8443    519.77389    302.10542   -47.855697    36500.952 
  752000    301.85191   -1527.3046    501.50472    338.24118   -346.85811    36500.952 
  752100    300.28816   -1485.8932    525.33816    396.41951     13.38459    36500.952 
  752200    297.10177   -1483.2546    500.61598    359.93695   -235.92389    36500.952 
  752300    292.92736     -1486.01     498.5307     336.2325   -53.396946    36500.952 
  752400    296.81234   -1538.5168    551.61021    354.36111    -83.17126    36500.952 
  752500    296.05919   -1543.0787    484.71364    279.49915    -559.8877    36500.952 
  752600    308.48403   -1508.5745    524.93695    410.37343    192.17218    36500.952 
  752700    304.17495   -1492.4917    518.17037    400.21727   -160.21445    36500.952 
  752800    294.79944   -1485.0313    497.81585    344.95612   -79.077166    36500.952 
  752900    293.06872   -1497.3553    484.01117    311.00653    580.72498    36500.952 
  753000    304.66373   -1515.6354    538.19824    399.31018    215.99969    36500.952 
  753100    301.14379    -1535.195       506.22    331.86606     315.7747    36500.952 
  753200    299.74664   -1532.7105    508.78438    330.60143    365.13227    36500.952 
  753300    302.86735   -1497.0422    500.68946    372.27698    657.91663    36500.952 
  753400    293.95488   -1446.4026    541.16409    423.11655    809.06217    36500.952 
  753500    302.91062    -1522.469    483.70511    330.06132    818.23993    36500.952 
  753600    295.20388     -1534.98    518.42458    317.44373    825.33178    36500.952 
  753700    304.49073    -1555.493    498.31161    318.78418    96.508224    36500.952 
  753800    305.21415   -1555.4285    489.09933     312.9055    413.25557    36500.952 
  753900    297.42563   -1484.7671    505.87073    365.14267    104.03197    36500.952 
  754000    300.71856   -1520.7521    526.78675    364.95422   -214.62626    36500.952 
  754100    299.85379   -1525.2211    502.90899    332.69963     519.9636    36500.952 
  754200    306.58824   -1546.7635    525.38372    364.06431    401.26491    36500.952 
  754300    288.69377   -1568.5791     492.5787    228.58022    489.89112    36500.952 
  754400    285.78491   -1554.8296    480.40556    217.01174    -221.0078    36500.952 
  754500    283.70216   -1549.4806    502.04938    234.59276   -596.36568    36500.952 
  754600    303.20232   -1528.9201    510.70695     351.9302    205.10859    36500.952 
  754700    296.91832   -1544.8073     485.1848     282.1241    489.88849    36500.952 
  754800    287.68588   -1489.8442    522.09494    332.27678    165.70467    36500.952 
  754900    308.00747   -1525.2286    498.05096     364.6798    19.849529    36500.952 
  755000    300.37168   -1511.9732    508.63979    354.01862     99.98027    36500.952 
  755100    292.84879   -1484.0538    521.25972    360.56267    362.80414    36500.952 
  755200    288.57588   -1506.9972     528.2678    325.31845   -78.009054    36500.952 
  755300    292.65824   -1487.7305      510.591    345.35613     254.5476    36500.952 
  755400    305.61955   -1497.6094    495.32418    378.78143    362.70436    36500.952 
  755500    300.71989   -1537.0013    501.86122    323.78542    567.16872    36500.952 
  755600    286.41084   -1521.6666    498.81929    271.41688    276.71936    36500.952 
  755700    304.82203   -1497.6905    527.77215    407.54434   -94.159629    36500.952 
  755800    294.97572   -1491.8154     525.7063    366.85906    245.84434    36500.952 
  755900    298.51573   -1559.2612    511.74984    301.45376    767.72562    36500.952 
  756000    295.27303   -1529.2108    498.02892    303.12976    331.16853    36500.952 
  756100    304.30873     -1530.89     503.9953    348.24851   -70.342294    36500.952 
  756200    293.99648   -1521.6031    512.04388    318.98381   -139.24535    36500.952 
  756300    301.08035   -1461.1663    522.89299    422.28105   -549.18196    36500.952 
  756400     303.7284   -1515.8874    517.07014    373.70341   -143.40152    36500.952 
  756500    293.72886   -1498.8493    514.31615    342.80053    87.988111    36500.952 
  756600    303.44163   -1508.6249    509.31431    371.91422    227.83355    36500.952 
  756700    299.16661    -1509.811    498.53374     340.6291    367.33653    36500.952 
  756800    295.61042   -1471.7019    499.27005    363.40447   -137.18785    36500.952 
  756900    301.37593   -1458.7492    547.23965    450.38054    180.65294    36500.952 
  757000    311.86676   -1469.9386    500.98371    440.34238   -380.00818    36500.952 
  757100    303.51298   -1458.9533     525.8279    438.42185    150.94342    36500.952 
  757200    293.72254    -1503.178    503.50552    327.63264   -305.23952    36500.952 
  757300    309.14665   -1474.9144    497.62076    419.71167    -63.72387    36500.952 
  757400    302.17388   -1464.7815    502.30677     403.0212   -30.544639    36500.952 
  757500    292.59638   -1486.1623    491.40916    327.46305   -611.60381    36500.952 
  757600    298.84047   -1471.2235    512.01317    391.22228   -830.06388    36500.952 
  757700    307.56345   -1506.2695    525.50115    409.08264   -734.70395    36500.952 
  757800    297.98752   -1514.1836    502.02805     334.4227   -72.318996    36500.952 
  757900    296.63431   -1529.5324     488.6657     299.5965     -593.097    36500.952 
  758000    304.14923   -1493.1983    506.93739    388.16149    -16.84311    36500.952 
  758100    290.39163   -1491.2743    509.26096    330.23976   -146.80738    36500.952 
  758200    301.33768   -1506.6405    496.48465    351.56137   -599.10979    36500.952 
  758300    302.39938   -1465.2225    505.77232    407.06481     102.5903    36500.952 
  758400    292.34237   -1537.1629    508.58722    292.49255    106.96905    36500.952 
  758500    302.88049   -1526.4796    527.86303    370.07251    482.24046    36500.952 
  758600    298.69024   -1534.5074    494.12374    309.37001    494.65606    36500.952 
  758700     297.1642   -1483.4454    515.76045    375.17278    178.74851    36500.952 
  758800    304.04128   -1563.8819    490.30113    300.35384   -265.14346    36500.952 
  758900    296.58131   -1507.5166    523.77206    356.47918    575.77218    36500.952 
  759000    295.67699   -1482.0591    504.18388    358.26188    503.93022    36500.952 
  759100     309.8758   -1494.6682    497.43107    403.06312    333.40635    36500.952 
  759200    300.98063   -1528.2081    505.49985    337.39551   -155.45122    36500.952 
  759300    293.87786   -1526.9675    481.68644    282.72596    331.09033    36500.952 
  759400    304.38047   -1533.7208    492.85361    334.60012   -153.27702    36500.952 
  759500     308.2089   -1512.4376     514.7163    395.04642     425.7409    36500.952 
  759600      313.804   -1489.3362    462.91036    391.62558    610.75501    36500.952 
  759700    295.14359   -1555.9347    492.48896    270.28105    302.44879    36500.952 
  759800    312.80753    -1511.835    519.34408    421.05751    550.41752    36500.952 
  759900     292.5162   -1489.3343    513.34237    345.86189    544.43793    36500.952 
  760000    308.50975   -1475.7362     514.5378    432.92884    681.40177    36500.952 
  760100    296.90302   -1483.6926    527.53447    385.51934     281.5543    36500.952 
  760200    299.91065   -1502.6459    500.75863    353.38137   -141.90035    36500.952 
  760300    304.81749   -1476.1997    522.83596    424.07846    296.38031    36500.952 
  760400    307.13033   -1493.2046     531.8105    426.49959    598.40178    36500.952 
  760500    305.17115   -1540.2652    506.98437    345.75958    114.99869    36500.952 
  760600    309.47104   -1473.6773    505.67078    430.46459    172.01576    36500.952 
  760700    291.10243    -1504.619    502.12597    312.97204    85.894123    36500.952 
  760800    294.83472   -1452.4113     491.2097    371.12936   -4.6557858    36500.952 
  760900    301.20261   -1468.1265    517.35832    410.33871   -36.593383    36500.952 
  761000    292.77177   -1481.4531     503.4708    345.02642    324.49016    36500.952 
  761100    291.54046   -1460.8984    490.02657    346.57267    198.63077    36500.952 
  761200    301.24828   -1474.9885    482.94557     369.2703    540.40669    36500.952 
  761300    299.39585   -1483.4113    499.05647    368.58752   -18.337239    36500.952 
  761400    298.43137   -1504.5878    510.93171    354.92783    314.27421    36500.952 
  761500    305.99704   -1497.8225    497.86137    382.81138    2.6596777    36500.952 
  761600    299.10417   -1494.6238    506.71568    363.71617    292.16742    36500.952 
  761700     298.1077   -1518.4904     491.7598    320.39064    247.39783    36500.952 
  761800     293.2673   -1529.8504    522.46601    317.86361     244.1079    36500.952 
  761900    293.18572   -1501.3489    503.46956    326.99996   -313.16752    36500.952 
  762000    294.33917   -1534.5341    505.22658    300.78415   -406.48452    36500.952 
  762100     299.9613   -1535.0929    485.85906    306.26373     10.07399    36500.952 
  762200    302.30439   -1482.0582    513.06332     397.0909   -850.61336    36500.952 
  762300     300.4526   -1493.2037    492.04017    356.55416   -362.98223    36500.952 
  762400    310.93314   -1462.3062     508.0955    450.86762   -598.41171    36500.952 
  762500    296.48438   -1520.2392    524.49423     344.0407   -1077.9831    36500.952 
  762600    295.18581   -1526.3589    529.70913    337.26773   -1080.5634    36500.952 
  762700    303.29136   -1501.0909    511.48059     380.9355   -717.26729    36500.952 
  762800     294.9334   -1497.8192    474.88045    309.83812   -279.31217    36500.952 
  762900     292.8595    -1529.557    513.77616    307.62432   -123.93991    36500.952 
  763000    308.88407   -1535.4175    489.93044    350.33169    237.03273    36500.952 
  763100    288.21493   -1501.0667      530.941    332.29103    33.186638    36500.952 
  763200    305.08794    -1563.478    484.67337     299.8597   -180.32484    36500.952 
  763300    298.63541   -1580.8779    520.20945    288.83751   -122.57871    36500.952 
  763400    301.61024   -1558.0415    494.23019    299.13767   -22.504089    36500.952 
  763500    300.69031   -1563.3131    490.91042    286.38916   -109.06376    36500.952 
  763600    303.43472   -1502.9734    487.87748    356.09765   -563.09987    36500.952 
  763700    301.38954   -1555.1583    494.41301    301.20637   -84.581482    36500.952 
  763800    291.18847   -1544.4089    492.84497    264.29002    765.99044    36500.952 
  763900    308.03462   -1542.3587    522.99652    372.61791    545.45132    36500.952 
  764000    304.11725    -1528.429    522.27265    368.12155    575.13782    36500.952 
  764100    308.47534   -1553.8174    490.76162    330.91588    697.97519    36500.952 
  764200    292.36615   -1532.6947    505.17427    293.65534    236.38836    36500.952 
  764300    299.77891   -1538.3778    498.86719    315.16269    376.26943    36500.952 
  764400    298.31918   -1492.8385    515.81416    371.05265   -69.240281    36500.952 
  764500    304.46247   -1475.1127    501.93234    402.65752   -422.03202    36500.952 
  764600     297.3506   -1510.1896    498.47474     331.9852   -444.42544    36500.952 
  764700    302.79205    -1535.213    483.28766    316.36408    -94.88718    36500.952 
  764800    296.04412   -1514.8161    501.88831    324.86834   -35.022489    36500.952 
  764900    292.69392   -1568.9857    510.33661    264.00786   -113.49027    36500.952 
  765000    307.27156   -1519.3903    506.78509    375.92668   -500.49457    36500.952 
  765100    302.07298   -1516.7302    478.76995    327.07974   -167.34112    36500.952 
  765200     300.7811   -1531.3374     528.4769    356.34159   -323.44344    36500.952 
  765300    304.20773   -1550.4804    507.62502     331.8314    443.02325    36500.952 
  765400    300.63063   -1544.4414    505.60688    319.68769    295.78651    36500.952 
  765500    302.64085   -1483.5549    501.06748    385.11875    526.84994    36500.952 
  765600    298.88473   -1477.6401     490.6543    363.64675   -36.408154    36500.952 
  765700    303.34993   -1473.7958    541.03213    438.04677   -401.24871    36500.952 
  765800    299.44883   -1513.4185    495.12666    334.88988   -376.88666    36500.952 
  765900    301.39921   -1483.7981    499.14672    377.34397   -1085.0398    36500.952 
  766000    296.70478   -1556.0545    504.18133    288.90841   -1480.3518    36500.952 
  766100    295.18567   -1535.9676    502.63516    300.58449   -352.91151    36500.952 
  766200    295.94402   -1530.6446    515.28012    321.97931    133.31396    36500.952 
  766300    307.13505   -1535.8524    510.47424    362.53687    176.49045    36500.952 
  766400    309.39864    -1542.307    511.14562    366.98269   -127.43705    36500.952 
  766500    304.13991   -1525.3035    514.04951     363.1263   -321.78945    36500.952 
  766600    297.28338   -1533.2199    462.90259    273.07888   -102.17439    36500.952 
  766700       300.41   -1548.8934     508.0139    316.64565    -333.9779    36500.952 
  766800    292.03853   -1526.1273    488.80995    282.37795   -463.76579    36500.952 
  766900    303.03487   -1535.3764    520.61505     354.6253   -196.87816    36500.952 
  767000    295.58004   -1530.0727     501.2667    306.89299    35.762259    36500.952 
  767100    297.46888    -1537.324    521.57919    328.48971   -157.27765    36500.952 
  767200    298.96284   -1535.8144    495.03448    310.20566     149.0063    36500.952 
  767300    299.70487   -1543.3253    484.15244    295.16589    215.52285    36500.952 
  767400      303.523   -1521.9657    491.96774    341.59459    332.36299    36500.952 
  767500    296.73231   -1510.1362    519.19621    349.96608    241.40891    36500.952 
  767600    304.28727   -1474.4759    514.93544    415.50577    200.19165    36500.952 
  767700    291.01315   -1509.5936    492.30219     297.7703    181.18591    36500.952 
  767800    308.51777   -1509.9068    492.32799    376.58464    353.80708    36500.952 
  767900    298.06168   -1520.2611     512.7263    339.37854   -164.19875    36500.952 
  768000    290.72444   -1520.6165    501.64585    294.78636     79.74539    36500.952 
  768100    306.94418   -1530.4004     462.6387    319.29079      89.8123    36500.952 
  768200     292.4795   -1505.2768    508.73917    325.15038   -556.85213    36500.952 
  768300    292.62424   -1497.4932    512.11508     336.9639   -910.52738    36500.952 
  768400     309.1884   -1457.8146    524.86616    464.24554   -644.23432    36500.952 
  768500    303.28281   -1464.6199    494.48611    400.37339   -153.28063    36500.952 
  768600    304.40261   -1463.1232    483.32673     395.7709   -850.98796    36500.952 
  768700    306.83911   -1487.6452    489.03044    387.96294   -925.68024    36500.952 
  768800    297.42556   -1448.3089    500.74648    396.47635   -1173.4439    36500.952 
  768900    300.60468   -1486.8572    482.22338    353.77103   -799.30249    36500.952 
  769000    307.64946     -1486.25    489.53442    393.52406   -1125.3079    36500.952 
  769100    290.49018   -1449.1738    496.81962    360.34423   -564.65106    36500.952 
  769200    296.58442   -1486.7639    498.67936    352.15321   -525.48071    36500.952 
  769300    293.63092   -1450.9277    494.90795    370.87136   -669.25654    36500.952 
  769400    295.40172    -1457.464    498.85741    376.28657     -386.574    36500.952 
  769500    296.21503   -1444.0757    515.67876    410.17157   -320.61737    36500.952 
  769600    303.83376   -1460.4859    503.82364     416.3346   -54.951465    36500.952 
  769700    303.81204   -1478.1374    518.39716    413.15844    169.78475    36500.952 
  769800     301.3992   -1479.5353    491.29835    373.75826    43.526959    36500.952 
  769900    296.49085   -1460.1137    514.44852    394.14967   -138.85784    36500.952 
  770000    296.46595   -1507.1013    486.62434    319.22534    -383.0266    36500.952 
  770100    299.55536   -1484.6078    489.46461    358.51993   -328.99173    36500.952 
  770200    306.19255   -1511.4084    516.87224    389.11977    242.73447    36500.952 
  770300    288.56223   -1475.7901    487.17418    315.37025   -246.62529    36500.952 
  770400    299.64417    -1473.916    506.49472    386.64315   -285.72328    36500.952 
  770500    295.71203   -1479.6763    499.71956    356.33876   -279.16325    36500.952 
  770600    290.45966   -1446.1329    517.38406     383.8117   -396.53627    36500.952 
  770700    302.66347    -1470.448    523.32396    420.58439    -842.2258    36500.952 
  770800    299.57941     -1526.51    487.12062    314.38246    208.57806    36500.952 
  770900     289.1937   -1519.3941    491.48552    278.93114     30.28332    36500.952 
  771000    296.66532   -1468.8363    511.63756    383.40459   -144.74447    36500.952 
  771100    291.47166   -1487.7367    494.75017    324.14705   -474.52943    36500.952 
  771200    303.08601   -1499.3052    489.69766    360.01022    118.27762    36500.952 
  771300    304.04823   -1516.1025    492.28382    350.14735   -288.95164    36500.952 
  771400    295.27421   -1512.0359    506.06636    328.34743   -158.02966    36500.952 
  771500    296.88119   -1495.6225    484.19544    330.15178   -37.033041    36500.952 
  771600    297.67891   -1500.6994     497.0072     341.4914   -461.29921    36500.952 
  771700    292.31305   -1453.2003    518.18909    385.92461    255.80681    36500.952 
  771800    299.77057   -1469.1538    509.95294    395.43482    200.91317    36500.952 
  771900    297.05098   -1460.0395    532.24942    414.55594    440.32601    36500.952 
  772000    286.94876   -1455.9486    512.71414     353.4606   -57.246133    36500.952 
  772100    306.83935   -1465.4723    508.12166    429.22814    395.03845    36500.952 
  772200    303.10546   -1436.3647    517.15428    450.49529    303.50792    36500.952 
  772300    294.02413   -1473.4961    505.42923    360.60116    818.91752    36500.952 
  772400    303.59279   -1462.0196    546.06898    455.95733    612.41812    36500.952 
  772500    301.27955   -1515.7786    517.54682    363.22285    230.64326    36500.952 
  772600    291.23349   -1532.1423    493.69619    277.61127    276.66554    36500.952 
  772700    295.31913   -1499.0785    514.29484    349.73631    369.55298    36500.952 
  772800    297.58291   -1494.8399    491.27134    341.18122   -81.182114    36500.952 
  772900    305.25536   -1504.8205    524.04267    398.64307    43.522314    36500.952 
  773000    297.92525   -1461.3442    504.66028    389.61293    16.498334    36500.952 
  773100    303.72272   -1491.8539    494.96591    375.60706   -77.615768    36500.952 
  773200    293.48339   -1486.5843    517.10076    356.74095    132.33327    36500.952 
  773300     313.0653   -1528.4279    480.69058    366.97605   -137.97244    36500.952 
  773400    306.76549   -1492.7988    503.14534    396.59152    149.20116    36500.952 
  773500    292.34414   -1504.7019    524.46239     340.8368   -78.776315    36500.952 
  773600    315.46399   -1536.0428    487.20225    376.71218   -101.50693    36500.952 
  773700    303.93467   -1532.7927    492.85422    333.51431   -789.59519    36500.952 
  773800    299.62882   -1494.6914    502.63553    361.93925   -692.10998    36500.952 
  773900    301.55679   -1522.0791    483.66185    324.29017    69.729612    36500.952 
  774000    296.13283   -1472.5311    520.28005    385.94597   -502.96302    36500.952 
  774100    309.43513   -1486.1613    495.56283    407.71039   -319.17896    36500.952 
  774200    292.79738   -1484.1577    533.21919    372.18586    -583.5284    36500.952 
  774300    293.90217    -1488.438    520.48846    360.16732   -120.46375    36500.952 
  774400    302.77153   -1556.5991    524.72545    336.32303    149.52734    36500.952 
  774500    303.46207   -1534.8435    494.73578    331.20945    275.83171    36500.952 
  774600    300.03074   -1530.6555    505.42493    330.58074    672.40612    36500.952 
  774700    291.96769   -1515.5619    506.59801    310.41123   -50.870032    36500.952 
  774800    304.69256   -1516.4366    489.67132    350.11239    -7.388011    36500.952 
  774900    312.19243   -1518.6879    491.65446    383.73545   -332.56197    36500.952 
  775000    300.86189   -1515.9852    495.70764    339.28963   -306.79995    36500.952 
  775100     302.7139   -1504.5573    486.65215    350.03116    195.58843    36500.952 
  775200    302.72983   -1533.1266    493.39239     328.2741    442.32261    36500.952 
  775300     296.3564   -1488.8555    508.21831    358.57012    -349.8352    36500.952 
  775400    300.49165    -1499.302    518.76059    377.35267   -265.02904    36500.952 
  775500    291.19947   -1474.0338    475.02016    316.88995     120.9757    36500.952 
  775600    295.85317   -1509.0357    488.40047    316.29805    360.91757    36500.952 
  775700    302.92065    -1494.454    511.64093    386.05752    606.14963    36500.952 
  775800    293.03837   -1479.1332    504.42252    349.50278    199.19182    36500.952 
  775900    291.63227   -1472.3865    491.83806    337.31096  -0.54440743    36500.952 
  776000    301.63554   -1498.9848    486.62843    350.70693   -687.37857    36500.952 
  776100    296.83191   -1493.9001    481.42197    328.87801   -613.78702    36500.952 
  776200    308.48974   -1498.1033     485.0887    381.02213   -249.60833    36500.952 
  776300    298.91696   -1519.9484    476.55304    307.38289   -463.83457    36500.952 
  776400    296.85133   -1487.7938    530.62135    384.27139    315.68912    36500.952 
  776500     297.2316   -1481.6243    502.09374    363.63171    128.15903    36500.952 
  776600    299.72291   -1500.3777    483.70352    337.74615    770.71399    36500.952 
  776700    304.09789    -1497.377    511.22953    388.04296    11.920732    36500.952 
  776800    291.07387   -1482.2243    488.76749    321.87926   -79.230761    36500.952 
  776900    300.97018   -1494.1519    470.03273    335.93741    -652.6907    36500.952 
  777000    290.98058   -1534.8049    511.67486    291.78443   -45.107468    36500.952 
  777100    296.59272   -1522.1271    498.69954    316.84767    228.36834    36500.952 
  777200    303.78573   -1522.5507    475.63701    325.86603    13.637057    36500.952 
  777300    310.61838   -1507.5948    475.26291      371.324    21.409998    36500.952 
  777400    296.04484   -1514.7966    475.41289    298.41565   -315.23221    36500.952 
  777500     301.2957   -1496.2553    527.42296    392.69524   -531.86065    36500.952 
  777600    303.61908   -1504.6791    502.65479    370.00233   -505.81715    36500.952 
  777700    297.28761   -1488.0723    498.95217    354.29519   -238.62033    36500.952 
  777800    303.17907     -1485.09    504.24388    389.19224    207.43449    36500.952 
  777900    303.67544   -1481.2824     475.2147     366.2137   -322.06886    36500.952 
  778000     299.7492   -1527.4595    512.00248    339.08207    -424.1459    36500.952 
  778100    309.34578   -1518.4906    485.99561    365.41012     111.3106    36500.952 
  778200    300.13274   -1449.7979    482.89944    389.37381   -119.36597    36500.952 
  778300    304.36976   -1453.0592    499.65654    422.01628   -642.76938    36500.952 
  778400    310.91022   -1472.2432    485.97906    418.71051   -53.220488    36500.952 
  778500     289.1108   -1489.7481    511.95903     328.6761    212.20751    36500.952 
  778600    297.50531   -1479.7834    492.89718    357.51287   -387.30626    36500.952 
  778700    291.12758   -1456.9175    471.03478    329.69608    -336.1931    36500.952 
  778800    304.79936   -1482.2332    484.58127    379.70837   -308.08492    36500.952 
  778900    302.04497   -1456.4064    491.71774    400.22482   -84.350978    36500.952 
  779000    306.26036    -1481.835    497.21806     399.3455   -33.306247    36500.952 
  779100    302.26795    -1502.691    486.61383    349.84392    82.646379    36500.952 
  779200    297.84868    -1516.175    482.21822    311.99396    -173.1903    36500.952 
  779300    305.49429   -1524.0075     450.5423    307.03538     355.0077    36500.952 
  779400    299.35633   -1532.5219    507.36072    327.60257    -325.9975    36500.952 
  779500    298.15974    -1497.948    475.09499     324.5034    141.57353    36500.952 
  779600     294.2587   -1502.2227    486.66306    314.16834   -156.57679    36500.952 
  779700    288.13876   -1502.9094    461.00107    260.16422   -73.388209    36500.952 
  779800    291.29436   -1510.4745    479.21842    285.07635   -272.31214    36500.952 
  779900    306.50558   -1499.4078    468.29896    353.96172    215.60228    36500.952 
  780000    300.62642   -1512.0776     496.3783    342.80387     207.0647    36500.952 
  780100    298.19034   -1521.2595    471.26392    297.49909   -337.28645    36500.952 
  780200    291.64019   -1525.0006    465.57621     258.4708   -267.30556    36500.952 
  780300    294.74917   -1556.8935    491.60251    266.65345   -305.65635    36500.952 
  780400    311.92895   -1519.8215    503.04926    392.80605   -274.77834    36500.952 
  780500    302.51489   -1509.2277    490.24371    348.05298     212.8029    36500.952 
  780600    298.39938   -1467.6015    515.72458    396.56243   -76.555036    36500.952 
  780700    312.27753   -1531.2792    473.74797    353.62219   -167.46245    36500.952 
  780800     301.3319   -1466.4003    488.70419      383.995   -586.01878    36500.952 
  780900    291.13722   -1485.5488    472.72011    302.79361   -124.07434    36500.952 
  781000     301.2598   -1492.3114    510.86645    379.92043   -156.45442    36500.952 
  781100    303.28135   -1476.1313    460.85749    355.22667   -648.63029    36500.952 
  781200    295.36695   -1498.1626    499.70323    336.27678   -170.11206    36500.952 
  781300    293.56103   -1468.6139    520.56303    378.52443   -80.453617    36500.952 
  781400    292.43155   -1480.5059    486.71115    327.67649   -240.14481    36500.952 
  781500    298.15253   -1489.9498    481.01587    338.38991   -943.45669    36500.952 
  781600    297.99461   -1482.3103     500.1783     364.4782   -539.59076    36500.952 
  781700    292.80044   -1486.2925    493.88518    330.73098   -645.62843    36500.952 
  781800    303.44085   -1490.3773    483.31439    364.15837   -177.54576    36500.952 
  781900    296.04329   -1484.7077    471.70856    324.79325   -138.42533    36500.952 
  782000    298.05679   -1453.4867    488.95778    382.36227   -23.805196    36500.952 
  782100    299.66157   -1452.6655    493.85442      395.332   -730.28805    36500.952 
  782200    308.66899   -1497.5896    511.93572    409.19287   -533.09151    36500.952 
  782300    288.78476    -1493.611    465.35226    276.73307   -130.78597    36500.952 
  782400    294.31467   -1439.1468    512.79325    403.62744    118.09515    36500.952 
  782500    303.89944    -1454.665    479.38416    398.01278    212.25073    36500.952 
  782600    311.62654    -1484.768    488.94766    412.39131    134.60085    36500.952 
  782700    297.09073   -1511.3969    490.68452    321.81329   -730.42609    36500.952 
  782800    289.21417   -1497.0923    488.04293    297.88289   -255.10084    36500.952 
  782900    303.00928   -1457.9931    479.34434    390.62227   -319.88049    36500.952 
  783000    295.69111   -1486.7191    484.04424     333.5261   -267.34212    36500.952 
  783100    307.05351   -1471.5719    489.41081    405.38546    386.46019    36500.952 
  783200    290.80872   -1479.9555    480.91557    315.09789    41.365249    36500.952 
  783300    295.43719   -1481.9136    493.49241    346.63227    355.93874    36500.952 
  783400    303.77072   -1494.0324    483.49455    362.17409    130.40628    36500.952 
  783500    307.92452   -1429.1845    511.93622    474.23427    462.97361    36500.952 
  783600    303.75474   -1468.1868    484.62248     389.0754    309.51325    36500.952 
  783700     296.0087   -1479.5347    474.53179    332.63315   -8.4450708    36500.952 
  783800    296.75844   -1452.9495    485.01785    373.09242    29.580184    36500.952 
  783900    297.75312   -1466.4366    471.12983    350.21216    216.24354    36500.952 
  784000    286.48222     -1483.27    515.25239    326.56919    641.47663    36500.952 
  784100    302.91016   -1485.3328    480.61842    364.10877   -53.080914    36500.952 
  784200    297.78372   -1458.2397    478.56185    365.97939    507.05327    36500.952 
  784300    288.73187   -1489.6776     490.8487    305.92392    630.86632    36500.952 
  784400    295.95549   -1471.3679    490.32106    356.34877    144.02977    36500.952 
  784500    300.14201   -1432.5224    506.52855    430.32024    60.206688    36500.952 
  784600     288.1506    -1443.371    499.23105    357.98606   -189.84754    36500.952 
  784700    297.72752   -1442.9924    521.03672    423.44756   -234.31082    36500.952 
  784800    299.54366      -1480.1    494.17266    367.68296   -506.17695    36500.952 
  784900    293.99467   -1449.7089    473.40431    352.23027   -865.00551    36500.952 
  785000    297.63983    -1450.234    459.50514    354.27814    -772.3852    36500.952 
  785100     288.0907   -1467.9502    504.24053    338.14576   -61.661621    36500.952 
  785200    305.91803    -1475.191    487.53376    394.75823   -19.732734    36500.952 
  785300    300.58357   -1463.3289    500.98128    395.96187    258.18308    36500.952 
  785400    300.58542   -1458.0613    442.58728    342.84387    301.25842    36500.952 
  785500    294.92518   -1492.9285    503.58466    343.39596    525.35613    36500.952 
  785600    299.53459   -1522.6677    471.87064    302.77217     880.3451    36500.952 
  785700    297.93928   -1486.9142    472.88142    332.32738    631.27444    36500.952 
  785800    301.24341   -1491.9331    509.90704    379.26525    841.30516    36500.952 
  785900     294.1892   -1470.4391    461.44041    320.41532    1094.3482    36500.952 
  786000    311.41454   -1475.7924    485.81243    417.27368    856.26285    36500.952 
  786100    296.55015   -1464.8623    472.99842    348.21903   -34.070514    36500.952 
  786200       309.29   -1443.4472    473.11444    427.32032   -162.39692    36500.952 
  786300    287.02399   -1415.8964    495.56654    376.70521   -523.94403    36500.952 
  786400     316.1615   -1471.6798    475.20434    432.22932    266.17298    36500.952 
  786500    301.68717   -1512.8335    493.01403    343.47712    392.95018    36500.952 
  786600    291.24906   -1523.2368    467.28963    260.18051    184.45431    36500.952 
  786700    304.05069    -1497.578    485.16446    361.56359    646.43072    36500.952 
  786800     297.2391    -1454.441    498.53465    387.28984    163.56477    36500.952 
  786900    291.67651   -1452.3194    478.86815    344.60807    551.98813    36500.952 
  787000    296.04468   -1456.1691     467.1765    348.80606    362.04884    36500.952 
  787100    294.94848   -1485.7504    501.54073    348.63539   -34.372024    36500.952 
  787200     298.9826   -1421.0071    494.10665    424.17444    181.01524    36500.952 
  787300    299.96721    -1444.859     504.5273    415.19257   -212.02472    36500.952 
  787400    301.89245   -1425.8972    509.11813    447.44514   -141.37953    36500.952 
  787500    290.17249   -1394.0159    493.86886    411.11576   -55.758949    36500.952 
  787600    301.63593   -1459.3916    501.43326    405.10673   -268.83974    36500.952 
  787700    278.44834   -1463.0036    477.22798    272.50679   -300.76723    36500.952 
  787800    308.29516   -1433.3904    487.08245    446.84955     -622.618    36500.952 
  787900     312.1222   -1445.8158    503.59016    468.22587   -212.00656    36500.952 
  788000     308.7953   -1436.0471    482.32073    441.69123    173.40681    36500.952 
  788100    301.22361   -1450.7198    483.95933    394.44132   -161.06634    36500.952 
  788200    296.94411   -1445.9328    491.22123    387.15159    30.782938    36500.952 
  788300    299.12408   -1464.1214     472.8334    360.42619    149.77383    36500.952 
  788400    306.93582   -1477.8645    514.90678    424.05705    369.82567    36500.952 
  788500    300.43899   -1480.0824    486.26692     363.8407    387.88177    36500.952 
  788600     294.8098   -1463.6771    505.14917    373.69047    533.28086    36500.952 
  788700    298.33064    -1464.979    493.89435    377.04403   -69.252717    36500.952 
  788800    302.51045   -1474.5518    476.77939    369.24451    477.27458    36500.952 
  788900    302.16658   -1429.9897    473.33993    408.81319    299.02084    36500.952 
  789000    296.83995   -1444.8447    526.04552    422.59323     183.8762    36500.952 
  789100    303.04565   -1472.9342     483.4091    379.91035    -33.02756    36500.952 
  789200    312.70611    -1444.868     491.0733    459.29547    371.61657    36500.952 
  789300    289.68462   -1462.0041    489.10202    336.15608   -83.659852    36500.952 
  789400    305.99527   -1446.7846    505.85589    441.83577    965.43119    36500.952 
  789500     302.3471   -1470.7006    487.91224    383.49043     229.0404    36500.952 
  789600    306.03345    -1456.789    487.83837    413.98637    459.61228    36500.952 
  789700    284.81827   -1449.6454    499.84589    337.26804    451.85221    36500.952 
  789800    293.60334   -1491.4922    493.12844     328.4027   -269.80732    36500.952 
  789900    293.41362   -1500.3024    494.91977    320.52657   -261.78895    36500.952 
  790000    299.06935   -1477.2404    487.53581    361.76233   -166.10997    36500.952 
  790100    296.30492   -1501.4153    484.04414    321.60348   -602.68372    36500.952 
  790200    305.97776   -1500.3445    459.31326    341.65412   -163.24781    36500.952 
  790300    309.88212   -1473.2018    504.12498    431.25201   -172.29196    36500.952 
  790400    293.33464   -1504.9389    460.26151    280.87489   -190.41782    36500.952 
  790500    299.69825   -1529.6132     477.8117    302.50737    148.82908    36500.952 
  790600    307.66637   -1499.8062    457.01688     347.5267     170.3791    36500.952 
  790700    294.80096   -1527.6161    450.29611    254.85847    235.80362    36500.952 
  790800    304.14698   -1491.5696    495.41563     378.2583    414.70959    36500.952 
  790900    293.44487   -1485.0735    496.86524    337.84216   -247.09856    36500.952 
  791000    308.79572   -1498.9588    503.74409    400.20477    46.451675    36500.952 
  791100    298.01908   -1479.1311    486.64217    354.23189    524.48722    36500.952 
  791200    306.50703   -1513.2286     530.5431     402.3916    532.77621    36500.952 
  791300    297.57736    -1501.532    461.63061    304.82329    345.24183    36500.952 
  791400    297.45446    -1496.625    507.51471    355.05906   -473.63285    36500.952 
  791500    299.05188   -1482.6137    494.23518    363.00943   -298.40638    36500.952 
  791600    292.15621   -1501.1575     490.0567    309.12629    555.27482    36500.952 
  791700    301.96812   -1537.3383    493.62551    320.85341    981.67854    36500.952 
  791800    301.72563   -1521.0192     487.7862    330.23741    447.15139    36500.952 
  791900    296.87268   -1532.2354    465.97867    275.28366    365.77131    36500.952 
  792000    308.98437   -1489.1832    468.61665    375.70546  -0.27184029    36500.952 
  792100    301.04512   -1475.4004     487.5322    372.52697    68.010099    36500.952 
  792200     306.4796   -1509.1402    484.76599    360.57895    174.52799    36500.952 
  792300    298.90862   -1558.8698    483.60192    275.47267   -29.445581    36500.952 
  792400    290.44779   -1484.9456    482.62321    310.18452    234.33319    36500.952 
  792500    308.76402   -1520.1635    457.14456     332.2573    636.25791    36500.952 
  792600    295.12819   -1515.8102    497.64208    315.48898   -601.26098    36500.952 
  792700    303.51052    -1520.541    506.84438    357.83948   -176.07883    36500.952 
  792800      305.623   -1568.5879    472.76035    285.25464    219.93211    36500.952 
  792900    300.50324   -1550.8783    486.41651     293.4847    102.52712    36500.952 
  793000    308.96156   -1553.4914    517.16883    359.84627    413.33339    36500.952 
  793100    291.21989   -1520.7529    470.54286    265.78585    291.36412    36500.952 
  793200    286.20894   -1526.6662    516.57943    283.26508    312.76895    36500.952 
  793300    294.34025   -1509.0704    487.84939    308.87547   -745.26416    36500.952 
  793400     305.2523   -1470.6592     493.0529    401.80081   -614.12839    36500.952 
  793500    300.80128   -1494.5229     494.1115    358.88196    -552.8397    36500.952 
  793600    311.26208    -1513.994    487.77579    380.34657    534.60901    36500.952 
  793700    292.80681    -1513.761     480.4267    289.83277    265.37516    36500.952 
  793800    297.96253   -1517.4704    499.49138    328.48625      502.028    36500.952 
  793900    303.35454   -1523.6488    500.18119    347.36364    162.88978    36500.952 
  794000    307.56129   -1524.3532    457.99035    323.47829    153.26493    36500.952 
  794100    287.33516   -1477.4663    520.96351    341.93834    441.07006    36500.952 
  794200     312.4176   -1476.4207    500.75512    436.12087    264.31645    36500.952 
  794300     291.1135   -1504.9736    496.41763    306.95917     585.7801    36500.952 
  794400    289.67416   -1445.5062    519.37632    382.88096    121.53635    36500.952 
  794500    299.17278    -1492.927    476.25176    335.25901    720.45751    36500.952 
  794600    291.84872   -1533.9143    484.73513    269.65834    517.80328    36500.952 
  794700    301.72539   -1515.2862    466.17375    314.35681    232.48564    36500.952 
  794800    290.72804   -1488.2644    482.25929     307.7682    49.426936    36500.952 
  794900    311.71624   -1492.2159    497.68486      414.086    200.36653    36500.952 
  795000    287.53893   -1479.7644    505.44265    325.04022   -100.72009    36500.952 
  795100    291.38176   -1486.1058    484.34159     314.9632   -138.73269    36500.952 
  795200    304.38643    -1467.421    515.35903    423.43232    76.064762    36500.952 
  795300     300.0909   -1491.0097    481.70735    346.78087   -204.47221    36500.952 
  795400     293.3053    -1501.265    483.37148    307.52621   -495.16328    36500.952 
  795500     286.7717   -1522.5742    494.94763    268.26835   -441.99454    36500.952 
  795600    306.52019    -1541.412    458.36406    302.08865   -367.47327    36500.952 
  795700    290.96764   -1506.7777    496.76316    304.84142   -382.52537    36500.952 
  795800    297.17318   -1528.6729     500.5461    314.77152   -119.14503    36500.952 
  795900    291.61627   -1505.5052    493.01681    305.29869    316.38378    36500.952 
  796000    304.52321   -1508.3523     513.5266    381.28664   -515.36505    36500.952 
  796100    292.52199   -1468.0151    490.02685    343.89177   -680.10048    36500.952 
  796200    306.96545   -1481.0664    493.52179    399.60402   -449.65261    36500.952 
  796300    293.42709     -1515.69    483.79668    294.07676   -371.91706    36500.952 
  796400    311.27572   -1496.1777    496.80227    407.25091    469.68604    36500.952 
  796500    294.81034    -1465.851    525.18568    391.55555    457.77859    36500.952 
  796600    295.47229   -1511.5223    473.46248    297.15232    578.45633    36500.952 
  796700     302.5286   -1503.5353    482.63726    346.20086    871.37779    36500.952 
  796800    308.43931   -1532.9204    473.12259    334.01104   -79.698169    36500.952 
  796900     290.5158   -1550.3321    509.81828    272.30038    749.90537    36500.952 
  797000    296.96993    -1518.617    492.44113    315.80393    107.29382    36500.952 
  797100    295.82497   -1488.8805    495.41199    343.33727   -500.57103    36500.952 
  797200    297.15549   -1454.2303    503.83827    392.42628   -22.731741    36500.952 
  797300    310.54902   -1487.1707    499.44556    415.61729    260.54409    36500.952 
  797400    293.96949   -1532.8972    474.97145    270.49532    507.35544    36500.952 
  797500    298.71856   -1500.6134    488.87389    338.14222    566.92743    36500.952 
  797600    302.21259   -1493.5317    504.76789    376.90708    260.29113    36500.952 
  797700    297.70808    -1512.438    503.02519    335.90263    745.97718    36500.952 
  797800    291.12295   -1530.0695    472.39896    257.88734   -114.09259    36500.952 
  797900    295.23169   -1516.0826    518.08179    336.12402   -300.97283    36500.952 
  798000    299.94425   -1499.5785    469.89785    325.73988   -160.91783    36500.952 
  798100    299.09704   -1478.8683    505.13423    377.85796   -234.78984    36500.952 
  798200    295.47287   -1474.5356    509.07913    369.75824   -2.8952046    36500.952 
  798300    293.67458   -1514.0362    483.17846    296.23064   -215.49657    36500.952 
  798400    298.78859   -1509.6285     492.7341    333.30371   -172.16956    36500.952 
  798500    305.48857   -1487.3902    492.42313    385.50768    246.32622    36500.952 
  798600    296.38922   -1460.0936    498.26773    377.52978       54.803    36500.952 
  798700    296.00652   -1481.2968    520.69927    377.02877    714.11574    36500.952 
  798800    299.47607   -1519.3095    486.38576    320.38109    887.15411    36500.952 
  798900     303.7429   -1504.3864    491.50493    359.70478    618.40093    36500.952 
  799000    292.05786   -1437.9089    513.05097    394.92466     496.8383    36500.952 
  799100     297.8586   -1477.9679    511.91852    379.94628   -113.69853    36500.952 
  799200    292.22215   -1484.4443    479.28348    315.36416    48.242494    36500.952 
  799300    307.83561   -1485.7959    468.46006    373.74496   -419.49106    36500.952 
  799400    297.51884   -1441.8101     512.4398    415.09001   -430.04065    36500.952 
  799500     296.3882   -1498.8132    483.03633    323.57408   -179.88574    36500.952 
  799600    291.17309   -1454.4738    499.42361    360.73424   -211.26434    36500.952 
  799700    297.50305   -1463.5117    497.24245    378.11962   -102.84714    36500.952 
  799800    291.99198   -1470.2789    487.46084    336.66685    458.45617    36500.952 
  799900    297.56779   -1463.7379    482.69426    363.63777    334.96789    36500.952 
  800000    292.16468   -1468.3817    509.67263    361.55625     401.6048    36500.952 
  800100     301.0079   -1447.4805    503.89061    416.63712    104.18104    36500.952 
  800200    295.35736   -1484.2443    492.14947    342.59795    179.57277    36500.952 
  800300    301.83847   -1507.7874    474.33578    330.52866    305.83072    36500.952 
  800400    305.22199   -1493.0027     496.0111    382.27856    19.603742    36500.952 
  800500    312.28619   -1509.2838    461.79283    363.70164    342.63333    36500.952 
  800600     292.3395   -1487.3441    498.32409    332.03529    488.81942    36500.952 
  800700    291.08351   -1484.2896    490.54098    321.63096    387.27287    36500.952 
  800800    299.46477   -1519.5355    491.36631    325.08452    623.72047    36500.952 
  800900    304.42492   -1472.9718    479.51964     382.2161    56.350096    36500.952 
  801000    310.26154   -1442.0646    512.78565    472.76448    321.67483    36500.952 
  801100    284.64577   -1520.3751    494.06194    259.97492    155.48826    36500.952 
  801200    303.71365   -1478.6836    493.00985    386.78033    559.72525    36500.952 
  801300     311.4523    -1493.179    491.02275    405.26803    821.08797    36500.952 
  801400    293.81485   -1525.3791    482.32456    284.66774    45.456194    36500.952 
  801500    306.07486   -1477.7329    496.03077    401.42199    -529.4321    36500.952 
  801600    299.27484   -1484.3759      486.169     354.1886   -540.11282    36500.952 
  801700    307.47461   -1455.3728    497.76561    431.84229   -591.52518    36500.952 
  801800    302.46566   -1459.8426    503.57835    410.55022   -691.96485    36500.952 
  801900     305.6506   -1472.3696    503.26407    412.10148   -394.55861    36500.952 
  802000    302.99201   -1497.7323    506.11439    377.57512    26.811362    36500.952 
  802100    294.96096   -1449.2316    499.72847    383.39827   -64.128757    36500.952 
  802200    293.82141   -1452.9627    493.39157    368.18084   -40.342433    36500.952 
  802300    294.88965   -1451.1808    495.86579    377.26421    327.42054    36500.952 
  802400    304.81755   -1442.0427    501.13006    436.52983   -21.985717    36500.952 
  802500    292.63423   -1458.7502    489.32925    352.96619    245.03664    36500.952 
  802600    303.28019    -1463.815    496.74852    403.42884    20.769407    36500.952 
  802700    291.20825   -1458.3404     482.5488     340.1517   -378.10971    36500.952 
  802800    299.90293   -1478.9893    475.50043    351.74488   -13.212425    36500.952 
  802900    299.31202   -1476.7944    493.86211    369.63119   -84.258722    36500.952 
  803000    306.60839   -1446.7641    499.12702    437.89798    223.39582    36500.952 
  803100    306.64175   -1449.4403    483.98425    420.22986   -141.19735    36500.952 
  803200    301.10649   -1427.9673     511.9947    444.69991    406.99045    36500.952 
  803300    302.17767   -1512.8382    494.17278    346.84764     -46.1433    36500.952 
  803400    301.32402   -1499.0948    478.94322    341.50397    720.96266    36500.952 
  803500     294.5786   -1487.8429    499.99416     343.3249    146.78178    36500.952 
  803600    292.40328   -1479.2482    506.61568    348.71099     421.0581    36500.952 
  803700    307.43383   -1477.7347    497.13505     408.6656    532.15378    36500.952 
  803800    308.57964   -1489.7253    495.49233    400.21008    258.38498    36500.952 
  803900    304.14868   -1500.1731    499.53119      373.778    226.37254    36500.952 
  804000    302.95264   -1478.7743    485.45312     375.6939   -223.24225    36500.952 
  804100      305.154   -1461.0007     511.6799    429.64206   -522.97744    36500.952 
  804200    301.76173   -1478.5663    487.67091    372.73814    333.87246    36500.952 
  804300    305.51039   -1488.1878    495.92654    388.31208   -416.44838    36500.952 
  804400     309.9358   -1502.2322    514.19699    412.53613   -226.37066    36500.952 
  804500    304.33919   -1508.6636    466.23085    332.84805   -49.990708    36500.952 
  804600    306.58186   -1502.2397    506.38937    389.56493    858.27063    36500.952 
  804700    302.61027   -1466.1928    502.28486    403.56002    462.62515    36500.952 
  804800    293.90201   -1482.4361    490.91364     336.5937    736.58033    36500.952 
  804900    297.69311   -1489.4976    483.51919    339.26937     527.0197    36500.952 
  805000    303.52115   -1505.4751    499.27939    365.38842    437.15593    36500.952 
  805100    306.07847    -1464.536    501.99156    420.59608    605.51344    36500.952 
  805200    308.78212   -1500.1608    495.07644    390.27361   -16.239125    36500.952 
  805300    300.95696   -1482.5353    495.26488    372.72639   -86.348238    36500.952 
  805400    302.58144   -1455.4893    490.63545    402.48386     -291.076    36500.952 
  805500    294.06692   -1473.6627     486.6113    341.80999    4.2075896    36500.952 
  805600    304.49869   -1435.6151    524.18216    464.56864   -78.813352    36500.952 
  805700    313.64232   -1484.8413    494.95314    427.43267   -144.92975    36500.952 
  805800     292.4447   -1517.2347    465.92205    270.21811   -18.699151    36500.952 
  805900    300.50993   -1498.2057    497.47087    357.24186   -586.13892    36500.952 
  806000    294.72729   -1491.6739     486.7746    326.94617   -927.28145    36500.952 
  806100    291.90066   -1477.2012    504.72483    346.59585   -591.06295    36500.952 
  806200    302.77965   -1476.5062    523.68912    415.41634   -30.036586    36500.952 
  806300    301.59514     -1510.52    479.69243    332.05318   -350.72811    36500.952 
  806400    304.76853   -1544.8857    503.56017    335.89544   -167.71049    36500.952 
  806500    300.99782   -1524.7277    477.69113    313.14487    496.86342    36500.952 
  806600    298.61281    -1492.562       514.98    371.82181    337.35782    36500.952 
  806700    300.00194   -1483.2212     477.6394    350.09938     379.8928    36500.952 
  806800    293.47633   -1528.3286    464.60567    262.46959    181.04574    36500.952 
  806900    308.08233   -1557.2494    486.97893    321.92529   -247.46626    36500.952 
  807000    291.33157   -1542.0865    478.93079    253.34485   -319.66564    36500.952 
  807100    292.91215   -1522.4978    502.37941    303.52464    269.39675    36500.952 
  807200    300.84678    -1510.183    485.64375    334.95967    249.77928    36500.952 
  807300    298.74196   -1516.2667    487.13603    320.85674    427.13008    36500.952 
  807400    309.64635   -1493.4717    523.80626    429.59789    1288.1167    36500.952 
  807500    310.69305   -1489.5195    496.31138    410.78517    914.15364    36500.952 
  807600     300.3593   -1517.0512    479.40796    319.65284    565.52525    36500.952 
  807700    297.57985    -1489.509     500.8834    356.11036    99.887309    36500.952 
  807800    305.91146   -1458.7584    472.34449    395.97186    511.16284    36500.952 
  807900    298.51296   -1513.0599    508.85646     344.7492    220.64222    36500.952 
  808000    296.69528   -1500.5737    502.33321    342.49816    277.55781    36500.952 
  808100    295.08499   -1464.5151    487.48383    356.43073    74.852166    36500.952 
  808200    302.13955   -1446.7813    501.22966    419.78921    237.60034    36500.952 
  808300     296.3633   -1444.5032    526.78668    421.52202    255.05981    36500.952 
  808400    308.82903   -1514.4366     480.3559    361.48932   -172.66869    36500.952 
  808500    293.69202   -1514.3069    498.20138    311.06174   -181.20473    36500.952 
  808600    300.07463    -1504.053    493.39573    345.35239   -198.69104    36500.952 
  808700    290.28691    -1489.168    487.82396    310.43581   -203.44953    36500.952 
  808800    299.14756   -1524.4391    497.95076    325.33195   -59.053689    36500.952 
  808900    296.75814   -1504.2315    490.27415    327.06535   -84.721113    36500.952 
  809000    305.00878   -1488.4335     476.3256    366.19877    139.98001    36500.952 
  809100    293.35761   -1502.0984    496.79093    320.34855    576.62365    36500.952 
  809200    311.06613   -1523.1258    490.01399    372.56738    125.15753    36500.952 
  809300    293.33877   -1517.3701    488.56201    296.76281    323.55212    36500.952 
  809400     294.8931   -1509.7593     489.7587    312.59426    451.32004    36500.952 
  809500    291.24544   -1509.0997    487.35199    294.36365   -450.40465    36500.952 
  809600    300.70832   -1501.3591    505.02114    362.53531   -252.62825    36500.952 
  809700    310.15866   -1506.5866    483.06438    378.05625    293.57282    36500.952 
  809800     317.0617   -1529.9602    493.18976    396.00223   -646.24152    36500.952 
  809900    303.34334   -1497.9243     508.6862    381.54255   -400.07105    36500.952 
  810000    294.03156    -1508.464    488.18805    308.42563   -385.43954    36500.952 
  810100    301.31175   -1475.7757    504.54041    390.36481    430.15036    36500.952 
  810200    303.45543   -1526.7096    500.88914    345.46667   -81.416301    36500.952 
  810300    313.75707   -1547.0216    483.73883    354.55652    51.681225    36500.952 
  810400     300.1744   -1535.9392    518.91627     339.4376    427.06926    36500.952 
  810500    298.68187   -1526.5508    473.75482    296.91995    40.227098    36500.952 
  810600    304.13845   -1520.0287     502.6376    356.98254    231.94877    36500.952 
  810700    296.41692   -1585.1396    482.83502    237.17622    91.040798    36500.952 
  810800    306.35341   -1548.1781    518.20351     354.4083    609.94103    36500.952 
  810900    301.08554   -1512.3004    489.50898    337.78642   -160.87868    36500.952 
  811000    297.62059   -1520.3299    503.51133    328.10146   -423.72772    36500.952 
  811100    294.83057   -1505.6688    509.92879    336.57222   -594.90415    36500.952 
  811200     296.6868   -1538.8395    478.25872    280.11959   -452.35171    36500.952 
  811300    291.71224   -1548.2581    492.76196    262.72466   -399.93545    36500.952 
  811400    308.27733    -1507.225    495.60386    381.45573   -138.08548    36500.952 
  811500    302.27982   -1517.6111    489.52796    337.89153   -165.14973    36500.952 
  811600    306.58631   -1497.3581    492.96779    381.04499     59.70344    36500.952 
  811700    310.78389   -1506.6593    485.92287     383.6674    15.483164    36500.952 
  811800    291.61709    -1495.271    508.52558    331.04539    156.76194    36500.952 
  811900    292.86655    -1537.981     492.1575    277.61354    543.11454    36500.952 
  812000    301.91888   -1543.7431     478.8545    299.45507    661.83015    36500.952 
  812100    304.62194   -1566.4525     525.9252    336.03117    96.461022    36500.952 
  812200    309.53344   -1488.0019    481.46139    392.21259   -11.845255    36500.952 
  812300    287.64702   -1527.4996    464.39559    236.74644   -1099.0616    36500.952 
  812400    300.38273   -1526.2391    485.28593    316.44877   -837.91614    36500.952 
  812500    301.49556   -1544.2711    495.12785    313.28742   -398.86626    36500.952 
  812600    297.83491   -1509.9065    478.47075    314.45284   -637.19805    36500.952 
  812700    302.71061   -1508.7569    481.83517    340.99961   -809.04067    36500.952 
  812800    296.73531    -1519.604    480.87853     302.1941   -1377.0555    36500.952 
  812900    293.26459   -1492.4748    475.21501    307.97592    -1246.997    36500.952 
  813000    298.91743   -1521.2555    489.61762    319.14244   -132.85025    36500.952 
  813100    292.07897   -1522.1922    510.05474    307.74055    24.907294    36500.952 
  813200    308.88723   -1536.2289    508.25669    367.86083    424.97329    36500.952 
  813300    301.58147   -1496.2624    502.47841    369.03497    1038.6207    36500.952 
  813400    301.93031   -1508.8435    506.84872    362.40056     589.5017    36500.952 
  813500    287.91284   -1524.9108    507.34548    283.48632    357.22135    36500.952 
  813600     311.4867   -1514.7933    495.96547    388.75188    1115.9813    36500.952 
  813700    292.99831   -1526.4021    499.19292    296.82327    296.16713    36500.952 
  813800    312.97301   -1518.0931    511.16652    407.36962    317.70704    36500.952 
  813900    300.71663   -1455.5014    494.26343     397.6728   -19.759657    36500.952 
  814000    301.81479   -1489.4255    471.71661    346.16441   -743.38812    36500.952 
  814100    299.04906   -1456.7943    503.55292    398.13379   -859.51848    36500.952 
  814200    300.47881   -1498.0882    499.38856     359.1365   -657.02064    36500.952 
  814300    301.97296   -1495.8486     507.2047    375.94414     168.6189    36500.952 
  814400    288.76584   -1493.9547    503.78903    314.74058   -172.48963    36500.952 
  814500    293.64886   -1562.5888      489.283     253.6664   -84.214527    36500.952 
  814600    300.87217    -1516.324    494.89825    338.18794    411.34756    36500.952 
  814700    300.40127   -1507.1259    493.76067    344.12046     -8.56039    36500.952 
  814800    294.03243   -1495.5175     504.0254    337.21341     367.6324    36500.952 
  814900    306.95878   -1514.8701    487.67607    359.92447   -230.00899    36500.952 
  815000    295.41593   -1532.6763    481.94482    284.22593    20.067452    36500.952 
  815100    299.21297   -1522.4886    489.27272    318.90001   -52.759117    36500.952 
  815200     294.4489   -1503.8343    502.15759    328.91078   -146.58704    36500.952 
  815300     301.3804   -1544.4858    484.98647    302.41097    357.12039    36500.952 
  815400    294.63766   -1560.8523    488.73919    259.32742    228.29026    36500.952 
  815500    304.86306    -1568.588    467.66551    276.72563     239.3555    36500.952 
  815600       303.31   -1538.0395    494.35705    326.94756   -10.768264    36500.952 
  815700    301.83304   -1554.7274    495.83376     305.0621    338.10705    36500.952 
  815800    310.03173   -1541.5807    489.60386    349.02802   -301.86692    36500.952 
  815900    302.03536   -1559.5837    504.61565    309.90191    51.464841    36500.952 
  816000    302.64274   -1508.2405    500.32401    359.69819    476.69157    36500.952 
  816100    306.40872   -1544.2796    488.21855     328.5718    663.33405    36500.952 
  816200    306.05342   -1545.9423     491.3476     328.4326    344.33024    36500.952 
  816300    307.13474   -1539.6945    504.77313    352.99231   -571.54103    36500.952 
  816400     292.1189   -1550.8764    488.21375    257.39579    207.26763    36500.952 
  816500    290.44528   -1551.5315     507.5502    268.51419    279.72792    36500.952 
  816600    304.52509   -1555.1382    494.47842    315.46112    525.76294    36500.952 
  816700    289.07729   -1564.5484    499.69189    241.45717   -159.17604    36500.952 
  816800    301.58474   -1544.7703     479.5963    297.65972    73.260638    36500.952 
  816900    296.59882   -1526.7234    476.16098    289.74038    134.56917    36500.952 
  817000    298.45162   -1497.7827    498.96805    349.86081   -590.63107    36500.952 
  817100     294.9148   -1572.3196    497.60665    257.97988   -546.21397    36500.952 
  817200    306.79276   -1523.8182    465.96091    328.51094    343.20753    36500.952 
  817300     302.8734   -1540.6771    481.08189    309.06186     157.3425    36500.952 
  817400    307.42636   -1511.2564    490.98984    368.96485    775.83143    36500.952 
  817500    309.04903   -1483.2508    514.61366    427.92696    685.33044    36500.952 
  817600    302.95281   -1492.6208    474.26289    350.65803    871.57168    36500.952 
  817700    259.79365   -1469.6902    502.73707    207.03048    65.188651    36500.952 
  817800    302.49722   -1516.0437     526.5332    377.44657    109.88414    36500.952 
  817900    306.49145   -1515.7495    512.12246    381.37967    345.12211    36500.952 
  818000    284.97816   -1536.2948    517.52368    269.01901    807.84004    36500.952 
  818100     307.0191   -1563.8669    507.13108    330.65523    91.270223    36500.952 
  818200    312.44804   -1496.0762    499.15683    415.00455    943.45202    36500.952 
  818300    310.88913   -1522.9641    492.02347    373.93877    1128.0289    36500.952 
  818400    297.46921   -1520.9805    495.76768    319.02323    768.29423    36500.952 
  818500    309.44536   -1492.1214    500.09093    406.32465     539.4749    36500.952 
  818600    303.26438   -1485.2628    518.57544    403.73646   -246.36639    36500.952 
  818700    296.44015   -1474.9788    503.84141    368.44841   -144.08839    36500.952 
  818800    299.41771   -1491.3188    467.89877    329.62107   -297.52749    36500.952 
  818900    299.57815   -1476.7201    487.86161    364.90759   -120.76133    36500.952 
  819000    305.36607   -1474.6765    506.94399     412.1887   -329.26077    36500.952 
  819100    293.38029   -1523.3614    504.64343    307.04062   -585.80884    36500.952 
  819200     292.7778   -1520.1753    463.12133    265.98199   -205.07563    36500.952 
  819300    292.98287   -1516.3655    507.78272    315.37985   -296.97504    36500.952 
  819400    305.78785   -1536.2572     494.3654    339.93541    266.26351    36500.952 
  819500    308.56508   -1494.9799    480.20885    379.60614    1.4735807    36500.952 
  819600    303.88645   -1478.4892    492.27686    387.02257   -602.91033    36500.952 
  819700    299.27251   -1520.5802    478.79519    310.59991   -597.30532    36500.952 
  819800    296.87823   -1509.3525    494.68216    326.89511   -439.63029    36500.952 
  819900    308.24552   -1539.4056    521.99808    375.52566    263.51293    36500.952 
  820000    305.67025   -1512.8199     520.6118    389.08766    120.77048    36500.952 
  820100    300.64315   -1504.0762    489.33185     343.8344   -330.49306    36500.952 
  820200    298.42852   -1530.6409    476.86717    294.79737   -389.16696    36500.952 
  820300    309.00672     -1464.42    493.92355    425.87652   -178.82583    36500.952 
  820400    303.91635   -1496.6682    509.32185    386.02371   -555.15807    36500.952 
  820500    298.16284   -1533.1506    477.14477    291.36468     -193.735    36500.952 
  820600    297.09647     -1493.98    486.66749    335.23906     338.2385    36500.952 
  820700    295.71399   -1484.8633    496.75102    348.19203    633.51318    36500.952 
  820800    299.14365   -1472.6859    510.02386    389.14063    538.65088    36500.952 
  820900    302.28262   -1496.7529    479.86433    349.09881    699.11139    36500.952 
  821000    306.92365    -1460.144     509.5406    436.35633    282.72629    36500.952 
  821100    304.05953   -1456.1191    525.11583    443.01381    580.76921    36500.952 
  821200    302.89418    -1473.255    479.41604    374.91205   -203.73407    36500.952 
  821300    302.05218   -1484.9708    519.27524    399.25044   -541.16909    36500.952 
  821400    301.25355   -1459.9151    504.95383    406.37579   -496.58743    36500.952 
  821500    299.59737   -1468.3259    517.69118    403.21829    321.33562    36500.952 
  821600    287.55444   -1465.8418     519.4888     353.0791    55.571073    36500.952 
  821700    298.56725   -1482.6193    500.90237    367.48105    547.71448    36500.952 
  821800    306.10055   -1481.8675    522.17055    423.54332    615.85304    36500.952 
  821900    300.89407    -1529.352    501.04583    331.40646    331.20925    36500.952 
  822000    293.76311   -1501.8634    500.73063    326.35568   -4.7509047    36500.952 
  822100    304.54986   -1484.0924    507.09451    399.23489    12.488114    36500.952 
  822200    301.42266   -1453.7631    511.79952    420.13771   -58.846105    36500.952 
  822300    297.31297    -1513.445    512.26131    342.34629   -193.43627    36500.952 
  822400    294.82782   -1474.0966    521.76094    379.96419   -34.182021    36500.952 
  822500    302.62717   -1482.8833    515.59954    400.26059    443.50793    36500.952 
  822600    302.39881   -1464.1269    536.66132    439.04681    826.60884    36500.952 
  822700    296.18241   -1505.1902    490.47525    323.70612    927.87674    36500.952 
  822800    306.08843   -1517.9075    491.08855    356.36652    828.26694    36500.952 
  822900    294.09682   -1538.6135    506.72319    297.10621    1059.6115    36500.952 
  823000    290.71088   -1521.7975    509.88568    301.78393    709.63381    36500.952 
  823100    300.30632   -1530.8229    514.37245    340.60615    1058.1349    36500.952 
  823200    293.74006   -1526.1152    517.01668    318.28582   -13.678401    36500.952 
  823300    305.11517   -1536.2254    482.38211     324.9441   -5.7051564    36500.952 
  823400    291.95718    -1534.338    505.06935    290.05894    115.53926    36500.952 
  823500    291.40211   -1509.5095    529.08795     336.3978    -169.5837    36500.952 
  823600    293.12556   -1533.7835    487.00392    277.82788     212.9809    36500.952 
  823700    301.46313   -1553.7159    512.09275    320.66108    136.45626    36500.952 
  823800    295.47682   -1512.0224    496.46216    319.67229   -53.018417    36500.952 
  823900    294.84248   -1544.4224    477.67705    265.62065    40.720182    36500.952 
  824000    300.25175   -1532.6091    528.74335    352.94426   -434.70289    36500.952 
  824100    303.93414    -1504.998    500.64091    369.09337    16.150072    36500.952 
  824200    302.72362   -1516.1398    516.92697    368.76732   -217.67282    36500.952 
  824300    294.97606   -1504.4084    513.27426    341.83559    14.983757    36500.952 
  824400    303.67283   -1500.9819    501.03627    372.32391   -41.324324    36500.952 
  824500    299.62316   -1516.5684    482.56852    319.96963    299.84566    36500.952 
  824600    311.26474    -1495.446    495.45168    406.58243   -119.45657    36500.952 
  824700    301.71566   -1489.2879    489.27824    363.41567   -630.20569    36500.952 
  824800    308.19804   -1511.7601    489.54363    370.50209   -236.15332    36500.952 
  824900    298.15602    -1521.632    480.64784    306.35547   -293.21379    36500.952 
  825000    308.89832   -1503.5931    513.87249    406.16247    96.419039    36500.952 
  825100    300.85878   -1479.9505    504.14874    383.75142   -327.07574    36500.952 
  825200    307.89696   -1521.5105    492.23246    362.08005    319.04588    36500.952 
  825300    302.55879   -1525.9168    484.34541    325.66398    265.69605    36500.952 
  825400    302.10899   -1501.4666    480.69657    344.43269    489.22865    36500.952 
  825500    299.63459   -1546.2604    494.14156    301.90234    323.97811    36500.952 
  825600    301.99919   -1551.1417    456.28857    269.85346    295.64917    36500.952 
  825700    299.87409    -1579.044    495.84774    271.90723    676.87393    36500.952 
  825800     297.9174    -1546.318     492.7865    292.72984    628.08838    36500.952 
  825900    296.83092   -1508.0012    499.49477    332.84514    189.54968    36500.952 
  826000    309.70594   -1518.9052    504.66372    385.29119    476.80862    36500.952 
  826100    307.96997   -1527.1507    505.15559     369.6929   -254.77515    36500.952 
  826200    296.72636   -1523.6134    507.84852    325.11421   -393.90579    36500.952 
  826300      294.215   -1480.3059    501.63266    350.85731   -768.62441    36500.952 
  826400    300.08056   -1526.6036    495.97282    325.40567   -575.69838    36500.952 
  826500    293.86482   -1535.7405    501.79427    294.00185   -400.14652    36500.952 
  826600    296.40924   -1470.9515    498.34016    366.83478   -531.70767    36500.952 
  826700    312.55039   -1457.6715     488.4835    443.19846   -389.21214    36500.952 
  826800    299.20397   -1494.5057    526.08983    383.65935    -141.0191    36500.952 
  826900    297.37318   -1494.0399    487.07274     336.8349    85.595443    36500.952 
  827000    305.44394   -1516.4847    498.55939    362.34776   -70.621024    36500.952 
  827100    299.15439   -1528.7497    505.51852    328.61998    275.33935    36500.952 
  827200    298.35912   -1525.7233    504.63825    327.17241   -352.15724    36500.952 
  827300    303.10192   -1536.6184    517.41276    350.48402    362.22657    36500.952 
  827400    297.13163   -1542.1427    497.96591    298.53368    53.296149    36500.952 
  827500    306.20204   -1484.5456    496.46559    395.61888     30.50161    36500.952 
  827600    300.19482    -1513.892     490.6932    333.35404    100.16303    36500.952 
  827700    312.60537   -1488.2284    482.92243    407.32895    225.16164    36500.952 
  827800    304.45299   -1500.2945    497.49642    372.99693    123.24636    36500.952 
  827900    295.75011   -1526.3359    507.14335    317.27499   -82.121718    36500.952 
  828000    298.97803    -1501.406    486.25574    335.90395    457.25945    36500.952 
  828100    286.58591   -1537.8896     477.3883    234.55406   -511.96431    36500.952 
  828200    291.97894   -1502.7934    503.01452    319.64703   -624.03174    36500.952 
  828300    298.88235   -1517.2633    476.18259    309.54116   -536.27367    36500.952 
  828400    291.99771   -1547.3133    506.67759    278.87507    58.029026    36500.952 
  828500    303.12035   -1539.2747    498.46537    328.96363   -364.36091    36500.952 
  828600    297.55831   -1539.6704    499.37283    304.34106   -467.81979    36500.952 
  828700    293.92331   -1557.6863    492.77544    263.30149   -365.38787    36500.952 
  828800    305.69363   -1523.4792     490.3521    348.27426   -717.08697    36500.952 
  828900    303.65897   -1525.1685    509.06733    356.10582   -1307.0943    36500.952 
  829000     295.6086   -1496.9819    488.51746    327.36359   -1242.5475    36500.952 
  829100    298.02448   -1477.9379    514.61564    383.42302   -422.83331    36500.952 
  829200     301.6117   -1459.5128    504.71344    408.15616   -9.0368144    36500.952 
  829300     291.1234   -1527.1493    494.17282    282.58343   -730.45227    36500.952 
  829400    308.63472   -1485.9233    502.85139    411.62005    154.41516    36500.952 
  829500    305.39566    -1479.481    501.23176     401.8057   -72.351469    36500.952 
  829600    294.63555   -1458.9112    497.45327      369.973    262.26386    36500.952 
  829700    299.93067   -1503.8812    516.89779    368.37571    150.64341    36500.952 
  829800    294.99621   -1469.4477    475.10808    338.72114    176.75852    36500.952 
  829900    308.13856   -1503.3958    516.64156    405.69556   -413.49522    36500.952 
  830000    298.71676   -1529.9902    490.07897    309.96231   -235.86169    36500.952 
  830100    294.70262   -1508.8887    492.15433    314.99968    330.87106    36500.952 
  830200    301.18843   -1538.5628    503.62138    326.10139    -196.7454    36500.952 
  830300    302.25776   -1543.3181    501.00112    323.55802    10.888491    36500.952 
  830400    307.59124   -1520.4243    499.18491    368.73712    644.78846    36500.952 
  830500     309.2656   -1517.4973    489.66207    369.70758    599.94441    36500.952 
  830600    299.47221   -1523.0838    461.83789     292.0415    160.12038    36500.952 
  830700    309.02738   -1525.9693    504.56266    375.05972    1080.5229    36500.952 
  830800    297.44981   -1536.8861    514.80411    322.06637    1342.6719    36500.952 
  830900    300.72702    -1540.391    499.64151    318.20823    783.11985    36500.952 
  831000    303.07949   -1526.8666    496.00182    338.72355    796.57253    36500.952 
  831100    300.59445   -1499.4107    487.90415    346.85216     -33.7415    36500.952 
  831200    298.85959    -1540.239    493.26657    303.54661    434.94569    36500.952 
  831300    303.40467   -1505.0536    497.58006    363.58428    139.29519    36500.952 
  831400    295.51536   -1487.0338    522.97191    371.34485    633.69971    36500.952 
  831500    299.54125   -1484.5785    508.53999     377.5609    186.59745    36500.952 
  831600    294.48457   -1499.9344    506.83629    337.65061    48.110614    36500.952 
  831700    298.46434   -1473.3212    506.35437    381.76609    -450.9228    36500.952 
  831800    312.45626   -1490.6187     500.9426    422.28505    429.25531    36500.952 
  831900    293.17929   -1531.9145    523.46628    316.40197    29.676669    36500.952 
  832000    292.41458   -1536.2699    522.70772    307.83247   -173.71659    36500.952 
  832100    299.47996   -1516.3221     504.5516    341.55184   -536.44918    36500.952 
  832200    306.86182   -1507.9868    509.97248    388.66597   -543.16247    36500.952 
  832300    296.22838   -1483.6484    469.74947    324.72985   -470.06167    36500.952 
  832400    297.93966   -1458.3919    524.99768    412.96771   -760.03659    36500.952 
  832500    311.07796   -1491.4603    507.34734    421.61969    166.85822    36500.952 
  832600    302.06855   -1490.9901    512.66283    386.69279   -167.68939    36500.952 
  832700     301.7972   -1493.7311    505.72937    375.79211   -205.65961    36500.952 
  832800    295.42787   -1505.8975    501.54228    330.65613   -279.99114    36500.952 
  832900    301.39658   -1457.0024    522.18266    427.16366   -265.27363    36500.952 
  833000    299.33765   -1438.6268    495.16166    409.21412   -348.64539    36500.952 
  833100    294.73166   -1462.3008    519.55782    389.12223     102.7294    36500.952 
  833200    301.08537   -1468.7332    531.74154    423.58539   -18.166164    36500.952 
  833300    308.82844   -1470.0284    498.18519    423.72413    308.53567    36500.952 
  833400    296.81077    -1512.257    483.32456     312.3281    894.62323    36500.952 
  833500    293.90776   -1497.0029     537.4891    368.62835    538.16707    36500.952 
  833600    300.13339   -1507.2605    493.87984    342.89456     134.7423    36500.952 
  833700    288.32732   -1497.2612     488.6881    294.35151    442.94972    36500.952 
  833800     303.0382   -1505.3334    525.21081    389.27912   -196.48412    36500.952 
  833900    285.94972   -1460.5153    499.00169    330.66693   -171.31814    36500.952 
  834000    309.66558   -1492.0061    503.90572    411.24984   -193.83187    36500.952 
  834100    292.78581   -1519.2739    494.19096    297.98923   -104.54373    36500.952 
  834200    298.54744    -1512.287    515.00502     351.8264    -109.2837    36500.952 
  834300    304.30736   -1525.3171     490.6416    340.46149     594.4803    36500.952 
  834400    291.84412   -1561.7824    507.49145    264.52578    413.18098    36500.952 
  834500    305.83731     -1539.37    487.23754    329.91824    629.25424    36500.952 
  834600    292.73261   -1544.7416    488.05949    266.14964    485.98893    36500.952 
  834700    305.74708   -1536.4813    478.00841    323.17008   -11.070219    36500.952 
  834800    290.75239   -1504.3589    494.84757    304.37198    424.91626    36500.952 
  834900    300.52793    -1530.769    464.26603    291.55516    232.47416    36500.952 
  835000    305.07051   -1500.8192    504.31151    382.07788    352.46022    36500.952 
  835100      301.317   -1494.2069    509.80476    377.22166    606.06059    36500.952 
  835200    303.08116   -1524.8347    478.61076    323.37198     688.6078    36500.952 
  835300     292.4622   -1470.3192    476.93546    328.22602    202.17489    36500.952 
  835400    299.81796   -1511.1757    528.81411    372.48826   -122.50069    36500.952 
  835500    307.12652   -1524.1119    497.80793    361.57255    242.64451    36500.952 
  835600    304.10629   -1542.1624    469.22944    301.29539    166.56345    36500.952 
  835700    298.82747   -1574.0752    493.05922    269.35787   -22.761312    36500.952 
  835800    291.79463   -1544.2708    488.92434    263.24668   -264.80801    36500.952 
  835900    296.29435   -1535.2146    494.04882    297.76115   -224.64538    36500.952 
  836000    301.41915   -1545.5496    483.85281    300.38863    239.67395    36500.952 
  836100     298.3223   -1559.1311     485.6707     274.6306    -544.6023    36500.952 
  836200    306.44448   -1510.2118    447.85887     322.4415    285.07198    36500.952 
  836300    300.49739   -1493.9244    490.62363    354.61928    89.613217    36500.952 
  836400    299.09782   -1470.3454    501.09002    382.34022    12.848497    36500.952 
  836500    293.00504    -1490.958    502.80837    335.91317    -227.1708    36500.952 
  836600    304.44675   -1518.8534    476.49756    333.41103    237.15822    36500.952 
  836700    300.44657   -1506.7084    503.71855    354.70052    706.54755    36500.952 
  836800    306.97008   -1493.3307    498.94931    392.78821    202.13932    36500.952 
  836900    311.88219   -1486.7336    483.45812    406.09152    171.64824    36500.952 
  837000    301.53976   -1490.3095    500.13387    372.45482    154.32627    36500.952 
  837100    295.05844   -1514.7399    493.00603    311.60807   -586.82231    36500.952 
  837200    302.53749   -1493.1015     501.9085    375.94611   -1224.4448    36500.952 
  837300    295.64145   -1495.6632    490.98259    331.29595   -1365.4752    36500.952 
  837400    300.08009   -1475.6667    502.19354    382.56119   -569.13257    36500.952 
  837500    304.62131   -1524.9604      487.975    339.57028   -327.54299    36500.952 
  837600    309.26071   -1493.8401    502.71694    406.39752   -397.51211    36500.952 
  837700    306.86455   -1492.7931    485.85956     379.7592    80.704778    36500.952 
  837800    294.69799   -1510.8363    524.53966    345.41644    511.42051    36500.952 
  837900    301.49475   -1507.0454    506.88545    362.26712    643.02317    36500.952 
  838000    290.09405   -1505.5472    480.55194    285.91308    395.94865    36500.952 
  838100     307.6107   -1484.8216    519.01284    424.25573     588.0863    36500.952 
  838200    298.70473   -1495.8784    477.54091    331.48175    248.20671    36500.952 
  838300    297.30832   -1507.4059    491.22027    327.32329   -110.20901    36500.952 
  838400    296.66536   -1536.9403    506.64184    310.30501   -511.15757    36500.952 
  838500    293.91485   -1490.8317    500.03446    337.37697   -103.57834    36500.952 
  838600    299.83908   -1485.9954    504.30086    373.25071    168.74019    36500.952 
  838700    311.30724    -1472.401     509.5428    443.91061     529.5254    36500.952 
  838800    297.89414   -1468.0001    516.60265    394.75883   -135.38807    36500.952 
  838900    295.19234   -1449.4757    516.14903    400.62037   -498.40348    36500.952 
  839000    296.99847   -1470.7155    512.14771    383.54098   -411.12268    36500.952 
  839100     305.9964   -1490.1045    507.78818    400.45323   -541.58354    36500.952 
  839200    298.16751   -1451.8613    505.54675    401.07706   -65.376545    36500.952 
  839300    303.92552   -1484.9693    499.37219     387.8144    -630.3309    36500.952 
  839400    298.63149   -1466.7406    495.10927    377.85696   -258.95191    36500.952 
  839500     291.1787   -1510.3609    516.59786    322.04672    153.23236    36500.952 
  839600    294.95096   -1514.9479    528.02337    345.93173    192.86736    36500.952 
  839700    303.83136   -1459.9642    525.23988    438.26164    216.83709    36500.952 
  839800    315.47057   -1481.2015    502.50876    446.88975    694.87946    36500.952 
  839900    301.46706   -1523.5069    503.90986    342.70487    340.92751    36500.952 
  840000    311.01194   -1543.3534    513.35777    375.43873    648.78764    36500.952 
  840100    308.86457   -1573.4237    504.03361    326.34053     869.2432    36500.952 
  840200    303.47599   -1514.8168    510.18373      366.747    401.33243    36500.952 
  840300    291.58829   -1533.5938    486.19161    270.25846   -240.17646    36500.952 
  840400    296.08594   -1533.0553    497.49289    302.42269   -288.35489    36500.952 
  840500    299.84339   -1517.6772    506.17689     343.4644   -556.73969    36500.952 
  840600    297.98706   -1506.0806     475.6348    316.13029    -116.8806    36500.952 
  840700    301.15668   -1524.1891    523.99366    360.70392   -225.89602    36500.952 
  840800    290.27408   -1538.0743    487.50027    261.14789    384.12178    36500.952 
  840900    303.11143   -1557.8097    500.43233    312.35534    395.03477    36500.952 
  841000    300.35708   -1569.9737    529.08929    316.40156    387.26554    36500.952 
  841100    305.93304   -1567.9858    477.85712    292.35461    196.55666    36500.952 
  841200    297.10738   -1544.5908    474.41438    272.42455   -274.64052    36500.952 
  841300    303.84252   -1564.3794    506.63706    315.29409   -633.62689    36500.952 
  841400     312.4112   -1538.3589    493.65259    367.05118    287.83988    36500.952 
  841500    294.77574   -1559.1895    519.36791    292.24285    429.13561    36500.952 
  841600     298.1081   -1586.6551    484.65942    245.12742      94.7243    36500.952 
  841700    313.81063    -1554.825    523.46718     386.7236    276.95093    36500.952 
  841800    304.55059   -1527.6693    493.82423    342.39104   -16.195629    36500.952 
  841900    305.49677   -1545.1486    479.68352    315.04672    686.13632    36500.952 
  842000    292.56296   -1555.5235    499.82232    266.36392   -78.258615    36500.952 
  842100    302.59554   -1524.8538    504.44953    346.99718    80.062479    36500.952 
  842200    301.22506   -1514.1852    515.11572    362.13888   -172.29076    36500.952 
  842300    294.52711   -1531.2416    498.54986    298.24917    31.207321    36500.952 
  842400    307.61725   -1532.7409    496.50871    353.86183    310.21204    36500.952 
  842500    307.40811   -1531.0105    477.71382    335.85231    166.21867    36500.952 
  842600    289.04249   -1555.6033    522.44944    273.00258   -132.53684    36500.952 
  842700    300.30565   -1548.2144    528.48979    337.32903   -7.9784014    36500.952 
  842800    300.01373   -1521.9581    527.91927    361.69566    220.17603    36500.952 
  842900    301.27255   -1494.3036    517.91068    385.03005    -222.8037    36500.952 
  843000    290.96734    -1540.486    477.00177    251.37036    241.20642    36500.952 
  843100    294.84397   -1591.4604    496.78109    237.69347    355.31059    36500.952 
  843200    305.96412    -1582.246    485.57151    285.94923    724.43495    36500.952 
  843300    296.17698   -1586.9382    498.11769    249.57605    176.23384    36500.952 
  843400    290.43083   -1572.0912     508.1901    248.52916    187.68808    36500.952 
  843500    303.09352   -1557.9204    493.44551    305.17684    156.11374    36500.952 
  843600    289.33543   -1577.6901    499.14164     228.9317   -972.82012    36500.952 
  843700    302.57892   -1565.4461    506.07273    307.95296   -475.23264    36500.952 
  843800    305.92605   -1578.5741     489.8438    293.72136   -338.13715    36500.952 
  843900    303.74524   -1542.1434    501.41629    331.86973   -137.16058    36500.952 
  844000    295.93103   -1529.2789    505.65242    313.65865   -602.98021    36500.952 
  844100    308.25476   -1511.5097    477.95172    359.41694   -251.03663    36500.952 
  844200     290.8196   -1511.6863    495.02742    297.52817   -103.49222    36500.952 
  844300    308.55505   -1518.9248    507.63522    383.04228   -42.935711    36500.952 
  844400    295.46046   -1465.5229    503.21062    372.84636    81.784301    36500.952 
  844500    308.43214    -1540.443    483.14651    336.48004    494.00641    36500.952 
  844600     299.6585   -1513.0918    505.20692    346.24427   -624.28734    36500.952 
  844700    289.43219   -1517.2961    506.35436    296.97574   -205.09514    36500.952 
  844800    301.77325   -1532.4735    483.09794    314.31003    -19.74674    36500.952 
  844900    294.08431   -1506.8874      474.279    296.33158    29.627362    36500.952 
  845000    304.03132   -1524.0861    480.71635    330.51985   -20.681866    36500.952 
  845100    303.41023   -1575.0521    496.63273    292.66352   -173.24528    36500.952 
  845200     292.7027   -1565.2566    490.72933    248.16936    269.59428    36500.952 
  845300    307.88529    -1523.564    481.91014     349.6515    64.401305    36500.952 
  845400    318.45831   -1495.6562     479.7975    423.22508   -323.24224    36500.952 
  845500    296.51145    -1480.311    505.69278    365.28978    285.04882    36500.952 
  845600    298.28415   -1502.0793    482.54048    328.37985   -406.81569    36500.952 
  845700    299.69808   -1511.6857    484.97023    327.59265   -284.75211    36500.952 
  845800    291.84146    -1563.208    477.85143    233.44816   -184.34361    36500.952 
  845900    299.72818   -1541.4252    492.02222    305.04113   -401.26037    36500.952 
  846000    299.38454   -1553.0008    505.94162    305.83204    40.580108    36500.952 
  846100    317.22396   -1530.1474    485.64992    389.00837    810.44632    36500.952 
  846200    288.77089   -1526.0661    504.08663    282.94965    299.29786    36500.952 
  846300    297.90138   -1553.3718    482.61899    275.43614     387.7311    36500.952 
  846400    309.73928   -1615.2852    508.44176    292.83986    785.87858    36500.952 
  846500    306.86552   -1583.6826    495.42003    298.43451    504.96969    36500.952 
  846600    292.01066   -1572.5835    470.58198    217.56784   -194.34653    36500.952 
  846700    288.93676   -1550.2633    496.85746    252.27281   -67.959483    36500.952 
  846800    307.58924   -1530.7536    516.69225    375.90611   -679.86082    36500.952 
  846900    298.52986   -1562.1413    460.23149    247.11919   -692.85278    36500.952 
  847000    299.83267   -1537.2728    491.08736    308.73084    -1256.906    36500.952 
  847100    300.40352   -1563.9059    473.60704    267.19703     -658.336    36500.952 
  847200    306.81487   -1569.3339    484.34552    301.47979   -581.91133    36500.952 
  847300    295.10006    -1567.619    483.29133    249.20233    -227.8193    36500.952 
  847400    305.87344   -1534.8709    491.97273    339.31578   -57.747744    36500.952 
  847500    303.99664   -1535.0068    479.71557    318.44158   -13.426679    36500.952 
  847600    301.74115    -1539.598    514.78938    338.73192   -643.66596    36500.952 
  847700    295.28026   -1541.2542    490.09458    283.18473   -570.06127    36500.952 
  847800    308.13717   -1495.8573    477.11166    373.69793    -269.7363    36500.952 
  847900    297.69487   -1523.1054    479.02933    301.17964   -33.177868    36500.952 
  848000    287.01146    -1526.627    500.75345    271.10481    62.045133    36500.952 
  848100    302.56985   -1512.4736    473.39654    328.20827    159.95668    36500.952 
  848200    301.35204   -1553.3029    495.95992    304.43915    1.8501367    36500.952 
  848300    295.28758   -1532.1744     521.2975    323.50051    211.29411    36500.952 
  848400    310.40199   -1523.4275       494.74    373.99062    117.66439    36500.952 
  848500    299.63487   -1533.4669    508.34103    328.89658     463.7025    36500.952 
  848600    305.44412   -1542.8557    492.67554    330.09375    519.22539    36500.952 
  848700    291.94034    -1577.187     476.1513    218.21587   -52.256651    36500.952 
  848800     304.1984   -1570.2144    496.42152    300.85167    212.39873    36500.952 
  848900    308.60665   -1571.6621    501.32219     324.2252   -516.33403    36500.952 
  849000    292.13219   -1539.4951    486.06037    266.68379   -242.48198    36500.952 
  849100     301.5691   -1550.4453    469.38615    281.70391   -470.22751    36500.952 
  849200    297.07128   -1545.0159    489.20458     286.6265   -458.12405    36500.952 
  849300    310.01434   -1509.5562    517.29952    408.66956   -16.121167    36500.952 
  849400    300.21176   -1549.2439    510.53166    317.91713   -595.72068    36500.952 
  849500    293.57792   -1542.5505    482.61345    266.71453    121.99359    36500.952 
  849600    306.77752   -1530.2034    489.18173    345.27767   -525.24959    36500.952 
  849700    317.38616   -1491.8063    508.42606    450.85861   -964.54096    36500.952 
  849800    295.50137   -1485.8091    485.42143    334.95586   -603.48518    36500.952 
  849900    303.92221   -1518.5692    471.58404    326.41138   -600.83343    36500.952 
  850000    294.86855   -1493.7022    491.13103     329.9127   -355.82167    36500.952 
  850100     305.8121   -1519.0345    510.87712    373.77937    -607.0421    36500.952 
  850200    300.93982    -1513.127    468.35996    315.15235   -571.45232    36500.952 
  850300    292.05679   -1526.4479    472.06843    265.39833   -526.35541    36500.952 
  850400    299.34922   -1466.2052    487.20119     373.7276   -188.59104    36500.952 
  850500    294.43628   -1489.4981    512.07092    353.10333    314.57297    36500.952 
  850600    300.87988   -1514.6826    494.62774    339.59368    482.99612    36500.952 
  850700     291.8145   -1515.5708    506.91314    310.02519    390.09067    36500.952 
  850800    298.11837   -1474.5283    492.22112    364.86227    45.996905    36500.952 
  850900    289.03294   -1483.2185    524.57451    347.46934    285.34515    36500.952 
  851000    294.17471   -1498.9916    504.90391    335.26079    -158.9865    36500.952 
  851100    301.61409   -1534.6542    492.00027    320.31243   -193.37406    36500.952 
  851200    307.32278   -1491.5987    509.73871    406.90339   -336.68185    36500.952 
  851300     304.8783   -1501.4305    510.34384    386.63032   -1002.1372    36500.952 
  851400    295.20021   -1547.5734    496.62412    283.03336   -639.74152    36500.952 
  851500    298.77654   -1535.1218    475.26899    290.29086   -859.09971    36500.952 
  851600    300.18065   -1538.1139    477.62319    295.99807   -450.36413    36500.952 
  851700    307.22684   -1562.1519    500.76856    326.94648   -157.57947    36500.952 
  851800    295.43166      -1493.7    490.41071    331.73918   -560.22107    36500.952 
  851900    298.15141   -1530.4905    476.57417    293.40244   -224.47431    36500.952 
  852000     293.9373   -1517.4418    503.19887    314.03266   -171.41511    36500.952 
  852100    295.11917   -1498.9432    495.36909    330.04225    359.46765    36500.952 
  852200    296.73157   -1515.2569    518.23251    343.87824   -223.61561    36500.952 
  852300    288.59929   -1526.7621    525.37979    302.77133   -296.97987    36500.952 
  852400     311.2941    -1532.134    489.94511    364.52053    59.475958    36500.952 
  852500    297.81539    -1503.864    505.72606    347.66238   -37.930257    36500.952 
  852600    296.96282   -1529.1777    500.48258    313.25257    301.81867    36500.952 
  852700    290.70772   -1520.5221    497.30848    290.46781   -172.27426    36500.952 
  852800    302.48997    -1516.791    488.57179    338.70517    230.20572    36500.952 
  852900    298.76789   -1508.2561    518.40985    360.25831    115.07566    36500.952 
  853000    301.38237   -1513.8923    479.81188    327.83877   -112.78395    36500.952 
  853100    308.00841   -1471.9306     491.3804    411.31146   -245.39415    36500.952 
  853200     294.8837   -1522.7809    489.08076    298.85218   -286.61869    36500.952 
  853300    297.22092   -1505.8756    499.09799    336.33645   -416.24595    36500.952 
  853400    295.49975   -1486.0687    492.55577    341.82323   -556.87385    36500.952 
  853500    294.97562   -1514.5714    504.80881     323.2051   -149.72682    36500.952 
  853600    306.95309   -1519.7426    484.09558    351.44578   -315.81971    36500.952 
  853700    294.77036   -1486.2631    503.72957    349.50664   -399.95719    36500.952 
  853800    288.54119   -1524.3078    495.54411    275.12738   -570.92594    36500.952 
  853900    303.74957   -1470.7876    474.34405    376.17275    2.1883284    36500.952 
  854000    305.77264   -1472.9144    506.63121    415.47528   -128.26769    36500.952 
  854100    303.14216   -1484.5592    483.58875     368.9011   -83.777608    36500.952 
  854200    302.93745   -1508.6676    501.25893     361.5378   -41.621557    36500.952 
  854300    293.15944   -1537.0543    481.82524    269.53146    92.711674    36500.952 
  854400    307.18559   -1526.6854    504.93265     366.3907   -62.268374    36500.952 
  854500    294.15027   -1509.2719     475.7034    295.66954   -659.12468    36500.952 
  854600    290.85699   -1495.0608    487.36892    306.66412   -728.86287    36500.952 
  854700    296.74453   -1506.6354     511.1091    345.43493   -382.83276    36500.952 
  854800    302.20947    -1504.946    497.48899    358.19977   -238.44742    36500.952 
  854900    295.64298   -1521.6706    477.30278    291.61556   -121.53427    36500.952 
  855000    303.97259   -1497.8642    489.69596    365.45587   -44.602878    36500.952 
  855100     303.5727   -1499.5651    489.84242    362.09443    -259.5763    36500.952 
  855200    296.21189   -1448.7154    513.66071    403.49958   -196.94685    36500.952 
  855300    308.64036   -1451.6596    504.74405    447.80179    196.02054    36500.952 
  855400    295.73777    -1497.405    501.22226    340.22909    228.77925    36500.952 
  855500     303.1224    -1513.601    490.88368    347.06487    -133.3018    36500.952 
  855600    312.98623   -1508.4029    488.70203    394.65508    624.88697    36500.952 
  855700    296.48924   -1517.2806    485.94724    308.47426     -253.742    36500.952 
  855800     308.6994   -1459.8726    492.46949    427.58112   -390.21306    36500.952 
  855900    296.30068   -1519.9669    504.89313    323.88175    55.318227    36500.952 
  856000    292.26163   -1535.1383     512.4093    297.97445    79.647896    36500.952 
  856100    289.56256   -1534.7741    525.04722    298.77969    345.58512    36500.952 
  856200    295.41624   -1548.3788     487.6387    274.21871    238.83123    36500.952 
  856300    303.20179   -1516.8557    505.63506    358.92038     42.95375    36500.952 
  856400    294.31333   -1557.8506     483.0066    255.13085    -110.0311    36500.952 
  856500    305.36578   -1540.9911    491.40607    330.33489    444.28786    36500.952 
  856600     291.1049   -1539.2495    495.67414    271.90086    413.80278    36500.952 
  856700    292.99528   -1534.0711    490.17537    280.12296    833.31168    36500.952 
  856800    298.58311   -1519.3149    477.34411    307.29881    242.65507    36500.952 
  856900    309.90787   -1496.4379    488.26293     392.2702    364.41739    36500.952 
  857000    300.98119   -1549.4819    486.02428    296.64868   -190.12425    36500.952 
  857100    287.76611   -1519.1109     486.3033    267.58103   -407.47553    36500.952 
  857200     293.5741   -1502.2591    482.28092    306.65614   -317.62785    36500.952 
  857300    293.88334   -1493.5595    490.50101    324.97324    -251.1859    36500.952 
  857400    293.73592   -1505.9163     502.1769    323.62615      405.605    36500.952 
  857500     300.3009   -1509.2261    495.10913    342.91521   -227.51208    36500.952 
  857600    287.21616   -1508.2292    494.92371    284.59796    -386.8189    36500.952 
  857700    298.21409   -1480.7009    507.53367    374.43484   -124.15156    36500.952 
  857800    297.58892   -1460.5676    495.86506     380.0744    66.389953    36500.952 
  857900    303.14611     -1475.95    490.31104    384.25044    602.97101    36500.952 
  858000    293.94026   -1505.9313    514.54115    336.89883   -6.0594719    36500.952 
  858100    301.72067     -1520.12    515.29489    358.62285   -75.053833    36500.952 
  858200    292.92424   -1513.7626    496.78092    306.71601   -159.98752    36500.952 
  858300    298.96898   -1467.8711    517.36634    400.50861    -827.5475    36500.952 
  858400    296.99271   -1448.3409    500.99439    394.73622   -473.89345    36500.952 
  858500    298.66996    -1448.381    496.53866    397.81973   -275.06704    36500.952 
  858600    306.93188   -1467.3423    530.54948    450.20412    550.13454    36500.952 
  858700    292.23286   -1488.2037    493.36899    325.73873   -9.8916794    36500.952 
  858800    304.22482    -1442.624    503.87138    436.01137   -511.84296    36500.952 
  858900    303.55252   -1431.6902    531.85603    471.89178    90.730498    36500.952 
  859000    299.73258    -1461.995    531.74577    424.21471    592.85131    36500.952 
  859100    310.83147   -1422.0951    528.11992    510.64369    565.29268    36500.952 
  859200    304.67191   -1443.1976    512.75491    446.34171    170.96287    36500.952 
  859300     294.9848     -1433.39    509.05497    408.67421   -312.22987    36500.952 
  859400    302.70982   -1434.2494    506.82291    440.49134   -946.25384    36500.952 
  859500    312.30019   -1413.5603    503.72628    501.42181   -1070.9701    36500.952 
  859600    306.97763   -1424.5681    518.32711    480.96269   -1718.2679    36500.952 
  859700    300.25754   -1449.4032    485.67497    393.10793   -658.81918    36500.952 
  859800    295.90843     -1452.31    530.60338    415.47634   -435.84348    36500.952 
  859900    301.16751   -1398.7636    495.71618    457.90084   -617.02815    36500.952 
  860000      299.314   -1414.1161    492.26857    430.72489   -719.77784    36500.952 
  860100    303.11746   -1439.9973    526.17755    455.94019   -851.02193    36500.952 
  860200    295.50569   -1438.3905    537.55565    434.52822   -163.47097    36500.952 
  860300    293.67559    -1477.659    507.08942    356.52342    470.71964    36500.952 
  860400    298.06783   -1487.9085    501.94056    360.97318   -219.15048    36500.952 
  860500    300.86419   -1504.0621    490.94499     346.4605   -40.658998    36500.952 
  860600    292.93125   -1470.1392    490.82063     344.4108    111.36811    36500.952 
  860700    300.20314   -1513.0391    506.13141    349.68274    297.95259    36500.952 
  860800     288.2245   -1485.6096    501.65603    318.50646    181.28554    36500.952 
  860900    308.96507   -1493.4962    497.13693    399.82546    370.82585    36500.952 
  861000    296.71966   -1515.4788    511.49918    336.86924    763.65362    36500.952 
  861100    308.15991   -1466.9767    508.30824    433.87788    808.30941    36500.952 
  861200    290.48503   -1468.8324    511.11232    354.95509    422.41818    36500.952 
  861300    307.67797   -1489.4413    512.59146    413.51863     5.803799    36500.952 
  861400    305.73196    -1473.025     493.4005    401.95012    797.99217    36500.952 
  861500    294.68624    -1516.893    515.49305    330.26005    536.23007    36500.952 
  861600    294.86541   -1502.9811       504.24    333.72854    444.65666    36500.952 
  861700    295.76288    -1466.945    511.86165    381.44187   -434.80165    36500.952 
  861800    300.81434   -1498.6704    501.65784    362.33973   -82.241479    36500.952 
  861900    296.35151    -1496.897    511.95275    354.24093   -261.89272    36500.952 
  862000    293.19947    -1522.291    474.03789     276.6883   -491.23362    36500.952 
  862100    299.83605   -1472.8473    518.61978    400.70405   -176.30362    36500.952 
  862200    308.50979   -1450.0396    485.46308    429.55087    245.76359    36500.952 
  862300      295.832   -1452.7417    514.71422    398.81013    598.26132    36500.952 
  862400    304.63868   -1451.8738    501.02893    425.78935    80.399188    36500.952 
  862500    305.07985   -1450.4537    501.46996    429.64404   -172.58191    36500.952 
  862600    294.19161   -1469.5164    488.34674    348.25514    176.18131    36500.952 
  862700    309.04728   -1452.4872    502.20819    446.27722    922.00868    36500.952 
  862800    307.95299   -1473.2201    502.63467    421.02587    507.82599    36500.952 
  862900    295.41862   -1509.5646    500.95714    326.36211    719.43309    36500.952 
  863000    309.76322   -1457.1057    500.49898    443.18482    1311.0639    36500.952 
  863100     292.0881    -1450.061    506.90589    376.76419     803.8704    36500.952 
  863200    310.97168   -1491.7475    505.06832    418.57321    827.68005    36500.952 
  863300     294.8189   -1493.6904    513.31713    351.88623    1102.4335    36500.952 
  863400    296.82017   -1456.4262    508.53497    393.41188    622.38665    36500.952 
  863500    292.87617    -1477.852    526.93645    372.56495    120.58282    36500.952 
  863600    308.76559   -1466.5406    503.63941    432.38212   -205.32216    36500.952 
  863700     307.2605    -1430.175    512.49812    470.80506    -307.8897    36500.952 
  863800    295.77409   -1449.5982    468.16162    355.13932    -427.2804    36500.952 
  863900    303.43936   -1457.6382    502.45579     416.0321    106.27146    36500.952 
  864000    303.95779   -1468.7889    501.39167    406.16007   -126.18794    36500.952 
  864100    288.62256   -1490.8658    492.94399    306.33702   -120.69128    36500.952 
  864200    302.98422   -1461.3602    502.19434    409.99193   -152.08497    36500.952 
  864300    293.05838    -1537.803    506.30163    292.80247    272.66105    36500.952 
  864400    304.31467   -1518.2117     483.1952    340.15354    307.13195    36500.952 
  864500    294.06362   -1503.0606     504.7605    330.54635   -136.50114    36500.952 
  864600    302.18629   -1520.8665    491.30594     335.9915   -387.29976    36500.952 
  864700    300.62586   -1498.5262     504.3746    364.34906   -148.94324    36500.952 
  864800    305.40248   -1479.4826    491.20808     391.8112    572.43506    36500.952 
  864900    298.86593   -1513.6874    491.75093    328.61119   -123.61093    36500.952 
  865000    310.15189   -1503.6081    460.43958     358.3794    292.73069    36500.952 
  865100    303.49063   -1525.9455    500.73919    346.23994   -257.32929    36500.952 
  865200    297.71617   -1513.6036    514.83644    346.58489   -233.72881    36500.952 
  865300    306.73673   -1531.5011    485.83586    340.44984   -255.24882    36500.952 
  865400    303.77294    -1522.395     493.4767    343.80369    86.561157    36500.952 
  865500    287.41783     -1506.07    507.16389    299.90865    126.76256    36500.952 
  865600     307.5121   -1480.1075    503.41844    412.92986    472.68821    36500.952 
  865700    307.25059   -1477.3003     487.3592      398.496   -123.09741    36500.952 
  865800    301.68173   -1525.6701     506.9738    344.57571    454.58472    36500.952 
  865900    289.94402   -1522.0798     488.1254    276.27593    427.87118    36500.952 
  866000    303.94672   -1507.4476    500.70164    366.76138    320.64671    36500.952 
  866100    297.49426    -1491.885    509.82733    362.29151    123.15173    36500.952 
  866200    301.59993   -1520.3242     483.5435    326.12169     101.9864    36500.952 
  866300    303.41716   -1487.8408    506.22704    389.50048   -577.35147    36500.952 
  866400    290.08359   -1495.6028    493.18928    308.44754   -21.886091    36500.952 
  866500    292.15757   -1477.4776    536.53791    379.29356    278.38346    36500.952 
  866600    301.61662   -1492.8748    480.08541    350.18837    534.80155    36500.952 
  866700    297.88983   -1467.8185    537.79709    416.11537    753.46424    36500.952 
  866800    299.30754   -1459.1612    505.15755    398.53965    820.50868    36500.952 
  866900    301.85204   -1458.4694    487.12542    392.69762    -157.1392    36500.952 
  867000    300.75172   -1424.3007    502.43746    437.20614     124.4428    36500.952 
  867100    293.78815   -1411.1941    519.45604    435.86361   -569.68115    36500.952 
  867200    306.77018   -1435.0663    509.70782     460.9078    58.038951    36500.952 
  867300    299.32704   -1481.8571    487.13737    357.91165   -29.945797    36500.952 
  867400    299.54897    -1449.986     521.8328    425.48107   -626.28746    36500.952 
  867500    302.91938   -1451.0179    511.11481    428.96174   -601.26051    36500.952 
  867600    292.34928   -1444.5236    501.58131    378.15718    178.83835    36500.952 
  867700    312.39783   -1435.9489    515.96903    491.71724    373.73711    36500.952 
  867800    305.30386   -1403.5581    494.08802    470.16999    403.51649    36500.952 
  867900    308.01199   -1450.8836    479.18345    420.17768    714.05395    36500.952 
  868000      296.669   -1481.0132    489.61424    349.22101    257.64742    36500.952 
  868100    293.10196   -1486.4943    502.06543    340.07192    751.84153    36500.952 
  868200    299.78117   -1489.7776    496.33364    361.23953    840.08783    36500.952 
  868300    295.75436   -1493.3838    483.23654    326.33945    484.33753    36500.952 
  868400    297.59392   -1490.3433    476.72725    331.18353    72.495312    36500.952 
  868500    303.71562   -1452.1929    487.41356    407.68357    6.1887605    36500.952 
  868600    295.56955   -1479.8072    489.00105     344.8454   -150.88665    36500.952 
  868700    306.03669   -1463.0205    485.38191    405.31303   -642.39002    36500.952 
  868800    294.89754   -1459.8733    510.68924    383.43084     -334.091    36500.952 
  868900     293.5013    -1467.757    482.54722    341.09557   -332.53134    36500.952 
  869000    302.53444   -1487.4752     471.7847    351.43487   -500.44495    36500.952 
  869100    301.29245   -1468.8605    514.55028     407.2027    241.98492    36500.952 
  869200     306.3303   -1450.0387    507.48531     441.7251   -366.57366    36500.952 
  869300    300.31502   -1484.5421    481.12487    353.67869   -397.37665    36500.952 
  869400    300.83757   -1477.7742    493.31685    374.99995    39.954822    36500.952 
  869500    299.92886    -1484.413    497.98454    368.92254    553.00258    36500.952 
  869600    299.28949   -1501.5767    498.34348    349.22839    613.21167    36500.952 
  869700    299.24417   -1506.7249      476.006      321.538    653.23491    36500.952 
  869800    307.38099   -1527.9082    479.79843    340.91662     557.2738    36500.952 
  869900    296.61466    -1500.301    496.91668    336.99004    194.98777    36500.952 
  870000    292.20814    -1511.302     490.3299    299.48959   -275.84545    36500.952 
  870100    303.84975   -1513.7599    497.89976    357.20896   -245.39176    36500.952 
  870200    299.53932   -1537.6543     488.1672    304.10351   -256.93237    36500.952 
  870300    301.45798   -1515.4389    476.50537    323.32733   -213.79741    36500.952 
  870400    294.57694   -1502.7674    489.34286    317.74153    350.51626    36500.952 
  870500    302.72182    -1491.725    495.65986    371.90696    292.50897    36500.952 
  870600    292.19876   -1485.6385     515.8934    350.67426    308.25595    36500.952 
  870700     297.5741   -1480.2309    494.26109    358.74012    603.17086    36500.952 
  870800    305.82837   -1501.2666    503.11853    383.86219    110.18899    36500.952 
  870900    316.94904   -1517.9562    523.03449    437.34188    169.00238    36500.952 
  871000    300.45064   -1505.0605    499.65505    352.30334   -125.43432    36500.952 
  871100     295.4626   -1481.0895    478.38664    332.46547    -454.9893    36500.952 
  871200    291.11815   -1473.9663    510.29051    351.86029   -454.60407    36500.952 
  871300    294.16776    -1500.917    487.18124    315.58135   -186.91369    36500.952 
  871400     302.8841   -1483.5276    473.84344    359.02124    430.27569    36500.952 
  871500    309.79338   -1507.4318    482.41943    374.91538    265.01114    36500.952 
  871600    310.07996   -1522.3678    488.83444     367.6894    715.27224    36500.952 
  871700    297.19722   -1520.7692    474.87727    297.11501    163.43457    36500.952 
  871800     305.0559    -1488.733    506.84568    396.63225     157.0747    36500.952 
  871900    290.83175    -1463.374    479.20252    330.07044   -10.592536    36500.952 
  872000    292.81931   -1524.3616    479.06565    277.92755    -255.5785    36500.952 
  872100    314.29178   -1489.0777    506.24437    437.42236    245.16674    36500.952 
  872200    297.52714   -1478.8589    504.57586    370.21477    115.84906    36500.952 
  872300    288.72575   -1483.7087    508.69658    329.71299    257.50324    36500.952 
  872400    295.07415   -1516.1749    475.33116    292.56924   -578.65593    36500.952 
  872500    295.16717   -1503.8721    470.35647    300.31761   -203.19417    36500.952 
  872600    288.32176   -1475.9739     483.1156    310.04126   -342.70227    36500.952 
  872700    310.17123   -1505.9849    467.71495    363.36531    314.25351    36500.952 
  872800    294.71528   -1495.0501    489.44333    326.18447   -18.318032    36500.952 
  872900    299.27963   -1510.9314    475.62511    317.11087    -638.6323    36500.952 
  873000    310.51698   -1528.2664    478.48274    353.41399    163.51217    36500.952 
  873100    306.95375    -1489.018    460.88459    358.96237    232.10585    36500.952 
  873200    301.40506   -1491.2903     494.6911    365.42257   -31.078621    36500.952 
  873300    302.97469   -1487.5579    475.05008    356.60692   -125.68056    36500.952 
  873400    295.11352   -1489.5122    485.09069    329.16934   -343.88637    36500.952 
  873500    290.80723   -1436.3754    508.06072    385.81646   -259.97055    36500.952 
  873600    293.34148   -1461.5813    464.39695    328.39884   -21.725306    36500.952 
  873700     297.9978   -1502.5482    484.90942    328.98593   -324.22507    36500.952 
  873800    283.92069   -1509.6985    519.87803    293.19105    290.86396    36500.952 
  873900    311.16671   -1518.6191    497.32555    384.84019       561.56    36500.952 
  874000     305.3348    -1497.057    493.26417    375.98704    592.49152    36500.952 
  874100    310.07431   -1506.7026    479.43644    373.93112    143.44186    36500.952 
  874200    288.87256   -1509.3455     483.4235    279.46656     300.9649    36500.952 
  874300    296.90725   -1502.8217    474.60374    313.47857    299.36813    36500.952 
  874400    302.29749   -1469.9591    484.21514    380.31055   -189.86264    36500.952 
  874500    297.07975   -1484.5652    497.73391     355.6448   -199.00996    36500.952 
  874600    296.96802   -1503.8446     488.6589    326.78544   -324.16559    36500.952 
  874700    292.80023   -1494.0192    498.29217    327.41028   -40.571408    36500.952 
  874800    313.93555   -1482.1249    483.93249    420.45342   -271.11794    36500.952 
  874900    300.38075   -1464.1125    516.71905    409.99955   -82.998014    36500.952 
  875000    296.25258   -1468.8274    504.35145    374.26225   -124.36437    36500.952 
  875100    311.35206   -1436.1029    529.67164    500.54003     475.1589    36500.952 
  875200    306.73053   -1458.1361    509.34707    437.29808    263.10678    36500.952 
  875300    300.74243   -1536.0204     504.5187    327.52569    552.23517    36500.952 
  875400    297.92485   -1533.7102    491.46338    304.04817    342.34482    36500.952 
  875500    297.40224   -1465.4846    483.53779    361.98657    8.2275764    36500.952 
  875600    299.85342   -1469.6413    503.38222    388.75093    18.173655    36500.952 
  875700     293.1877   -1456.8886    469.81581     337.8154    364.20451    36500.952 
  875800    306.03177   -1439.0431    505.10356    448.98988   -192.24451    36500.952 
  875900    303.83652   -1444.2786    479.50186    408.23251   -212.13041    36500.952 
  876000    310.29338   -1457.3814    504.96395    449.76978    179.85594    36500.952 
  876100    293.59307   -1471.3156    476.28339    331.68783    163.48577    36500.952 
  876200    297.65154   -1525.5154    508.20632    327.75092    732.47096    36500.952 
  876300    298.63783   -1529.7424    472.90513    292.67968    819.88968    36500.952 
  876400    309.14926   -1503.5103      471.218    364.72479    520.76303    36500.952 
  876500    307.56428   -1474.5954    503.32098    418.58031   -189.56975    36500.952 
  876600    303.81046    -1485.891    502.65667    389.65724    19.536851    36500.952 
  876700    294.52405   -1490.2354    494.05257    334.74423    88.550461    36500.952 
  876800    290.87243   -1497.0856    514.93909    332.27928    95.847269    36500.952 
  876900     292.9352   -1450.6016    503.22307    376.36867   -78.359016    36500.952 
  877000    298.83548   -1447.5369    495.00404    397.87715    296.69828    36500.952 
  877100    296.13252    -1485.873    492.66093    344.98359    -185.2762    36500.952 
  877200    303.00824   -1430.3401    468.76277    407.68904   -9.6379856    36500.952 
  877300    310.42672   -1458.5153    496.52582    440.80031   -19.172271    36500.952 
  877400    298.10261   -1505.7734     484.0368    325.36167   -139.42526    36500.952 
  877500    297.71616    -1477.602    491.50366    359.25363   -38.599024    36500.952 
  877600    295.24703   -1462.7212    491.12642    362.59943   -270.21181    36500.952 
  877700    299.19744    -1473.412    498.17833    376.81205    70.921867    36500.952 
  877800     308.8252   -1472.1989    512.08307    435.43686    47.597618    36500.952 
  877900    299.48732   -1464.6437    494.56369    383.27561    597.80026    36500.952 
  878000    286.21215    -1457.648    489.87596    325.59434    281.88702    36500.952 
  878100    310.31287   -1490.2744    500.57115    412.57206    1000.3405    36500.952 
  878200     303.6047    -1494.194    471.56305    349.33073    905.83742    36500.952 
  878300    306.80831   -1479.8569    483.56541    390.14706    629.49405    36500.952 
  878400     298.0679   -1451.4822    515.05782    410.51706    115.95937    36500.952 
  878500    305.61267   -1480.9496    489.28449     389.3704   -280.23646    36500.952 
  878600    303.83757   -1458.9926    506.66846    420.68989    373.29342    36500.952 
  878700    288.15161   -1467.3118    482.56276    317.38157   -243.78009    36500.952 
  878800    294.82186   -1468.9966    522.29059     385.5669   -204.60154    36500.952 
  878900     289.4308    -1502.388    479.49703    285.02025   -233.09341    36500.952 
  879000    312.72569   -1518.2076    490.61849    385.58954    117.69427    36500.952 
  879100    291.33584   -1470.7441    488.19546    333.97123     902.6623    36500.952 
  879200    300.40821   -1494.3358    509.01178    372.19304    1331.9237    36500.952 
  879300    296.04977    -1517.901    520.90408    340.82481    1267.0093    36500.952 
  879400    298.60425   -1512.4624    522.22678    359.12953    322.19919    36500.952 
  879500    290.96277   -1486.7798    517.58393     345.6381    181.63874    36500.952 
  879600    302.14994   -1511.3916    490.94337    344.93959   -76.202725    36500.952 
  879700    292.04779   -1499.7139     472.5653    292.58847   -323.17772    36500.952 
  879800    309.99828   -1481.4036    492.49673    411.94689   -153.35962    36500.952 
  879900    288.55618   -1499.5837    508.36083    312.73598    190.31649    36500.952 
  880000    305.31008    -1509.036    494.71678    365.34896    323.06714    36500.952 
  880100    302.07498   -1558.4092    517.80941    324.44925    66.005608    36500.952 
  880200    295.19198   -1540.0709    473.96418    267.83863    206.92823    36500.952 
  880300    297.94973   -1513.1494    487.31717    320.57521    117.54894    36500.952 
  880400    293.57142   -1503.9118    515.70887    338.41935     -272.218    36500.952 
  880500    308.97254   -1491.3313    505.06547    409.95265   -134.13606    36500.952 
  880600    299.16058   -1515.5164     476.3167     312.6794   -354.02949    36500.952 
  880700    300.53999   -1513.2691    477.25612    322.09962   -494.11802    36500.952 
  880800    299.12821   -1523.9638    498.50986    326.27898   -48.595972    36500.952 
  880900    309.63871   -1525.6568    491.63558    365.20765   -68.168844    36500.952 
  881000    298.96734   -1495.8131     496.6328    351.82561     104.4906    36500.952 
  881100    290.05339   -1525.2508    521.79883    307.27264    154.90702    36500.952 
  881200    295.58753   -1490.6345    494.46682     339.5652    230.34738    36500.952 
  881300    301.52281    -1486.294    533.05159    409.31144     394.3389    36500.952 
  881400    290.69669   -1489.5733    491.20502    315.26334    358.36943    36500.952 
  881500    294.75046   -1497.7838    485.51489    319.68129     259.2698    36500.952 
  881600    303.74091   -1509.8521    494.66262    357.38775    619.22664    36500.952 
  881700     294.2391   -1530.3448      480.132    279.42661    525.19025    36500.952 
  881800    300.02891   -1550.1186    484.45673    290.14117    695.51411    36500.952 
  881900    300.99189   -1503.6451    500.00335    356.51295    321.37913    36500.952 
  882000    298.92494   -1514.7238     488.5712    324.66167    188.14877    36500.952 
  882100    316.87506    -1533.532    508.93855    407.33576    276.89599    36500.952 
  882200    296.85009   -1518.1693    485.34976     308.6187    258.99868    36500.952 
  882300    295.81776   -1530.2995    479.75374     286.2275   -66.154539    36500.952 
  882400       304.16    -1507.446    510.57161    377.59668     195.4237    36500.952 
  882500    298.08122    -1478.981    517.29964    385.32022   -353.60953    36500.952 
  882600    294.64957   -1481.7233    492.46106    342.23206   -615.65244    36500.952 
  882700     305.2726   -1530.4455    533.24529    382.29858    -387.6184    36500.952 
  882800    298.38084   -1514.6755    484.37471    318.05476   -474.56346    36500.952 
  882900    298.47009   -1507.0552    491.32366    333.02731   -421.35684    36500.952 
  883000    300.62551   -1510.0192    481.77396    330.25381   -525.32022    36500.952 
  883100    303.05491   -1526.6396    496.87643    339.71413    -435.2027    36500.952 
  883200    307.66541   -1480.5104    522.57961    432.38094   -251.51987    36500.952 
  883300    308.68806    -1505.791    490.96507    380.10705   -489.73716    36500.952 
  883400    293.65649   -1499.2754    481.25571    308.98704   -457.05705    36500.952 
  883500    298.10853   -1487.6944    522.10638    381.53706   -12.422678    36500.952 
  883600    294.65577   -1505.9052    489.58857    315.20571   -357.14313    36500.952 
  883700    304.07006   -1497.7671    501.66213    377.95964   -387.15845    36500.952 
  883800    308.59717   -1491.3011    469.11467    372.33583    27.583323    36500.952 
  883900    294.70967   -1487.8058    477.81637    321.77649   -174.21988    36500.952 
  884000     307.1507   -1513.9551    477.11983     351.1505   -205.17404    36500.952 
  884100     298.7103   -1507.2621    473.61372    316.19602   -208.22391    36500.952 
  884200    294.15296   -1482.8257    493.75888     340.1833   -326.40653    36500.952 
  884300    285.25476   -1500.8632    463.66629    251.84316   -352.02984    36500.952 
  884400    300.26469   -1525.9325     508.8344    339.77043   -661.60997    36500.952 
  884500    288.68743   -1518.5476    491.28793    277.29229   -599.01367    36500.952 
  884600    309.22373   -1534.9248    489.88792    352.31676   -235.29712    36500.952 
  884700    300.36186   -1482.1374    482.70577    357.87599    44.675693    36500.952 
  884800    301.60275   -1502.9382    489.70722    349.68411   -298.85341    36500.952 
  884900    293.91632   -1532.4543    487.60612    283.33265    109.99417    36500.952 
  885000     297.3965   -1581.1533     487.2541    250.00828    264.56655    36500.952 
  885100    306.50097   -1586.6578    480.20007    278.59194   -145.16378    36500.952 
  885200    309.30072   -1522.4772    487.09869    362.32297   -58.254273    36500.952 
  885300    291.66481    -1559.383    487.34064    245.96408   -114.14003    36500.952 
  885400    314.30751   -1546.4918    494.09706    367.93203   -392.75592    36500.952 
  885500    305.08859    -1544.739    461.26229    295.19054   -5.6748773    36500.952 
  885600    297.10049   -1548.4684    488.98835    283.08972    27.734921    36500.952 
  885700    304.42455   -1591.3543    476.58063    260.89293   -69.858865    36500.952 
  885800     302.1346   -1569.3668    489.92462    285.87626   -221.06257    36500.952 
  885900    303.49756   -1571.5588    472.68319    272.60198     -366.813    36500.952 
  886000    304.06395   -1564.0796    514.57194    324.52935   -126.79996    36500.952 
  886100     303.7756   -1515.6124    491.26971    348.39127    59.702049    36500.952 
  886200    287.09645   -1515.1261    524.05168    306.28805   -337.99579    36500.952 
  886300    288.52734    -1532.751    494.79807    265.87557   -544.51603    36500.952 
  886400    299.09526   -1532.9976    509.48771    328.07412   -261.20263    36500.952 
  886500    307.38168    -1525.426    506.76898    370.37255       251.26    36500.952 
  886600    295.35296   -1540.1644    483.92379     278.4323    321.50763    36500.952 
  886700    295.01349    -1517.592    484.17855    299.72537    111.88262    36500.952 
  886800    289.87325   -1533.2473    481.40533    258.06859    3.8354171    36500.952 
  886900       304.13   -1551.8169    480.41681    302.93538   -253.76244    36500.952 
  887000    302.19378   -1527.8548    511.65991    349.39097    314.15489    36500.952 
  887100    290.41769   -1553.2833    463.96108    223.04864   -24.784295    36500.952 
  887200    299.72524   -1522.1761    511.07786    343.33256   -270.15607    36500.952 
  887300    299.65778   -1523.9341    507.01244    337.20427   -289.77494    36500.952 
  887400    299.52147   -1534.2868    503.06374    322.28689   -120.36289    36500.952 
  887500     305.1163   -1477.0311    500.21429     401.9757    425.95237    36500.952 
  887600    308.89196   -1450.0005    491.98699    437.84083    105.53711    36500.952 
  887700    303.27136   -1506.2351    481.28098    345.50131    157.81183    36500.952 
  887800    297.92356    -1516.264    482.81482    312.84004   -271.59171    36500.952 
  887900    289.91626   -1518.2587    509.22116    301.06738   -485.90932    36500.952 
  888000     298.3161   -1509.4932    470.18407    308.75394   -665.16118    36500.952 
  888100     293.8866   -1538.3474    484.67903    274.37816     178.2484    36500.952 
  888200    301.33195   -1530.7679    535.83825    366.76174    717.97949    36500.952 
  888300    300.66707   -1558.4067    475.26894    275.54908    628.24503    36500.952 
  888400    311.25359   -1495.1773    475.06787    386.41686    75.888519    36500.952 
  888500    307.21002   -1518.1861    495.15407    365.22175    182.00111    36500.952 
  888600    295.01503   -1522.4343    500.85722    311.56867     339.4205    36500.952 
  888700    297.87957   -1504.9321    491.99633    333.15464   -86.442064    36500.952 
  888800    308.47575   -1559.4822    492.48043     326.9718    207.12648    36500.952 
  888900    305.22027   -1494.7981    503.98689    388.45115    522.15915    36500.952 
  889000    301.14735   -1510.7212    501.19725    351.33324    671.36342    36500.952 
  889100    300.60029    -1505.517    504.26729    357.13538     371.2414    36500.952 
  889200    289.74016   -1512.4735    488.98374    285.81941    290.44629    36500.952 
  889300    305.19614   -1556.2014    468.68308    291.63502    377.92002    36500.952 
  889400    302.70637   -1501.7805    489.64391     355.7657   -414.04498    36500.952 
  889500    301.22754   -1536.5144    494.54986    319.25499   -489.19117    36500.952 
  889600    291.40549   -1536.3525    487.21145    267.69354   -535.81723    36500.952 
  889700    303.33884   -1514.1582    455.02776    311.62993    247.90573    36500.952 
  889800    307.58189   -1502.0675    502.40278    390.26957    784.35912    36500.952 
  889900    299.06854   -1479.4856    517.97066    389.94834    201.14611    36500.952 
  890000    314.11654   -1508.7137    498.85655    409.60663    254.24706    36500.952 
  890100    296.42813    -1498.074    490.97933    332.43675     137.7018    36500.952 
  890200    297.76961    -1524.521    508.42638    329.49886    397.84079    36500.952 
  890300    296.76439   -1485.9825    499.26712    354.33564    271.09496    36500.952 
  890400    296.94775   -1495.7276    511.94199    358.09392    444.11814    36500.952 
  890500    291.32166    -1497.594    487.04151    305.90324    443.67441    36500.952 
  890600    287.21956   -1531.1634    529.89546    296.65079    887.02428    36500.952 
  890700    294.06316   -1518.7076    484.29653    294.43335     558.2641    36500.952 
  890800    287.37456   -1474.9969    519.14821    342.77054    382.73542    36500.952 
  890900    301.89119    -1518.236    495.10765    341.09016   -114.47777    36500.952 
  891000    294.20828   -1486.2717    498.19778    341.42618    -37.48871    36500.952 
  891100    295.87669   -1509.0608     503.0755    331.05424   -392.57204    36500.952 
  891200    295.62087   -1523.7154    515.78031    327.94846    444.36655    36500.952 
  891300    303.03361   -1475.8894    518.23724    411.72886     248.8996    36500.952 
  891400    301.03969   -1524.2929    501.60898    337.68674    -469.7265    36500.952 
  891500    300.84441   -1513.4037    497.05988    343.14447    519.49454    36500.952 
  891600    299.54199    -1512.905    495.16371     335.8614    539.53185    36500.952 
  891700    303.29251   -1528.3723    510.81338    352.99204     195.8922    36500.952 
  891800    297.86704    -1537.556    512.59361    321.07141   -203.39244    36500.952 
  891900    296.79203   -1519.6829    507.98263    329.47564    252.18838    36500.952 
  892000    296.74601   -1509.8903    516.45621    347.53385   -363.99853    36500.952 
  892100    306.77288   -1473.2398    511.56187    424.60049   -177.24855    36500.952 
  892200    291.45197     -1498.64    461.95605    280.36074   -501.66355    36500.952 
  892300    306.41089   -1490.3476    532.91256    427.20761   -325.85709    36500.952 
  892400    299.04714   -1466.5505    501.14309    385.95914   -2.6943148    36500.952 
  892500    296.80781   -1464.3737    492.33148    369.20493   -132.00349    36500.952 
  892600    305.65841   -1479.1438    535.77798    437.87643    167.93833    36500.952 
  892700    295.12778   -1487.8331    542.36439    388.18661    149.99866    36500.952 
  892800    316.73732   -1482.4387    494.05197    442.92009    443.10808    36500.952 
  892900    310.77552   -1449.6093    524.54067    479.29733    97.122604    36500.952 
  893000    299.48133   -1453.5306    512.06716    411.86515    173.12273    36500.952 
  893100    299.90799   -1532.9278    518.04568    340.37445     231.0424    36500.952 
  893200    299.95341   -1448.4672    522.01873    429.01337    343.82717    36500.952 
  893300     314.7547   -1460.5063    521.70998     483.5512    248.73219    36500.952 
  893400    294.64413   -1477.4673    487.46538    341.46785    180.61027    36500.952 
  893500    291.08462   -1474.9631    478.40603    318.82751     3.261357    36500.952 
  893600    299.87285   -1449.7293    527.92445    433.29297      9.68238    36500.952 
  893700    300.67143   -1449.0461    504.07228    413.73279   -229.42833    36500.952 
  893800    299.84973   -1454.1269    489.31354    390.18004     -181.681    36500.952 
  893900    298.13164   -1430.0509    505.81772    422.99633   -268.03603    36500.952 
  894000     294.8471   -1469.7892    497.62975    360.22748   -443.50141    36500.952 
  894100    288.70575   -1480.2845    528.66978    353.01995   -148.43564    36500.952 
  894200    300.43648   -1489.1808    526.72176    395.18576   -99.894424    36500.952 
  894300    296.04644   -1494.7917    521.32805    364.34295    110.17367    36500.952 
  894400    303.93499   -1482.4751    514.09469    405.07387   -268.46236    36500.952 
  894500    293.62397   -1516.9279    480.02389    289.95573   -199.93183    36500.952 
  894600    304.68197   -1488.1173    520.96482    409.67732    46.624297    36500.952 
  894700    295.96212   -1508.7579    482.54813    311.21578    160.71735    36500.952 
  894800    294.69611   -1538.8573    481.36309    274.21044   -269.14231    36500.952 
  894900    309.44727   -1517.5871    516.17732    396.95398   -305.29511    36500.952 
  895000     303.6309   -1563.7783    460.37455    268.67639    291.59662    36500.952 
  895100     300.2576   -1527.5478    494.32077     323.6095    248.62742    36500.952 
  895200    314.86279   -1547.3079    503.19554    378.72359   -160.46159    36500.952 
  895300    302.69494   -1565.3797    488.46552    290.93646    102.85336    36500.952 
  895400    302.29025   -1522.3429     497.5468    341.22568    386.72917    36500.952 
  895500    293.89161   -1542.9812    493.80031    278.88828    260.26228    36500.952 
  895600    286.62584   -1514.6844     513.9923    294.54367    141.57726    36500.952 
  895700    300.27606   -1489.9243    497.86134    364.85699   -365.90224    36500.952 
  895800    299.85567   -1489.0531    506.46197    372.42908   -294.00656    36500.952 
  895900    303.96312   -1506.7169    542.88417    409.74869    -231.9407    36500.952 
  896000    297.62618   -1510.7911    478.09972    312.25395   -211.27756    36500.952 
  896100    301.70246   -1533.2018    526.12465    356.28854   -442.79964    36500.952 
  896200    295.45974   -1533.0099    511.29456    313.44007    322.84992    36500.952 
  896300    296.48058   -1511.2283    497.95064    326.49078    229.82969    36500.952 
  896400    294.95335   -1510.6868    529.15802    351.33829   -453.69352    36500.952 
  896500    308.81366   -1492.8617    497.68369    400.32248   -742.85053    36500.952 
  896600    302.77405   -1560.5571    483.46156    291.11251   -619.08987    36500.952 
  896700    301.50298   -1534.4286    511.45892    339.49452   -816.63081    36500.952 
  896800    305.12887   -1565.2529    477.31791    290.91435   -24.411513    36500.952 
  896900    292.61714   -1579.1405    524.85039    268.01986   -369.59587    36500.952 
  897000    302.03606   -1588.5301    509.96618    286.30928    150.15094    36500.952 
  897100    312.67875   -1526.8196    498.48997    384.63692   -63.295183    36500.952 
  897200    291.03904   -1556.7645    501.08836    259.50253   -159.35231    36500.952 
  897300    301.77513   -1516.6696    507.42388    354.44833    636.21436    36500.952 
  897400    294.05225   -1499.2175    519.52063    349.09818    177.69888    36500.952 
  897500     301.0847   -1496.5512    531.96079    395.98362   -80.295337    36500.952 
  897600    292.98675   -1517.0735    495.10839    302.01501    -550.2736    36500.952 
  897700    297.36457   -1491.0021    513.85251    366.61354   -711.23849    36500.952 
  897800    292.50752    -1504.862    489.54164    306.49422   -245.01526    36500.952 
  897900    297.83973   -1552.9206    493.89112    286.88084     54.48493    36500.952 
  898000    304.49517   -1543.2771    510.33867    343.04727   -522.65463    36500.952 
  898100    303.36753   -1555.0932    519.52909    335.32589    93.539961    36500.952 
  898200    300.08013   -1565.0303    518.36534    309.36959   -372.34269    36500.952 
  898300    287.72367   -1514.7252    476.54651    262.01807     136.7758    36500.952 
  898400    307.25711    -1506.528    505.14438    387.08302    127.23703    36500.952 
  898500    304.41959   -1515.8454    513.60773    373.40643    -339.3088    36500.952 
  898600    298.65593    -1496.735    497.73991    350.60357    -92.28449    36500.952 
  898700    299.66054   -1495.6857    544.92606    403.37884     99.66329    36500.952 
  898800     309.0519   -1508.8885    493.96516    381.65378    -78.18917    36500.952 
  898900    302.36942   -1524.2851    526.21269    368.30716   -67.655282    36500.952 
  899000    285.92072   -1539.6072    514.32344    266.76568   -44.440323    36500.952 
  899100    297.41541   -1486.6387    543.51967    400.87386    50.268803    36500.952 
  899200    302.86583   -1516.4678    524.41547    376.57047    140.02006    36500.952 
  899300     302.7992   -1518.7579     497.5369    347.10078    -4.080952    36500.952 
  899400    299.28413   -1542.0394    486.56288    296.96093   -50.763492    36500.952 
  899500    302.71025   -1579.0671     519.3066    308.15929   -185.09016    36500.952 
  899600    297.63929   -1559.3371    491.19636    276.86383   -79.076926    36500.952 
  899700    292.26416   -1561.3083    501.56571     260.9723   -583.08948    36500.952 
  899800     303.5857   -1606.5916    477.14431    242.42856    -145.0036    36500.952 
  899900    298.69724   -1575.1999    514.42679    289.01224   -63.929657    36500.952 
  900000    302.86702   -1523.0754    507.49939    353.05226   -556.02441    36500.952 
  900100    302.48087   -1511.8081    510.71973    365.79481   -49.372698    36500.952 
  900200    296.44251   -1491.6281    513.14475    361.11303   -472.25189    36500.952 
  900300    303.53298   -1544.9641    497.05613    323.72963   -122.13088    36500.952 
  900400    297.73513   -1552.0023    506.45983    299.89527     206.6578    36500.952 
  900500    303.43114    -1582.074    515.61823    304.72161    146.00241    36500.952 
  900600    294.58771   -1578.5518    528.91556    281.57855   -12.269122    36500.952 
  900700     290.5432     -1527.97     539.0781    324.04613  -0.40162109    36500.952 
  900800    295.53598   -1536.0702    525.03536    324.46513    78.321202    36500.952 
  900900    294.65266   -1528.6917    511.72838    314.54499    658.53875    36500.952 
  901000    304.42115    -1514.223    537.25832    398.68656    415.06768    36500.952 
  901100    305.85922   -1564.6575    510.50375    327.99591    63.978134    36500.952 
  901200    299.50397   -1536.5722    524.36895    341.22767    456.56711    36500.952 
  901300    300.23693   -1572.6181    510.17463    294.29959    533.66394    36500.952 
  901400    305.90988    -1517.696    503.17709    367.85968    256.78821    36500.952 
  901500    291.75782    -1547.665    497.00691    267.76864   -117.04138    36500.952 
  901600    293.27001   -1553.3039    501.20543    273.16173    147.50797    36500.952 
  901700    298.25085   -1618.2599    515.09047    244.59872   -61.727031    36500.952 
  901800    305.42019   -1566.0333    489.74475    303.87725   -17.184108    36500.952 
  901900    307.10799   -1607.3767    498.55836    278.97445   -260.90499    36500.952 
  902000    296.07894   -1587.9972     527.6705    277.62684    400.71717    36500.952 
  902100    307.45538   -1591.0316     498.7833    297.11432    179.66476    36500.952 
  902200    293.36558   -1562.9131    475.30736    238.08631   -2.2415729    36500.952 
  902300    291.62402   -1526.2604    523.69933    315.26105   -459.82299    36500.952 
  902400    310.21574   -1545.6411    516.79692    372.99217   -304.02949    36500.952 
  902500    307.08606   -1581.2843    490.62562    297.03494   -241.80149    36500.952 
  902600     292.3738   -1575.5326    525.47109    271.14885    171.04373    36500.952 
  902700    293.04458   -1548.2493    493.06695    269.05918    232.07009    36500.952 
  902800    295.31474   -1525.9954    505.10959    313.61435    49.835967    36500.952 
  902900     310.6306   -1503.4058    503.43351    403.73878   -426.60094    36500.952 
  903000    298.31819   -1522.8995    534.57244    359.74536    -174.9166    36500.952 
  903100    299.67649   -1562.6007    483.96605    275.57582   -262.74646    36500.952 
  903200    305.41681   -1520.7721     514.4214    373.79981    27.307271    36500.952 
  903300    297.17216   -1535.9438    503.80786    310.75769   -127.93873    36500.952 
  903400    314.31787   -1530.9176    517.04447    406.50045    245.15612    36500.952 
  903500    295.45945   -1533.6484    505.48516    306.99089    46.671452    36500.952 
  903600    303.77151   -1533.1986     479.1513    318.66825   -37.753856    36500.952 
  903700    303.53224   -1541.4755    523.86184    354.02064    223.90751    36500.952 
  903800    299.19786   -1558.1752    484.05805    277.93052    66.515182    36500.952 
  903900     295.1669   -1500.3402    515.26206    348.75395    451.73317    36500.952 
  904000    307.79115   -1550.9193    521.54305    361.50365    250.42999    36500.952 
  904100    297.66591   -1531.4942    491.92835    305.55906    -259.3493    36500.952 
  904200    304.56091   -1570.0185     513.2784    319.54268   -30.379352    36500.952 
  904300    296.42463   -1527.3112    526.94054    339.14494    35.289698    36500.952 
  904400    305.94072   -1569.8143    501.06612    313.76986   -317.89291    36500.952 
  904500    291.51007   -1540.4367    477.44327    254.31371    34.434746    36500.952 
  904600     305.3174   -1561.0562    531.36739    350.01249    1146.6735    36500.952 
  904700    293.25396   -1584.5397    470.99387    211.64178    492.43081    36500.952 
  904800    295.46938    -1554.404    522.89193    303.68684    110.99155    36500.952 
  904900    297.20545   -1554.0341    500.43158     289.4416    546.94704    36500.952 
  905000    304.43328   -1549.0149    507.03984    333.73097   -443.71652    36500.952 
  905100    303.82405   -1543.4629     520.0683    349.55838    171.75682    36500.952 
  905200    297.62611   -1562.2711    488.70555    271.37945    344.44983    36500.952 
  905300    308.79979   -1532.3694    498.60228    361.67068    280.21458    36500.952 
  905400    303.63319   -1534.6935    494.22361    331.62057    237.84771    36500.952 
  905500    304.31813     -1554.39    521.14737    341.94306   -323.72327    36500.952 
  905600    297.99921    -1565.965    485.53844    266.20442   -360.76448    36500.952 
  905700    304.93274   -1559.9682    515.23254     333.2274   -464.69664    36500.952 
  905800     288.5481   -1560.4908     499.6828    243.11429   -552.41152    36500.952 
  905900    289.55312   -1563.8482    499.06253    243.67824   -526.07826    36500.952 
  906000    298.92902   -1554.1825    492.81278    289.46298   -488.25664    36500.952 
  906100     292.7638   -1569.6599    467.06146    220.37425   -362.63828    36500.952 
  906200    304.83705   -1543.5497    530.80146    364.78231   -392.23969    36500.952 
  906300    286.50653   -1527.2858    493.54092    260.95181   -350.48476    36500.952 
  906400    302.89956   -1583.1058    506.76811    292.43755   -459.71151    36500.952 
  906500    289.84923   -1582.2828      488.138    215.65724    339.87233    36500.952 
  906600    302.00356   -1576.0742    490.07006    278.72215    164.68565    36500.952 
  906700    291.07116   -1566.0131    481.60324      230.914    187.04941    36500.952 
  906800    305.19049   -1590.8444     509.0169    297.30024   -315.53219    36500.952 
  906900    305.11511   -1555.9034     494.3064    317.19014    981.97489    36500.952 
  907000    304.29159   -1593.6427    482.16607    263.58908    298.53885    36500.952 
  907100    303.22559   -1588.0288     491.2984    273.51815    -317.3346    36500.952 
  907200    301.66358    -1590.796    507.94541    280.33943    341.80206    36500.952 
  907300    298.97229   -1559.6325    498.09691    289.49269    166.99352    36500.952 
  907400    291.43184   -1573.2437    503.30531    247.01531   -175.96522    36500.952 
  907500    302.30363   -1550.8367    502.57527    317.82087   -62.882496    36500.952 
  907600    304.13358   -1557.2731    521.27472    338.35326   -145.79964    36500.952 
  907700    294.89272   -1541.6235    491.43245    282.40205    -70.16086    36500.952 
  907800    296.24503   -1513.8588    505.66905    330.51431   -121.95004    36500.952 
  907900    302.76364   -1500.9018     503.7459    371.00513   -275.57571    36500.952 
  908000     313.4622   -1505.9646    519.65634    430.19857   -176.56916    36500.952 
  908100     299.3436   -1527.6493     488.1852    313.24212   -306.94783    36500.952 
  908200    299.42057   -1512.0509    530.64869     371.6518   -643.93978    36500.952 
  908300    292.49135   -1538.5865    488.61769    271.77273   -324.67874    36500.952 
  908400    297.09038   -1544.7317    520.10339    317.89578   -48.495915    36500.952 
  908500    301.08353   -1536.0207    510.17181    334.71993   -383.78987    36500.952 
  908600    292.21237   -1558.5312    490.12945    252.07911   -244.96917    36500.952 
  908700    300.31823   -1528.1626     491.6924    320.64026   -76.847858    36500.952 
  908800     298.2756   -1588.9642     505.3818    264.29759    87.412309    36500.952 
  908900    299.68977   -1516.3043    508.15043    346.11668   -29.693225    36500.952 
  909000    289.26588   -1525.7019    499.58755    281.05158    122.62191    36500.952 
  909100    293.70748   -1558.0832    499.92827    269.08215     837.1564    36500.952 
  909200    295.84978   -1536.7879    505.16737    305.29749     1036.612    36500.952 
  909300    293.44779    -1528.437    509.67134    307.29792    553.95549    36500.952 
  909400    285.70577   -1554.8325    481.05441    217.30002    800.07179    36500.952 
  909500    306.63266   -1570.2776    510.77172     326.1389    490.01154    36500.952 
  909600    301.58887   -1589.7282    512.61069     285.7349    505.05693    36500.952 
  909700    304.55137   -1577.7554    498.28191    296.76615    216.14778    36500.952 
  909800    297.07114   -1563.4277    500.89093    279.90043   -253.39398    36500.952 
  909900    309.76183   -1547.6571    502.12226     354.2504   -101.38155    36500.952 
  910000     301.6244   -1555.3377    543.36062    351.03589    -384.1976    36500.952 
  910100    297.99604    -1558.186     524.0145    312.44516   -103.53067    36500.952 
  910200    307.71283   -1533.1968    511.69789    369.02707   -51.244119    36500.952 
  910300    307.43379   -1490.4981    507.32597    406.09286   -291.91445    36500.952 
  910400    298.08163   -1485.4191    509.29889    370.88323   -228.17851    36500.952 
  910500    299.53623   -1506.1113    533.80092    381.26627   -281.92364    36500.952 
  910600    295.59286   -1543.6918    493.38797    285.45307   -744.74523    36500.952 
  910700    299.30244   -1468.0868     506.6811    391.11451    -513.8319    36500.952 
  910800    301.58133   -1505.3352    504.33872    361.82184   -214.10273    36500.952 
  910900    291.30108   -1523.9849     518.7416    311.11954   -293.96463    36500.952 
  911000    297.28505   -1521.7286    496.86096    318.53619   -196.17505    36500.952 
  911100    296.34921   -1524.4345    527.01299     341.7533   -821.70664    36500.952 
  911200    301.28237   -1570.3399     498.2872    289.41463   -579.84453    36500.952 
  911300    301.92246   -1546.1761    488.13162    306.31532   -301.41925    36500.952 
  911400    309.76354   -1521.4897    514.11691    392.42013   -376.02216    36500.952 
  911500    288.85337   -1503.2013    539.45947    341.55998   -383.00564    36500.952 
  911600    300.59178   -1519.4358    522.02766    360.93847   -723.45873    36500.952 
  911700    292.28359   -1501.0914    498.25069     317.9619   -658.40254    36500.952 
  911800    292.35855   -1514.2128    522.39932    329.32788    134.08983    36500.952 
  911900     304.4269   -1527.3503    520.53963    368.86651   -91.201872    36500.952 
  912000     297.3773   -1571.5295    481.75867    254.04982    313.04532    36500.952 
  912100    303.05706    -1544.516    505.33968    330.31066   -582.08634    36500.952 
  912200    294.08526   -1546.0468    487.69529    270.59268    -330.1542    36500.952 
  912300    302.89478   -1479.9719    501.47939    390.26118    107.52679    36500.952 
  912400    294.46577   -1550.9487    479.90518    259.62023   -635.82847    36500.952 
  912500    293.94656   -1528.9913    513.16553    312.49165   -43.978815    36500.952 
  912600    304.10287   -1527.2933    517.83444    364.75404   -297.33129    36500.952 
  912700     307.3079    -1566.275    495.26958    317.69066    404.16383    36500.952 
  912800    298.90147   -1542.4216    515.05672    323.34342    371.80087    36500.952 
  912900    298.89161   -1538.3989    510.44359    322.70841   -290.05382    36500.952 
  913000    301.69573    -1535.317    499.70278    327.72108   -104.94921    36500.952 
  913100    299.90146   -1496.1593    518.69592    377.76374    -95.25765    36500.952 
  913200    300.57502   -1509.1924    526.79854    375.87702   -258.37171    36500.952 
  913300    296.27457   -1548.5125    525.45308    315.77807    49.866745    36500.952 
  913400    306.79888   -1532.6876    518.50349     372.2118    478.38332    36500.952 
  913500    295.47718   -1519.6188    505.73565    321.35107    16.804673    36500.952 
  913600    297.23144   -1540.4842    494.34328    297.02066    483.50846    36500.952 
  913700    301.71308   -1537.4701    516.05285    341.99641    -39.43213    36500.952 
  913800    299.53201   -1536.5766    505.67241    322.65344   -214.77887    36500.952 
  913900    299.30994   -1500.8657    515.55506    367.24339     42.65048    36500.952 
  914000    298.36039   -1526.3873    518.44727    340.32315    637.44226    36500.952 
  914100    301.39012   -1523.5919     504.2103    342.57265    597.64075    36500.952 
  914200    285.58409   -1553.8811    480.16785    216.81496    86.473462    36500.952 
  914300    295.15328   -1540.5166    529.51314     322.7671   -305.17859    36500.952 
  914400    306.37442   -1530.9856    496.67633    350.16857   -421.79181    36500.952 
  914500    300.32146   -1530.2992     502.7556    329.58148   -1238.3531    36500.952 
  914600    309.99809   -1572.7044    498.65663    326.80513   -1328.8442    36500.952 
  914700    306.52151   -1559.9397    504.31651    329.51931    -739.3082    36500.952 
  914800     293.0708   -1532.0446    482.33252    274.64796   -271.87353    36500.952 
  914900    302.44974   -1556.6059     517.0018    327.13843    40.020128    36500.952 
  915000    310.39568   -1552.0549     502.6697    353.26432    376.00707    36500.952 
  915100    295.69773   -1574.9301    473.91519     235.2159    1.3434294    36500.952 
  915200    304.07854   -1533.9546    537.37163    377.52003    175.63631    36500.952 
  915300    291.87802   -1577.5187    506.21796    247.66919    66.054283    36500.952 
  915400    296.47811   -1535.7139    506.10015    310.14353    262.81624    36500.952 
  915500    302.45957   -1538.0739    514.97623    343.68929      477.291    36500.952 
  915600    296.89837    -1555.851    505.97977    291.78518   -162.67588    36500.952 
  915700    308.09852   -1540.2328    494.04727    346.08339    406.21469    36500.952 
  915800    299.93827   -1578.5062     515.0469    291.93419    147.57009    36500.952 
  915900    308.70046   -1538.3644     520.1526     376.7772   -657.01936    36500.952 
  916000     292.7683   -1524.1015    529.36088    328.25235   -744.55325    36500.952 
  916100    305.61114   -1522.0712    528.57577    387.53322    339.63706    36500.952 
  916200    295.03597   -1571.3707    505.56751     267.4372    506.77956    36500.952 
  916300    284.89954   -1548.8811    527.76723    266.32095    209.34565    36500.952 
  916400    294.52227   -1571.7372     519.1161    278.29794    348.50529    36500.952 
  916500    309.44755   -1553.1128    516.41304    361.66528    955.10693    36500.952 
  916600    297.49991   -1538.0915    505.22358    311.50684    808.06679    36500.952 
  916700     294.1879   -1565.0449    493.84306    258.20618    591.97855    36500.952 
  916800    312.79226   -1569.9542    516.99605    360.52134    563.43514    36500.952 
  916900    303.68148    -1533.938    527.05933    365.42995    305.02113    36500.952 
  917000    297.53608    -1538.057    497.38868    303.86993     370.5661    36500.952 
  917100    288.69296   -1565.0258    486.65489    226.20609    385.61889    36500.952 
  917200    298.42551   -1538.8746    540.35336     350.0362    346.90053    36500.952 
  917300    306.32838   -1550.6195    514.80679    348.45703    205.96701    36500.952 
  917400     301.2356   -1556.3529    489.91749    294.82059   -169.00921    36500.952 
  917500    296.59414   -1595.1901    497.35261    242.44414    195.05927    36500.952 
  917600    292.54899   -1527.5907    490.69465    285.10598   -288.72937    36500.952 
  917700    295.02161   -1530.8051    520.56821    322.93861     -221.251    36500.952 
  917800    294.84391   -1527.2354    468.93844    274.07555   -282.42561    36500.952 
  917900    301.43892   -1515.5176    522.64778    369.30497   -151.18371    36500.952 
  918000    303.38877   -1542.7702    518.20257    346.41828   -689.67708    36500.952 
  918100    289.34416   -1519.0645    496.99776    285.45295   -200.36982    36500.952 
  918200    288.98901   -1523.9356    506.89137    288.87057   -123.94514    36500.952 
  918300    298.38367   -1549.9864    513.76301    312.14496   -462.49042    36500.952 
  918400    294.03956   -1505.2711    513.08155    336.54822   -308.85105    36500.952 
  918500    312.30534   -1554.7659    465.96955    322.48272   -594.22549    36500.952 
  918600    299.67782   -1529.0426    507.95465    333.12854    -493.6653    36500.952 
  918700    301.08068   -1521.4895    511.82577    350.89219   -337.46873    36500.952 
  918800    302.74476   -1516.9092    493.63955    344.80606    216.49348    36500.952 
  918900    311.14939   -1538.0399    502.26137    370.27692    314.44485    36500.952 
  919000    294.17628   -1576.2495    484.03246     237.1385    366.86383    36500.952 
  919100    299.65592    -1602.695    496.32428    247.74682    481.70725    36500.952 
  919200    307.12276   -1614.4713    485.32689    258.71515    355.47159    36500.952 
  919300    291.70321   -1565.8411    481.45888    233.79777    296.17263    36500.952 
  919400    304.49149    -1514.261    516.97846    378.68646    413.99933    36500.952 
  919500    295.90735   -1522.5214    494.12696    308.78363      43.9737    36500.952 
  919600    283.20018   -1503.3238    519.46262    295.89435   -47.181184    36500.952 
  919700    298.82099   -1532.4391    518.12621    336.03166   -229.73244    36500.952 
  919800    301.25526   -1555.3074    522.30927    328.34671   -353.13374    36500.952 
  919900    294.13305   -1595.4646    490.18703    223.88263   -852.05695    36500.952 
  920000    295.01767   -1553.1044    508.24696    288.30023   -43.539067    36500.952 
  920100     304.6972    -1569.175    495.81581     303.5395   -233.21782    36500.952 
  920200    301.12759   -1550.1068    498.85798    309.51902   -8.3874358    36500.952 
  920300    291.87576    -1528.819     509.5964    299.73706    405.49623    36500.952 
  920400    286.89787   -1520.3692    504.32189    280.41782    199.34463    36500.952 
  920500    291.95781   -1526.4422    513.67914    306.56748    377.90567    36500.952 
  920600    299.94725   -1492.3156    499.44841    362.56689    28.039862    36500.952 
  920700    307.85175   -1546.8671    507.84063    352.12727    173.83191    36500.952 
  920800    303.30445   -1539.3907    510.05197    341.26619   -333.85319    36500.952 
  920900    292.96391   -1563.4829    513.29647    273.69059   -445.13503    36500.952 
  921000    294.78915   -1532.1861    473.42176    273.36071   -201.68556    36500.952 
  921100    301.27041    -1524.167    497.31371    334.56001   -44.713069    36500.952 
  921200     300.0272   -1501.5785    532.12805    386.34489    602.38629    36500.952 
  921300    298.11098   -1576.0816    528.49383    299.54836    469.31726    36500.952 
  921400    296.09284   -1544.1646    506.02379    299.87552    450.36576    36500.952 
  921500    295.24814   -1503.5797    518.12555    348.74505    430.22322    36500.952 
  921600    296.70147   -1493.5381    525.70614    372.93463    39.371094    36500.952 
  921700    296.57846   -1514.3286    482.48594    308.36817   -220.28097    36500.952 
  921800    299.42554   -1547.3151     501.6699    307.43126   -94.783292    36500.952 
  921900    304.22862   -1542.2581    498.12508    330.64818   -196.89404    36500.952 
  922000    301.57286   -1549.6148    472.79086    285.95609   -190.26511    36500.952 
  922100    296.76126   -1584.5518    509.50298    265.98805    198.00042    36500.952 
  922200    343.05557   -1553.8044    496.39316    492.82532    -126.2942    36500.952 
  922300    295.31212   -1592.0079    485.30976    227.79013    112.25397    36500.952 
  922400    299.15929   -1545.9897    515.12944    321.01311    86.895629    36500.952 
  922500    303.15734   -1581.1113    467.91355    256.74236   -199.82828    36500.952 
  922600     295.3849   -1557.7653    517.11411    294.16602   -353.54491    36500.952 
  922700    291.64605   -1567.0819    462.05001    212.88984   -592.60722    36500.952 
  922800    311.15317   -1541.3865    500.15588    364.84191   -461.64874    36500.952 
  922900    303.62013   -1529.3565    503.20235    345.87724    33.871806    36500.952 
  923000    295.93747   -1514.5805    492.83193    315.56568    385.94001    36500.952 
  923100    302.02827   -1490.4125    521.93163    396.35715    447.72134    36500.952 
  923200    309.80582   -1532.0536     491.7162    359.64657    25.547762    36500.952 
  923300    302.41433   -1538.9319     479.2839    306.93454   -71.460739    36500.952 
  923400    300.33317   -1550.9633    478.84641    285.06111    285.42853    36500.952 
  923500    304.33751   -1546.4635    512.80833    341.61805   -51.870872    36500.952 
  923600    303.19398   -1556.4466    505.97248    319.63157   -110.67001    36500.952 
  923700    306.11105   -1576.0854    468.30926    275.51156    178.74421    36500.952 
  923800    304.97205   -1517.2683    488.58856    349.46095    443.86287    36500.952 
  923900    296.66508   -1544.6636    514.45053    310.38913   -148.59223    36500.952 
  924000    299.56111    -1536.531    495.70258    312.86072    27.368583    36500.952 
  924100    297.13727   -1571.3567    480.39857    251.77788   -150.24702    36500.952 
  924200    294.90703   -1573.3448    494.63972    253.95273    540.53418    36500.952 
  924300    301.89021   -1608.8985    527.99847    283.31413   -579.16475    36500.952 
  924400    295.10123   -1553.5801    480.23039     260.1856    678.54953    36500.952 
  924500     295.7165   -1524.8341    517.07612     328.5577    570.47346    36500.952 
  924600    295.10432   -1521.3505    487.13239     299.3312    74.076945    36500.952 
  924700     294.3657   -1543.2538    505.71015    292.66788    -433.7497    36500.952 
  924800    307.54883   -1517.2497    470.17665    342.71183   -156.81808    36500.952 
  924900    303.45912   -1499.6159    501.27042    372.95841    157.15187    36500.952 
  925000    318.48911   -1530.4839    496.84613    405.58522    273.03844    36500.952 
  925100    298.21222    -1520.971    508.36316    334.98582    449.03619    36500.952 
  925200    296.98272   -1527.3625    507.26248    321.93756    47.866648    36500.952 
  925300    306.05051   -1550.0119     503.2451    336.24726    408.52131    36500.952 
  925400    296.95588   -1513.0074     494.3726    323.28154    148.83042    36500.952 
  925500    309.06186   -1508.8229    483.62255    371.42171   -26.513282    36500.952 
  925600    293.75937   -1509.3557    514.60459    332.72048   -85.920371    36500.952 
  925700    297.85127   -1536.4379    490.82687    300.35144    174.92074    36500.952 
  925800    295.90099   -1542.3021    497.87678      292.724   -101.78322    36500.952 
  925900    303.06664    -1545.404    492.40136    316.52757   -272.17259    36500.952 
  926000     295.9177   -1546.8939    493.49363    283.82465   -416.12684    36500.952 
  926100    287.67376   -1551.4327    480.58083    229.11939   -334.66682    36500.952 
  926200    307.27899   -1532.6962    525.30259    381.17185    218.96519    36500.952 
  926300    291.73128   -1523.7619    514.61698     309.1619      242.616    36500.952 
  926400    295.04368   -1516.3632    503.68318    320.59523   -18.678725    36500.952 
  926500    294.71615   -1536.6191    516.64945    311.82552    454.99288    36500.952 
  926600    297.85667   -1525.3359    507.96938    328.62041    154.28816    36500.952 
  926700     294.1111   -1534.8181    460.88218    255.12512   -76.743116    36500.952 
  926800    306.37642   -1547.2473    494.83455    332.07408    357.44075    36500.952 
  926900    304.96488    -1528.673    498.95621    348.39142    79.629971    36500.952 
  927000    306.91021    -1540.299      479.285    325.88501   -20.054118    36500.952 
  927100    300.84743   -1503.9337    501.45605    357.02416    390.56741    36500.952 
  927200    304.52571   -1521.0928    491.08767    346.11858     331.8206    36500.952 
  927300    310.86771   -1550.3084    507.71067     362.1848    421.14715    36500.952 
  927400    297.39031   -1515.6101    496.43606    324.70543    403.00891    36500.952 
  927500    300.09535   -1574.4939    473.18777    254.79722    137.80391    36500.952 
  927600    306.37675   -1518.3006    479.70478    345.89255   -204.57236    36500.952 
  927700    300.73798   -1506.0993    487.52299    340.43094    94.915455    36500.952 
  927800    307.82449   -1485.2533     494.3109    400.08819   -361.70455    36500.952 
  927900    295.84577    -1483.211    479.36427    333.05309   -705.74985    36500.952 
  928000    302.79791   -1503.6713    521.77529    386.41991   -270.51476    36500.952 
  928100    289.50337   -1513.2032    495.27492    290.31081   -121.38875    36500.952 
  928200    317.54144   -1507.7058    470.74662     397.9814   -479.51169    36500.952 
  928300    298.62661   -1531.3785    487.91137    305.99904   -46.384487    36500.952 
  928400    300.10336   -1524.0166    501.78062    333.90353   -333.49323    36500.952 
  928500    294.75677   -1503.3227    503.63593    332.29195   -568.08642    36500.952 
  928600    307.69926   -1488.8507    479.87138    381.48533   -509.54849    36500.952 
  928700    296.91715   -1500.7777    506.16458    347.12815    46.377463    36500.952 
  928800    296.58432    -1520.431    487.29666    307.10294    188.32176    36500.952 
  928900    310.52956   -1532.5819    475.75896    346.43155   -11.164136    36500.952 
  929000    300.87322   -1541.6223    485.91823    303.91432   -461.58505    36500.952 
  929100    307.78789   -1504.1388    484.89653    371.62291   -873.18744    36500.952 
  929200     298.2289   -1512.8044    486.31452    321.17913    -280.8817    36500.952 
  929300    299.31279   -1500.9092       473.46    325.11772   -1157.4902    36500.952 
  929400    298.63968   -1530.1649    480.98652    300.34685   -505.34839    36500.952 
  929500    296.10859   -1508.8637    514.74253    343.96637   -442.51753    36500.952 
  929600    292.80492   -1527.3805    448.48443     244.2624    92.972995    36500.952 
  929700    304.56133   -1504.0337    498.64923     370.9002    171.43354    36500.952 
  929800    297.54524   -1525.5506    491.09508    310.12406    253.20299    36500.952 
  929900    304.02654   -1530.3664    494.20765    337.70928    250.16809    36500.952 
  930000    295.41371   -1502.9101    496.15521    328.19252   -36.366238    36500.952 
  930100    305.36173    -1511.885    478.32398    346.34054    42.488785    36500.952 
  930200    303.67561   -1546.8094    488.66713    314.13994    112.77138    36500.952 
  930300    296.11061   -1533.7026    495.02233    299.41638   -324.78602    36500.952 
  930400    292.88289   -1498.9675    466.77096    291.31432     136.2146    36500.952 
  930500    309.74421   -1518.9914    500.55988    381.27413   -105.99089    36500.952 
  930600    302.01192   -1504.9721    489.98429    349.77624    -111.9009    36500.952 
  930700    298.71691   -1533.6054    485.78551    302.05441   -264.61743    36500.952 
  930800    300.45679   -1555.9758    502.79557    304.55638    413.80116    36500.952 
  930900    307.35498   -1570.7394    501.03522     319.2047    248.92109    36500.952 
  931000     292.4435   -1555.2848     497.8796    264.12009   -473.13556    36500.952 
  931100    299.36573    -1573.201    459.25738    238.86261    13.549526    36500.952 
  931200      297.067   -1602.5924    461.73946    201.56546   -542.29782    36500.952 
  931300    304.62167   -1529.8307    467.23136    313.95801    -145.1909    36500.952 
  931400    297.65865   -1556.7184    488.79978    277.17347   -952.79482    36500.952 
  931500    295.96986   -1582.4219    486.24465    241.28332   -680.04531    36500.952 
  931600    294.67284   -1524.0392    459.97263    267.53287    155.01934    36500.952 
  931700    305.98938    -1542.457    469.25147    309.53236   -260.59571    36500.952 
  931800    295.65107   -1575.7827    477.77866    238.01596    -172.7873    36500.952 
  931900    298.15663   -1576.0448    496.28335    267.58098    267.68626    36500.952 
  932000    299.01669   -1554.7937    481.87652    278.31171    329.76461    36500.952 
  932100    288.86215   -1519.0474    492.96916    279.26323    793.40979    36500.952 
  932200    300.40714   -1561.1295     504.9005    301.28328    383.09901    36500.952 
  932300    308.46069    -1576.646    481.91307    299.17253   -85.950802    36500.952 
  932400    299.08968   -1549.7847    502.32954    304.10357   -88.944569    36500.952 
  932500    299.49168   -1566.0237    478.19812    265.54979    241.33276    36500.952 
  932600    303.99554    -1610.725    456.52537    219.52826    458.88207    36500.952 
  932700    295.94077   -1571.5443    484.66745    250.45224   -47.811461    36500.952 
  932800    297.04611    -1524.923    507.92144    325.32252    521.57221    36500.952 
  932900    301.99086   -1539.3387    495.20463    320.53481    28.186539    36500.952 
  933000    301.35978   -1591.8858    464.07433    234.00566   -816.93194    36500.952 
  933100    295.11933    -1590.575    486.64053    229.68266   -64.193821    36500.952 
  933200    296.75674   -1566.1049    480.09274    255.00425    45.707299    36500.952 
  933300    309.34225   -1553.3043    489.50506    334.08988    112.16457    36500.952 
  933400    292.99095    -1550.899    512.95447    286.05462    -345.7326    36500.952 
  933500    300.65451   -1532.9117    508.94104    334.65943   -139.53299    36500.952 
  933600    311.45131   -1543.6367    488.07551    351.85864    206.39832    36500.952 
  933700    302.36247   -1544.4825    484.97309    306.83877    43.774665    36500.952 
  933800    298.31731    -1511.952    512.09092    348.20744    89.207469    36500.952 
  933900    290.53761    -1539.439    478.06111    251.53489    128.39291    36500.952 
  934000     308.6015   -1560.1825    461.71034    296.06964    39.267595    36500.952 
  934100    311.42598   -1520.0004    499.39847    386.70339   -14.754662    36500.952 
  934200    298.37545    -1527.033     506.1562    327.45442   -173.97881    36500.952 
  934300    293.25732    -1521.811    491.63537    295.02726    122.60679    36500.952 
  934400     308.5419   -1527.1896    486.50342    353.58626    73.415016    36500.952 
  934500    291.36675   -1504.7948     485.4564    297.32118    177.98098    36500.952 
  934600    300.27572   -1537.5295    453.82412      273.213    50.959536    36500.952 
  934700    295.22502   -1519.8236    498.30443    312.57561   -788.59375    36500.952 
  934800    304.52195    -1485.512    456.93918    347.53386    23.641262    36500.952 
  934900    295.97109   -1510.0478    503.79512    331.21351   -127.77008    36500.952 
  935000    299.73298   -1535.4485    488.88715    307.90444   -79.454319    36500.952 
  935100    296.37588   -1502.2672    495.89018    332.91832   -215.19765    36500.952 
  935200    307.09178   -1463.9169    501.26993    425.07256    449.74218    36500.952 
  935300     293.1348   -1472.9839    475.37235    327.03766   -297.72169    36500.952 
  935400     298.2537   -1490.2731     489.9588    347.46674    235.46187    36500.952 
  935500    296.40949   -1476.3835     498.4334    361.49714    122.09679    36500.952 
  935600    285.14962    -1468.783    493.15512    312.93705    183.97093    36500.952 
  935700    304.30761   -1472.1736    503.34421    406.30873    523.80239    36500.952 
  935800    304.79517   -1443.8119    490.64517    424.17466    419.06735    36500.952 
  935900    298.77686   -1490.1339    475.33928    335.35057    -341.2353    36500.952 
  936000    295.65491   -1505.3899    484.10031    314.74776   -420.06582    36500.952 
  936100    299.17762   -1496.8125     491.0291    346.17274   -602.37694    36500.952 
  936200    309.89097   -1482.4342    510.71866     428.6533   -325.41095    36500.952 
  936300    299.01344      -1497.4    477.65747    331.47175   -713.30104    36500.952 
  936400    313.99252    -1469.386    500.16989    449.68725   -284.44958    36500.952 
  936500    301.06357   -1474.5044    473.45306    359.42723    484.09335    36500.952 
  936600     300.7853   -1506.0393    523.23856    376.42035    857.72598    36500.952 
  936700    285.67793   -1544.0891    469.71233    216.57555    685.93707    36500.952 
  936800      304.022   -1526.0406    499.70104    347.50791    747.95416    36500.952 
  936900    296.73859   -1540.3784    488.63389    289.18993    280.29174    36500.952 
  937000    303.80254   -1525.6342    508.87057    356.09209    1.4827685    36500.952 
  937100    294.20894   -1497.5422    499.37811    331.33905    44.392603    36500.952 
  937200     298.8123   -1470.1774    486.04764    366.17558   -520.10565    36500.952 
  937300    302.72893   -1471.1035    502.93669    399.83735   -376.19496    36500.952 
  937400    293.34138   -1498.2813    496.99951    324.30095   -123.69342    36500.952 
  937500    306.25195   -1492.5325    499.69888     391.0908    50.472436    36500.952 
  937600    302.66522   -1522.6871    506.06756    351.09675      622.402    36500.952 
  937700    299.75206    -1540.362    515.31258    329.50259    119.41231    36500.952 
  937800     306.5319   -1501.6814    496.74803     380.2561    621.47619    36500.952 
  937900    297.60736   -1480.0091    505.40908    370.26027    255.06527    36500.952 
  938000    308.02348   -1472.7028    503.90191    423.12889   -98.682589    36500.952 
  938100    293.65408   -1531.3127    469.11327    264.79635   -63.618136    36500.952 
  938200    303.20803   -1537.3158    503.26563      336.119   -22.549862    36500.952 
  938300    294.31267   -1517.0319    502.99509    315.93504    112.81021    36500.952 
  938400     292.8152   -1498.3032    494.88063    319.78242   -116.42293    36500.952 
  938500    296.14771   -1492.5155    499.31701    345.06572    35.249485    36500.952 
  938600       309.83   -1529.7735    472.65479    342.97456    493.48453    36500.952 
  938700      293.551   -1542.1725     483.2959    267.65343    152.24126    36500.952 
  938800    296.85869   -1562.9408    488.67799    267.21431    186.55243    36500.952 
  938900    306.41881   -1519.1806    505.78646    371.28429    69.677077    36500.952 
  939000    291.35455   -1537.6366    477.43057    256.39839    228.90537    36500.952 
  939100    302.35321   -1502.6081    501.77749    365.47577    903.92053    36500.952 
  939200    300.78304   -1537.7121     480.0516    301.55039    694.11163    36500.952 
  939300    301.10813   -1509.7653    476.94735    327.86199    370.58798    36500.952 
  939400    302.36751   -1489.4051    522.22248    399.18833    183.23778    36500.952 
  939500    298.77297   -1481.7524    491.72753    360.10269   -78.838349    36500.952 
  939600    294.76135    -1467.947    491.48631    355.53876    112.63572    36500.952 
  939700     306.1967    -1497.488    500.81691    387.00368    320.23275    36500.952 
  939800      287.386   -1467.1634    492.81532     324.3228    975.62698    36500.952 
  939900    292.53945   -1476.2512    496.59306    342.30075    957.50041    36500.952 
  940000    292.58196   -1476.0892    516.73707    362.79879    604.49181    36500.952 
  940100    298.76639   -1487.7504    481.52998    343.87741     61.47441    36500.952 
  940200    301.04058   -1444.4504    497.35271    413.27701    87.023548    36500.952 
  940300    309.72968   -1468.4807    496.07864    427.23792    170.44503    36500.952 
  940400    299.69718   -1446.2473    485.00128    393.05799    145.29068    36500.952 
  940500    301.05914   -1453.4102     506.6533    413.70166    173.57065    36500.952 
  940600     307.1451   -1473.4585    480.22937    394.73136    208.47021    36500.952 
  940700    296.67479   -1499.8596    484.80974    325.59619   -164.75016    36500.952 
  940800    293.95783   -1495.1331     470.5686    303.80395    -201.8058    36500.952 
  940900     297.3392   -1499.1825     482.4074     326.8734    263.79068    36500.952 
  941000    305.08398   -1491.2095    503.23496    390.67189    577.64069    36500.952 
  941100    297.22415   -1525.4756    487.17076    304.82378    34.965352    36500.952 
  941200    284.09398   -1500.5507     491.8657    275.10956    79.821204    36500.952 
  941300    300.44987   -1493.3876    464.77407    329.09183   -21.212524    36500.952 
  941400     309.8101   -1445.1879    488.51133    443.32681     495.3157    36500.952 
  941500    309.82851   -1476.2398    482.70828    406.55507    35.887707    36500.952 
  941600    303.57191    -1478.197    473.34716    366.96374     234.5095    36500.952 
  941700    302.44389   -1491.9667    493.28474     368.0342    347.69856    36500.952 
  941800    298.98116   -1487.2612    490.82264    354.62985   -359.81192    36500.952 
  941900    306.54765   -1471.3017    475.59564    389.55456    79.206016    36500.952 
  942000    302.48967   -1474.7555    471.01423    363.18174   -200.85692    36500.952 
  942100    291.57949   -1482.0444    497.05649    332.63298   -141.78554    36500.952 
  942200    296.44598   -1477.2731    492.28538    354.62444   -198.59477    36500.952 
  942300    296.67092    -1503.251     472.1014    309.47898   -138.79726    36500.952 
  942400    300.25429   -1504.0848    469.73621    322.47293    283.29678    36500.952 
  942500     301.1642   -1496.5882     474.3522    338.69731   -510.84835    36500.952 
  942600    303.70153   -1480.3671     492.6985    384.73071   -83.032973    36500.952 
  942700    294.26416   -1482.1182    460.42914    308.06366   -184.39363    36500.952 
  942800    308.90673   -1488.4905    482.98394    390.41455   -747.02259    36500.952 
  942900    306.57544    -1493.332    484.05651    376.11075   -38.035047    36500.952 
  943000    287.29749   -1497.3479    476.32185     277.2449    10.632818    36500.952 
  943100    307.78158   -1499.0622    483.19286    374.96727    361.50773    36500.952 
  943200    295.32735   -1508.4319     492.4077    318.53296    185.29999    36500.952 
  943300    293.10863   -1539.4898    481.88602     266.9272    -29.22284    36500.952 
  943400    296.83902   -1513.8521    490.10338    317.63951   -356.95108    36500.952 
  943500    299.52105   -1500.9237    484.66824    337.25266   -88.112308    36500.952 
  943600    297.92524   -1489.0178    474.38321    331.66214   -914.49067    36500.952 
  943700    300.07207   -1507.6335    482.15214    330.51672   -447.34279    36500.952 
  943800    301.99163   -1487.9845    459.41599    336.10388   -352.54409    36500.952 
  943900    308.28299   -1458.0285    479.76982    414.84377   -368.55539    36500.952 
  944000     293.2127   -1456.7549    469.37774    337.62409   -277.57273    36500.952 
  944100     296.0609   -1472.0797    492.56036    358.35262    340.58854    36500.952 
  944200    288.82313   -1446.5448    496.79431    355.41465     129.4802    36500.952 
  944300    299.65347   -1406.0836    514.55621    462.57911   -203.56602    36500.952 
  944400     306.1938   -1439.3645    487.34281    431.64001    112.35439    36500.952 
  944500     300.2812   -1438.1364    490.56952    409.37626    647.10752    36500.952 
  944600    301.97061   -1447.7758    504.46695    421.26857    542.79115    36500.952 
  944700    306.56565   -1485.5578    486.00657     385.7907    779.36465    36500.952 
  944800    300.82037   -1417.0874    510.77383    453.06597    391.88376    36500.952 
  944900    301.45743   -1447.2123    489.68289    404.72898   -7.3460825    36500.952 
  945000      299.569   -1442.0587    488.72107    400.38719   -13.143116    36500.952 
  945100    298.44204    -1430.552    487.25978    405.33995   -730.37523    36500.952 
  945200    300.07528   -1470.8857    493.50144    378.62834    104.14573    36500.952 
  945300    306.65866   -1443.4529    506.19941    448.50876   -116.25285    36500.952 
  945400    299.46945   -1461.9768    500.44688    391.74494    478.42187    36500.952 
  945500    310.39028   -1467.7861    477.42233    412.26134    317.87555    36500.952 
  945600    292.07562   -1457.5432    484.59735    346.91706    799.63746    36500.952 
  945700    302.87646   -1483.4178    498.35926    383.61236    848.58458    36500.952 
  945800    316.90964   -1517.1329      488.301    403.25355    834.87999    36500.952 
  945900    307.13036   -1512.4412    465.48504    340.93771    461.15487    36500.952 
  946000    303.84641   -1452.5196    487.22619    407.76055    975.24362    36500.952 
  946100    301.76774   -1474.3114    470.41307    359.76234    414.15816    36500.952 
  946200    304.54124    -1475.243    485.90095    386.85178     260.9725    36500.952 
  946300    308.18856   -1528.7525     484.0247    347.94794    23.730776    36500.952 
  946400    303.02263   -1542.0721    472.62959    299.88887    643.95905    36500.952 
  946500    302.89095   -1515.8969    498.39898    351.23845    578.36618    36500.952 
  946600    305.93617   -1496.5802     476.1996    362.11681     629.2702    36500.952 
  946700    299.58394   -1479.0297    488.36801    363.13063    156.07111    36500.952 
  946800    310.23996   -1491.3755    462.41676    372.98711    456.94465    36500.952 
  946900    291.15323   -1484.5753    499.51368     330.6331   -129.38477    36500.952 
  947000     296.8841   -1480.7249    502.77363    363.64066   -867.74742    36500.952 
  947100    300.29167   -1502.5823    482.46501     336.8732   -721.74443    36500.952 
  947200    305.92794   -1540.6183    458.74179    300.58368   -166.13228    36500.952 
  947300    291.11453   -1483.1177    504.05384     336.4559    13.831449    36500.952 
  947400    288.00234   -1490.5663    475.47473    286.36451   -14.709108    36500.952 
  947500    298.40501   -1499.2811    479.72328    328.90695   -227.46076    36500.952 
  947600     308.0122   -1515.6079    487.94611      364.217   -441.47024    36500.952 
  947700    293.79808   -1518.0517    488.04928    297.64411    86.326341    36500.952 
  947800    293.42358   -1550.1286    469.65635    245.48195     364.3698    36500.952 
  947900    301.93203   -1485.9965    504.44405    382.85064    158.03331    36500.952 
  948000    289.14073    -1514.425    478.24019    270.41554    313.63606    36500.952 
  948100    294.36637   -1522.3046    467.81757    275.72753    346.47848    36500.952 
  948200    296.33676   -1493.6083    504.12743    349.63767    31.931274    36500.952 
  948300    290.94195   -1502.9202    489.48194     301.3016     -127.465    36500.952 
  948400    296.84227   -1525.7767    463.53946    279.16568    -221.8098    36500.952 
  948500     305.9763   -1490.4862    478.63176    370.82429    -577.9341    36500.952 
  948600    298.25835   -1526.0163    469.16956    290.95532   -657.17588    36500.952 
  948700    298.10043   -1452.8093    467.09172    361.37084   -823.30433    36500.952 
  948800    309.13837   -1473.8808      480.828      403.915    -788.7723    36500.952 
  948900     305.2241   -1518.8126    486.92598    347.39306   -542.47028    36500.952 
  949000    303.17754   -1485.9388    461.09134    345.18396   -215.44529    36500.952 
  949100    294.93293   -1525.7513    485.81519    292.83866    162.33537    36500.952 
  949200    302.72362   -1523.9923    472.35647    316.34434    183.65772    36500.952 
  949300    304.67756   -1528.2249    460.57286    309.15782    162.33546    36500.952 
  949400    299.34973   -1497.9901    474.63001    329.37376    509.17341    36500.952 
  949500    301.73089   -1479.0349    459.44227    343.90146    145.00682    36500.952 
  949600    298.16074   -1513.2247    481.98939    316.12565     134.8225    36500.952 
  949700    292.90815   -1510.4188    486.73495    299.94108    563.63206    36500.952 
  949800    304.70194   -1461.9371    514.86038    429.84331    424.10344    36500.952 
  949900    292.63336   -1511.2203    463.96939    275.13236    403.07015    36500.952 
  950000    312.51737   -1495.5492    498.04743    414.73554    596.92608    36500.952 
  950100    300.60746   -1479.4622    486.49371    365.44896    196.19816    36500.952 
  950200    294.02634   -1496.0672    470.41758    303.02839    119.44416    36500.952 
  950300    304.69659   -1506.5433    493.40378    363.75632    246.99459    36500.952 
  950400    292.54832    -1437.293    495.16631    379.87224   -22.103213    36500.952 
  950500    305.40058   -1502.5041    484.70923    362.28225   -319.96594    36500.952 
  950600    301.82689   -1522.4593    462.45934    303.92801   -647.83583    36500.952 
  950700    303.64036   -1483.7804    455.67026    344.01274   -252.76777    36500.952 
  950800     297.6895    -1452.672    475.39166    367.95116    123.46425    36500.952 
  950900    303.19893   -1475.9338    523.22356    417.41785    295.49726    36500.952 
  951000    296.60684   -1463.2595    494.13749    371.21699    72.511626    36500.952 
  951100    300.09949   -1484.9591    478.72257    349.88543     122.9242    36500.952 
  951200    299.50538   -1481.8609    478.29919    349.87562   -292.83151    36500.952 
  951300    303.47207   -1466.1346    497.52674    402.75449   -781.83818    36500.952 
  951400    301.50995    -1529.312    483.45517    316.63889   -524.62739    36500.952 
  951500    302.27002   -1483.6758    479.37559    361.63024   -143.69746    36500.952 
  951600    304.42465   -1459.6654    493.95773    409.95938   -200.15099    36500.952 
  951700    298.42124   -1469.4641    457.30901    336.38304   -490.31428    36500.952 
  951800    301.03525   -1469.3853    511.81672    402.78201   -121.12574    36500.952 
  951900    298.98634   -1465.8539     467.1854    352.42325    -347.1695    36500.952 
  952000    293.62199   -1468.2032    511.72498    370.37254    884.56769    36500.952 
  952100    309.89287   -1492.6821    476.46618    384.16151    577.95548    36500.952 
  952200    292.83201   -1554.3164    479.21452    248.17903    110.52718    36500.952 
  952300    311.62804   -1561.1142    494.88687     341.9911    417.81365    36500.952 
  952400    293.44744   -1573.5566    496.11602    248.62143   -303.42093    36500.952 
  952500    302.69947   -1508.9149    466.79091    325.74704   -143.92287    36500.952 
  952600    301.17646   -1536.4047     478.0719    302.65595    -1010.919    36500.952 
  952700    302.36757   -1502.7032    478.50464    342.17269   -442.49505    36500.952 
  952800    298.96736   -1476.9437    467.31651    341.37884   -256.67771    36500.952 
  952900    303.71167   -1482.2577    489.13884    379.32626    146.56278    36500.952 
  953000    305.03054   -1532.0636    476.63067    322.97202   -131.46726    36500.952 
  953100    300.36816   -1490.2681    454.42708    321.49508   -217.09118    36500.952 
  953200    301.18115   -1478.0994    484.59611    367.50663   -28.420119    36500.952 
  953300    307.91378   -1467.2823    491.67768     415.8294    8.6677947    36500.952 
  953400    314.98565   -1490.3534    483.04535    416.08309   -2.4933759    36500.952 
  953500    306.55085   -1497.9019    476.32303    363.69624    2.1657303    36500.952 
  953600    314.72585   -1500.7469    468.39879     389.8691    355.30384    36500.952 
  953700     313.9016   -1522.9692    474.23879    369.76205    321.79955    36500.952 
  953800    291.16731   -1494.9803    482.25215    303.03017    961.74694    36500.952 
  953900    303.57291   -1508.3841    498.46272    361.89669     220.5888    36500.952 
  954000    297.96468   -1488.9939    492.34534    349.82644    595.13968    36500.952 
  954100    292.90776   -1531.8989    478.19055    269.91494    548.11237    36500.952 
  954200    293.01028   -1548.9797    481.01205    256.11889    553.13772    36500.952 
  954300    296.69981   -1545.6317    501.33419    296.46159    620.93109    36500.952 
  954400    295.83102   -1536.7165    474.14804     274.2647    551.11275    36500.952 
  954500    301.77062   -1507.4949    491.41019    347.58898   -110.08986    36500.952 
  954600    301.88903   -1504.8819    487.64529    346.97214   -95.636587    36500.952 
  954700    297.78916   -1536.5466    480.34993    289.48512    129.52409    36500.952 
  954800    311.93162   -1497.6481    467.54822    379.49045    -462.7473    36500.952 
  954900    294.41223    -1545.386    461.32019    246.35598   -576.12633    36500.952 
  955000    313.41918   -1496.2345    477.15905    397.23695    293.01205    36500.952 
  955100    305.88883   -1524.7226    487.60033    345.16119    138.92713    36500.952 
  955200    302.01649   -1530.7883    452.85173    286.84819    336.98014    36500.952 
  955300    306.42242   -1497.2862    490.74213    378.15071   -86.716191    36500.952 
  955400    301.27074   -1504.2214    465.70522    322.89856   -59.229708    36500.952 
  955500     302.4365   -1478.0442    492.47989    381.11843   -451.90152    36500.952 
  955600     295.9754   -1545.0087    477.53522    270.01212   -154.88867    36500.952 
  955700    290.26941   -1525.9268    491.39772    277.17172   -472.22098    36500.952 
  955800    291.20312   -1519.3506    470.42883    266.99832   -271.32252    36500.952 
  955900    297.35718   -1529.0212    464.80676    279.51532   -575.82628    36500.952 
  956000     305.4057   -1513.6439    498.43708    364.89342   -939.62748    36500.952 
  956100    295.01923   -1531.9826    452.03643    253.21859   -228.42202    36500.952 
  956200    302.27242   -1542.9041    518.89571    341.93286   -122.51195    36500.952 
  956300    302.26094   -1557.9338    505.42856     313.3841   -41.023812    36500.952 
  956400    285.15836   -1518.0155     471.6176    242.20656   -243.39443    36500.952 
  956500    301.54158   -1561.5139    500.66832    301.79313   -618.22928    36500.952 
  956600    300.70463   -1517.9156    460.43687    301.37788    250.19163    36500.952 
  956700    311.13087   -1525.0934    465.62034    346.49877    776.93332    36500.952 
  956800    308.42747   -1534.4166    497.31513    356.65386    173.38527    36500.952 
  956900    297.97776   -1523.4347    467.08841    290.18781    648.02304    36500.952 
  957000    305.48855   -1558.5629    485.49584    307.40761    252.43249    36500.952 
  957100    305.36701   -1555.0258    463.68177    288.58136   -204.23841    36500.952 
  957200    296.03489   -1511.1702    476.73717    303.32136   -181.56927    36500.952 
  957300    303.27656   -1557.7779    451.09104      263.792   -351.03071    36500.952 
  957400    301.68139   -1541.0187    461.75801    284.00972   -433.26339    36500.952 
  957500    296.39414   -1524.8233    504.03233    318.58691   -28.472576    36500.952 
  957600    306.11315   -1534.8097    476.88349    325.37094   -118.38352    36500.952 
  957700    294.52073   -1492.3086    478.38778    316.99131   -276.54487    36500.952 
  957800    299.43426    -1487.521    499.49988    365.09472    89.970577    36500.952 
  957900    307.15065   -1495.0573    484.21424    377.14245   -133.23826    36500.952 
  958000    299.19285   -1489.3543    495.83013    358.50084   -103.74442    36500.952 
  958100    290.29648   -1507.8977    491.75491    295.68031   -326.69079    36500.952 
  958200    307.17227   -1471.9832    490.18144    406.28148    35.775116    36500.952 
  958300    297.38106   -1479.5535    447.26711    311.55123    28.778501    36500.952 
  958400    294.33892   -1460.8137    488.27168     357.5485    177.46773    36500.952 
  958500    290.26294   -1506.4694    481.06679    286.26893    251.88508    36500.952 
  958600    285.90961   -1504.3695    508.24023    295.86999    235.84965    36500.952 
  958700    299.87864   -1499.5215    479.71369    335.31614    141.66903    36500.952 
  958800    298.84939   -1509.9483    468.72003    309.24459    375.63178    36500.952 
  958900    306.76912   -1527.8776    505.71702    364.10086    35.365637    36500.952 
  959000    302.40415   -1530.2592    480.55153    316.82883    511.07112    36500.952 
  959100    299.38646   -1478.8872    477.01962     351.0323    487.27346    36500.952 
  959200     302.7882   -1501.3633    510.19794    377.10667     54.31841    36500.952 
  959300    299.66315   -1510.5292    482.53594    326.15691    62.728143    36500.952 
  959400    295.14938   -1493.8412    478.21131    318.12298    614.29994    36500.952 
  959500    304.46033   -1476.8372    466.57692    365.56797   -303.86427    36500.952 
  959600    290.20382    -1494.675     494.3267    311.05608   -449.26998    36500.952 
  959700    296.19008   -1480.5683    486.91271    344.80017    107.54531    36500.952 
  959800    299.65394   -1449.6845     490.9915    395.41562    256.03572    36500.952 
  959900    295.25287   -1494.8023    461.35592    300.77418    126.66141    36500.952 
  960000    313.96611    -1470.721    509.23134    457.29427    132.64827    36500.952 
  960100    303.84592   -1515.8902     495.9729    353.13442   -71.695405    36500.952 
  960200    303.52411   -1520.9306    475.91826     326.5852   -198.72414    36500.952 
  960300    291.55849   -1524.0221    487.20396    280.70791    -310.7332    36500.952 
  960400    297.20392   -1524.5369    497.84898    316.34928   -1038.3389    36500.952 
  960500    296.72163   -1548.9175    474.36289    266.30317   -461.34584    36500.952 
  960600    295.76839   -1544.7978    457.34951    249.10182    -313.5161    36500.952 
  960700    310.43115   -1550.4103    478.98809    331.38762   -522.85751    36500.952 
  960800    303.85374   -1512.9995    479.43878    339.52642    -98.79396    36500.952 
  960900    298.67413   -1508.0972    485.05787    326.64155   -720.55944    36500.952 
  961000    290.89311   -1515.0788    501.68951    301.12993    -417.7612    36500.952 
  961100    305.83782   -1503.7042    475.82747    354.17627   -656.96823    36500.952 
  961200     301.2078   -1529.4389    470.98504    302.67649   -4.6902925    36500.952 
  961300    297.15779   -1526.3246    474.68369    291.18781   -22.221232    36500.952 
  961400    305.29408   -1527.3848    494.71043    346.92147   -221.56951    36500.952 
  961500    292.69279   -1501.3167    499.49304    320.82817    59.513416    36500.952 
  961600    291.49358   -1511.8129    494.16168     299.5814   -161.30131    36500.952 
  961700    305.11936   -1464.2765    507.87108     422.4009   -398.01641    36500.952 
  961800    295.45199   -1518.6574    477.64699    294.10996     208.9429    36500.952 
  961900    299.72741   -1477.9582     467.5025    343.98493    181.98855    36500.952 
  962000    299.89454   -1515.1905     487.9886    327.99397    388.39594    36500.952 
  962100    289.51624   -1492.1471    507.26068    323.41079    100.75854    36500.952 
  962200    295.65671   -1524.2645    488.81715    300.59818    636.47457    36500.952 
  962300    303.47239   -1533.2988    471.91703    309.98203    144.46558    36500.952 
  962400    298.77682   -1509.1278    497.46241    338.47957    423.73353    36500.952 
  962500    300.04892   -1460.1225    478.45533    374.22628    499.17074    36500.952 
  962600    299.35933    -1498.484    510.52316    364.81648    570.38389    36500.952 
  962700    307.73823    -1493.863    488.57105    385.34882    918.33125    36500.952 
  962800    292.20367   -1534.6701    490.29077     276.0622    526.56025    36500.952 
  962900    307.10389    -1510.774    474.41024    351.41046    404.33791    36500.952 
  963000    296.16014   -1510.2077    479.97538    308.08812     78.50057    36500.952 
  963100    295.89814   -1486.9198    518.68987    368.90652   -488.75126    36500.952 
  963200    291.70836   -1499.7703    493.41382    311.84681   -199.35934    36500.952 
  963300    290.81308   -1493.9006    503.54033    323.79732    116.77556    36500.952 
  963400    295.76608    -1493.966    481.80967    324.38334    500.72683    36500.952 
  963500    303.34164   -1498.7614    502.41159     374.4231    141.36314    36500.952 
  963600    300.82594   -1484.9842    474.16574    348.58631   -62.749161    36500.952 
  963700    304.02881   -1460.7762     499.8104    412.91244   -348.50467    36500.952 
  963800    291.77064   -1471.1528     512.7094    360.04133   -1511.9865    36500.952 
  963900    298.02643   -1494.8437    463.01584    314.92622   -736.04138    36500.952 
  964000    303.30502   -1492.1298    485.78939    364.26708   -947.35735    36500.952 
  964100    298.50884   -1459.4837    494.86003    384.31031   -997.09385    36500.952 
  964200    308.20177   -1481.9836    491.29959    402.05141   -405.41732    36500.952 
  964300    308.42715   -1465.7581    503.54001    431.53582    125.28855    36500.952 
  964400    303.36356   -1465.2842    478.06337    383.65123    1021.2088    36500.952 
  964500    300.14339   -1488.3329    487.29204    355.27958    703.11167    36500.952 
  964600    294.57327   -1442.8149    525.57251    413.90714    722.68355    36500.952 
  964700    300.12806   -1540.5513    485.59446    301.29428    815.11628    36500.952 
  964800    297.95991   -1486.7008    517.13406    376.88667    574.23881    36500.952 
  964900    307.70063   -1511.9927    505.42055    383.89866   -46.252648    36500.952 
  965000    306.65934   -1492.7798    465.10754    358.09307    94.434328    36500.952 
  965100    304.95379   -1503.5521     497.5708    372.07684    522.93025    36500.952 
  965200    289.26475   -1499.6601    467.90248    275.40322   -164.09044    36500.952 
  965300    297.98514   -1517.6632    481.77411    310.67838   -76.250706    36500.952 
  965400    301.69478   -1535.9095    480.92108    308.34259   -235.56352    36500.952 
  965500     298.5348    -1544.357    513.27742    317.97172   -394.84945    36500.952 
  965600    292.10486   -1551.2683    465.54954    234.27625    116.24087    36500.952 
  965700    292.90463   -1528.9984    493.75407    288.36476    83.400504    36500.952 
  965800    301.70029   -1553.7699    499.86614    309.45206   -9.8164211    36500.952 
  965900    308.22971   -1580.2192    484.43615    297.07866    455.05383    36500.952 
  966000    304.54851   -1601.2904    473.53738     248.4737     931.3352    36500.952 
  966100    304.95532   -1585.8909    482.81563     274.9898     255.7924    36500.952 
  966200    308.67924   -1573.4683    457.49109     278.9159   -203.88035    36500.952 
  966300    293.45413    -1545.156    518.97024    299.90649   -327.22955    36500.952 
  966400    292.15521   -1553.8008    478.76859    245.19031   -647.06739    36500.952 
  966500    287.48195   -1562.0623    476.49123    213.53342   -592.53663    36500.952 
  966600    303.73021   -1579.6237    488.38318    281.28834   -549.43881    36500.952 
  966700    300.02008   -1563.2629       451.06    243.56023   -922.17942    36500.952 
  966800    298.03032   -1537.9237    465.48695    274.33482   -959.11375    36500.952 
  966900    291.92533    -1534.452    476.84462    261.57634   -926.32617    36500.952 
  967000    298.98783   -1522.8691    479.46003    307.68946    -985.5637    36500.952 
  967100    297.45043   -1553.8704    513.20325    303.48402    99.449495    36500.952 
  967200    300.62908   -1536.4866    531.91993     353.9485    229.93875    36500.952 
  967300     292.3858   -1502.0854    486.13253    305.31166    307.74357    36500.952 
  967400    303.20965   -1499.3384    482.38649    353.22462    180.15411    36500.952 
  967500    305.09481    -1510.749    463.67125    331.61765   -146.41675    36500.952 
  967600    294.83515   -1511.2966    477.28555    298.32187   -9.6104551    36500.952 
  967700     304.4417   -1505.6849    497.01498    367.07418   -269.00221    36500.952 
  967800    294.29638   -1498.8594    471.63995    302.67883    125.83495    36500.952 
  967900    300.85657    -1515.105      485.398    329.83618   -207.38313    36500.952 
  968000    307.60133   -1500.1459    497.96593    387.84214   -30.479281    36500.952 
  968100    306.91618   -1492.2932     487.5281    382.16088    501.35505    36500.952 
  968200    295.03827   -1541.8432    483.65246    275.06009    663.95485    36500.952 
  968300    305.66823   -1557.0677    501.66732    325.88621    630.23604    36500.952 
  968400    295.52776   -1532.4516    497.63623    300.64734    978.25815    36500.952 
  968500    306.79542   -1553.0727    500.53131    333.83887    662.64936    36500.952 
  968600    298.73734   -1551.3564    476.90345    275.51357    193.52389    36500.952 
  968700    300.89351   -1515.3181    489.52845    333.92048    419.76019    36500.952 
  968800    295.34162   -1540.1797    499.74998    294.19188    -84.57524    36500.952 
  968900    292.77785   -1512.9794    493.25289    303.30969   -274.44747    36500.952 
  969000    296.10436   -1523.1158    509.42082    324.37345    227.99055    36500.952 
  969100    297.88334   -1516.1012    470.58635    300.59256    452.63328    36500.952 
  969200    300.71701   -1528.1342    514.95408    345.73237    597.64038    36500.952 
  969300     295.0206   -1547.0362    493.57384    279.70861    101.66534    36500.952 
  969400    294.96466    -1580.333    502.02694    254.61211   -215.18164    36500.952 
  969500    301.18344   -1542.0017     470.9851     290.0037   -379.38366    36500.952 
  969600    295.97523   -1537.2629     476.0402    276.26212   -278.89765    36500.952 
  969700    302.47911   -1530.6434     519.3912    355.62307    259.23591    36500.952 
  969800    299.99128   -1496.3899    521.53216    380.77534   -193.17549    36500.952 
  969900    302.32491   -1475.9156    497.44878    387.71167   -17.971763    36500.952 
  970000    304.14946   -1505.6501     486.4185    355.19181    -247.1397    36500.952 
  970100    303.17564   -1494.9178    505.45913     380.5642   -178.45498    36500.952 
  970200    300.71178   -1534.6508    475.63545    299.87354   -88.181055    36500.952 
  970300     306.2844   -1493.1033       515.93    406.89768   -360.84219    36500.952 
  970400    295.09775   -1521.6437    491.17695    303.05285   -162.09414    36500.952 
  970500    296.02739   -1562.2329    474.13004    249.61768   -174.00127    36500.952 
  970600    294.11255   -1539.7341    488.77847    278.11196    49.542744    36500.952 
  970700    298.69772   -1532.1294    483.86454    301.52271   -192.66731    36500.952 
  970800    296.40751   -1539.4896    483.65717    283.60581   -266.39981    36500.952 
  970900    304.00726   -1534.5539    506.18714    345.41411    -312.1859    36500.952 
  971000    291.78061    -1532.125    492.94355    279.34832    344.75982    36500.952 
  971100    292.35641   -1527.3694    499.68731    293.44967   -143.15435    36500.952 
  971200    288.73138   -1502.0903    469.49479    272.15507   -366.44456    36500.952 
  971300    294.64996   -1455.9371    484.71931    360.27833   -1028.2462    36500.952 
  971400    304.98606   -1445.2669    484.80338    417.74045   -509.51865    36500.952 
  971500    310.01722   -1467.8509    497.62978    430.71821   -310.79487    36500.952 
  971600    313.57643   -1528.6837    509.28551    397.62487    322.14413    36500.952 
  971700    299.25669   -1542.4373     518.1847    328.06083    38.633706    36500.952 
  971800    294.05918   -1498.4286    513.06096    343.45876    184.50527    36500.952 
  971900    301.77578   -1497.4157    500.54799    366.82925   -301.97438    36500.952 
  972000    307.10623   -1535.8248    496.89471    348.85467   -406.71064    36500.952 
  972100    299.40006   -1508.1133    479.01469    323.86274   -489.67488    36500.952 
  972200    289.24613   -1489.2201    501.71597    319.57254   -501.22545    36500.952 
  972300    295.17677   -1468.6563    506.45792    371.67827   -140.17661    36500.952 
  972400    305.65278   -1458.6351    506.16156    428.74327   -288.62151    36500.952 
  972500    293.18452   -1452.8555    508.95677    380.97516   -64.272794    36500.952 
  972600    296.42105   -1460.4027    489.01426    368.11103   -524.99751    36500.952 
  972700    313.96062   -1500.1109    516.37186     435.0201    21.328566    36500.952 
  972800    296.72249   -1455.5372    487.78661    373.11101    158.37377    36500.952 
  972900    294.21755   -1467.2851    498.57392    360.83084   -105.06686    36500.952 
  973000    311.42616   -1474.4704     517.5123    450.34814    86.192957    36500.952 
  973100    286.99012   -1458.7211    524.86623    363.02709    -26.60051    36500.952 
  973200    295.25672    -1451.611    478.56197    361.18894    238.66585    36500.952 
  973300    301.42023   -1459.8931    487.05459    389.25182    584.59475    36500.952 
  973400    306.20221    -1476.328    484.88998    392.26162    288.14683    36500.952 
  973500     301.4693   -1456.7861    495.23021     400.7562    720.87819    36500.952 
  973600     298.2563   -1460.6607    521.09314    408.22522    406.44083    36500.952 
  973700    294.63487   -1435.5722    494.20077    390.05647   -122.96774    36500.952 
  973800    291.97164   -1393.9372     483.9764    409.43217   -366.89401    36500.952 
  973900    301.51848   -1412.3549    517.31216    467.49154    205.00231    36500.952 
  974000    288.74983    -1422.334    523.95156    406.45144   -85.737788    36500.952 
  974100    306.43067   -1429.5535    489.10203    444.28057    257.89652    36500.952 
  974200    305.80353   -1480.0546    507.71689    409.56032   -187.54614    36500.952 
  974300    299.96478   -1471.7561    483.33058    367.08772   -159.58422    36500.952 
  974400    290.48491   -1481.5666    482.06687    313.17484   -320.22044    36500.952 
  974500    299.75905   -1463.6812    494.65972    385.56206   -611.12768    36500.952 
  974600    309.17483   -1494.5867    496.54282    399.08869   -276.25543    36500.952 
  974700    306.61494   -1457.5759    482.11106    410.09986   -747.58791    36500.952 
  974800    298.19155   -1479.0473    480.39337    348.84625   -534.53265    36500.952 
  974900    294.91607    -1498.079    486.48468    321.10423    26.951565    36500.952 
  975000    311.18019   -1498.4114    481.78263    389.56594   -610.31394    36500.952 
  975100    303.19687   -1485.6948    491.38715    375.81106   -260.36192    36500.952 
  975200    295.55805   -1508.2549    475.41865    302.76345   -230.80268    36500.952 
  975300     302.3222   -1455.1564    502.03032    413.04015    161.75456    36500.952 
  975400    300.87112   -1445.9725    497.69349    411.32989   -332.25844    36500.952 
  975500    306.38282   -1468.9713    504.77911    420.32362    174.03532    36500.952 
  975600    308.58289    -1475.482     488.6901    407.66577    305.46558    36500.952 
  975700    304.12703   -1492.6923    486.09896    367.72873    281.31288    36500.952 
  975800    311.25017   -1485.8527    485.76281    406.42099    236.40177    36500.952 
  975900    301.83199   -1509.7019    494.78037    349.02945    390.71829    36500.952 
  976000    302.23828   -1476.1925    506.16828    395.76271    198.20835    36500.952 
  976100    295.30472   -1477.4161    508.62029    365.65903   -152.03297    36500.952 
  976200     293.2893   -1456.5109    501.55007     370.3865   -446.81353    36500.952 
  976300    305.63295   -1508.0264    470.82387    343.92473    243.22375    36500.952 
  976400    298.17478   -1459.7103    502.29275    390.00683    328.19695    36500.952 
  976500    291.18245   -1490.3468    473.31276    298.79263    693.36254    36500.952 
  976600    311.05245   -1475.2142    491.67404    422.07721    1011.5382    36500.952 
  976700    297.22304   -1523.0922    487.26597     307.2973    620.60352    36500.952 
  976800    298.66323   -1489.3204    469.12625    329.43748    136.39843    36500.952 
  976900    308.46024   -1516.5773     483.8632    361.18935    974.20978    36500.952 
  977000    299.39169   -1479.4023    499.94894     373.4702    479.19077    36500.952 
  977100    297.11887   -1521.0761    482.20535     303.7821   -206.68257    36500.952 
  977200    298.39586   -1538.6126    480.62405    290.43486    -241.8054    36500.952 
  977300    305.80783   -1527.6612    486.90296    341.15925     162.8455    36500.952 
  977400    303.26356   -1502.4226    496.84175    364.83927   -187.61065    36500.952 
  977500    300.46261   -1529.0798    500.44209    329.12522    125.39439    36500.952 
  977600    298.13186   -1538.9627    464.14909    272.41688    680.49388    36500.952 
  977700    298.13152    -1523.099    480.70501    304.83498    181.30272    36500.952 
  977800      306.498   -1519.3851    481.58296    347.23416   -251.58996    36500.952 
  977900    304.94371   -1519.7134       465.78    324.07921    196.33887    36500.952 
  978000    298.33583   -1512.6507    469.17585    304.67738   -53.048901    36500.952 
  978100    304.11771   -1496.8536    496.62332    374.04969    444.71834    36500.952 
  978200    308.11288    -1525.576    482.81427    349.57201    624.03267    36500.952 
  978300    302.69162   -1525.0198    480.12305    322.93888     576.2268    36500.952 
  978400    298.04811   -1565.9045    480.90722    261.85473    394.01261    36500.952 
  978500    295.25722   -1510.6763    488.09108    311.65497    260.86259    36500.952 
  978600    290.72364   -1515.4121    482.34122    280.68251   -31.580342    36500.952 
  978700    305.73663   -1484.5801    465.45247    362.46812   -37.360362    36500.952 
  978800    307.99209   -1506.8953    473.12027    358.01296    69.462567    36500.952 
  978900    304.04287   -1489.8941    483.64265    367.69034    -271.9133    36500.952 
  979000    299.27813   -1460.2831    468.11767    360.24491   -60.676796    36500.952 
  979100    305.91668   -1481.8953     483.7078    384.22183    370.29135    36500.952 
  979200    296.22879   -1473.3217    488.26366    353.57258    83.859424    36500.952 
  979300    308.58501   -1442.5016    505.73297    457.69861   -53.276368    36500.952 
  979400     297.9324   -1464.0336    474.39592    356.69146     174.3404    36500.952 
  979500    294.73338   -1476.9571    488.29393    343.20987    243.85615    36500.952 
  979600    287.98158   -1461.5241     495.2887    335.12692   -246.93518    36500.952 
  979700    284.61758   -1510.9928    496.27976    271.44763    -731.5274    36500.952 
  979800    309.81536   -1499.7964    490.35098    390.58176   -56.621893    36500.952 
  979900    293.65778   -1503.8266    499.79484    322.98075   -92.708456    36500.952 
  980000    310.06775   -1509.6451    481.65578    373.17827   -179.08426    36500.952 
  980100    300.59922   -1498.2146    495.67797    355.84366    106.16532    36500.952 
  980200    309.17933   -1493.9394    482.56645    385.78006    -122.4649    36500.952 
  980300    299.75338    -1450.405    480.74185    384.89475   -72.955132    36500.952 
  980400    300.70337   -1485.2327     482.4299    356.04803    89.876075    36500.952 
  980500    289.49386    -1479.675    494.41601    322.93716    152.91286    36500.952 
  980600    300.84868   -1490.7218    509.34781    378.13348   -315.24714    36500.952 
  980700    288.44967   -1512.3674    498.54067    289.65084    119.43412    36500.952 
  980800    308.63228   -1500.2833    513.45195    407.84954    751.66702    36500.952 
  980900    297.33575   -1513.0567    485.55726    316.13345    396.70743    36500.952 
  981000    296.67241   -1488.5299    490.73249     342.8379    156.57187    36500.952 
  981100    307.38494   -1486.2375    490.02317    392.82991    30.758825    36500.952 
  981200    291.52457   -1479.6374    468.03796    305.77326   -878.08769    36500.952 
  981300    310.29592   -1488.9069    474.93506    388.22686   -731.67797    36500.952 
  981400    301.57592   -1501.2368    462.40964    323.96664   -134.86456    36500.952 
  981500    304.45571   -1494.2751    493.03635    374.56857       840.91    36500.952 
  981600    305.24498   -1503.0494    516.13373    392.45833    497.14376    36500.952 
  981700    286.67523   -1522.7943    506.18346    278.84821    351.28302    36500.952 
  981800    295.66066   -1495.9435    522.78547    362.90531    480.10593    36500.952 
  981900    306.31668   -1489.9224    469.82845    364.12301     349.4451    36500.952 
  982000    306.75908    -1485.367    499.12026    399.96927   -181.26201    36500.952 
  982100    296.35782   -1493.3866    477.83718    323.66431   -146.84119    36500.952 
  982200     299.9663   -1494.9938    486.32152    346.84787    254.17199    36500.952 
  982300    295.50615   -1493.8343    494.89074     336.4216    803.31453    36500.952 
  982400    305.91221   -1500.9062     490.6412    372.12412    183.91918    36500.952 
  982500     312.1788   -1477.8836    482.41574    415.23945   -38.888625    36500.952 
  982600    300.22999   -1456.7408    495.38107    395.35195   -696.80295    36500.952 
  982700     308.3797   -1409.2465    484.09199    468.38503   -555.49283    36500.952 
  982800     299.3636   -1449.0632    513.03681    416.77019   -815.15394    36500.952 
  982900     300.3478   -1490.2887    483.32168    350.27711   -577.71119    36500.952 
  983000    304.82873   -1483.1171    498.03441    392.41028    -360.4585    36500.952 
  983100     290.2732   -1444.3666    530.36564    397.71693    239.49614    36500.952 
  983200    300.68765   -1499.0577    527.58563    387.30772    272.60612    36500.952 
  983300    298.91129   -1492.7405    490.55786    348.56997    88.903705    36500.952 
  983400    307.77984   -1476.8077    490.42311    404.44415    577.90537    36500.952 
  983500    292.84229   -1516.2333    488.02673    295.12075   -154.55593    36500.952 
  983600    314.53852   -1463.6209    509.34102    467.09082    258.78193    36500.952 
  983700    299.36106   -1496.5147    505.43759    361.70805   -126.30399    36500.952 
  983800    304.92469   -1504.3307    513.76826    387.36421    280.35358    36500.952 
  983900    291.30582   -1471.7433     500.7301    345.37102   -384.46456    36500.952 
  984000    304.32822   -1517.0139    516.02796    374.24531    -38.77284    36500.952 
  984100     308.1991   -1515.2018    508.18383    385.70545   -254.34008    36500.952 
  984200    307.01114   -1534.7069    477.05936    329.70762    216.21428    36500.952 
  984300    288.56936    -1538.167     498.2561     264.1075   -444.73416    36500.952 
  984400     300.9838   -1512.5048    499.93736    347.55069    142.30398    36500.952 
  984500    300.10086   -1546.9968    529.95017    339.08156   -528.21757    36500.952 
  984600    298.59556     -1520.89    495.42362    323.85949    -394.7285    36500.952 
  984700    291.69615   -1544.5736    494.02359    267.59801   -768.13781    36500.952 
  984800    305.42876   -1501.4606    494.51666    373.26051   -517.26499    36500.952 
  984900    304.05633   -1513.8789    503.64595    363.76964   -543.77692    36500.952 
  985000    297.73421   -1507.6881    488.42315    326.16861   -156.07534    36500.952 
  985100     294.8928   -1522.7007     511.7399    321.63264   -120.30613    36500.952 
  985200    293.09548   -1482.6078    511.95351     353.8172    202.68789    36500.952 
  985300    300.59167   -1498.0931    501.36488    361.61791    177.69142    36500.952 
  985400    303.20106   -1471.5213    501.53112    400.14753    44.511715    36500.952 
  985500    297.07327   -1481.1041    511.50888    372.85154    10.104949    36500.952 
  985600    302.84654   -1548.9505     502.0732    321.65836    301.35623    36500.952 
  985700    302.17599   -1491.9288    489.66103    363.23773   -419.62565    36500.952 
  985800    301.66293   -1476.2471    497.53798    384.47792   -91.256334    36500.952 
  985900    291.11007   -1499.3274     516.5873     332.7595    -50.91913    36500.952 
  986000    306.68491   -1538.6989    478.26658    325.44855    1149.0331    36500.952 
  986100    295.82714   -1540.7322    495.92391    292.00731    576.82066    36500.952 
  986200    294.72989   -1488.8037    518.60839    361.66191    334.36278    36500.952 
  986300     305.1211   -1478.3292    500.99763    401.48264    532.97338    36500.952 
  986400    303.27098   -1494.8882    492.52174    368.08722      155.419    36500.952 
  986500     306.6636   -1503.0544    484.45488    367.18513    225.46362    36500.952 
  986600    304.56764   -1534.1909    495.43132    337.55361    58.498225    36500.952 
  986700    303.79779   -1502.4345    506.95633    377.35612    176.98215    36500.952 
  986800     301.1066   -1492.8213    495.84707    363.69879    349.12416    36500.952 
  986900    308.39825   -1461.2105    479.98745    412.40028    78.163285    36500.952 
  987000    305.10513   -1427.8716    517.37335    468.24374   -607.55101    36500.952 
  987100    295.71775   -1456.9724    498.11051     377.4594   -147.72664    36500.952 
  987200    287.26007   -1493.7188     496.5671    300.95013   -4.7640092    36500.952 
  987300    286.04797   -1505.9176    514.95728    301.66414   -503.06925    36500.952 
  987400    296.54696   -1486.0681    501.16543    355.16578   -347.27165    36500.952 
  987500    289.86458    -1485.413    504.34662    328.80503    222.11565    36500.952 
  987600    295.73937   -1477.5678     494.6353    353.48653    462.25105    36500.952 
  987700    307.96109   -1454.8944    497.51937    434.27284    301.71199    36500.952 
  987800    297.26155   -1485.1335    469.89689    328.06102    71.647734    36500.952 
  987900    295.55124   -1469.6287     522.2285    388.16866    237.78558    36500.952 
  988000    306.21143   -1452.4676    505.54801     436.8217   -199.02042    36500.952 
  988100    286.84429   -1429.2228    531.15786      398.158    61.902273    36500.952 
  988200    311.22295   -1439.7196    472.27242    438.94076   -350.50662    36500.952 
  988300     305.7702   -1475.6437    510.50488    416.60855   -898.70457    36500.952 
  988400    302.02123   -1465.9182    480.56302      379.451   -33.318706    36500.952 
  988500    309.96587   -1473.0126    491.16779    418.86247    727.29996    36500.952 
  988600    303.35255   -1480.2101    490.05394    380.66611    1099.2892    36500.952 
  988700     295.1955   -1512.8347     492.3225    313.44913    852.36274    36500.952 
  988800    295.13147   -1523.2128    517.95157     328.4107    115.88411    36500.952 
  988900    291.94031   -1508.1829    492.33025    303.39876   -126.71977    36500.952 
  989000    309.13263   -1494.5141    507.35381    409.78157   -310.02964    36500.952 
  989100    303.26815   -1507.6047    459.21662     322.0528    98.109123    36500.952 
  989200    301.62679    -1530.722    499.32471    331.62644 -0.023409699    36500.952 
  989300    308.04054   -1485.9098    487.81627    393.91335    99.688516    36500.952 
  989400    299.40787   -1500.5065    495.89417    348.38431    316.78377    36500.952 
  989500    292.91157   -1524.9308    514.45524    313.16487   -274.97763    36500.952 
  989600    293.74773   -1506.5835    496.61655    317.45201    311.59982    36500.952 
  989700    310.72717   -1498.6386    506.71563    412.22453    276.12027    36500.952 
  989800    301.57299   -1499.7613    498.96203    361.98136   -244.22391    36500.952 
  989900    290.62005   -1530.9298    474.28419    256.63965     13.41208    36500.952 
  990000    297.60948   -1500.8252     519.9183      363.963    404.07869    36500.952 
  990100    303.23392   -1478.3409    522.47958    414.42489    110.42546    36500.952 
  990200    292.00642    -1473.573    491.63554    337.61268   -161.51314    36500.952 
  990300    298.16356   -1503.0676    502.98832    347.29438    8.6715921    36500.952 
  990400    295.37045   -1472.4665    505.71262    367.99806    97.542308    36500.952 
  990500    294.70709   -1491.4468    513.93624    354.24374    459.06048    36500.952 
  990600     311.2943   -1534.7054    500.53264    372.53756    956.29813    36500.952 
  990700    300.30362   -1489.9219    498.38195    365.50448    216.25329    36500.952 
  990800    306.25111   -1437.8647    498.26468    444.32063    251.31426    36500.952 
  990900    300.85531   -1421.2872    499.68721    437.93746    187.54042    36500.952 
  991000    292.73825     -1483.38    503.20961    342.68683   -289.42304    36500.952 
  991100     296.2834   -1488.8508    489.96829    339.99494   -831.66089    36500.952 
  991200    295.13255   -1479.2467    502.77217    357.20229   -882.11237    36500.952 
  991300    308.62085   -1471.7961    489.77231    412.60545    238.88047    36500.952 
  991400    308.34853   -1480.2853    523.22623    436.33953    146.23282    36500.952 
  991500    300.47114   -1493.0302    506.75223    371.52351   -182.13325    36500.952 
  991600    290.77529   -1506.7833    512.08569    319.28924    670.27412    36500.952 
  991700    301.73613   -1515.2243    484.55408    332.84759    656.10486    36500.952 
  991800    303.04256   -1516.5192    515.13069    368.03301    278.90328    36500.952 
  991900    297.84994   -1523.0226    525.19893    348.13284    598.28393    36500.952 
  992000    303.34986   -1503.5743    477.74739    344.98314   -42.032852    36500.952 
  992100    295.24759   -1512.9858    480.77138    301.98229    -379.3803    36500.952 
  992200    301.36214   -1496.7703    472.05442    337.11191   -192.49665    36500.952 
  992300    303.92743   -1456.5756    521.32709    438.17156   -184.80607    36500.952 
  992400    299.25766   -1470.7189    501.62011    383.21904   -620.59804    36500.952 
  992500    300.39984   -1484.6041    477.69916    350.57436   -270.75055    36500.952 
  992600    296.26947   -1443.8229    498.92652    393.91811   -253.09014    36500.952 
  992700    304.57792   -1503.2662    483.34668    356.44013   -109.81356    36500.952 
  992800    304.69197   -1522.2727    495.65136    350.25362   -465.15687    36500.952 
  992900    290.69215   -1490.1581    497.95756    321.41056   -125.38917    36500.952 
  993000    306.46303   -1499.1545    520.07891    405.80261   -25.263852    36500.952 
  993100    295.26436   -1511.8504    513.34068     335.7628    172.44454    36500.952 
  993200    305.29613   -1499.4856    503.63663    383.75617    152.98157    36500.952 
  993300    300.42388   -1484.4983    506.34664    379.43621   -732.62606    36500.952 
  993400     297.9482   -1461.6131    507.56447     392.3519   -389.43922    36500.952 
  993500     300.0631   -1486.1236    489.92826     359.7622   -333.00046    36500.952 
  993600    295.84496   -1472.3367    504.33414     368.8936   -172.38137    36500.952 
  993700    297.47142   -1471.5145    495.67531    368.40682    -24.16845    36500.952 
  993800    299.23955   -1469.5084    490.38409    373.11166    177.57799    36500.952 
  993900    305.85824   -1472.9396    498.63765    407.84328   -337.21582    36500.952 
  994000     303.0673   -1513.1752    495.32371    351.68182    56.985662    36500.952 
  994100     298.9591   -1504.3916    504.70175    351.27884    124.58669    36500.952 
  994200    285.67226    -1482.797    490.42054    298.55018    759.59412    36500.952 
  994300    288.22017   -1525.2476    485.75245    262.94524    858.18069    36500.952 
  994400    298.90727   -1477.9068    505.31172    378.13939    355.49059    36500.952 
  994500    301.92849   -1457.2986    518.77642    425.86487    126.87548    36500.952 
  994600    300.46662   -1480.2186    493.37166    370.93409   -122.07742    36500.952 
  994700    290.15196   -1486.7311    503.64836    328.08734   -150.65181    36500.952 
  994800    301.65535   -1471.6198    491.63315    383.16616   -435.02484    36500.952 
  994900    293.14469   -1462.9307    506.23037     367.9936    -103.5415    36500.952 
  995000    299.99646   -1427.3684    483.88981    412.17782    568.79307    36500.952 
  995100    302.25443   -1465.6164    519.51689    419.76048    331.93841    36500.952 
  995200    297.37528   -1456.3308    483.90379    371.38454   -653.22989    36500.952 
  995300    296.64223   -1490.7224    525.07086    374.84745   -256.92449    36500.952 
  995400    304.72116   -1485.7596    491.49589    382.74315    -438.1691    36500.952 
  995500    307.92965   -1495.7461    477.76566    373.52529   -502.52635    36500.952 
  995600    316.90507   -1489.6713    496.59282     438.9864    368.27898    36500.952 
  995700    306.44962   -1489.8267    484.02071    379.01162    730.94714    36500.952 
  995800    289.57626   -1519.9172    505.33468    293.98593    81.396796    36500.952 
  995900     306.1142   -1533.9496    512.75005    362.10244    263.63113    36500.952 
  996000    296.97277    -1541.937    451.30379    251.35936   -111.48876    36500.952 
  996100    304.59306   -1539.4368    503.39888    340.39011   -233.17593    36500.952 
  996200    305.09489    -1519.937    470.85977    329.61849    32.791253    36500.952 
  996300    307.15568   -1504.9364    494.52321    377.59511    123.13188    36500.952 
  996400    287.18809   -1498.8665    477.32806     276.2381   -490.29448    36500.952 
  996500    300.00076   -1521.5041    490.84303    325.01482    61.358164    36500.952 
  996600    292.45796   -1543.3185    483.99512    262.26724   -11.572272    36500.952 
  996700    295.02406   -1524.2725    492.86086    301.77499   -607.89917    36500.952 
  996800    300.67297   -1506.9749    472.36029    324.09888   -70.907176    36500.952 
  996900    295.76582   -1491.8542    479.34462    324.02902    29.755513    36500.952 
  997000     303.8789   -1477.8257    502.98264    398.35773      171.664    36500.952 
  997100    292.02708    -1461.565    466.93021     325.0087   -426.84576    36500.952 
  997200    308.14029   -1457.7849     491.7797    426.45246   -435.14265    36500.952 
  997300    306.51023   -1473.0696    478.66086    390.68277   -643.97898    36500.952 
  997400    295.18105   -1451.6166    484.05182    366.33126   -483.70635    36500.952 
  997500    295.98601   -1454.5715    512.25303    395.21503   -54.681956    36500.952 
  997600    307.44612   -1467.1119    491.67347    413.88234   -350.98074    36500.952 
  997700    295.83079   -1455.2639    479.56214    361.13038    -263.9545    36500.952 
  997800    304.37014   -1491.9292    484.42769    367.91913   -431.52817    36500.952 
  997900    291.91694   -1525.1463    462.83939    256.83891   -153.67945    36500.952 
  998000    298.03138   -1503.1352    493.50812    337.14937   -556.50167    36500.952 
  998100    307.63333   -1485.5906    470.54604    375.12217   -246.20415    36500.952 
  998200    303.57381    -1468.801    488.56177    391.58293   -634.12313    36500.952 
  998300    303.90158   -1460.5382    485.53035    398.29545   -531.38244    36500.952 
  998400    296.27439    -1450.406     489.9127    378.34346   -123.08423    36500.952 
  998500    304.41828   -1472.4372     497.8423    401.04332   -284.22304    36500.952 
  998600     300.2609   -1488.8765    510.81088    378.78575   -48.632423    36500.952 
  998700    300.63921   -1474.3822    478.95071    363.12947    750.03401    36500.952 
  998800    299.60534   -1483.1941    504.63177    375.32666    456.93414    36500.952 
  998900    303.58792   -1510.5856    492.93187    354.23212    716.55812    36500.952 
  999000    309.80716   -1494.8881    478.65423    383.75623     374.9309    36500.952 
  999100    296.88649   -1510.1284    477.63473    309.10907   -26.466473    36500.952 
  999200    300.91107   -1520.0977    495.25728    334.94905   -186.65843    36500.952 
  999300    304.96087   -1523.4109    491.56908    346.24825   -4.8553437    36500.952 
  999400    292.06317   -1521.2093    464.70548    263.30283   -151.34374    36500.952 
  999500    302.29644    -1501.442     487.7159    352.32367   -224.43312    36500.952 
  999600    307.14218   -1472.9007    485.55514    400.60171   -95.544495    36500.952 
  999700     297.4853   -1512.9282    504.03916    335.41967    386.22913    36500.952 
  999800    300.57937   -1460.8348    483.36429    380.82001    238.79437    36500.952 
  999900    309.52054   -1473.8558    491.58487    416.42394    241.71715    36500.952 
 1000000    303.15303   -1450.2658    508.70402    428.35884    601.64173    36500.952 
 1000100    300.52463    -1450.585    496.62637    404.08451    628.22523    36500.952 
 1000200    303.00637   -1453.1757    460.17837    376.26056    434.75265    36500.952 
 1000300    298.09361    -1436.603    484.42114    394.87572   -228.05465    36500.952 
 1000400    306.29694   -1496.0165     478.9919    367.10312   -169.84037    36500.952 
 1000500    291.97082   -1478.8054    490.84754    331.43143   -403.26575    36500.952 
 1000600    302.33103   -1524.8263    474.74359    316.12343   -344.19555    36500.952 
 1000700    312.97088   -1461.7212    475.16997    427.73544    332.25614    36500.952 
 1000800     306.4743   -1441.5517    508.00829    451.38578    389.28149    36500.952 
 1000900    290.11551   -1426.2743    511.66732    396.39838   -16.870569    36500.952 
 1001000    297.24291   -1440.3801    477.58145    380.41474   -280.84151    36500.952 
 1001100    302.60919   -1448.5032    490.00392    408.96384    -441.0727    36500.952 
 1001200    295.01284    -1435.674    484.08886    381.55074   -50.589761    36500.952 
 1001300    289.84293   -1417.9282    475.81096     367.6563    128.20663    36500.952 
 1001400    298.90238   -1483.4282    487.50113    354.78523    89.355159    36500.952 
 1001500    296.03973    -1497.697     491.0865    331.16582     376.4725    36500.952 
 1001600     303.3517   -1452.9815    494.04526    411.88214    127.03017    36500.952 
 1001700    303.62898   -1433.5797    496.57121    435.06293    27.289777    36500.952 
 1001800    296.99258   -1474.2063     461.3001    329.17591   -648.24722    36500.952 
 1001900    305.35996   -1416.8839    506.26368    469.27338   -481.62582    36500.952 
 1002000    305.46806   -1406.0857    503.49109    477.78749   -337.71828    36500.952 
 1002100    303.36847   -1375.4317    513.56067    509.02318   -357.69269    36500.952 
 1002200    300.25682   -1420.1335    484.06725    420.76668   -519.92982    36500.952 
 1002300    307.79435   -1445.9096    458.77619    403.76093   -285.73566    36500.952 
 1002400     298.9553   -1435.3261       483.91    399.53538    488.15099    36500.952 
 1002500    297.61257   -1432.5781    495.34019    407.64595    440.39696    36500.952 
 1002600    308.94494   -1433.5229    482.44147    445.01235   -138.07675    36500.952 
 1002700    289.89032   -1433.6687    502.79727    379.11621   -67.242423    36500.952 
 1002800    306.00689   -1439.2438    483.38725    426.96041    164.55374    36500.952 
 1002900    293.07011   -1516.1502     470.4471     278.6538   -542.36886    36500.952 
 1003000    297.78648   -1543.1851    441.85989    244.34448    20.080733    36500.952 
 1003100    310.08308    -1514.332    469.62079    356.52569   -406.03321    36500.952 
 1003200    307.57175   -1585.8351     491.9396    295.99293    287.18837    36500.952 
 1003300    295.81218   -1534.5192    469.70352    271.93239   -33.544904    36500.952 
 1003400     296.9635   -1561.6848    440.46908      220.735   -352.28903    36500.952 
 1003500        298.7   -1566.7117    497.27988    280.36596   -374.41875    36500.952 
 1003600    305.97533   -1522.1391    459.99041    320.52574    95.775171    36500.952 
 1003700    297.67428   -1576.0339    443.34443    212.47324    95.964125    36500.952 
 1003800    309.05897   -1553.2313    468.26242     311.6402    230.12578    36500.952 
 1003900    296.80632   -1516.0697    477.59544     302.7662    323.77111    36500.952 
 1004000    302.40383    -1529.878    487.31999    323.97711    307.11298    36500.952 
 1004100    296.54506   -1497.3594    499.21811    341.91857    310.58693    36500.952 
 1004200    309.59013   -1499.5074    483.48928    382.99126   -44.232895    36500.952 
 1004300     298.0664   -1528.2969    464.71156    283.34935   -515.62742    36500.952 
 1004400    312.88037   -1500.1451    488.68949    402.42198   -243.74212    36500.952 
 1004500     305.9577   -1486.9219    481.46645    377.13932   -564.06582    36500.952 
 1004600    293.52931   -1538.3071    452.29471     240.4196   -446.37837    36500.952 
 1004700    295.93999   -1488.3678    469.01057    317.96838     60.72699    36500.952 
 1004800    313.24762    -1495.629    468.63193    388.54008    199.89527    36500.952 
 1004900    303.35787   -1460.0483    513.47408    424.27216    380.69692    36500.952 
 1005000    300.54886   -1511.8544    468.44996    314.74818   -51.108902    36500.952 
 1005100    290.79056   -1491.5342    460.45719    282.97884    376.29836    36500.952 
 1005200    298.30211   -1473.6818    473.80139    348.11937    484.02924    36500.952 
 1005300    309.91413   -1483.1615    476.11873     393.4307    762.51023    36500.952 
 1005329    292.18449   -1513.0799    456.04328    263.31823   -851.11913    36500.952 
Loop time of 597.878 on 32 procs for 1000000 steps with 1517 atoms

Performance: 144.511 ns/day, 0.166 hours/ns, 1672.582 timesteps/s
100.0% CPU use with 32 MPI tasks x no OpenMP threads

MPI task timing breakdown:
Section |  min time  |  avg time  |  max time  |%varavg| %total
---------------------------------------------------------------
Pair    | 251.46     | 280.42     | 307.87     |  92.7 | 46.90
Bond    | 1.4713     | 1.5904     | 1.7312     |   5.3 |  0.27
Neigh   | 38.801     | 38.903     | 39.001     |   1.2 |  6.51
Comm    | 236.37     | 263.72     | 292.55     |  94.9 | 44.11
Output  | 0.38991    | 0.40631    | 0.81924    |  11.6 |  0.07
Modify  | 9.4421     | 9.7376     | 10.006     |   6.9 |  1.63
Other   |            | 3.104      |            |       |  0.52

Nlocal:        47.4062 ave          87 max          14 min
Histogram: 3 1 3 5 5 7 3 4 0 1
Nghost:        2048.28 ave        2102 max        1999 min
Histogram: 2 3 1 8 3 5 2 5 1 2
Neighs:        5451.34 ave       10133 max        1544 min
Histogram: 3 3 2 5 8 4 2 0 1 4

Total # of neighbors = 174443
Ave neighs/atom = 114.99209
Ave special neighs/atom = 2.0342782
Neighbor list builds = 49807
Dangerous builds = 0

# Output the system volume
variable v equal vol
print 'The system volume is $v'
The system volume is 36500.9524534564

# Outputs
variable A equal xhi-xlo
variable B equal yhi-ylo
variable C equal zhi-zlo
variable D equal xy
variable E equal xz
variable F equal yz
print 'Lattice vectors'
Lattice vectors
print '$A 0 0'
33.1717257137913 0 0
print '$D $B 0'
0 33.1717257137913 0
print '$E $F $C'
0 0 33.1717257137913
Total wall time: 0:10:02
