LAMMPS (29 Sep 2021 - Update 1)
# Test LAMMPS input file for single DeFDe

# Initialize simulation

clear

units real
atom_style full
boundary p p p
dielectric 1
special_bonds dreiding

bond_style harmonic
angle_style harmonic
dihedral_style harmonic
improper_style umbrella
pair_style hybrid/overlay hbond/dreiding/lj 4 9.0 11.0 90 lj/cut 8.50000

# Read data file
read_data frag5.dat
Reading data file ...
  triclinic box = (0.0000000 0.0000000 0.0000000) to (15.000000 15.000000 15.000000) with tilt (0.0000000 0.0000000 0.0000000)
  2 by 4 by 4 MPI processor grid
  reading atoms ...
  1504 atoms
  scanning bonds ...
  3 = max bonds/atom
  scanning angles ...
  3 = max angles/atom
  scanning impropers ...
  1 = max impropers/atom
  reading bonds ...
  1003 bonds
  reading angles ...
  503 angles
  reading impropers ...
  1 impropers
Finding 1-2 1-3 1-4 neighbors ...
  special bond factors lj:    0        0        1       
  special bond factors coul:  0        0        1       
     3 = max # of 1-2 neighbors
     2 = max # of 1-3 neighbors
     3 = max # of special neighbors
  special bonds CPU = 0.002 seconds
  read_data CPU = 0.016 seconds

# Dreiding potential information

bond_coeff 1 350 0.935
bond_coeff 2 350 0.98

angle_coeff 1 50 120
angle_coeff 2 50 104.51


improper_coeff 1 40 0

pair_coeff 1 1 lj/cut 0.0774 3.6621
pair_coeff 1 2 lj/cut 0.00278208554864871 3.41951536039831
pair_coeff 1 3 lj/cut 0.0860649754545948 3.53100349192691
pair_coeff 2 2 lj/cut 1e-04 3.193
pair_coeff 2 3 lj/cut 0.0030935416596516 3.29710294046152
pair_coeff 3 3 lj/cut 0.0957 3.4046
pair_coeff 1 1 hbond/dreiding/lj 2 j 9.50 2.75 4 9.0 11.0 90
pair_coeff 1 3 hbond/dreiding/lj 2 i 9.50 2.75 4 9.0 11.0 90
pair_coeff 1 3 hbond/dreiding/lj 2 j 9.50 2.75 4 9.0 11.0 90
pair_coeff 3 3 hbond/dreiding/lj 2 j 9.50 2.75 4 9.0 11.0 90

neighbor 2 bin
neigh_modify every 2 one 10000

# Gemoetric relaxation
fix 1 all box/relax iso 1.0 vmax 0.001
minimize 1.0e-4 1.0e-6 10000 10000
WARNING: Using 'neigh_modify every 1 delay 0 check yes' setting during minimization (../min.cpp:188)
Neighbor list info ...
  update every 1 steps, delay 0 steps, check yes
  max neighbors/atom: 10000, page size: 100000
  master list distance cutoff = 13
  ghost atom cutoff = 13
  binsize = 6.5, bins = 3 3 3
  3 neighbor lists, perpetual/occasional/extra = 3 0 0
  (1) pair hbond/dreiding/lj, perpetual, skip from (3)
      attributes: full, newton on
      pair build: skip
      stencil: none
      bin: none
  (2) pair lj/cut, perpetual, half/full from (3)
      attributes: half, newton on
      pair build: halffull/newton
      stencil: none
      bin: none
  (3) neighbor class addition, perpetual
      attributes: full, newton on
      pair build: full/bin
      stencil: full/bin/3d
      bin: standard
Per MPI rank memory allocation (min/avg/max) = 10.34 | 10.64 | 10.94 Mbytes
Step Temp E_pair E_mol TotEng Press Volume 
       0            0 1.0472751e+15    196.97104 1.0472751e+15 8.5108142e+16         3375 
    5223            0   -1113.1268    21.330168   -1091.7967    86.948094    36822.805 
Loop time of 4.65896 on 32 procs for 5223 steps with 1504 atoms

100.0% CPU use with 32 MPI tasks x no OpenMP threads

Minimization stats:
  Stopping criterion = energy tolerance
  Energy initial, next-to-last, final = 
    1.04727510429488e+15  -1091.21482626462  -1091.30885615265
  Force two-norm initial, final = 9.6555870e+16 98.201098
  Force max component initial, final = 5.8827692e+16 62.431327
  Final line search alpha, max atom move = 1.1605040e-05 0.00072451807
  Iterations, force evaluations = 5223 5224

MPI task timing breakdown:
Section |  min time  |  avg time  |  max time  |%varavg| %total
---------------------------------------------------------------
Pair    | 1.2771     | 2.4903     | 3.9364     |  40.6 | 53.45
Bond    | 0.0062588  | 0.010461   | 0.015789   |   2.2 |  0.22
Neigh   | 0.096499   | 0.096752   | 0.097      |   0.1 |  2.08
Comm    | 0.27196    | 1.7214     | 2.9363     |  48.9 | 36.95
Output  | 0          | 0          | 0          |   0.0 |  0.00
Modify  | 0          | 0          | 0          |   0.0 |  0.00
Other   |            | 0.34       |            |       |  7.30

Nlocal:        47.0000 ave          70 max          29 min
Histogram: 4 2 5 3 1 9 3 2 1 2
Nghost:        1935.50 ave        1984 max        1868 min
Histogram: 1 0 3 2 4 6 5 6 3 2
Neighs:        4842.25 ave        7922 max        2682 min
Histogram: 2 4 6 3 7 4 2 2 0 2

Total # of neighbors = 154952
Ave neighs/atom = 103.02660
Ave special neighs/atom = 2.0026596
Neighbor list builds = 94
Dangerous builds = 0

# MD simulation
velocity all create 300.0 12345 rot yes dist gaussian
timestep 1.0
fix 2 all nvt temp 300.0 300.0 1

# Compute interaction energy
group WAT molecule <> 2 501
1500 atoms in group WAT
group MOL molecule 1
4 atoms in group MOL

compute w WAT group/group MOL pair yes
fix 3 all ave/time 10 5 100 c_w file outa

# Outputs
thermo 100 # Output thermodynamic data every nth step
#dump mf1 all xyz 10000 mol_*.xyz

# Run
run 1000000
Neighbor list info ...
  update every 2 steps, delay 10 steps, check yes
  max neighbors/atom: 10000, page size: 100000
  master list distance cutoff = 13
  ghost atom cutoff = 13
  binsize = 6.5, bins = 6 6 6
  4 neighbor lists, perpetual/occasional/extra = 3 1 0
  (1) pair hbond/dreiding/lj, perpetual, skip from (4)
      attributes: full, newton on
      pair build: skip
      stencil: none
      bin: none
  (2) pair lj/cut, perpetual, half/full from (4)
      attributes: half, newton on
      pair build: halffull/newton
      stencil: none
      bin: none
  (3) compute group/group, occasional, copy from (2)
      attributes: half, newton on
      pair build: copy
      stencil: none
      bin: none
  (4) neighbor class addition, perpetual
      attributes: full, newton on
      pair build: full/bin
      stencil: full/bin/3d
      bin: standard
Per MPI rank memory allocation (min/avg/max) = 9.193 | 9.218 | 9.470 Mbytes
Step Temp E_pair E_mol TotEng Press Volume 
    5223          300   -1113.1268    21.330168    252.25059    1755.4646    36822.805 
    5300    302.57169   -1157.9427    241.17515    438.80124    1240.4724    36822.805 
    5400    297.50197   -1114.7076    159.12185    377.26991    748.37364    36822.805 
    5500    300.02124   -1122.1943    160.34075    382.28883    358.66364    36822.805 
    5600    298.75491   -1129.4678    169.67426    378.67555     219.6928    36822.805 
    5700    301.79419   -1150.7186    188.78282    390.14971    51.289688    36822.805 
    5800    306.60984   -1152.1807    174.50171    395.98136    518.60742    36822.805 
    5900    301.22863   -1151.4723    180.48182    378.56126    702.23752    36822.805 
    6000    295.39259   -1164.3438    177.96026    337.02178    185.77233    36822.805 
    6100    298.91263   -1138.8301    181.99795    382.34349    313.19951    36822.805 
    6200    296.78781   -1128.4362    182.07501    383.29492    141.42075    36822.805 
    6300    296.28204   -1173.7952    178.33794    331.93299    223.75422    36822.805 
    6400    293.37429   -1196.8987    183.50644    300.97081    25.601415    36822.805 
    6500     293.2795    -1193.779    194.57121    314.73051    460.29954    36822.805 
    6600    291.95342   -1168.6251    188.01067    327.38288    291.08973    36822.805 
    6700    293.96011   -1179.8297    192.71575    329.87361    456.47882    36822.805 
    6800    295.72934   -1194.2094    201.16791    331.87257   -94.360201    36822.805 
    6900    305.45713    -1168.973    197.22668     396.7497    366.07201    36822.805 
    7000    303.37247   -1189.1998    186.83236    356.78898    368.22707    36822.805 
    7100    292.10959   -1191.6753    192.62156    309.64323    319.26184    36822.805 
    7200     297.9567   -1135.9165     197.5606    396.53705    372.49543    36822.805 
    7300    295.80111   -1181.7879    202.04849    345.49619    52.973076    36822.805 
    7400    308.38423   -1174.4796    194.33928    401.46955    279.50839    36822.805 
    7500    292.45756   -1103.5783    197.98918    404.66684    311.95263    36822.805 
    7600    297.50746   -1118.9196    209.41572    423.37646    656.04403    36822.805 
    7700    305.67484   -1088.7757    209.59147    490.28714    890.92149    36822.805 
    7800    293.32833   -1090.4322    219.04309    442.76798    717.73092    36822.805 
    7900    311.14207   -1131.5595    203.57005    465.97605    376.08448    36822.805 
    8000    307.40981   -1078.4722    205.19213    503.96427    708.59917    36822.805 
    8100    306.13933     -1131.16    210.15977    450.55215    755.89059    36822.805 
    8200     298.4771   -1125.5398    216.79984    428.48445    623.09749    36822.805 
    8300     296.4611   -1084.9814    211.26426    454.47528    387.16067    36822.805 
    8400    304.64574   -1132.7592    200.69511    432.79683    212.69412    36822.805 
    8500    294.58896   -1103.3215    217.41602    433.89948    155.93095    36822.805 
    8600    305.94791   -1126.3148    218.84713    463.22716    292.28147    36822.805 
    8700    300.46498   -1156.4499    225.93374    415.61427    169.42107    36822.805 
    8800    293.08276   -1139.4836    216.70636    390.27971    306.21405    36822.805 
    8900    300.78093   -1161.9692    228.36922    413.94602    340.07775    36822.805 
    9000    301.17538   -1182.9483    223.97955    390.34437     505.2045    36822.805 
    9100    297.11251   -1133.5834    222.11701    419.64449    98.676297    36822.805 
    9200    297.51157   -1130.3123    231.67401    434.26039    121.82708    36822.805 
    9300    294.99236   -1141.6304    223.67736    403.65921    43.183161    36822.805 
    9400    305.13108   -1160.0981     220.7097    427.64686    622.74621    36822.805 
    9500    298.91175   -1176.7506    215.27483    377.69599    406.07843    36822.805 
    9600    306.30403   -1183.4493    230.07278    418.91378    505.89604    36822.805 
    9700    300.07713   -1162.4294    217.63701    399.60039    763.36379    36822.805 
    9800     299.1178   -1170.9732    252.59793    421.71961    652.33554    36822.805 
    9900    306.58404   -1220.3935    218.14023    371.29152    482.46144    36822.805 
   10000    304.69733   -1190.1544    238.29046    413.22807    614.42214    36822.805 
   10100    298.17894   -1215.8262    224.37478    344.43719       377.82    36822.805 
   10200    290.39944   -1178.4862    235.70683    358.25586    265.28402    36822.805 
   10300     300.7686   -1176.3494    236.00484    407.14618    398.69894    36822.805 
   10400    304.16356   -1184.1699    239.27424    417.80504    664.09832    36822.805 
   10500    308.54801     -1170.32    231.45943    443.48312    772.04381    36822.805 
   10600    295.24519   -1196.5448    239.37134     365.5715    819.71511    36822.805 
   10700    298.76739   -1189.6027    246.71118    395.63345    1065.4976    36822.805 
   10800    302.13686   -1190.2105    242.78254     406.1928    672.59783    36822.805 
   10900    293.80691   -1187.4568    237.54239    366.38682    330.48425    36822.805 
   11000    294.52623   -1199.1313    229.04552    349.43813    819.60451    36822.805 
   11100    300.34811   -1156.0272    257.52387    447.10349    520.52912    36822.805 
   11200     299.8332    -1147.584    250.08106    445.79699     408.2898    36822.805 
   11300    301.30851   -1115.0541    244.49035    479.34585    742.39523    36822.805 
   11400    300.75273   -1116.6105    241.46664    472.27574    346.06327    36822.805 
   11500    295.18699   -1161.0635     240.1233    401.54403    321.42797    36822.805 
   11600     292.4134   -1171.3178    246.70199    385.44228    134.72749    36822.805 
   11700    294.08833   -1196.2622    258.48027     379.7801    298.63438    36822.805 
   11800    309.27615   -1170.5741     234.8364    449.86821    202.11457    36822.805 
   11900    304.94488    -1132.392    248.61739    482.42645    442.58297    36822.805 
   12000    303.01237   -1162.0055    249.32076    444.85838    49.399519    36822.805 
   12100    300.79654   -1156.5781      249.515    440.55282    298.08885    36822.805 
   12200    305.84511   -1181.1284    248.76433    437.87017    214.35826    36822.805 
   12300    309.49561   -1162.3077    254.64205    478.92346   -99.310952    36822.805 
   12400     310.5616    -1178.491    259.05304    471.92694    117.46209    36822.805 
   12500    290.80238    -1200.067    243.81591    346.58938   -519.69554    36822.805 
   12600    301.91075   -1231.8316    275.46169    396.23778    160.27344    36822.805 
   12700    296.22607   -1221.3495    246.24805    352.03798    393.53035    36822.805 
   12800    313.86137   -1170.9436    259.17883    494.38361     585.6586    36822.805 
   12900    293.24144   -1162.6533    273.86572    424.98025   -91.557124    36822.805 
   13000    305.33223    -1182.268    266.80663    452.47504    86.433566    36822.805 
   13100    296.53189   -1166.6554    259.66717    421.52134   -334.50868    36822.805 
   13200    299.94571   -1168.0526    263.63726    439.38872   -513.64352    36822.805 
   13300    303.66953   -1176.6798    251.33791    435.14544   -420.27974    36822.805 
   13400    301.35378   -1211.9773    270.86485    408.99995    48.973634    36822.805 
   13500    308.74112   -1218.0803    274.16746    439.29598    205.66893    36822.805 
   13600     294.9278   -1185.2206    262.06933    398.17173  -0.39145012    36822.805 
   13700    306.25101   -1174.5002    259.51014    457.06266    383.52589    36822.805 
   13800    308.51716   -1219.3032    280.67694    443.57926    546.17871    36822.805 
   13900    299.43716   -1257.8685    253.69356    337.35072    202.24903    36822.805 
   14000    297.24282   -1199.6158    263.92033    395.99915    280.83543    36822.805 
   14100    309.36718   -1236.2127    271.66261    421.46359    3.1597853    36822.805 
   14200    296.10271   -1224.7186    272.75076    374.61895    487.88167    36822.805 
   14300    302.51826   -1275.1357    272.00664    352.20035    672.84664    36822.805 
   14400    295.86568   -1192.7022     277.0793    409.90193    601.79078    36822.805 
   14500    295.64148   -1176.3301    278.19946    426.38977    510.51032    36822.805 
   14600    293.91552   -1180.5204    287.23635    423.50376    156.96125    36822.805 
   14700    309.28454   -1206.5591    273.12215    452.20654    209.73109    36822.805 
   14800     308.6066   -1237.2012    274.57593    419.98096    183.95751    36822.805 
   14900    302.49446    -1181.746    278.71644    452.19323    223.25127    36822.805 
   15000    294.47659   -1196.2404    292.57266     415.6338   -150.61106    36822.805 
   15100    297.48093    -1203.077    279.79789    409.48235   -167.88713    36822.805 
   15200    299.52063   -1198.6027    294.55571    437.85262    -278.2353    36822.805 
   15300    307.09077   -1218.7707    263.48846    420.53273    -288.9635    36822.805 
   15400    299.58686   -1184.4737    288.32541    446.04804   -274.50296    36822.805 
   15500    295.80719   -1256.3475    288.81062    357.72591   -639.26096    36822.805 
   15600      297.571   -1221.1523    284.44472    396.45738    18.305015    36822.805 
   15700    307.25798   -1245.8161    302.79642    433.54451   -261.27815    36822.805 
   15800    296.60558   -1230.5841    287.85218    386.10782   -138.74172    36822.805 
   15900    298.02515   -1198.3127    288.25862    425.14554   -54.696814    36822.805 
   16000    303.80449    -1245.561    287.98159    403.51252    490.20117    36822.805 
   16100    304.77436   -1249.7424    289.57085    405.26563    562.21375    36822.805 
   16200    297.17589   -1258.8027    287.50413    360.09619    234.22197    36822.805 
   16300    305.92653   -1254.5178    303.95465    420.03585    953.11655    36822.805 
   16400    299.12031   -1220.5975    278.31443    397.82299    775.49115    36822.805 
   16500     321.9647   -1208.1483    312.82217    547.12648    677.23684    36822.805 
   16600     293.2452   -1200.5943    280.77445    393.96486    370.01217    36822.805 
   16700    288.53546   -1242.2861    271.25836    321.65659     339.7503    36822.805 
   16800    303.77604   -1210.5244    310.83209    461.27215    428.36294    36822.805 
   16900    306.18394   -1215.6284    294.85477    450.97871    20.617445    36822.805 
   17000    302.13413   -1219.9128    287.28164    420.97733    319.84955    36822.805 
   17100    304.55609   -1240.1641    289.13758    413.43269    260.70253    36822.805 
   17200    297.00282   -1233.0095    281.27351    378.88341    110.38196    36822.805 
   17300    310.41082   -1227.5827    304.81372    467.92035    634.00475    36822.805 
   17400    305.18763   -1209.5556    288.92061    446.65371    356.08879    36822.805 
   17500    306.27624   -1240.4256    273.32089    405.06106    275.61324    36822.805 
   17600     300.3327   -1249.9781    304.97666    400.53637    342.66856    36822.805 
   17700    301.80205   -1262.0927    289.73414    379.76216    306.34133    36822.805 
   17800    303.80956   -1244.1664    295.05682    412.00504   -44.246974    36822.805 
   17900    307.75158   -1217.5564    296.21884    457.43797    173.85207    36822.805 
   18000     297.5903   -1237.6487    305.75934    401.36209    38.787352    36822.805 
   18100    313.65035   -1234.9601    294.34112    464.58397    844.54176    36822.805 
   18200    311.28965   -1281.3824    297.24492     410.4892    614.14615    36822.805 
   18300    287.26696   -1243.3571    324.53563    368.17971    673.51064    36822.805 
   18400    304.13967   -1247.8212    291.10181    405.87429    1151.2567    36822.805 
   18500    301.85524   -1251.4909    304.42174    405.28985     828.4582    36822.805 
   18600    301.09207   -1289.0305    307.51692    367.42634    859.82791    36822.805 
   18700    305.79747   -1211.3498    295.73235    454.40338    384.16722    36822.805 
   18800    303.51226   -1192.6413    318.21848    485.35991    180.50138    36822.805 
   18900    304.76333   -1232.1504    315.02801     448.2653   -296.21211    36822.805 
   19000    302.10332   -1241.3622    290.84242    402.95071   -949.21492    36822.805 
   19100    309.24415   -1225.3421    295.79119     455.9116    14.484911    36822.805 
   19200    297.40904   -1219.3356     341.4671    454.57083   -192.73226    36822.805 
   19300    304.21238    -1221.053    301.53862    443.40504    287.01509    36822.805 
   19400    293.58916   -1242.1392    325.68471     398.8712    635.07013    36822.805 
   19500    307.19064    -1249.552    285.77994    412.49036    134.43138    36822.805 
   19600    305.42959   -1247.5389    326.20229    447.03602    610.77335    36822.805 
   19700     314.8037   -1228.3581    307.64541    489.65748   -1.8015354    36822.805 
   19800    309.63922   -1213.0638     293.7314    467.90001    426.15568    36822.805 
   19900    297.17671    -1232.457    300.25093    399.19243    61.605369    36822.805 
   20000    303.67699   -1240.4552    295.84244    415.90798   -26.184171    36822.805 
   20100    292.44285   -1212.3293    319.29189    417.15263    425.82665    36822.805 
   20200    310.81392   -1250.8585    317.88149    459.51834     271.2585    36822.805 
   20300    293.84828   -1232.8919    309.43254    393.02724    176.72987    36822.805 
   20400    301.54071   -1239.8996    321.01024     432.0605    21.534939    36822.805 
   20500    301.84219   -1274.8786    318.60208    396.02398    337.10506    36822.805 
   20600    297.04619   -1218.8536    303.69503    415.65514    47.252477    36822.805 
   20700    301.94753   -1272.1032    308.50945    389.17873    221.70013    36822.805 
   20800    307.86293   -1251.5652    303.37588    431.08505     282.0471    36822.805 
   20900    304.81078   -1267.8354    308.88678    406.65173    513.91786    36822.805 
   21000    299.18214   -1267.6864    321.45469    394.15143     408.8144    36822.805 
   21100    293.31244   -1277.5112    312.50335    349.07809    181.74178    36822.805 
   21200    299.31387   -1248.8998    317.39156    409.46502    547.20652    36822.805 
   21300    303.25937   -1196.5608    324.47828    486.56725    531.16567    36822.805 
   21400    294.18588   -1258.5287    318.44202    377.91239    439.10982    36822.805 
   21500    294.22549    -1303.408    313.05241    327.82092   -302.05886    36822.805 
   21600    300.40636   -1274.8661    319.94323    390.94496     180.6397    36822.805 
   21700    300.62384    -1294.144     312.5874    365.28552    163.34982    36822.805 
   21800    288.40229   -1267.8362    335.01198    359.26347    247.86376    36822.805 
   21900    292.79462   -1266.2338    321.06057    366.59281    124.38069    36822.805 
   22000    281.92988     -1262.75    313.74002    314.08029   -249.26427    36822.805 
   22100    297.63442   -1263.5773     323.6505    393.52231    70.956903    36822.805 
   22200    300.59922   -1256.5168    310.65161    400.86659     76.09135    36822.805 
   22300    300.43923   -1289.4139    314.60725    371.20844   -109.24171    36822.805 
   22400    303.12177   -1273.2132    309.71354     394.5336    50.424861    36822.805 
   22500    307.01403   -1245.4041    334.50337    464.57043    184.46792    36822.805 
   22600    295.35617   -1271.5732    343.93773    395.60666    396.70944    36822.805 
   22700    306.42543   -1254.6924    329.23835    447.38013   -130.20306    36822.805 
   22800    299.25424   -1280.8174    321.89318    381.78197   -209.84226    36822.805 
   22900    306.77068   -1273.7527    328.29987    428.92816     90.61983    36822.805 
   23000     296.3593   -1297.8987    334.04618    363.88378    66.090068    36822.805 
   23100    297.21531   -1272.6156    332.05812    391.01395     154.4091    36822.805 
   23200    293.10536   -1299.4685     321.9924    335.68211    135.07544    36822.805 
   23300    291.57266   -1321.9039    321.22569    305.61322   -27.839236    36822.805 
   23400     295.0344   -1334.1377    331.06171     318.7246    537.65387    36822.805 
   23500    312.83328   -1301.4268    320.87595    420.99156    358.93361    36822.805 
   23600    293.84496   -1285.9603    335.69471     366.2061    741.28826    36822.805 
   23700     304.8595    -1291.542    328.73683    403.01338    726.81439    36822.805 
   23800    290.33742    -1310.813    340.69068    330.63511    580.80435    36822.805 
   23900    303.00379   -1284.4525     343.8918    416.94406    762.02731    36822.805 
   24000    297.11654   -1301.4559    325.12507    354.79808    406.94186    36822.805 
   24100    302.63961   -1262.2221    325.27741    418.92838    100.71956    36822.805 
   24200    291.62836   -1297.5268     321.9536    330.96782     156.4001    36822.805 
   24300    301.68475   -1315.3249    320.48422    356.75451    145.56323    36822.805 
   24400    300.22333   -1317.4133    308.52318    336.15769    249.38217    36822.805 
   24500    295.23218   -1315.6472    326.98306    334.02254   -101.10918    36822.805 
   24600    303.65551   -1307.8236    331.36128    383.96218    663.22924    36822.805 
   24700    296.97059   -1346.4155    340.43216     324.4917    31.519029    36822.805 
   24800    299.42361   -1323.1044    340.55628    358.91678    477.44413    36822.805 
   24900    296.10997   -1275.4286    332.43835     383.6291   -65.349454    36822.805 
   25000    301.46537   -1315.8675    332.18129    366.92616   -668.12873    36822.805 
   25100    293.74204   -1299.0418    333.13416    350.10297    -322.2662    36822.805 
   25200    305.19932   -1324.6512     323.8316    366.52146   -45.770572    36822.805 
   25300    297.10134   -1300.4304    340.30956    370.94001    475.57041    36822.805 
   25400    292.99776   -1355.6987    348.96026    305.93764    117.26599    36822.805 
   25500    292.20123   -1321.7103    322.58709    309.98436    160.08573    36822.805 
   25600    301.72666   -1325.4441    321.30694    347.64578    352.04843    36822.805 
   25700    296.36676   -1294.3283    329.52501    362.96643    147.20209    36822.805 
   25800    297.86653   -1270.9305    344.06296    407.62145    60.641052    36822.805 
   25900     298.7705   -1298.8968      359.553    399.19512   -58.879609    36822.805 
   26000    297.25242   -1337.7928    353.93543    347.88026    64.385238    36822.805 
   26100    297.18426   -1303.4633    338.07902      366.048    186.62611    36822.805 
   26200    289.50427   -1306.8697    342.76566    332.92067    9.3056926    36822.805 
   26300    310.23072   -1289.8265    324.96888    425.02488    93.067772    36822.805 
   26400    309.35967    -1264.311      335.762    457.43104     63.81611    36822.805 
   26500    313.64325   -1302.1387    318.34491    421.37733    403.79089    36822.805 
   26600    309.15981   -1266.3063    353.05069    471.82906     223.2093    36822.805 
   26700    307.55036   -1231.9817    347.36147    493.25386   -173.57696    36822.805 
   26800    305.23846   -1250.7677    343.65446    460.40309    512.58208    36822.805 
   26900    293.06797   -1263.6427    362.07089    411.41881    231.47021    36822.805 
   27000    289.08619   -1237.0567    344.35249     402.4475    373.07384    36822.805 
   27100    307.76579   -1254.4122    346.82154    471.24858    186.15789    36822.805 
   27200    301.68126   -1273.8274    342.39187    420.14401    388.76093    36822.805 
   27300    306.30556   -1329.1995     331.6961    374.79373    491.75833    36822.805 
   27400    304.86402   -1326.6077    335.61461    374.84577    294.68761    36822.805 
   27500    292.84453   -1273.8393    352.23697    390.38728   -159.39522    36822.805 
   27600    296.19864   -1327.4803    322.28644    321.82267   -360.72081    36822.805 
   27700    290.80678   -1355.3483    332.17022    279.68207   -171.10266    36822.805 
   27800    288.54508   -1335.0515    346.01218    303.68806   -613.00113    36822.805 
   27900    290.64613   -1307.4311    364.85888    359.56823   -160.67661    36822.805 
   28000    306.26319   -1304.5227    334.07367    401.65827     138.0496    36822.805 
   28100    300.09464   -1323.0581    342.37065    363.78381    4.5606324    36822.805 
   28200    294.30332   -1297.8176     358.7975    379.50512   -434.31324    36822.805 
   28300    291.04204    -1329.979    336.07675    310.01193   -731.43216    36822.805 
   28400    292.12372   -1314.6456    342.91889    337.03354   -531.79128    36822.805 
   28500    300.03412   -1335.9682    344.54045    352.77237   -238.39461    36822.805 
   28600     305.5133   -1335.7004    316.57993    349.62728    -391.2282    36822.805 
   28700    299.72065   -1306.3934     353.3764    389.77876    -16.80738    36822.805 
   28800    286.90275    -1322.457    348.71248    311.62496   -333.52722    36822.805 
   28900      291.552   -1309.4881    347.23491    343.94567    60.368538    36822.805 
   29000    302.26968   -1343.6998    343.73851    354.25448   -91.466741    36822.805 
   29100    296.52492   -1334.8158    352.51945    346.18199    124.14851    36822.805 
   29200    297.21946   -1358.6283    347.66025    320.62194   -220.34798    36822.805 
   29300    286.38939   -1359.0442    336.61914    260.64451   -7.2727534    36822.805 
   29400    300.75506   -1329.3875    356.29802    374.34058   -507.68026    36822.805 
   29500    299.67977   -1360.9659    340.92897    322.57564   -634.01456    36822.805 
   29600    293.33988   -1367.1833    352.05212    299.07771   -438.62727    36822.805 
   29700    300.62595   -1361.0959    333.23141    318.98709   -234.54145    36822.805 
   29800    307.36207   -1306.1319    343.51444    414.41304    -18.77051    36822.805 
   29900      294.439   -1327.7938    349.38622    340.72548    249.56331    36822.805 
   30000    291.72433   -1332.1787    362.49167    337.28387    391.04407    36822.805 
   30100    300.46439   -1340.8567    356.20406    361.47517    489.21665    36822.805 
   30200    295.39469   -1318.2196    359.35185      364.547    121.91802    36822.805 
   30300    307.55083   -1311.5011    345.05858    411.43367    641.11489    36822.805 
   30400    308.61956   -1309.7595    358.24483    431.14954    170.03357    36822.805 
   30500    293.19904   -1331.3568    357.84246    340.06358    200.50923    36822.805 
   30600    302.71202   -1311.4303    359.18962    403.95684    163.10238    36822.805 
   30700    287.18397   -1339.9686    347.53578    294.19655   -241.64788    36822.805 
   30800    299.05292   -1329.8865    362.40499    372.32264   -291.14953    36822.805 
   30900    296.49273   -1292.0781    364.53774    400.79382    94.298106    36822.805 
   31000     287.6489   -1325.4978    351.41955    314.63408    113.58553    36822.805 
   31100    295.16147   -1313.0865    355.96584    365.24916    -282.8654    36822.805 
   31200    305.94012   -1311.0652    349.52597     409.1207     248.5228    36822.805 
   31300    293.69645   -1347.4673    353.19165    321.53066    325.52609    36822.805 
   31400    306.84775    -1341.187    345.28255     378.8218    11.023775    36822.805 
   31500    300.78329   -1340.3376    344.82015    352.03907    102.28714    36822.805 
   31600     302.2674   -1325.5141    351.18788    379.87935   -249.89653    36822.805 
   31700    301.17503   -1296.6416    355.75826    408.42824   -104.50054    36822.805 
   31800    298.33691   -1313.5575    352.10359    375.14249    25.789649    36822.805 
   31900    307.15618   -1318.6914     361.8327    419.24937    151.73661    36822.805 
   32000    295.18867   -1305.3717     349.2986    366.41861     168.4437    36822.805 
   32100    298.61275   -1331.9026    352.13988    358.06936     60.78105    36822.805 
   32200    305.57445   -1314.7919    361.36866    415.59837    97.061011    36822.805 
   32300    299.28846   -1324.6822    353.81521    369.99247   -111.16738    36822.805 
   32400    299.12867   -1283.1674    341.49642    398.47261    -436.7365    36822.805 
   32500    296.62109   -1270.6972    362.20165    420.41359   -221.87392    36822.805 
   32600    307.84755     -1290.97    345.70958    433.94511   -187.51914    36822.805 
   32700    303.32749   -1293.0938    361.17837     427.0395   -138.89018    36822.805 
   32800    312.80109   -1317.6116    349.04533    432.83185    -131.7063    36822.805 
   32900    297.58596   -1371.6374    353.12265    314.71726    130.82282    36822.805 
   33000    293.95627   -1326.8675    345.17273    335.27564   -2.2244348    36822.805 
   33100     297.3402   -1306.9382     360.2881    385.48086    379.44726    36822.805 
   33200    295.19816   -1304.5296    362.59575    380.60044    337.06125    36822.805 
   33300    292.05925   -1294.5746    359.96304    373.85984    636.69334    36822.805 
   33400      307.948   -1349.3543     351.2413    381.54257   -284.37489    36822.805 
   33500    302.04857   -1307.7812     353.1958    398.63977   -227.00419    36822.805 
   33600    296.02334   -1311.5135    353.54852    368.26621   -606.33923    36822.805 
   33700    298.27234   -1294.7631     370.0253    411.56923   -223.57054    36822.805 
   33800    302.32075   -1304.9643    360.84218    410.32248     26.26025    36822.805 
   33900    298.59002   -1302.9813    345.48503    380.23399   -48.418592    36822.805 
   34000     309.7184    -1296.577    336.56577    427.57601   -259.44497    36822.805 
   34100    281.31978   -1318.6328    359.16949    300.89356   -403.63384    36822.805 
   34200    305.56653     -1301.56    366.85072    434.27684   -175.16975    36822.805 
   34300    297.21069   -1335.5855    353.02103    348.98625    259.26038    36822.805 
   34400    304.22582   -1328.5157      365.786    400.24991   -49.345706    36822.805 
   34500    291.89746   -1311.1411    376.96919    373.57463    76.871301    36822.805 
   34600    303.09466   -1320.2469    368.53675    406.20168   -43.468259    36822.805 
   34700    302.68356   -1314.2267    374.42131    416.26469     73.72872    36822.805 
   34800    305.83356   -1345.5749    367.09639    391.70399   -15.446379    36822.805 
   34900     304.5834   -1317.5484    382.66261    429.69584    456.59495    36822.805 
   35000    299.08503    -1310.994    356.75405    385.70811    401.78441    36822.805 
   35100    297.09473   -1309.5572    353.67347    375.14747   -152.38088    36822.805 
   35200    290.78963   -1289.6928    356.69337    369.78396   -38.942673    36822.805 
   35300    298.50869    -1341.352    363.97602    359.98999    227.95166    36822.805 
   35400    302.26843   -1357.4695    333.23591    329.97662   -616.53343    36822.805 
   35500    294.04155   -1268.6553     370.9248    419.62195   -69.620929    36822.805 
   35600    300.20315   -1321.8433    344.88146    367.99552   -241.71331    36822.805 
   35700    293.51468   -1283.3492    333.04473    364.68752   -8.5011239    36822.805 
   35800    285.26444   -1302.5929    353.75858    329.19533   -226.49313    36822.805 
   35900    294.94326   -1323.3775    340.92352     338.9383   -193.11297    36822.805 
   36000    305.13774   -1313.9173    335.79286    388.94068    373.20973    36822.805 
   36100    297.11222   -1306.3965    356.58048    381.29353    594.23777    36822.805 
   36200    311.66744   -1247.6664    365.19781    513.85059     554.7539    36822.805 
   36300    292.94327   -1297.4366     327.9646    342.95998    761.43149    36822.805 
   36400    313.58131    -1276.705    368.52399    496.71267    1097.5628    36822.805 
   36500     295.4625   -1307.8899    368.14854     383.9772    591.31217    36822.805 
   36600    310.76258   -1291.1493    377.71528    478.83129    664.53229    36822.805 
   36700    308.53835   -1324.4801    365.27905    423.09938    320.77376    36822.805 
   36800     301.2483   -1302.8893    362.92581    409.67632    889.90365    36822.805 
   36900     297.4966    -1315.559    352.62213    369.89473     237.8884    36822.805 
   37000    303.25794   -1266.5714     367.1869    459.25883    114.62106    36822.805 
   37100    289.29765   -1274.1592    357.01437    378.95424    246.70001    36822.805 
   37200     301.2224   -1288.2342    363.72897    425.01854    507.12486    36822.805 
   37300    292.15579   -1266.8779    376.82994    418.85597   -443.40608    36822.805 
   37400    289.57751   -1272.3901    387.24301    412.20579   -362.07019    36822.805 
   37500    301.29695   -1258.0284    393.78722    485.61657     -244.035    36822.805 
   37600    298.56014   -1286.3992    377.30124    428.49849    72.947773    36822.805 
   37700    289.91624   -1292.1917    372.37362    379.05234   -336.34275    36822.805 
   37800    294.95498   -1276.1035    391.98016    437.32141   -451.07244    36822.805 
   37900    294.63853   -1305.3828    344.02772    358.67193   -562.14304    36822.805 
   38000    297.43011   -1309.1483    368.46047    391.84594   -624.58901    36822.805 
   38100    300.49172   -1272.8783     375.1538     448.5257   -356.25287    36822.805 
   38200    308.36899   -1281.1184    369.80755    470.23081   -454.13688    36822.805 
   38300    296.38686   -1286.1556    364.33234    406.03653   -77.848268    36822.805 
   38400    308.70499   -1326.2381    376.47097    433.27979    95.706291    36822.805 
   38500    302.11431   -1293.2351     365.6396    425.92418    330.44496    36822.805 
   38600    309.06069   -1330.1519    373.20657    427.69528    491.00197    36822.805 
   38700    305.77609   -1357.2232    337.36617    350.06802    579.84125    36822.805 
   38800    300.09639   -1346.8395    378.42964    376.06922    596.91824    36822.805 
   38900    303.88027   -1334.1969     365.6986    392.93315    703.55959    36822.805 
   39000    304.18677   -1338.9387    365.06523    388.93117   -253.44011    36822.805 
   39100    294.45995   -1334.7678    387.12045    371.57959    195.72958    36822.805 
   39200     297.0042   -1305.6737    367.94845    392.90037    27.122649    36822.805 
   39300    309.15004   -1302.0259    391.69397    474.70895    537.56124    36822.805 
   39400    294.89814     -1306.97    383.15892    397.37905    604.70226    36822.805 
   39500    301.39036   -1314.1447    371.15401    407.28555    785.17549    36822.805 
   39600    304.78172    -1321.865    369.15334    412.75842    843.55789    36822.805 
   39700     308.0235   -1343.0322    350.88161    387.84322    1032.1049    36822.805 
   39800    295.31803   -1327.9746    377.58244    372.67914    1069.9076    36822.805 
   39900    304.21323   -1344.3608    371.64368     390.2061    279.20581    36822.805 
   40000    286.87566   -1348.9163    349.17274    285.50463    652.67619    36822.805 
   40100    292.89866   -1318.8491    397.27435    390.65743    603.42436    36822.805 
   40200    302.96658   -1320.2889    370.80034     407.8494    469.37698    36822.805 
   40300    291.84718   -1352.1134     376.3475    331.75545    81.346487    36822.805 
   40400    309.47813   -1353.6065    363.38484    396.28912    1.2839207    36822.805 
   40500    288.77318   -1384.4372    377.03115    286.34327   -463.97699    36822.805 
   40600    298.24552   -1340.9908    369.74142     364.9375   -193.11691    36822.805 
   40700    288.20734   -1351.7604    392.70039    332.15423      70.6736    36822.805 
   40800    299.51429   -1359.3397    366.32025    348.85169    175.54675    36822.805 
   40900    291.57118   -1354.2495    367.86183    319.89711   -234.35079    36822.805 
   41000    287.65956   -1348.1984    367.34883    307.91062    -941.9215    36822.805 
   41100    309.67985   -1308.8308    350.65176    429.23542   -186.79629    36822.805 
   41200    292.25226   -1327.3517     372.0752    354.05972   -517.63146    36822.805 
   41300    296.08572   -1323.2817    354.25661    357.48558    90.077481    36822.805 
   41400    301.08422   -1395.0868    348.74415     302.5621   -342.78068    36822.805 
   41500    296.03736   -1372.3589    348.94357    302.87872    215.92209    36822.805 
   41600    305.59842   -1330.8239    360.21988    398.52506    143.57695    36822.805 
   41700    294.75206   -1341.1555    368.83782    348.21791    450.37461    36822.805 
   41800    310.76814   -1345.8865    367.27686    413.68062    152.14342    36822.805 
   41900    302.28127   -1351.9154    379.32751    381.67981   -149.71625    36822.805 
   42000    303.89645   -1350.7182    359.42683    370.21262    356.75768    36822.805 
   42100    311.80977   -1344.8805     375.7796    427.85595    21.843937    36822.805 
   42200    290.85993   -1324.1674    382.81971    361.75058    123.19729    36822.805 
   42300    303.70104   -1364.3914    379.46483    375.70197   -126.27869    36822.805 
   42400     299.9824   -1358.8574    362.72235    347.83334   -19.497315    36822.805 
   42500    301.09469    -1366.099    359.64864    342.50127    412.75637    36822.805 
   42600    296.61769   -1366.6458    378.68996    340.93819    571.85394    36822.805 
   42700    302.26916   -1349.5324     364.7973    369.47836    176.84158    36822.805 
   42800    303.20784   -1349.4777    385.63227    394.57349    157.68367    36822.805 
   42900    295.83232   -1401.3103    378.83953    302.90459    134.99932    36822.805 
   43000    308.47547   -1374.6527    369.98107    377.34711    433.89729    36822.805 
   43100    291.99384    -1384.661    363.41773    286.93516    189.15939    36822.805 
   43200    303.18291   -1368.1122    372.44622    362.64125     256.0966    36822.805 
   43300    315.24103   -1373.2523    386.06391    425.14103    564.58114    36822.805 
   43400    298.64891   -1392.1781    375.33596    321.15197    416.67609    36822.805 
   43500    296.40098   -1422.0012    376.53492    282.45677    369.05411    36822.805 
   43600    293.27808   -1404.2883    350.25685     259.9005    14.629087    36822.805 
   43700    301.75176   -1395.2137    385.69987    342.38157    161.56493    36822.805 
   43800     290.1798   -1408.1524     380.9444     272.8432    244.71625    36822.805 
   43900    295.74652   -1390.0096      396.682    331.66339    355.74323    36822.805 
   44000    295.92077   -1369.2237    369.94911    326.49707   -8.6600632    36822.805 
   44100     294.3824   -1342.0423    386.66331    363.50049    59.665136    36822.805 
   44200    301.55091   -1357.2201    379.02152    372.79704    174.62108    36822.805 
   44300    292.35724   -1345.0749    409.59805    374.32959   -549.45589    36822.805 
   44400    311.74843    -1331.587     371.1738    436.26888   -165.26511    36822.805 
   44500    297.49739   -1368.3023    387.39771    351.93057    103.67368    36822.805 
   44600    302.58902   -1416.5539    377.25832    316.35089       140.15    36822.805 
   44700    296.03723   -1413.8096    385.25933    297.74318    170.59963    36822.805 
   44800    309.82568   -1390.0542    363.62428    361.63792    1015.2481    36822.805 
   44900    301.26989    -1334.138    379.67058    395.26914    800.99258    36822.805 
   45000    295.44265   -1375.1343    365.88328     314.3786    625.19124    36822.805 
   45100    293.82596   -1344.2271    368.29699    340.45649    327.62608    36822.805 
   45200    305.08725   -1313.4546    361.45311    414.83742    576.99727    36822.805 
   45300    300.59694   -1341.8484    389.68117    394.55444    181.13534    36822.805 
   45400    306.46408   -1334.2919    384.83091     423.5464    185.79603    36822.805 
   45500    306.83244    -1347.975    374.76023    401.44292    29.738663    36822.805 
   45600     291.7822   -1401.3546    368.69785    274.57344   -325.11269    36822.805 
   45700    303.99761   -1393.9716    364.88322     332.8688   -664.53245    36822.805 
   45800    299.36675   -1356.5688    380.07095     364.7124   -125.78823    36822.805 
   45900    304.67442   -1362.5018    368.64551    371.13313   -426.97535    36822.805 
   46000    306.17361   -1434.3215    376.59797    313.98247   -198.49135    36822.805 
   46100     309.8238   -1351.2921    370.60354    407.37088    59.827223    36822.805 
   46200    297.54763   -1374.6227    394.14994    352.58755   -9.0953685    36822.805 
   46300    293.50495   -1324.8718    380.55301    370.62966   -14.630639    36822.805 
   46400    297.10849   -1315.3691    377.11963    392.84339   -216.40516    36822.805 
   46500    301.59046   -1331.9125    385.54133    404.80156    24.816358    36822.805 
   46600    296.14668   -1354.5085    383.54336    355.81863    241.18888    36822.805 
   46700    292.98588    -1347.284    389.88233    355.22117    375.10619    36822.805 
   46800    304.05897   -1325.5246    373.33437     410.0418    300.80292    36822.805 
   46900    299.46859   -1337.8631    381.54581     385.3492   -409.02242    36822.805 
   47000     299.4793   -1303.3024    378.15613    416.56814   -357.73032    36822.805 
   47100    297.98789   -1305.3571    378.33817    408.01378    100.20951    36822.805 
   47200    294.48169   -1332.9399    389.17925     375.5637   -302.82588    36822.805 
   47300    294.77886   -1337.6319    382.60833    365.63213   -97.899885    36822.805 
   47400    301.62908   -1370.6573    390.97467    371.66313    48.330478    36822.805 
   47500    283.59398   -1367.5996    378.25953    281.20562   -111.94239    36822.805 
   47600    292.48451   -1337.6078    370.60234    343.37117   -346.26793    36822.805 
   47700    311.92229   -1323.9099    374.80668    448.35773    750.74905    36822.805 
   47800    306.07679   -1341.2876    373.91155    403.89617    223.98941    36822.805 
   47900     291.4942   -1375.8513    365.95082     296.0395   -142.52693    36822.805 
   48000    300.76023   -1397.4213    364.77781    314.80976    333.25267    36822.805 
   48100    294.31806   -1337.4143    392.87534    374.05233    552.93224    36822.805 
   48200    304.04984   -1365.5637    390.72401    387.35144    364.95538    36822.805 
   48300    306.26015   -1372.9366    371.79967     370.9568    279.71493    36822.805 
   48400     299.8093   -1371.6316    393.03396    364.59522    78.270248    36822.805 
   48500    301.86364   -1384.5888    405.75275    373.56057    209.42905    36822.805 
   48600    296.72441   -1354.5759    408.65835    383.45457    61.145404    36822.805 
   48700    304.25228   -1360.1589    384.14756    387.08684    590.43528    36822.805 
   48800    297.05076   -1373.3539    368.12149    325.60179   -2.9130236    36822.805 
   48900    289.35682   -1362.4887     364.3212    298.19664   -197.64393    36822.805 
   49000    300.10501   -1357.7337    386.08694    372.87093    351.16341    36822.805 
   49100     300.7918   -1332.8166    371.73876     386.5168    206.71217    36822.805 
   49200    298.09118   -1347.7679    366.96483    354.69239    433.05616    36822.805 
   49300    290.61973   -1380.8511    391.03539    312.20644    178.50011    36822.805 
   49400    296.81664   -1353.5373    367.76536    344.01336   -73.397443    36822.805 
   49500    290.43162   -1359.2209    378.07052    320.02897   -390.09228    36822.805 
   49600    303.13194   -1342.8356    377.52904    392.77226   -577.31959    36822.805 
   49700    299.31761   -1371.3353    370.15572    339.81052   -376.46766    36822.805 
   49800    288.54986   -1392.9242    387.41815    287.24274   -381.07756    36822.805 
   49900    298.41205   -1383.2519    390.73938    344.42042   -163.52353    36822.805 
   50000    304.57018   -1337.2369    373.96608    401.25152    240.28776    36822.805 
   50100    301.44618   -1332.8888    378.95771    396.59531   -21.522543    36822.805 
   50200    294.70059   -1348.7402    398.86961    370.43446   -632.95564    36822.805 
   50300    304.43372   -1381.6067    385.45117     367.7555   -148.70456    36822.805 
   50400    298.21376   -1349.3123    405.89075      392.623   -713.22818    36822.805 
   50500    306.32345   -1311.6768    371.81604    432.51652   -186.38238    36822.805 
   50600    299.76703   -1336.1423    390.44427    397.30548     583.2763    36822.805 
   50700     297.3904   -1382.1382    420.17884    370.39645   -63.232462    36822.805 
   50800    293.51191   -1385.3645    406.88782    336.50294    391.09249    36822.805 
   50900    291.23477   -1348.3613     416.2525    372.66889   -148.66783    36822.805 
   51000    302.08917   -1368.7505    378.13836    362.79493    441.27968    36822.805 
   51100    300.32707   -1386.5215    383.51385    342.50497    102.56839    36822.805 
   51200    290.96695   -1348.2354    390.94537    346.28768    781.06266    36822.805 
   51300    287.89431   -1379.0064    393.01475     303.8202    291.84021    36822.805 
   51400    303.26586   -1383.1517    394.44789    369.97502    114.02897    36822.805 
   51500    298.97719   -1372.8726     379.7784    346.37075    208.51728    36822.805 
   51600    293.25334   -1407.9455    353.83569     259.7114    90.846279    36822.805 
   51700    302.28085   -1370.1912    388.52813    372.60277    437.47129    36822.805 
   51800    294.28845   -1374.5335    406.65509    350.58017    539.96593    36822.805 
   51900    295.79637   -1389.6608    398.94028    334.49379    318.36286    36822.805 
   52000    292.34591    -1380.079    410.15344    339.83013    355.63139    36822.805 
   52100    294.61208   -1363.3596    390.98836    347.53729    101.82131    36822.805 
   52200    291.07029   -1388.9042    390.77662    305.91312   -55.262352    36822.805 
   52300    308.51058   -1350.6469     402.0467    433.57584    528.36452    36822.805 
   52400    299.80909   -1365.1948    359.17785      337.175   -11.662585    36822.805 
   52500    293.45818   -1386.9379    387.80595    315.60696     39.70614    36822.805 
   52600    292.24708   -1368.7538    378.71623    319.27536     757.2461    36822.805 
   52700     302.8227   -1358.6999    383.04439    381.03786    435.93792    36822.805 
   52800    294.49934   -1315.9982    384.31035    387.71561    251.24703    36822.805 
   52900    301.34956   -1378.4934    386.25538    357.85546    274.47862    36822.805 
   53000    306.98889   -1400.3156    386.47322    361.51617    523.67148    36822.805 
   53100    307.41078   -1376.7575     390.7167    391.20789    475.95709    36822.805 
   53200    299.42267   -1375.8402    400.33035    365.95087    205.23621    36822.805 
   53300     307.4412   -1352.1341    408.90223    434.15318    597.56112    36822.805 
   53400    294.61612   -1365.3248     389.8215    344.42335    94.512872    36822.805 
   53500    291.58821   -1382.3599    376.62424    300.62546    25.856794    36822.805 
   53600    290.44477   -1356.7683    418.96705    363.43704    235.83752    36822.805 
   53700    308.96158   -1374.4954    405.36875    415.06995   -162.06682    36822.805 
   53800    298.44389   -1395.7877    402.28283    343.57076   -228.02454    36822.805 
   53900    298.51099   -1385.9023    413.55464    365.02857   -693.11915    36822.805 
   54000    293.31731   -1368.0371    413.95841    360.02908   -590.02079    36822.805 
   54100    306.15348   -1387.1128       391.69    376.19304   -269.02523    36822.805 
   54200    304.38578   -1390.4052    382.62406    355.91512    290.75724    36822.805 
   54300    304.18312   -1426.8751    389.72912    325.64233    365.54387    36822.805 
   54400    295.42644    -1389.046    390.67476    325.18577    107.91742    36822.805 
   54500    297.82919   -1389.5203     380.7781    325.57943    711.52112    36822.805 
   54600    300.27352   -1419.5114     382.4434    308.20464    279.07273    36822.805 
   54700    310.77234   -1393.3159     399.3936    398.38677     247.4847    36822.805 
   54800    304.48511   -1413.4744    402.63609     353.3029    715.61307    36822.805 
   54900    305.97924   -1412.4571    396.56203    354.94013   -95.787728    36822.805 
   55000    308.31041   -1409.9713    397.82008    369.12797      53.3849    36822.805 
   55100    289.86666   -1459.7939    385.97953    224.83391   -69.451729    36822.805 
   55200    308.69055   -1396.1388    395.57786    382.42128    497.53445    36822.805 
   55300    291.74788   -1385.6531    400.79436    322.21776   -282.60887    36822.805 
   55400    312.26134   -1398.8296    408.49358    408.64396   -151.27213    36822.805 
   55500    298.74451     -1431.98    387.63749    294.07992   -373.05387    36822.805 
   55600    303.16779   -1402.1243    411.93317    368.04832   0.45632454    36822.805 
   55700    302.97436   -1416.4263    399.43149    340.37805    644.77136    36822.805 
   55800    296.19337   -1411.5573    400.65556    316.09115    146.79271    36822.805 
   55900    296.04392   -1424.7604    405.16481    306.72783    43.653687    36822.805 
   56000    299.68721   -1390.1854    384.28959    336.75013    565.56623    36822.805 
   56100    305.31181    -1388.309    406.72144    386.25745    254.46996    36822.805 
   56200    301.42849   -1364.1821    429.47271    415.73776    134.90807    36822.805 
   56300    305.18951   -1354.9259    424.09091    436.46212    187.26675    36822.805 
   56400    305.85599   -1399.8179    405.05658    375.52166    58.985574    36822.805 
   56500    307.17902   -1413.2727    393.61767    356.55535    153.85565    36822.805 
   56600    300.48054   -1392.0522    383.96168    338.10958    646.89862    36822.805 
   56700     293.8743   -1387.7709    403.91936    332.75164    425.19939    36822.805 
   56800    301.41234   -1385.1673    393.15589    358.36339    361.90704    36822.805 
   56900    281.24257   -1397.9191    406.10045    268.19233    -367.2611    36822.805 
   57000    297.69509    -1390.909    408.39096    351.20287   -326.84661    36822.805 
   57100    294.51198   -1412.1884    385.17934    292.45096   -539.10636    36822.805 
   57200    303.34249   -1430.3384    395.79869    324.48246   -461.00374    36822.805 
   57300    301.64174   -1418.8461    408.82869    341.38513   -63.849245    36822.805 
   57400    300.76141   -1383.5424    379.21725    343.13337   -169.90043    36822.805 
   57500    296.97189   -1393.8013    403.41384    340.09338    82.568948    36822.805 
   57600    308.39138   -1371.9481    410.92413    420.61797    434.22002    36822.805 
   57700    305.07593   -1392.7853    418.32156    392.32449   -253.35496    36822.805 
   57800    288.94997   -1411.8014     409.8087     292.5487     -192.902    36822.805 
   57900    293.11825   -1393.5759    421.52554    341.16552   -130.69831    36822.805 
   58000    297.35074   -1386.5126    403.00505    348.67057   -523.79537    36822.805 
   58100    300.90558   -1406.2942    399.08611    340.89633    -210.3344    36822.805 
   58200    288.72854    -1407.953    399.63225    285.22858   -174.21621    36822.805 
   58300    297.89625   -1423.6177    403.71988    314.72434   -296.21809    36822.805 
   58400    303.17306   -1413.9224    432.42708    376.76773    250.05164    36822.805 
   58500    296.40956   -1444.8032     377.6278    260.78611   -37.064578    36822.805 
   58600     297.4122   -1391.9241    407.41599    347.94542     277.0529    36822.805 
   58700    300.07075   -1437.0482     407.6272    314.94322    33.395367    36822.805 
   58800    292.15691   -1382.2311      385.444    312.12189    515.83138    36822.805 
   58900    296.50859   -1409.7581    420.64482    339.29185   -525.73959    36822.805 
   59000    310.38828   -1405.7308    405.04977    389.90732   -114.67644    36822.805 
   59100    317.14254   -1440.0036    375.95297    356.79791   -200.17256    36822.805 
   59200    296.78026   -1409.2563    411.50816    331.87414   -835.94559    36822.805 
   59300     306.3131    -1401.043    414.63854    385.92646   -639.50105    36822.805 
   59400    307.13937   -1395.3032    395.49316    376.22274    66.183847    36822.805 
   59500    293.28158   -1417.9779    417.03298    313.00277    195.31551    36822.805 
   59600    309.38144     -1396.98    430.77837    419.87597    110.02908    36822.805 
   59700    303.17238   -1406.5601    407.47773    359.17767    261.00846    36822.805 
   59800    286.75789   -1450.4379    386.95382    221.23644    192.61264    36822.805 
   59900    305.30897   -1424.0133    425.01727    368.83627     799.4107    36822.805 
   60000    303.16726   -1475.0979    390.72125    273.86048    646.29478    36822.805 
   60100    293.08727   -1394.8672    439.96566    358.17559    801.07635    36822.805 
   60200    298.67851   -1453.5941    414.58692    299.11959     793.6345    36822.805 
   60300     316.2792   -1417.8855    428.93518     428.0303    1155.4371    36822.805 
   60400    300.01943    -1387.138    394.45401    351.45033    1399.1467    36822.805 
   60500    308.81136   -1401.9702    416.25145    397.80482    1099.7788    36822.805 
   60600    299.50565   -1446.3927     402.5863    298.02607     616.6074    36822.805 
   60700    308.92049   -1441.7188    400.66531    342.95902    309.69793    36822.805 
   60800    291.42183   -1414.4149    432.72005    323.92083   -12.454891    36822.805 
   60900    297.21506   -1417.3072    404.30025    318.56327    265.81387    36822.805 
   61000    304.48518   -1404.9473      412.809    372.00323    189.25298    36822.805 
   61100     299.7409   -1376.1083    429.24122    396.01935    362.31657    36822.805 
   61200    297.57596   -1379.9019    425.54853    378.83376   -1240.1124    36822.805 
   61300     303.2526    -1390.773    406.71094    374.55737   -529.44281    36822.805 
   61400    312.49386   -1437.8043    422.65523    384.87266   -639.71226    36822.805 
   61500    305.79064    -1422.885    397.32564    344.43085   -598.09865    36822.805 
   61600    297.74225   -1467.8641    394.78987    260.85797   -639.88563    36822.805 
   61700    306.44335   -1445.8098    401.44248    328.54713   -125.88477    36822.805 
   61800    306.41853   -1447.6374    408.76976    333.93561    39.850113    36822.805 
   61900    296.66981    -1469.493    397.52355    257.15805   -211.06759    36822.805 
   62000     305.1816   -1452.5611    404.54504    319.24561    -324.3155    36822.805 
   62100    303.05393   -1446.5624    407.38548    318.55242   -620.50125    36822.805 
   62200    291.61753   -1433.4476     414.4406     287.4855   -275.80113    36822.805 
   62300    312.98396   -1443.0257    407.97247    367.16416   -254.67187    36822.805 
   62400    295.64318   -1430.1786    407.48635    301.83578   -231.63397    36822.805 
   62500    302.11782   -1465.4288    438.88021    326.98682   -294.65542    36822.805 
   62600     301.0828   -1481.7379    421.15365    288.31414   -155.64767    36822.805 
   62700    301.45674   -1445.5895    394.88842    299.87258    267.55453    36822.805 
   62800    304.44892    -1405.141    447.98389    406.82194    218.96943    36822.805 
   62900    290.62092   -1395.8731    414.29818    320.45256    374.78794    36822.805 
   63000    307.13459   -1418.4506    426.18504    383.74572    300.03824    36822.805 
   63100    299.41169   -1409.6556    431.34082    363.09672    512.82661    36822.805 
   63200    307.28205   -1418.5657    435.16177    393.26801   -182.02138    36822.805 
   63300    298.22187   -1416.2435    440.00596    359.84345   -6.6858397    36822.805 
   63400    302.53434   -1405.7321    434.77217    384.44153   -420.06103    36822.805 
   63500    295.31567   -1394.3863    432.92207    361.59647   -17.642357    36822.805 
   63600     298.2567   -1457.5124    409.86355    288.58815   -566.91936    36822.805 
   63700    296.62075   -1443.3103     404.5615    290.15887   -409.88795    36822.805 
   63800    298.80548   -1407.2197    414.73926    346.21514   -360.25523    36822.805 
   63900    307.74988   -1434.8498    419.94222    363.86032   -65.004057    36822.805 
   64000    302.72775   -1448.5189    421.03577    328.78489   -437.95266    36822.805 
   64100    301.13337   -1387.6778    421.26748    382.71463   -352.88344    36822.805 
   64200    295.76646   -1468.0328    419.25543    276.30295    190.17564    36822.805 
   64300    295.55888   -1420.3421    437.72941     341.5377   -95.429153    36822.805 
   64400    308.77665   -1388.7581     435.3224    429.93232    334.71285    36822.805 
   64500    291.53104    -1449.908     400.5491    256.74611   -445.63692    36822.805 
   64600    315.62449   -1430.6002     430.8235    414.27076   -528.44975    36822.805 
   64700    297.71567   -1431.0716    430.68714    333.42861   -578.13233    36822.805 
   64800    295.43236    -1416.031    432.67172    340.22425   -228.40226    36822.805 
   64900    297.64543   -1426.7955    436.00706    342.70996    57.660585    36822.805 
   65000    309.11305   -1456.9462    405.90252    333.83151   -152.10497    36822.805 
   65100    292.05722   -1436.6776    416.39154     288.1763   -339.73355    36822.805 
   65200    299.48052   -1440.0123    423.11472    324.82236   -120.65159    36822.805 
   65300    301.37517   -1424.6719    405.45687    330.99323    54.341866    36822.805 
   65400    298.84324   -1445.4933    432.02759    325.39909     110.9976    36822.805 
   65500    289.70261   -1426.9602    447.08364    318.03678    702.60242    36822.805 
   65600    293.03753   -1479.0514    427.97799     261.7809    413.01009    36822.805 
   65700    298.90499   -1421.9418    445.60245    362.80206    101.08091    36822.805 
   65800    297.61188   -1412.5779    409.24308    330.01325    62.366907    36822.805 
   65900    293.98567   -1399.7742    414.06701    331.39494   -344.07288    36822.805 
   66000    293.10044   -1388.5586    436.67139    361.24894   -425.93418    36822.805 
   66100     298.3218     -1343.21      437.624     430.9426   -418.88547    36822.805 
   66200    307.10862   -1402.0837    425.54591    399.35715    223.60682    36822.805 
   66300    286.70057   -1396.9858       431.98     319.4579   -444.02505    36822.805 
   66400    296.88526   -1423.5206    413.93849    320.51066    25.381218    36822.805 
   66500    304.86893   -1410.9473    421.28012    376.19364   -118.87133    36822.805 
   66600    299.60084   -1411.1279    417.03588    348.16696   -360.01569    36822.805 
   66700     302.8541   -1448.6215    417.46376    325.67637    174.58621    36822.805 
   66800    298.75998   -1451.2982    434.03793    321.23152     209.2558    36822.805 
   66900    296.36157   -1433.8828    452.89317    346.75692   -375.21707    36822.805 
   67000    299.44584   -1413.8163    415.28719    343.03543   -66.326701    36822.805 
   67100    303.39716   -1428.8409    410.34221    340.76834   -208.74654    36822.805 
   67200      295.477   -1457.9897    418.84699    284.64079   -354.18203    36822.805 
   67300     307.0382   -1421.4015    430.13758     384.3156   -273.68108    36822.805 
   67400    295.24878   -1429.1585    431.42888     325.0314   -378.25834    36822.805 
   67500    309.67988   -1449.4072    438.26584    376.27325    173.45381    36822.805 
   67600    297.15695   -1434.6897    400.13718    296.75745    397.42648    36822.805 
   67700    297.28884   -1435.8818    399.67153    295.69052    -242.7936    36822.805 
   67800    300.22939   -1450.4151    428.54087    323.20067    33.450249    36822.805 
   67900    311.10101    -1425.774    408.10185    376.10934    129.70094    36822.805 
   68000    299.67274   -1434.7271     447.2672    355.12119    119.01681    36822.805 
   68100    287.48156   -1471.9981    419.09615    235.06073   -324.51983    36822.805 
   68200    300.93768   -1464.2271    430.75196    314.77306   -293.22342    36822.805 
   68300    294.63558   -1479.7889    410.84514    251.07006    163.72109    36822.805 
   68400    295.40928   -1472.8435    438.55121    289.18783    166.35747    36822.805 
   68500    295.21146   -1475.6438    399.08333    246.03337   -196.29078    36822.805 
   68600    297.02882   -1438.2019     420.7714    313.30539   -219.49008    36822.805 
   68700    298.12601   -1457.1328    389.13571    267.65442   -475.88005    36822.805 
   68800    300.66155   -1465.4429    427.27969    308.84792   -70.601459    36822.805 
   68900    301.93489   -1391.0359    444.69635    406.37631    186.74799    36822.805 
   69000    309.19466   -1402.7465    437.54575    420.04003    680.07005    36822.805 
   69100    313.89532    -1413.931    448.19366    440.56313    489.41429    36822.805 
   69200    295.22137    -1419.328    401.34751    304.65772   -11.433926    36822.805 
   69300    304.07247   -1423.0736    434.35905    373.57797   -298.67445    36822.805 
   69400    304.93487   -1423.1182    452.28185    395.31989    252.30631    36822.805 
   69500     296.9892   -1469.2368    417.96166    279.28326   -442.35525    36822.805 
   69600     290.5125   -1500.4899    426.84502    227.89686      91.0328    36822.805 
   69700    301.99096   -1480.2328    423.91577    296.64998   -185.76441    36822.805 
   69800    298.77023   -1471.0747    438.40061    305.86363   -453.71392    36822.805 
   69900    298.44827   -1452.4784    425.75729     310.3741    92.810707    36822.805 
   70000    297.09877   -1471.4357    421.42474    281.03834   -276.27365    36822.805 
   70100    291.57265   -1487.5735    423.13519    241.85314   -156.80145    36822.805 
   70200     308.3567   -1476.1698    436.98885    342.30569    265.76656    36822.805 
   70300    303.31831   -1429.0665     436.9558     366.8031    284.81516    36822.805 
   70400    301.17476   -1433.9784    435.62509    350.95709    11.558705    36822.805 
   70500      302.541   -1423.0935    440.55707    372.89487    295.03798    36822.805 
   70600    295.06654   -1446.4449    434.91969    310.41941    506.01646    36822.805 
   70700    308.13985   -1464.3926    446.61633    362.73882    307.84361    36822.805 
   70800    294.73095   -1470.0783    414.31501    264.67781    260.85095    36822.805 
   70900    290.84789   -1516.4809    420.39169    206.95517    430.24216    36822.805 
   71000    302.01453   -1521.6085    424.64672    256.11092    312.41428    36822.805 
   71100    307.76205   -1498.9327    431.62178    311.51152    134.53496    36822.805 
   71200    298.42204   -1472.1095    448.67419    313.54245   -218.49357    36822.805 
   71300    304.03693   -1498.4796      417.256    280.90977    32.285198    36822.805 
   71400    297.05678   -1515.9551    438.22113    253.12717    197.27484    36822.805 
   71500     311.8661   -1478.8072    450.61227    369.01426     306.4752    36822.805 
   71600    289.83425   -1481.6479     410.2283    227.08348   -162.00025    36822.805 
   71700    306.58076   -1477.2673    422.46641    318.72919     -185.305    36822.805 
   71800    302.99786   -1436.3211    455.09332    376.25039    55.045635    36822.805 
   71900    296.95332   -1404.8726    443.75352    369.27853    13.184564    36822.805 
   72000    308.03078   -1427.6688    441.65784     394.0155    484.80101    36822.805 
   72100     308.1086   -1438.7757    425.42593     367.0253    512.26876    36822.805 
   72200    294.65541   -1419.9841    454.15983    354.27833    133.19989    36822.805 
   72300    298.85218   -1455.3666    430.77468    314.31286    312.84155    36822.805 
   72400    295.54095    -1441.284    449.23771    332.02369    428.72712    36822.805 
   72500    300.25529   -1415.0275    453.05512     383.2186    683.24401    36822.805 
   72600     294.2503   -1442.3002    459.77524    335.76274   -479.03031    36822.805 
   72700    306.25552   -1462.3301    438.14057    347.88346    -287.2145    36822.805 
   72800    286.24676   -1422.7599     445.0275    304.69814   -71.928044    36822.805 
   72900    296.94559   -1433.2605    442.10856    339.21105   -902.31061    36822.805 
   73000    305.79544   -1403.2286    437.75705    404.54016   -452.49876    36822.805 
   73100    295.44623   -1413.5949    434.64538    344.69615    -458.1343    36822.805 
   73200     302.2211   -1431.4764    433.18839    355.71006   -219.48877    36822.805 
   73300    297.40753   -1414.9406    438.24441    355.73635    -634.5288    36822.805 
   73400    299.85643   -1435.7962    446.49488    354.10273   -525.45894    36822.805 
   73500    296.25362   -1444.3559    435.00036    317.90732   -944.89004    36822.805 
   73600    293.35753   -1449.9962    407.11893    271.41071   -953.14291    36822.805 
   73700    286.78312   -1475.6771    421.10228    230.25873   -1170.6635    36822.805 
   73800    296.08519   -1431.1534    430.88438    326.23922   -1172.4033    36822.805 
   73900    306.50422   -1441.8018    426.97025    358.35558   -308.76659    36822.805 
   74000    302.79956   -1392.5604     452.0205     416.0498   -889.59275    36822.805 
   74100    292.07442   -1408.2925    453.39713    353.64405   -451.29615    36822.805 
   74200    303.65764    -1408.563    457.07697    408.94802   -470.33079    36822.805 
   74300    287.90841   -1400.9649    445.09957    334.00973    153.15393    36822.805 
   74400     308.6223    -1438.648    432.47963    376.50812   -42.132537    36822.805 
   74500    305.02395   -1415.1835    438.39943     389.7713    221.43887    36822.805 
   74600     302.0271   -1417.2643    445.17123    381.03587    429.14427    36822.805 
   74700    298.86698   -1404.0958    450.37674    385.25203    379.97233    36822.805 
   74800    300.39412   -1407.2019    465.46838    404.07943    309.32131    36822.805 
   74900    295.70321   -1441.5669    432.90104    316.13112    550.82789    36822.805 
   75000    304.11476   -1476.4944    440.31264    326.30021    598.48864    36822.805 
   75100    298.24704   -1493.3929    452.35306     295.1539    649.74065    36822.805 
   75200     306.8757   -1480.9405    459.82165    353.73264    246.12638    36822.805 
   75300    307.05062   -1484.3644    430.42529    321.69603   -513.74958    36822.805 
   75400    296.27684   -1442.7859     423.1608     307.7418   -364.11181    36822.805 
   75500    303.56513   -1478.6631    446.14677     327.5033   -162.97792    36822.805 
   75600    298.99588   -1505.3512    433.20766    267.40512    277.34638    36822.805 
   75700      293.533   -1461.9208    445.28819    298.44148    219.39893    36822.805 
   75800    291.56862    -1464.434    447.60319    289.44254   -235.37274    36822.805 
   75900    308.71281   -1461.2518    438.13559    359.96576   -22.295815    36822.805 
   76000    302.88463   -1495.7018    421.96533    283.23431   -88.908921    36822.805 
   76100    306.91829   -1411.9735    456.82394     419.8927   -15.737919    36822.805 
   76200    313.38775   -1422.1774    459.18412    441.03322    37.521501    36822.805 
   76300    307.72325   -1453.7562    447.03844    371.93085   -412.70351    36822.805 
   76400    294.99561   -1430.0913    479.05821    370.59369    13.493202    36822.805 
   76500    297.08773   -1448.8696    447.22792    329.35813   -371.94385    36822.805 
   76600    290.71156   -1446.1889    451.47452    307.71916    387.72846    36822.805 
   76700    297.21614     -1451.08    449.63937    330.13446    399.34798    36822.805 
   76800    304.13976   -1436.4206    452.50932    378.68271     504.7882    36822.805 
   76900    292.54507     -1437.49    431.52743    304.68539    354.86996    36822.805 
   77000    301.18207    -1449.745    438.91658    338.51464   -140.34901    36822.805 
   77100    343.85446   -1479.8989    422.63518    483.25841    108.49179    36822.805 
   77200    294.56949   -1517.9378    427.31544    229.09539    -160.7095    36822.805 
   77300    306.62304   -1466.3024    441.02936    348.44649   -142.97044    36822.805 
   77400    291.77497   -1489.8361    441.97476    259.33651   -697.90845    36822.805 
   77500    307.08903   -1498.9075     422.7274     299.6271   -554.61669    36822.805 
   77600     289.8842   -1468.4146    451.80834    282.12062   -740.74348    36822.805 
   77700    297.58058   -1476.3067    437.45514    294.35628   -481.99103    36822.805 
   77800    297.36223   -1485.4209    427.23126    274.04002   -450.19567    36822.805 
   77900    299.56475   -1474.0556    443.21362    311.25526   -370.43743    36822.805 
   78000    293.93893   -1479.0632    435.51647    273.34592   -444.31723    36822.805 
   78100    294.66348   -1476.3442     451.6023    295.39692   -377.37052    36822.805 
   78200    302.25867   -1488.9033    438.08535    303.34848    458.36641    36822.805 
   78300    300.09851   -1479.1643    449.76555    315.08982    552.75377    36822.805 
   78400    302.50644   -1483.9394    430.06562     301.4027    147.39764    36822.805 
   78500    301.51368   -1488.2956    418.52599    281.05912    293.06326    36822.805 
   78600    303.50769   -1534.2949    434.41126    259.87861    598.59286    36822.805 
   78700    306.72867    -1565.544    429.90712     238.5559    855.09873    36822.805 
   78800    297.89202   -1522.2501    410.83107    223.18414    413.63014    36822.805 
   78900    299.04648   -1514.6896      437.319    262.40472    256.89577    36822.805 
   79000    305.23248   -1527.7268    434.84542    274.60815    116.27738    36822.805 
   79100    302.00438   -1570.0229    389.25109    172.25533   -37.212597    36822.805 
   79200    295.20272   -1618.8759    407.84309    111.52189   -289.19171    36822.805 
   79300    295.39816   -1567.4971    410.68959    166.62272   -386.07787    36822.805 
   79400    301.41556   -1516.4772    439.25451    273.16647   -213.01922    36822.805 
   79500    312.41755   -1535.8299    421.38779    285.23772   -185.67342    36822.805 
   79600    293.83471   -1549.2936    445.01151    212.14372    283.86152    36822.805 
   79700    295.88024    -1535.662     444.3753    234.30342    513.00371    36822.805 
   79800    306.58191   -1574.1896    427.67656     227.0222    482.60153    36822.805 
   79900    289.85837   -1557.7914     432.3824    173.20216    428.99336    36822.805 
   80000    297.85626    -1545.638    437.88463    226.68962    595.34744    36822.805 
   80100    299.33626   -1567.7967    462.17038    235.44728     158.4012    36822.805 
   80200    300.73515   -1510.7652    428.05138    264.62696    188.19684    36822.805 
   80300    296.10696   -1535.9965    438.66708    229.27637   -724.10559    36822.805 
   80400    301.18754   -1506.7379    422.58518    265.21493   -276.01522    36822.805 
   80500    310.62698   -1493.1273    429.86884    328.39933   -852.19742    36822.805 
   80600    291.79482   -1533.8799    427.36347    200.77031   -1279.5149    36822.805 
   80700    301.99894   -1502.8982    437.29859    287.40316   -31.465303    36822.805 
   80800    297.65993    -1513.406    428.79482    248.95221    2.1643177    36822.805 
   80900    297.96155   -1482.9012    443.63128    295.64469   -7.7531455    36822.805 
   81000    300.93619   -1494.3533    417.19678      271.085    165.65025    36822.805 
   81100    302.12453   -1451.6803     456.9701    358.85533   -262.57532    36822.805 
   81200    302.13787   -1482.2763    426.40633    297.75531   -355.81616    36822.805 
   81300    313.50437   -1516.5472    450.35763    338.35933    214.51929    36822.805 
   81400    304.03348   -1517.4035    434.22829    278.94265    327.14625    36822.805 
   81500    297.38201   -1517.6924    459.42067    274.04653     230.9535    36822.805 
   81600    306.50285   -1520.6486    426.01137    278.54378     259.9475    36822.805 
   81700    300.66619   -1479.7616    425.79096    293.06125    477.41206    36822.805 
   81800    293.13781   -1495.0746    455.96449    274.19345    190.55217    36822.805 
   81900    303.70693   -1497.1606    453.52742    317.02171     132.9274    36822.805 
   82000    287.32409   -1471.8363    429.13599    244.55687   -56.653859    36822.805 
   82100     304.4782   -1512.4392    454.52727    306.19837     387.2537    36822.805 
   82200    305.46695   -1507.3466    438.16016    299.35361     113.9921    36822.805 
   82300    293.74342   -1477.7392    428.45829    266.73587   -226.06931    36822.805 
   82400    307.23643   -1475.5639    442.15652    343.06016   -70.610635    36822.805 
   82500     297.0066   -1468.2848    465.19885    327.55044   -519.95855    36822.805 
   82600    305.95371   -1454.4377    421.99217    338.27527   -435.34558    36822.805 
   82700    288.08214   -1417.9385    446.68416    319.39898    140.29228    36822.805 
   82800    298.16635   -1418.7189    450.56275    367.67611    524.14176    36822.805 
   82900     307.2745   -1440.3814    449.02693    385.28366    108.94535    36822.805 
   83000    294.65987   -1403.7719     454.4499    370.80062    334.66822    36822.805 
   83100    308.36403   -1489.0497    425.59154    318.06127   -343.85156    36822.805 
   83200    291.28142   -1469.5566    423.94647    259.37655   -698.76876    36822.805 
   83300    291.16284   -1464.5977    429.79646    269.65418    10.523265    36822.805 
   83400    295.49976   -1491.5561    444.34689    276.67625    239.76537    36822.805 
   83500    307.56397   -1486.9987    439.49808    330.43447    136.62321    36822.805 
   83600    294.61251   -1449.0189    445.15993    316.05144    190.78039    36822.805 
   83700    306.57042   -1425.0827    464.47074    412.87179    484.99296    36822.805 
   83800    297.15222   -1463.7737    445.43907    312.95413    466.56691    36822.805 
   83900    298.78492   -1442.2822    432.71735    329.03863    693.60338    36822.805 
   84000      290.186   -1483.7179    460.30663    276.66773    439.12354    36822.805 
   84100    301.72312   -1473.3409     462.9929    341.41909    585.14866    36822.805 
   84200    306.02386   -1477.6193    436.70488    330.12067    490.56216    36822.805 
   84300    297.71693   -1453.8034    439.81006    319.82544    312.93073    36822.805 
   84400    299.27235   -1478.6872    453.07443    315.17446    310.50966    36822.805 
   84500    301.44997   -1441.8191    470.88829    379.61251    34.065995    36822.805 
   84600    298.82896   -1468.1407    432.37161    303.03175    346.24982    36822.805 
   84700    293.92833   -1471.7884    445.74418    290.80097     516.0333    36822.805 
   84800    300.47655   -1465.7826    442.51074    322.91041    351.62122    36822.805 
   84900    294.25059   -1455.4497     433.2847    296.12397    76.332329    36822.805 
   85000    302.57382   -1476.4461     463.8939    343.02613    128.20523    36822.805 
   85100     297.5475   -1464.7041    418.34671     286.7023    8.2075153    36822.805 
   85200    310.25209   -1516.3017    451.09045    324.76696    74.410528    36822.805 
   85300    293.86451   -1508.6421     453.4734    261.39062   -169.38474    36822.805 
   85400    308.88125   -1499.9646    447.11972    330.99179    70.433966    36822.805 
   85500    298.68913   -1514.7506    455.51075    278.93455   -586.56128    36822.805 
   85600    300.08225   -1457.0669    441.70131    329.05018    -462.1257    36822.805 
   85700    299.15988   -1513.3415    452.43838     279.3803   -990.76291    36822.805 
   85800     307.5578    -1473.893    455.06165    359.07608   -483.76233    36822.805 
   85900    301.89402   -1449.8418    438.78074    341.47169   -331.41251    36822.805 
   86000    309.30651   -1445.4043     459.9697     400.3073   -617.82131    36822.805 
   86100    304.38365   -1446.9925    468.80542    385.49959   -316.65859    36822.805 
   86200    304.49431   -1476.7769    450.11205    337.51759   -595.64555    36822.805 
   86300    308.98328   -1467.7845    437.66464    354.17391    -327.0624    36822.805 
   86400    302.28592   -1477.4334    435.30376    312.15887    144.78212    36822.805 
   86500     292.2854    -1499.083    440.05342     250.4551   -347.41376    36822.805 
   86600    305.24566   -1475.7464    458.03795    349.84016   -773.79107    36822.805 
   86700    298.16251   -1436.5539    464.52165    363.78274   -360.04052    36822.805 
   86800    298.01914   -1476.8923    452.80721    311.08762   -145.72467    36822.805 
   86900    309.49702   -1495.6759    431.44833    322.36781    -205.3796    36822.805 
   87000    304.43671   -1511.1674    466.52852    319.28551    670.70146    36822.805 
   87100    293.84437    -1527.389    472.76136    261.84143    714.70236    36822.805 
   87200    307.16495   -1508.4712    466.57611    334.25222    346.25239    36822.805 
   87300    287.22119   -1540.6513    483.87157    230.01643    247.51169    36822.805 
   87400    310.63067    -1513.365    433.80441    312.11376   -87.968061    36822.805 
   87500     303.3661   -1493.9325     452.3312    317.52666    54.823328    36822.805 
   87600    295.73478   -1478.4924    458.50268    304.94866    157.95183    36822.805 
   87700    288.77175   -1540.7873    462.94445    215.90006   -169.54851    36822.805 
   87800     299.5076   -1492.7674    454.09027    303.16407    75.894296    36822.805 
   87900    287.97088   -1508.7662     477.7734    259.16207    586.54082    36822.805 
   88000     304.5289   -1542.0155    449.67319    271.99508    338.72854    36822.805 
   88100     304.9367   -1554.0434    441.36046    253.48153   -199.81321    36822.805 
   88200    300.44226   -1571.0934    443.95243    218.88763    289.53218    36822.805 
   88300    314.01334   -1547.1847     455.8087    315.45329    22.841157    36822.805 
   88400    294.15945   -1515.0734    453.92047     256.7277   -12.649129    36822.805 
   88500    301.01821   -1485.8003    459.11898    321.92769   -41.869695    36822.805 
   88600     302.2905   -1486.2857    425.94641    293.96976   -552.65494    36822.805 
   88700    299.27602    -1487.874    454.42082    307.35054   -504.61758    36822.805 
   88800    309.58147   -1490.2752    459.97893    356.67746    313.61952    36822.805 
   88900    303.30281   -1521.3562     465.1928    302.68099    2.3549694    36822.805 
   89000    300.40238   -1499.7567    441.71114    287.80448   -143.47861    36822.805 
   89100    297.28053   -1500.8237     424.8835    255.92338   -851.32025    36822.805 
   89200    309.58474   -1526.8643    422.65306    282.77715   -380.18298    36822.805 
   89300    303.87345     -1525.82    438.20861    273.78951   -206.73908    36822.805 
   89400    306.74181   -1486.6305    442.77191    330.39302   -698.92633    36822.805 
   89500    298.66688   -1525.4137    460.31951    272.98045   -52.756717    36822.805 
   89600    297.62831   -1547.9159     450.3129    235.81877     564.3529    36822.805 
   89700    303.84498   -1518.0071    449.30303    292.56935    184.57856    36822.805 
   89800    299.34681   -1509.1072    441.76359    273.77721    665.82973    36822.805 
   89900    298.48724    -1472.871    451.85704    316.25588   -86.949152    36822.805 
   90000    299.85139   -1489.1389    454.25847    308.50102    160.51467    36822.805 
   90100     312.1645   -1478.7344    458.26111    378.07286    -3.598217    36822.805 
   90200    300.19636   -1519.2222    494.02428    319.72903    986.87239    36822.805 
   90300    295.12261   -1515.7602    462.21358    268.64913     877.1792    36822.805 
   90400    297.22664   -1518.8694    438.64721    251.40003    19.574874    36822.805 
   90500    321.66148   -1493.0177    415.01803    363.09444    164.60012    36822.805 
   90600    293.16139   -1512.2035    429.51777    230.72347    111.56273    36822.805 
   90700    299.00206   -1490.6865    453.15921      302.049    243.14689    36822.805 
   90800    297.38633    -1491.496    448.67179    289.51343   -66.927417    36822.805 
   90900     299.4698   -1476.5984    453.97648     319.0499    566.62578    36822.805 
   91000    307.97119   -1487.1558    463.16273    355.76639    478.67129    36822.805 
   91100    297.64972   -1520.9595    458.05177    270.60992   -14.153158    36822.805 
   91200    300.87445   -1489.9289    437.20335    295.23938   -274.20716    36822.805 
   91300    293.85151   -1517.3105    447.29643    246.48701    217.15721    36822.805 
   91400    300.08331    -1460.759    480.48997    364.15144     422.9904    36822.805 
   91500    316.72629   -1504.7796    431.59218    345.79627    57.967547    36822.805 
   91600     300.0493   -1447.8075    436.12529     332.5859    98.789305    36822.805 
   91700    298.00921   -1480.8788    443.22678    297.47617   -19.270029    36822.805 
   91800    299.05342    -1497.274    424.93539    267.46782   -148.79369    36822.805 
   91900    301.75278   -1491.2286    451.34819    312.01955   -277.40331    36822.805 
   92000     307.0763   -1486.8517    455.63278    344.53124   -257.23626    36822.805 
   92100    301.07012     -1527.72      426.842    247.96357   -326.43213    36822.805 
   92200    296.94217   -1499.2916    438.26607    269.32223    129.90957    36822.805 
   92300    290.37934   -1523.7106    475.26687    252.50149     602.1711    36822.805 
   92400    312.80535    -1506.557    464.88986    359.75003    1118.5849    36822.805 
   92500    303.00065   -1492.9595    465.94923    330.48031    961.02632    36822.805 
   92600    296.73157   -1532.9216    468.74487    265.22747    1213.4398    36822.805 
   92700    302.10476   -1491.4789     434.4358    296.43379    671.34657    36822.805 
   92800    291.29105   -1547.9168    463.11792    220.23085   -61.888557    36822.805 
   92900    291.01756   -1505.2156    455.98291    254.57178   -250.43716    36822.805 
   93000    301.04731   -1501.1547    442.31144    289.89613      407.293    36822.805 
   93100    299.63088   -1548.5274    424.04187    217.90806    328.50317    36822.805 
   93200    295.99203   -1510.8893    435.64103    250.84261    212.90369    36822.805 
   93300    305.24747   -1536.4813    437.85966    268.93507    295.00675    36822.805 
   93400    304.27459   -1499.1001    445.52361    309.62161   -91.857226    36822.805 
   93500     303.7705   -1515.6838    441.09437     286.3503   -247.76557    36822.805 
   93600    307.12986   -1454.3949     464.1093    385.70458    326.51363    36822.805 
   93700    305.72626   -1442.0092    459.31723    387.00981    341.69637    36822.805 
   93800       297.06   -1456.6532    458.24121    332.46361    15.242454    36822.805 
   93900    299.56901    -1494.465    453.85186    301.50322   -235.17538    36822.805 
   94000     292.2388   -1465.3254    466.74438    310.69488    93.565937    36822.805 
   94100    302.37085   -1467.0857    483.22093    370.80426    242.84388    36822.805 
   94200    303.29994   -1499.8242    435.17727     294.1846    868.02771    36822.805 
   94300    305.30911   -1521.0638    469.94192    316.71107    523.18107    36822.805 
   94400    311.48357   -1482.6272    467.31844    380.18669    185.33258    36822.805 
   94500    299.74739   -1475.0887    454.94273    322.76958   -408.63973    36822.805 
   94600    307.26058   -1487.7657     465.3843    354.19445   -217.17933    36822.805 
   94700    304.88898   -1515.9742    459.12504    309.10154   -210.97298    36822.805 
   94800    299.94786   -1510.6184     450.5284    283.72362   -404.21917    36822.805 
   94900    300.18893   -1494.2375    444.05687    294.71306   -277.56596    36822.805 
   95000    301.85854   -1488.8836     448.0045    311.49476   -351.52178    36822.805 
   95100    299.98946   -1475.2593    453.96878    322.70953   -223.95401    36822.805 
   95200    304.43499   -1492.4349    458.75129    330.23306   -307.06717    36822.805 
   95300    305.82143   -1496.3861    432.95168    306.69375    16.542936    36822.805 
   95400    299.13894   -1482.2958    468.20093    326.09464    309.58638    36822.805 
   95500    302.23711   -1518.7362    476.35036    311.68405    309.78679    36822.805 
   95600     298.8358   -1493.2709    453.90486    299.46545    36.197561    36822.805 
   95700    303.13184   -1489.8653      445.891    314.10409    887.89063    36822.805 
   95800    287.40478   -1518.8049    435.06463    203.87845    173.00023    36822.805 
   95900    291.70005   -1549.8043      455.947     213.0049    46.438071    36822.805 
   96000    297.10793   -1499.2523     457.5958    289.43386   -340.94973    36822.805 
   96100    299.38444    -1471.901    472.85477    342.24322    417.43344    36822.805 
   96200    294.54974    -1449.806    502.48754    372.31074    335.66483    36822.805 
   96300    303.31405   -1460.6894    477.67707    375.88238    -24.81997    36822.805 
   96400    296.51435    -1460.773    478.96656    346.62452    192.32513    36822.805 
   96500    290.41605   -1462.3162    479.60239    318.39585    6.4797497    36822.805 
   96600    297.40495   -1426.1595     474.1296    380.39114    171.96149    36822.805 
   96700    297.94855   -1449.3372    468.65718    354.17644   -408.27442    36822.805 
   96800    294.97639   -1488.5182    458.93873    291.96125    118.82609    36822.805 
   96900     296.4368   -1452.5823    464.94244     340.4437     290.6134    36822.805 
   97000    303.14606   -1483.1566    436.46722    311.45272    231.27405    36822.805 
   97100    286.81783   -1470.1331    498.50512    313.36108    -140.1994    36822.805 
   97200    306.02022   -1521.7044    441.44818     290.7626   -153.52861    36822.805 
   97300    295.32339   -1449.4672    460.02996    333.65808   -647.64409    36822.805 
   97400    295.99947   -1471.1196    459.70207    314.70672   -787.95626    36822.805 
   97500     300.0152   -1471.4767        456.8    329.43865   -443.66281    36822.805 
   97600    296.78519   -1460.5808    481.35618    350.41978   -173.66126    36822.805 
   97700    291.95478   -1403.0381    467.58335    372.54859   -282.13687    36822.805 
   97800    297.76536   -1399.5832    480.77519    415.22776   -209.00059    36822.805 
   97900     294.8366   -1451.1429    453.33758    323.10914   -314.33929    36822.805 
   98000    296.81361    -1481.102    465.81733    314.48708   -217.15586    36822.805 
   98100     308.3996   -1486.5532    480.04045    375.16606    220.21115    36822.805 
   98200     304.2305   -1490.5813    495.39995    367.81923    306.33059    36822.805 
   98300    298.95163   -1540.4428    443.11252    242.02014   -186.67682    36822.805 
   98400    304.48246   -1495.6453    457.03923    325.52328    490.07403    36822.805 
   98500    306.44685   -1452.6438    475.11858    395.40495    739.05532    36822.805 
   98600    301.67043   -1504.5624    454.13682    301.10545    162.91084    36822.805 
   98700     294.9824   -1505.7878    444.94524    260.72504   -138.92864    36822.805 
   98800    294.47576   -1544.5924    451.53315    226.23859    439.59448    36822.805 
   98900    304.90873   -1524.4058    449.53174    291.16506    169.46341    36822.805 
   99000    303.53527   -1528.4236    453.37916    284.84134    447.66121    36822.805 
   99100    296.40396   -1512.0789    455.67405    271.53163    198.97398    36822.805 
   99200    291.06824   -1511.3088    460.37671    253.09941    28.279803    36822.805 
   99300     306.0832   -1518.8968    455.95397    308.35813   -65.092586    36822.805 
   99400    294.33594    -1478.838    457.45053    297.28391     116.5655    36822.805 
   99500    289.46249   -1522.6065    479.37166    253.60272    520.51871    36822.805 
   99600    300.67306   -1490.8532    475.08007    331.28958    32.928048    36822.805 
   99700    294.73299   -1537.0838    435.73803    219.10447   -493.63083    36822.805 
   99800    302.91314   -1524.7021    476.89038    309.28682   -354.62744    36822.805 
   99900    285.96149   -1524.2094    456.49645    213.43963    117.81125    36822.805 
  100000    301.23328   -1522.4557     447.3993    274.51609   -473.79883    36822.805 
  100100    288.71406   -1497.0536    480.11878    276.54964     316.4585    36822.805 
  100200    298.53948    -1462.799    452.98813    327.69305     222.8137    36822.805 
  100300     301.3379   -1446.0195    480.35018     384.3719    34.729912    36822.805 
  100400    300.71079   -1492.9832    458.27234    312.52081    270.75942    36822.805 
  100500    308.09937    -1485.049    433.31521    328.59993    341.58816    36822.805 
  100600    297.00669   -1468.6256    487.13947    349.15064     3.648888    36822.805 
  100700     295.4319   -1469.6321    464.23944    318.18874    229.63352    36822.805 
  100800    301.27542   -1484.9844    467.84691     332.6239   -18.573428    36822.805 
  100900    308.69131   -1510.1834    477.00472    349.80698   -45.020063    36822.805 
  101000    289.19468   -1525.9473    439.95119    209.64157    83.788782    36822.805 
  101100    310.64272   -1487.0214    455.05653    359.76343    346.47726    36822.805 
  101200    294.85262   -1480.4382    461.46975    302.01776    69.649183    36822.805 
  101300    297.66102   -1491.2887    499.06293    341.34251    114.57813    36822.805 
  101400    303.80313   -1492.3107    432.87795    301.65309    285.12117    36822.805 
  101500    293.65102    -1535.519    464.50281    244.58663   -429.13882    36822.805 
  101600    297.57813   -1516.0812    466.51564    283.63128   -265.41288    36822.805 
  101700    301.79672    -1493.791    456.13663    314.44247    170.26935    36822.805 
  101800    308.12592   -1487.2475    512.16713    405.37224    514.24949    36822.805 
  101900    293.89388   -1462.0576    457.87337    312.50664    361.07345    36822.805 
  102000    297.06208   -1441.6874    456.04617    345.24365   -590.12548    36822.805 
  102100     300.2704   -1460.4826    476.11926    360.89531    245.31055    36822.805 
  102200    293.67028   -1495.1312    460.34471    280.90264   -58.604262    36822.805 
  102300    309.85455   -1534.5543    468.72299    322.36591    494.78142    36822.805 
  102400    296.62311   -1490.7061    451.53934    289.75145    686.38487    36822.805 
  102500    292.31061   -1516.9396     477.3128     269.9708    309.24776    36822.805 
  102600    297.49777   -1477.2009    468.77054    324.40648   -180.89209    36822.805 
  102700    292.17614   -1518.9453    464.80801    254.85786   -306.67864    36822.805 
  102800    291.27491   -1500.1003    445.85828    250.71546    561.36791    36822.805 
  102900    299.14291   -1511.6665    440.12658    268.66738   -441.75623    36822.805 
  103000    315.43797   -1501.4651    473.76928    385.51594   -366.13074    36822.805 
  103100     291.5891   -1528.1837    456.09193    234.27337   -385.67753    36822.805 
  103200    309.54729   -1524.8053    454.52724    316.54255   -277.59231    36822.805 
  103300    304.98015    -1492.458    448.60289    322.50403   -483.66493    36822.805 
  103400    297.37919   -1555.3989    451.32068    228.22736   -567.15425    36822.805 
  103500    288.44034   -1518.6441    472.85706    246.47109   -150.83149    36822.805 
  103600    312.46118     -1497.24    475.03001    377.66525   -269.51805    36822.805 
  103700    301.25519    -1500.934    462.90151    311.63824    65.615198    36822.805 
  103800    292.24686   -1484.2646     491.2191    316.26643   -451.56031    36822.805 
  103900    299.07462   -1481.1311    478.01725    336.78755   -236.79745    36822.805 
  104000    306.01751   -1473.8127    458.31531    355.50926   -383.26121    36822.805 
  104100    303.76169   -1501.6855    438.18408    297.39884    116.81705    36822.805 
  104200    303.25675   -1512.9189    444.76221    290.48135    303.98335    36822.805 
  104300    301.47691   -1501.0117    486.26993    335.92229      323.457    36822.805 
  104400    301.64904   -1544.8181    472.60116    279.21831    273.03279    36822.805 
  104500    289.84574   -1495.9549    454.28037     256.8801    404.84534    36822.805 
  104600    298.80513   -1539.5972     492.1935    291.29031    38.248126    36822.805 
  104700    297.71936    -1488.929      451.284    296.18459    346.72706    36822.805 
  104800    310.03942   -1499.4417    455.61288    345.19659     29.76636    36822.805 
  104900    301.57607   -1485.8773    459.93965    325.17061    107.26419    36822.805 
  105000    294.20555   -1500.0731    458.78009    276.79419   -132.93105    36822.805 
  105100    292.68551   -1534.9848    451.26968    227.56207    -308.8936    36822.805 
  105200    292.78258   -1545.4601    450.08577    216.33773   -482.80242    36822.805 
  105300    298.53831   -1534.8939    468.58871    271.19348   -266.15337    36822.805 
  105400    310.91535   -1526.9528    471.73262    337.72958   -245.12066    36822.805 
  105500    291.26985   -1510.6124    451.36822     245.6906   -570.48709    36822.805 
  105600    308.54746     -1495.66     458.6391    345.32028    160.28012    36822.805 
  105700    296.54781   -1507.5824    472.21985    293.21834    16.010817    36822.805 
  105800    300.97933   -1490.1759    476.64002    334.89891    240.51081    36822.805 
  105900    299.86693   -1541.4549    471.19484    273.19107    32.592938    36822.805 
  106000    306.84569   -1528.3903     443.6703    289.99696   -249.90337    36822.805 
  106100    306.26635   -1484.9065    470.40627    357.62123    -551.6434    36822.805 
  106200    299.09148   -1462.8124     469.3873    346.55184    -494.7227    36822.805 
  106300    307.82182   -1442.2228     480.4537     417.3212    -656.4615    36822.805 
  106400    298.91177   -1455.6951    448.81938    332.29605   -386.11026    36822.805 
  106500    291.42113    -1483.334     471.4015    293.68009   -374.73561    36822.805 
  106600    288.23593    -1497.853    468.78299    262.27234    867.02336    36822.805 
  106700    293.22762   -1485.8712    472.81671    300.65146     378.8582    36822.805 
  106800    305.18716   -1528.5653    465.99851    304.71969   -176.58258    36822.805 
  106900    292.53285   -1497.9768    466.15987    278.77629   -254.36023    36822.805 
  107000    291.81789   -1495.8839    461.78036    273.28658   -320.79205    36822.805 
  107100    299.66019   -1556.9504    447.07273    232.64714   -278.71469    36822.805 
  107200    306.46452   -1545.0048    448.52779    276.53231    152.56458    36822.805 
  107300    290.60853   -1549.4784    465.72578    218.21933   -330.04547    36822.805 
  107400    299.07968   -1552.1487    442.73853    230.51388   -659.48715    36822.805 
  107500    301.51516   -1550.9802    433.15827    233.01346   -26.481563    36822.805 
  107600    306.56583   -1550.8737    446.03119    268.62074    232.67708    36822.805 
  107700    305.85765   -1539.0409    450.76357    282.01315    142.24434    36822.805 
  107800    309.06648   -1488.2361    473.32695    369.75736     378.6521    36822.805 
  107900    298.91346   -1493.5975    485.08646     330.6683    438.45069    36822.805 
  108000    305.95115   -1494.9933    443.00597    318.72201   -101.94593    36822.805 
  108100    295.99784   -1477.9234     469.3114    317.50499   -41.355528    36822.805 
  108200    308.52111   -1510.9738    463.59292    334.84232   -58.351477    36822.805 
  108300    311.52705   -1479.0852    462.81821     379.4233   -90.695785    36822.805 
  108400    294.42457   -1472.2494    471.87113    318.69015   -347.52348    36822.805 
  108500    301.90967   -1456.4484     475.2206    371.37501   -213.80784    36822.805 
  108600    295.79652   -1535.7733    466.16237    255.60403   -482.75583    36822.805 
  108700    311.07493    -1500.828    461.78977    354.62644    406.11984    36822.805 
  108800    308.28655   -1540.9201    469.39099    309.64316   -215.89605    36822.805 
  108900    301.43308   -1494.6869    462.75886    318.53966   -586.46588    36822.805 
  109000    302.26619   -1507.1446    448.35985    295.41534    -395.9792    36822.805 
  109100    297.26979   -1437.6382    470.35935     364.5366   -445.14994    36822.805 
  109200    303.18723   -1472.9679    461.29163     346.6503   -192.83154    36822.805 
  109300    300.21449   -1472.7167    491.39783    363.68929    420.16924    36822.805 
  109400    305.59792   -1505.9255    471.80451    335.00576    388.53321    36822.805 
  109500    302.04055   -1486.3135    450.83542    317.71121   -2.8840938    36822.805 
  109600    312.91643   -1490.0813     449.0611    360.89466   -718.27512    36822.805 
  109700    295.43288   -1490.4284     471.4921    304.64958   -73.418576    36822.805 
  109800     308.9301   -1491.8062    470.24679     362.4961    18.015143    36822.805 
  109900    306.85269   -1475.3159    470.85623    370.28872    -12.86215    36822.805 
  110000    314.35257   -1473.9204    475.47567    409.90431   -434.96548    36822.805 
  110100    301.78099   -1481.9032    497.78606    367.90923    182.25238    36822.805 
  110200    301.06248   -1518.8338    445.63321    275.60669    65.957683    36822.805 
  110300    293.78436   -1507.4041    495.03203    303.82809    134.55429    36822.805 
  110400    302.67246   -1494.1453    477.20897      339.084   -429.95042    36822.805 
  110500    296.75815   -1515.2346    459.99458    274.28326   -281.12329    36822.805 
  110600    297.23438   -1529.3448    459.10102    261.41308    493.43723    36822.805 
  110700    313.83221   -1522.4402    451.48596    335.06349    362.93997    36822.805 
  110800    305.53472   -1532.4041    457.24344    293.68295    672.11226    36822.805 
  110900    290.80969   -1545.1921    460.41072    218.09184    538.31894    36822.805 
  111000    308.55763   -1534.7924    457.55179    305.14616    507.11696    36822.805 
  111100    303.50423   -1535.0809    472.26191    296.92781    190.77599    36822.805 
  111200    303.07105   -1512.4773    456.33782    301.66652   -368.50916    36822.805 
  111300    299.66955   -1507.7056    473.49093    308.35215   -145.47891    36822.805 
  111400    296.49359   -1529.5294    452.41031    251.21894   -462.72828    36822.805 
  111500    307.49515   -1537.1748    459.21073    299.66265     10.08809    36822.805 
  111600    286.45361   -1535.5158    468.65187    216.49342   -535.32818    36822.805 
  111700    300.66329   -1516.9194    460.50093    290.60044    107.89283    36822.805 
  111800    307.17026   -1485.1411    452.41938    343.44938    500.58399    36822.805 
  111900     297.1463   -1552.2137    461.69201    240.74055    436.22284    36822.805 
  112000    295.68855   -1508.3805     482.7518     299.1026    602.89968    36822.805 
  112100    304.15107   -1548.5143    465.77157    279.90193     481.5788    36822.805 
  112200    310.56308   -1499.8023    458.87095    350.44013   -206.16759    36822.805 
  112300    306.30592   -1507.4098    456.76579    321.65478   -225.33737    36822.805 
  112400    307.18717   -1559.3943    442.38845    259.24105   -92.675494    36822.805 
  112500     297.6603   -1527.0439    468.30995    274.83111    346.48861    36822.805 
  112600    298.30549   -1595.0725     445.9204    187.30348    504.59192    36822.805 
  112700    291.37834   -1551.5506    465.05292    218.92317    57.373425    36822.805 
  112800    306.48192   -1526.7729    449.18014    295.49446   -123.34595    36822.805 
  112900    298.31626   -1520.2825    451.41574    267.63706    97.403371    36822.805 
  113000    288.40226   -1515.8598    455.41132    231.63905     281.7281    36822.805 
  113100    306.77301   -1493.6196    469.07083    349.84263    469.31719    36822.805 
  113200    303.77994   -1499.8389    458.25646    319.39952    600.14389    36822.805 
  113300    291.61498   -1467.2254    460.45629    299.71195    658.43351    36822.805 
  113400    311.98625   -1485.4752    492.67639    404.94869    823.12681    36822.805 
  113500    301.85824   -1476.1745    471.83542    348.03334    485.23697    36822.805 
  113600    298.12852   -1476.1929    470.46915    329.93898    546.63093    36822.805 
  113700    299.91359    -1512.076    469.30245    300.88663   -120.95676    36822.805 
  113800    299.96987   -1498.3776    483.91767    329.45236   -459.03612    36822.805 
  113900    296.62352     -1507.04    461.87341    283.75351   -182.92184    36822.805 
  114000    297.66224   -1510.1105    460.62296    284.08624   -127.05909    36822.805 
  114100    300.95306   -1537.8091     434.0758    244.58378   -72.564034    36822.805 
  114200     300.5829   -1511.0736    442.26698    277.85214   -175.16732    36822.805 
  114300    298.74223   -1544.3379    450.54067    244.61501    412.91638    36822.805 
  114400    301.07366   -1525.0484     461.1026    284.91159    633.24472    36822.805 
  114500     292.8344   -1548.0906    448.12124    211.97486   -125.50355    36822.805 
  114600    293.24053   -1545.5697    449.42539    217.61948   -468.35466    36822.805 
  114700    297.96251   -1515.9509    448.53455    267.50266    284.98898    36822.805 
  114800    299.93241   -1482.2987    462.40208    323.84775    170.20565    36822.805 
  114900    303.24012   -1491.8841    467.06828    333.74771    198.71878    36822.805 
  115000    307.46317   -1518.6985    445.20254    303.98746    341.58777    36822.805 
  115100    307.58461   -1502.6671    484.97727    360.33772    135.28401    36822.805 
  115200    289.13175   -1511.2275    449.07279    233.20109   -519.89228    36822.805 
  115300    295.07108   -1497.4599    470.17298    294.67799    452.15127    36822.805 
  115400    289.55194    -1565.985     443.8066    175.05987   -378.78122    36822.805 
  115500    294.74973    -1528.148    481.49408    273.87129   -254.11666    36822.805 
  115600    306.98838   -1484.9538    473.96404    364.36649    513.75408    36822.805 
  115700    303.72902   -1487.0465    448.02247     321.7298    172.88519    36822.805 
  115800    304.09758   -1508.4796    488.01322    341.93864    46.740019    36822.805 
  115900    296.21604   -1488.0602    446.49712    285.53137   -170.32846    36822.805 
  116000    304.30091   -1493.7836    480.89537    350.42773    62.325087    36822.805 
  116100    289.02543   -1506.4831    471.49216    259.88855    885.44965    36822.805 
  116200    295.19503   -1477.0588    460.85724    306.31869    1175.6084    36822.805 
  116300    294.23784   -1493.9708    470.16707    294.42809    679.14885    36822.805 
  116400    305.78926   -1470.1382    476.71577    376.56165    225.30061    36822.805 
  116500    300.62637   -1517.5786    464.19074    293.46561    45.314408    36822.805 
  116600     294.1981   -1493.4257    470.10891    294.73704   -103.91507    36822.805 
  116700     297.9749   -1481.6232    465.04594    318.39721    127.38939    36822.805 
  116800    295.62952   -1502.4796    487.30363    309.29085   -213.35198    36822.805 
  116900    297.39144   -1502.5762    467.00532    296.78961   -96.109805    36822.805 
  117000    317.24912   -1504.5922    471.66703    388.40081    463.07676    36822.805 
  117100    298.87066   -1452.5158    477.98322    364.45503   -441.03251    36822.805 
  117200    301.00976   -1477.3274    469.53183    340.77555   -992.85777    36822.805 
  117300    301.47157   -1491.0643    467.38981    326.96558   -703.49858    36822.805 
  117400    291.69942   -1507.7613    469.37609     268.4741   -664.65937    36822.805 
  117500    304.17286   -1472.1906    450.72934     341.2811   -569.83138    36822.805 
  117600    308.16947   -1536.8224    458.54207    302.36741   -417.06857    36822.805 
  117700     304.4734   -1530.3554    447.77763    281.51104   -273.64252    36822.805 
  117800    291.63861   -1509.2613    477.55659    274.88219    58.018955    36822.805 
  117900    301.15804   -1519.6689    455.32094    284.88748   -22.488864    36822.805 
  118000    284.16598   -1522.0518    477.44544    228.50194   -63.387731    36822.805 
  118100    294.75509   -1490.5597     473.1181    303.10766   -116.79252    36822.805 
  118200    298.09621   -1494.3771    470.56356    311.70443   -351.34504    36822.805 
  118300    294.59066   -1526.0125    462.63702    256.43706    412.98859    36822.805 
  118400    294.64866   -1514.2044    465.29453    271.16255    99.149189    36822.805 
  118500    293.53364   -1579.5381    458.96011    194.49898    761.31729    36822.805 
  118600    299.93496   -1516.4752    478.38898    305.66967    781.26441    36822.805 
  118700    301.44626   -1541.7555    463.75715    272.52841   -114.98644    36822.805 
  118800    301.62115   -1556.6837    468.26995    262.89653    306.96261    36822.805 
  118900    307.33232   -1550.7215    470.91689    297.09258     254.9984    36822.805 
  119000     294.2626   -1506.9648     445.4559    256.83396   -104.78374    36822.805 
  119100    295.47759   -1461.0073     476.1809    338.95976   -107.88052    36822.805 
  119200    308.46013    -1464.182    461.27277    379.04071    486.80109    36822.805 
  119300    297.38177   -1500.6237    480.85421     312.5477    299.59792    36822.805 
  119400    306.26853   -1487.6603    462.14842    346.61941    75.167945    36822.805 
  119500    298.04882    -1460.385    454.33366    329.25434    380.26084    36822.805 
  119600    296.27224   -1473.1028    469.04002    323.28353    735.63694    36822.805 
  119700    306.31939   -1469.5678    472.85586    375.64721     514.4072    36822.805 
  119800    300.82723   -1483.1501    485.43954    350.04278    247.19084    36822.805 
  119900    301.75066   -1451.9772    483.09294    383.00617    551.92141    36822.805 
  120000    291.58315    -1475.362    457.29315     288.2696    495.59813    36822.805 
  120100    295.57805   -1443.7422    463.12451    343.61857   -22.402411    36822.805 
  120200     307.7177   -1444.4066    490.60364    424.82078     201.3718    36822.805 
  120300    308.71683   -1469.3094    467.71762    381.50821     759.0876    36822.805 
  120400    302.65474   -1436.0428    480.11615    400.01425    461.51526    36822.805 
  120500     298.6776    -1477.201    478.76021    339.68193    620.68162    36822.805 
  120600    300.79965   -1465.0294    469.96458    352.56502    891.24527    36822.805 
  120700    309.02909   -1481.5433    461.56433    364.52001    523.72152    36822.805 
  120800    295.60342   -1475.5576    487.33926    336.13157    267.84561    36822.805 
  120900    306.74307   -1510.6908    461.52671    325.09319    353.90706    36822.805 
  121000    301.27017   -1529.0584    453.43438    274.11377   -50.113231    36822.805 
  121100    297.70211    -1527.803    490.52427    296.47361   -267.51343    36822.805 
  121200    303.25644   -1515.0905    492.01241    335.55847   -290.79032    36822.805 
  121300    307.59644    -1511.945    462.23391    328.36944   -12.990339    36822.805 
  121400    305.75527   -1517.4259    471.01742    323.42329    49.728967    36822.805 
  121500    292.16215   -1492.1142    461.69383    278.51213    458.55031    36822.805 
  121600    296.85051   -1474.1014    473.39064     329.2263    315.73084    36822.805 
  121700    288.68372   -1508.8608    458.35037    242.83813    64.079097    36822.805 
  121800    300.37118   -1542.7087    454.14168    257.14315    336.14674    36822.805 
  121900     301.2787   -1492.4827    493.03373    350.32705    539.20384    36822.805 
  122000     299.6358   -1524.0046    460.44095    278.85193   -89.444903    36822.805 
  122100    304.60967   -1543.0141    471.65294     293.3381    251.53392    36822.805 
  122200    302.80648   -1543.5273    470.27243    283.36584    775.63239    36822.805 
  122300    303.76178   -1557.8942    460.92376     263.9302   -432.64676    36822.805 
  122400     306.0597   -1494.2813    463.53693    340.45126    128.32237    36822.805 
  122500    298.81274   -1572.7073    461.29354    227.31434    178.97356    36822.805 
  122600    298.37787   -1484.8575    489.56837    341.49066    517.21601    36822.805 
  122700    302.35774   -1501.4171    486.51887    339.71207    625.53944    36822.805 
  122800    301.30873   -1523.2011    475.84417     302.5536    189.41621    36822.805 
  122900    295.56577   -1469.5093    479.36388    334.03577   -260.14462    36822.805 
  123000    307.88685   -1431.4928     467.1594    415.04816    -931.0901    36822.805 
  123100    298.47822   -1428.5598    486.25671    394.92633   -961.87356    36822.805 
  123200    300.85012    -1437.699    455.26763    365.42459    -1195.967    36822.805 
  123300     302.9178   -1462.1146    489.05894    384.06385   -530.42478    36822.805 
  123400    290.76168   -1423.0809    492.97011    372.54737   -511.15383    36822.805 
  123500    279.53434   -1460.1474    496.92581    289.13633   -59.324134    36822.805 
  123600    304.37069   -1447.8467    489.60113    405.38305    45.985671    36822.805 
  123700    298.15854   -1422.8932    501.56794    414.47197   -188.64521    36822.805 
  123800    301.44292   -1436.7902    500.70711    414.42866   -187.25607    36822.805 
  123900    295.69303   -1426.9526    456.85021    354.64895   -28.287337    36822.805 
  124000    298.80421   -1481.4635    442.75632    299.98275    37.516893    36822.805 
  124100     294.2793   -1483.2516    461.88232    297.04837   -471.47228    36822.805 
  124200    302.84348   -1465.6472    479.82585    370.96514   -13.717416    36822.805 
  124300    312.40225   -1449.1534    452.96267    403.42059    87.217038    36822.805 
  124400    288.72986   -1489.5797    469.04379    273.01928   -120.92829    36822.805 
  124500    306.18859   -1516.8643    456.89069    311.79951   -395.42359    36822.805 
  124600    303.59855   -1508.2917    479.01887    330.89647    -234.1766    36822.805 
  124700    299.47338   -1467.7168    470.32311    344.29421    39.998388    36822.805 
  124800    300.19959   -1481.1674    469.58359    333.35764    211.07409    36822.805 
  124900    305.71938   -1485.6577    473.73047    357.74377    -403.5655    36822.805 
  125000    302.73526   -1439.3102    497.72778    414.71919    92.543498    36822.805 
  125100    300.58569    -1458.722    484.75728    372.70651    264.62269    36822.805 
  125200    306.24126   -1464.0283    456.48805    364.46884   -126.88811    36822.805 
  125300    305.79219   -1466.1879    443.62817    347.43742   -216.95825    36822.805 
  125400    304.01347   -1464.2322      471.974       369.77   -265.98148    36822.805 
  125500    299.56026   -1493.1851    504.30765     353.1997   -16.566003    36822.805 
  125600     301.9372   -1486.0446    464.54808     331.2297    76.628267    36822.805 
  125700    305.96763   -1491.7186    481.77049    360.83507    179.95917    36822.805 
  125800    290.73116    -1502.036    447.68933    248.17469   -99.440026    36822.805 
  125900    300.66854   -1512.9154    456.56347    290.69051    755.44269    36822.805 
  126000    299.36274   -1496.0771    478.81077    323.92592     390.0092    36822.805 
  126100    302.24846   -1486.3593    469.04796    336.80934   -131.44867    36822.805 
  126200    305.72283   -1482.2649    470.54184    357.96343   -986.33064    36822.805 
  126300    299.04215   -1482.0501    478.90369    336.60952   -285.25032    36822.805 
  126400    306.55239   -1499.4457    467.30492    341.26227   -789.15546    36822.805 
  126500    293.69752   -1492.4204    482.09671    305.48741   -597.08035    36822.805 
  126600    298.08903   -1486.7876    457.12345     305.8217   -265.91886    36822.805 
  126700    311.71707   -1487.7063    482.22834    391.06358   -231.32805    36822.805 
  126800    308.30756   -1464.4072    492.90268    409.76187    491.61441    36822.805 
  126900    300.85111   -1506.1188    495.40949    337.15103    1097.3965    36822.805 
  127000    299.35714   -1511.4908    458.60848    288.28485    767.70771    36822.805 
  127100     307.8174   -1539.8603    476.04827    315.25836    845.41764    36822.805 
  127200    297.73718   -1519.3654    461.50992    276.05397    1004.2401    36822.805 
  127300    300.06221    -1516.434    467.88981    295.78176    740.75485    36822.805 
  127400    301.75146   -1551.3703     471.5413    272.06502    734.81336    36822.805 
  127500     288.5569   -1517.9882    478.90233    253.69445    0.7719581    36822.805 
  127600    296.90266   -1505.3425    477.32955    302.15774    66.662157    36822.805 
  127700    292.88332   -1525.0262    456.65126     243.7885    313.90473    36822.805 
  127800    291.43013   -1496.7342    476.28613    285.20479     35.43142    36822.805 
  127900    306.86427   -1514.5051     475.3737     335.6689   -96.666493    36822.805 
  128000    304.94492   -1519.5208    454.07767    300.75812    141.84082    36822.805 
  128100    302.23821   -1491.5468    484.18223    346.71024   -230.94322    36822.805 
  128200    294.22117    -1501.299    481.27752    298.13564   -133.42581    36822.805 
  128300    305.48334   -1503.4249    480.13945    345.32797   -321.13275    36822.805 
  128400    305.68918    -1508.079    478.65663     340.1133    561.16258    36822.805 
  128500    304.66059   -1500.8284    469.88561    333.98464   -20.113924    36822.805 
  128600    296.21923   -1525.8515    482.88218    284.13944    126.74954    36822.805 
  128700    301.40046   -1496.9807    465.50284    318.84365    206.20112    36822.805 
  128800    306.97966   -1490.6706    494.90914    379.55578     683.5356    36822.805 
  128900     297.2266   -1516.1237    481.21737    296.71564    178.24347    36822.805 
  129000    306.50897   -1538.0145     481.9831    317.17707   -364.11459    36822.805 
  129100    289.82126   -1481.9273     481.8136    298.33123   -705.91841    36822.805 
  129200    305.37923    -1515.395    456.60227    309.35432   -588.84639    36822.805 
  129300    299.24383   -1524.5469    496.26686     312.3795   -938.04363    36822.805 
  129400    300.43137    -1459.884    474.75374    360.84964    -764.5152    36822.805 
  129500    297.68461   -1499.5721    450.62628    284.72814   -362.18236    36822.805 
  129600    307.78798   -1528.1628    486.17796    336.95378   -176.08448    36822.805 
  129700    292.76272   -1462.6473    491.44225    340.41803   -34.962111    36822.805 
  129800    306.07865   -1451.8614    470.86489    390.28406    339.01919    36822.805 
  129900    294.49865   -1503.8674     457.1169    272.64986   -177.16708    36822.805 
  130000    298.34383   -1525.3677    490.47017    301.72981   -158.76103    36822.805 
  130100    290.66069   -1550.4462    474.02689    225.78634   -17.151889    36822.805 
  130200    292.57626   -1514.4377    477.74204    274.09203   -220.21331    36822.805 
  130300    288.93416   -1515.9129    464.29951    242.85719     326.0091    36822.805 
  130400    306.18254   -1500.4951    462.57828    333.82922    363.20782    36822.805 
  130500     303.3305   -1527.9171    462.33748    293.38882    329.36281    36822.805 
  130600    316.71126   -1532.5053    499.66419    386.07523   -463.19082    36822.805 
  130700    292.67217   -1517.6186    442.91244    236.51128   -238.47906    36822.805 
  130800    293.26211   -1501.7552    484.14971    296.25494   -243.33721    36822.805 
  130900    306.94166    -1504.014    469.14652    340.27956   -308.85757    36822.805 
  131000    305.47986   -1482.9122    468.43161    354.11733   -247.41957    36822.805 
  131100    300.07105   -1501.4088    491.31456    334.27131   -119.60586    36822.805 
  131200    300.18419   -1551.9281    477.38246    270.32686    596.64163    36822.805 
  131300    303.10884   -1516.8137    464.77083    305.93247    358.47706    36822.805 
  131400    290.42294   -1481.9638    480.83563    300.01234   -62.600515    36822.805 
  131500    296.37016   -1518.5672    459.70156    268.91938   -56.412465    36822.805 
  131600    299.24212   -1470.1777    504.24411    374.71822   -728.53387    36822.805 
  131700    304.94046   -1506.4912    470.29785    329.98794   -1150.0207    36822.805 
  131800    289.25461   -1482.8676     461.0721    274.11072   -449.61759    36822.805 
  131900    301.64583    -1516.554    468.01029     302.8771    -233.0402    36822.805 
  132000    305.97081   -1491.9921    476.39925    355.20456   -209.36999    36822.805 
  132100    296.21996    -1501.702    452.33951    277.74962   -629.74114    36822.805 
  132200    303.42404   -1472.7299    472.47855    359.13614   -451.80472    36822.805 
  132300    299.15952   -1453.1863    492.56248    379.65789   -491.46472    36822.805 
  132400    306.86545   -1505.5835       498.68    367.90209   -572.68643    36822.805 
  132500    309.15815   -1485.2333    462.94895    362.79289   -381.66949    36822.805 
  132600    297.16169   -1500.5115    476.89733    307.71698   -214.65519    36822.805 
  132700    294.78602   -1467.9534    477.54094    330.27539    439.11678    36822.805 
  132800    290.18814   -1505.4541    487.48173    282.11621    538.78024    36822.805 
  132900    290.99126   -1529.7347    497.62624    271.57818    789.98918    36822.805 
  133000    311.57211   -1487.1783    472.02321    380.73703    324.89031    36822.805 
  133100    300.06134   -1527.1803    462.43761    279.57937    259.96267    36822.805 
  133200    314.39583    -1506.949    485.71044     387.3043    391.96965    36822.805 
  133300     302.7798   -1510.7296    490.30374    336.07528    132.39087    36822.805 
  133400    308.93974   -1495.3486    491.00028    379.75043   -84.237715    36822.805 
  133500    288.11599   -1472.5907    470.10928    288.32361   -94.865185    36822.805 
  133600    301.10845    -1483.472    480.04429    345.58557   -461.50017    36822.805 
  133700    300.48594   -1507.6688    494.22842    332.78394   -266.74556    36822.805 
  133800    302.70452   -1535.1987    480.80266    301.76793    197.26868    36822.805 
  133900    310.28135   -1479.3747    491.61427    402.34887   -80.415152    36822.805 
  134000    307.10663   -1488.6552    493.29329    380.52414   -257.53622    36822.805 
  134100    300.31185   -1486.6062    453.38026    312.21845   -9.7689712    36822.805 
  134200    307.74324   -1486.4823    473.41264    365.66849    28.183679    36822.805 
  134300    306.21683   -1507.9577    478.69227    342.63421   -121.16175    36822.805 
  134400    303.87158     -1520.16    486.55135    327.78391     724.5141    36822.805 
  134500    308.84802   -1530.3788    475.35779    328.66674    933.55284    36822.805 
  134600    291.51997   -1502.0939    497.40045    301.36195    56.061613    36822.805 
  134700    296.76734   -1498.3268    461.47361    292.71128   -133.98699    36822.805 
  134800    298.85599   -1501.5072    465.98192    303.39664   -217.96885    36822.805 
  134900    301.45013    -1472.741    501.90956    379.71263   -272.79421    36822.805 
  135000    289.40412   -1468.7489    474.99888    302.82597    317.32973    36822.805 
  135100    307.32533   -1511.7835    476.20705    341.28942    616.32895    36822.805 
  135200    301.08102    -1477.764    465.63666    336.76308   -75.125965    36822.805 
  135300    306.49188   -1481.0726    489.98551    382.04475   -413.22198    36822.805 
  135400    313.86393   -1478.1275    441.99612    370.02848   -121.01991    36822.805 
  135500    313.35669    -1445.092    505.55352    464.34887   -714.40368    36822.805 
  135600    295.54921   -1473.9646    496.75753    346.89998   -588.91345    36822.805 
  135700    306.95158   -1484.5428    482.33085    372.97948   -172.73662    36822.805 
  135800    287.26327   -1481.2304    480.35171    286.10595    240.99284    36822.805 
  135900    294.06462   -1460.8293    497.01794    353.64444   -96.101369    36822.805 
  136000    296.10278   -1504.0542    484.16974    306.70262   -34.324207    36822.805 
  136100    307.53202    -1464.439    493.08656    406.43941    724.47119    36822.805 
  136200    288.74609   -1474.2932    469.92558    289.26039    895.77073    36822.805 
  136300    307.97518   -1500.1337    483.94721    363.59089    1109.3812    36822.805 
  136400    297.50972   -1450.4786    502.43983    384.85158    1092.1233    36822.805 
  136500    311.49073   -1484.7057    475.34977    386.17159    720.98401    36822.805 
  136600    298.90221   -1540.7996    495.43523    293.76463    1311.4515    36822.805 
  136700    317.17833   -1545.9284     485.0873    360.16772    1134.7169    36822.805 
  136800    302.58943   -1535.5138    486.03451    306.16902    264.49862    36822.805 
  136900    310.04318   -1542.7633    447.84398    294.12298    71.406866    36822.805 
  137000    301.94615   -1550.6414    477.45158    279.57654   -467.20404    36822.805 
  137100     304.2917   -1523.4347    479.23684    319.07691   -953.15643    36822.805 
  137200    302.05152   -1466.9234    465.27882    351.59378   -550.51349    36822.805 
  137300    303.72638   -1505.4383    462.16593    317.46965   -489.87638    36822.805 
  137400    296.76332   -1492.2887    459.61244    296.87014   -423.85841    36822.805 
  137500    301.52694   -1526.2671      474.746    299.36712   -383.66315    36822.805 
  137600    303.12975   -1500.6613    466.98643    324.39415    478.19469    36822.805 
  137700    303.41024   -1513.7272    503.31194    348.91036    263.70523    36822.805 
  137800    292.84488   -1516.3602    451.16216    246.79321    8.5907062    36822.805 
  137900    295.10171   -1539.2818    461.76709    244.58741   -697.20298    36822.805 
  138000     294.0006   -1514.3808    479.65975    282.44795   -213.10892    36822.805 
  138100    282.18562   -1508.6247    477.50467    233.11597   -386.10948    36822.805 
  138200    298.78869   -1479.1506    495.56504    355.03478   -354.90007    36822.805 
  138300    296.64383    -1522.264    461.51553    268.26259   -545.81708    36822.805 
  138400    292.02171   -1493.5022    467.20994    282.01102   -587.34415    36822.805 
  138500    292.09102   -1534.0095    469.12813    243.73242    -593.2094    36822.805 
  138600    294.51103   -1579.4236    458.25767    198.28991   -2.3199053    36822.805 
  138700    303.78283   -1564.9851    470.09867    266.10849   -26.002729    36822.805 
  138800    302.63264   -1567.5546    459.93977     248.2271   -219.47778    36822.805 
  138900    301.98368   -1559.6169    449.60451    242.92207   -237.35746    36822.805 
  139000    306.35989   -1533.3725    475.39819    314.56623   -55.590614    36822.805 
  139100    302.19223   -1549.5181    483.96139    288.31202   -441.56109    36822.805 
  139200    300.42391   -1567.8716    456.58136    234.65624   -90.580446    36822.805 
  139300    299.78988   -1516.7427    465.66359    292.02672    111.70902    36822.805 
  139400    303.40528   -1530.9145    442.85077    271.23973   -136.35136    36822.805 
  139500    289.38245   -1490.1061    492.72022    299.09312   -110.81538    36822.805 
  139600    301.96512   -1538.6047    498.01739    312.26398    66.587469    36822.805 
  139700    289.74083   -1531.0456    446.02477    213.06368   -311.08791    36822.805 
  139800    307.65956   -1514.2867    498.41184    362.48843    354.63273    36822.805 
  139900    293.70916   -1527.9624    481.01557    268.91641    641.49922    36822.805 
  140000    316.59891   -1570.0302    481.48932     329.8721    849.63871    36822.805 
  140100    305.40447   -1530.9973    482.58603    319.84885    47.925606    36822.805 
  140200    299.52621   -1521.3475    470.00975     290.5868   -102.06949    36822.805 
  140300     306.2857   -1506.4774    468.22216    333.95297   -36.001565    36822.805 
  140400    294.62516   -1532.9193    465.72837    252.77625   -239.83945    36822.805 
  140500     305.2983   -1492.5865    492.33728    367.53523    319.61715    36822.805 
  140600     299.9118   -1524.8035    477.47915    296.32771   -149.24078    36822.805 
  140700    289.90316   -1525.1169      490.791    264.48594   -287.15421    36822.805 
  140800    308.94702   -1538.3243    461.80989    307.61697     83.44386    36822.805 
  140900    303.55416   -1543.5539    479.72706    296.14365   -105.99144    36822.805 
  141000    308.75112   -1550.2178     471.6796    304.71543   -202.72227    36822.805 
  141100    310.63842   -1547.3061    463.56216    307.96512    312.47508    36822.805 
  141200    308.46502   -1512.6207    461.75095    331.10211    573.59205    36822.805 
  141300    295.03181   -1509.7742    455.36001    267.37484    159.02654    36822.805 
  141400     301.1765   -1474.9745    468.67417    343.01778    232.80717    36822.805 
  141500    298.89151   -1485.7476    474.47698    327.81045    640.61192    36822.805 
  141600    295.42422   -1517.2149     476.9048     283.2369    19.228489    36822.805 
  141700    298.50958    -1511.477     477.9939    303.88682    238.65504    36822.805 
  141800    313.63783   -1526.7046    464.88677    343.32906    57.891842    36822.805 
  141900    295.58514   -1535.0876    493.75185    282.93223    190.16098    36822.805 
  142000    294.75927   -1532.7203    465.49281    253.34043    165.20811    36822.805 
  142100    295.02886   -1521.0758    464.02245    264.72237   -307.88567    36822.805 
  142200    303.92047   -1537.7788    493.36209    317.19487   -275.27472    36822.805 
  142300    296.07285   -1549.0207    466.60634    244.03867    -215.8269    36822.805 
  142400    302.65253   -1517.0672    475.10645    313.97025   -191.30414    36822.805 
  142500    297.93704   -1510.7285    480.44824    304.52457    22.726147    36822.805 
  142600    295.10367   -1503.7027    467.68536    286.09357   -26.553222    36822.805 
  142700    301.68549   -1533.4278    466.35539    284.52607    498.30262    36822.805 
  142800    298.37919   -1534.8233    477.53793    279.50041    457.45438    36822.805 
  142900    291.37579   -1571.0516    479.00202    213.35981    365.64849    36822.805 
  143000    299.26028   -1558.3648    450.29884    232.66721     659.9199    36822.805 
  143100    300.52214   -1555.0703    450.25579    241.57198    599.32135    36822.805 
  143200    307.73018   -1533.6118    474.06173    319.12961    466.69267    36822.805 
  143300    304.72077    -1521.289    457.02688    300.93491     216.2659    36822.805 
  143400    301.79074   -1502.4303    466.61565    316.25538    192.21817    36822.805 
  143500     301.5546    -1462.822    476.63933    364.82942    606.84726    36822.805 
  143600    302.45145   -1487.4213    460.51771    328.12656   -368.17938    36822.805 
  143700    311.88923   -1491.6021    445.20637    350.91717   -268.92498    36822.805 
  143800    298.31155   -1455.5792    466.27592    347.17946   -309.24227    36822.805 
  143900    304.53609   -1470.4123    467.26697     361.2243   -439.81085    36822.805 
  144000    296.86925   -1457.5216    460.78837    333.28779   -554.35116    36822.805 
  144100    304.27341   -1472.5375    446.85349    337.50875    -277.8845    36822.805 
  144200    297.18289   -1509.9061     470.5184    292.03849    64.994557    36822.805 
  144300    298.13526   -1492.7875    443.16687    286.07228    257.47002    36822.805 
  144400    302.58517   -1526.5584     476.0067    305.07753    -301.0783    36822.805 
  144500    309.00915   -1552.4532     433.4543    265.41081   -231.38883    36822.805 
  144600    293.69355   -1543.7829    440.04317     212.0536   -102.71031    36822.805 
  144700    290.64301   -1573.7245    453.54811    181.95011   -66.383609    36822.805 
  144800    310.94014   -1554.4164    449.89933    288.54372    292.38268    36822.805 
  144900    305.61831   -1556.4445    463.58679    276.36051    -137.4215    36822.805 
  145000    298.60019   -1555.7347    456.70025    238.74143    82.286954    36822.805 
  145100    308.92913   -1547.6837     431.0107    267.37815    149.01158    36822.805 
  145200    313.67707   -1521.5786    439.22372    322.96783   -195.20884    36822.805 
  145300    303.04818   -1547.3428     426.9577    237.31853   -539.88036    36822.805 
  145400    314.33679    -1556.372    471.65882    323.56515   -226.83238    36822.805 
  145500    304.18915   -1546.7914    469.86414    285.88805    33.312439    36822.805 
  145600    297.80748   -1506.2179    449.41062    277.41715    242.11986    36822.805 
  145700    313.09263   -1472.5569    484.15809    414.30546    782.71105    36822.805 
  145800    298.62312   -1489.4435    453.11622    301.55133    334.08631    36822.805 
  145900    306.06503   -1460.6092    446.76557    357.37592    17.248647    36822.805 
  146000    297.21857   -1467.5854     458.0546    322.05517     30.74032    36822.805 
  146100    291.22971   -1510.6774    441.38214    235.45971   -269.29947    36822.805 
  146200    290.64436   -1502.2605     458.6567    258.52873     463.5932    36822.805 
  146300    291.42436   -1496.0653      463.716    273.27771    55.905884    36822.805 
  146400     292.9792   -1465.1809     477.2792    324.69124    468.58466    36822.805 
  146500    305.39329   -1487.6338    465.58606    346.16228    909.70135    36822.805 
  146600    297.31627   -1491.4969    468.11925    308.64603     445.0563    36822.805 
  146700    305.24291   -1491.7367    464.63632    340.43596    362.16883    36822.805 
  146800    298.28856   -1490.2994    463.83731    309.91761    144.20747    36822.805 
  146900    309.03543   -1523.4094    441.42541    302.54338   -148.28701    36822.805 
  147000    293.16311   -1506.0222    454.24252    261.63725   -296.66677    36822.805 
  147100    299.49041   -1502.9418    450.42294    289.24536   -665.53873    36822.805 
  147200    294.11579   -1418.5601    455.16805    354.29298   -538.91915    36822.805 
  147300    305.61234   -1449.4411    475.35924    395.10952   -780.16711    36822.805 
  147400    301.22449   -1412.3826    463.11463    400.26515    -794.9985    36822.805 
  147500    304.18956   -1451.7832    460.97329    372.00725    -622.8535    36822.805 
  147600    302.61636   -1449.2611    457.40138    363.90927   -535.66222    36822.805 
  147700    302.36838   -1469.7276    464.54284     349.4732    1.5313857    36822.805 
  147800     296.6964   -1464.6582    462.76107    327.34953   -239.82663    36822.805 
  147900    297.07015   -1438.8072    464.63682     356.7507   -232.29421    36822.805 
  148000    312.92909   -1463.7369    456.62342    394.85817    191.14176    36822.805 
  148100    295.80699   -1478.8215    473.15916    319.59952    311.45143    36822.805 
  148200    300.39541    -1473.242    452.66103    325.23778     411.0486    36822.805 
  148300    303.52558   -1466.6624     465.9855    359.16548    413.44062    36822.805 
  148400    296.77966   -1501.8727    468.50928    296.25623    612.01501    36822.805 
  148500    297.27623   -1533.4888    463.10565    261.46118    374.21983    36822.805 
  148600    295.89686   -1520.0023    454.79369    260.45593       65.014    36822.805 
  148700    300.10436    -1487.819    466.95523    323.65099    109.60692    36822.805 
  148800    294.11735   -1503.7594    446.35671    260.28939    36.878223    36822.805 
  148900      296.197   -1526.8869    439.33409    239.45641   -257.06317    36822.805 
  149000    295.43045   -1518.0569    438.97631    244.49437   -592.15758    36822.805 
  149100    304.91756   -1518.5451    478.97858    326.51213    398.85006    36822.805 
  149200    298.69391   -1541.4305    441.66592    238.43113    200.50009    36822.805 
  149300    297.52159   -1498.9136    467.60376    301.63377   -150.56383    36822.805 
  149400    291.86631   -1494.1551    448.76084    262.21277     -55.4084    36822.805 
  149500    297.93243   -1498.2278    476.19095    312.74738    -273.8218    36822.805 
  149600    299.43858   -1505.7381    480.13593    315.92978    82.442146    36822.805 
  149700    300.93749   -1512.0419    460.42593    296.63138   -46.284025    36822.805 
  149800    294.59042   -1477.8805    439.78615    281.71709   -202.62897    36822.805 
  149900    305.50863   -1519.3882    468.45767    317.79624    124.11778    36822.805 
  150000    308.11165   -1544.5462    436.99256    272.83511    119.21375    36822.805 
  150100    300.93656   -1501.7952    452.86864     299.3166    394.50299    36822.805 
  150200    294.48163   -1492.1027    484.46868    311.69008   -60.073477    36822.805 
  150300    289.41438    -1527.951    454.91515    223.58616   -447.30994    36822.805 
  150400    299.88448   -1507.2583    471.31048    307.58191    464.02901    36822.805 
  150500    295.54015   -1521.5045    457.05206    259.61402    287.41761    36822.805 
  150600    314.34776   -1506.6434    466.19939    367.88349    347.06219    36822.805 
  150700    292.54852   -1527.7003    447.31459    230.27775    250.24523    36822.805 
  150800    291.42335     -1495.96    454.26125    263.92376   -438.64591    36822.805 
  150900    290.43033   -1490.9052    498.24122    308.50968   -117.58468    36822.805 
  151000    302.82601   -1498.8859    492.31804    350.14037    239.70073    36822.805 
  151100    316.59758   -1483.1678     476.0322    411.27142   -277.17787    36822.805 
  151200    300.64861   -1487.1676    449.96704    309.75255    97.013054    36822.805 
  151300    297.27028    -1496.215    475.23873    310.84144    452.54162    36822.805 
  151400     298.2107      -1522.7    465.72929    279.06019    775.44222    36822.805 
  151500    294.33135   -1527.4084    476.09331    267.33574    180.23256    36822.805 
  151600    304.48441   -1497.5153    474.24089    340.86373    1078.6357    36822.805 
  151700    300.27932   -1587.0381    430.29346    188.55406   -13.113322    36822.805 
  151800    299.40672   -1555.5516    459.89625    245.73385   -301.97267    36822.805 
  151900    297.47718   -1557.7083    481.47301    256.50936   -488.47433    36822.805 
  152000    297.51121    -1516.302    473.06513    289.66021   -340.60661    36822.805 
  152100    302.92781   -1504.0063    475.74335    328.90132   -459.47265    36822.805 
  152200     295.0584   -1538.9104    481.40021    264.39788    173.25881    36822.805 
  152300    295.24344   -1536.8848    465.67249    251.52482    376.76876    36822.805 
  152400    304.65061   -1560.0466    460.56206    265.39817    49.618852    36822.805 
  152500    303.52918   -1572.5581    445.24734    232.54784    399.14034    36822.805 
  152600    294.69616   -1546.7437    463.23659    236.77814    190.07848    36822.805 
  152700    298.80536    -1560.457     465.8481    244.08617    4.0591433    36822.805 
  152800    296.61803   -1533.3007    462.49834    258.09309    165.42713    36822.805 
  152900    301.16724   -1505.5982    459.14758    302.82603    422.24947    36822.805 
  153000    302.07966   -1538.9155    456.19984    270.64878    136.50229    36822.805 
  153100    301.00955   -1546.0304    484.66341    287.20322    88.416151    36822.805 
  153200    295.11739   -1546.9506    465.98573    241.20757    293.64634    36822.805 
  153300    287.08215   -1591.6854     458.9186    153.40646    647.36322    36822.805 
  153400    301.42827    -1492.408    475.56045     333.5986    429.42246    36822.805 
  153500    289.35909   -1510.4217    452.89805     238.8507   -840.53887    36822.805 
  153600    305.37942   -1485.6417    496.15578    378.66195    -9.664031    36822.805 
  153700    297.83665   -1515.7159    463.00031    281.63954   -322.17947    36822.805 
  153800    301.60861   -1484.9309    462.33817    328.66132   -215.31456    36822.805 
  153900     298.5772   -1497.5432    475.29742    315.42706   -343.91642    36822.805 
  154000     297.6488   -1454.8184    469.49583    348.19093    -257.9657    36822.805 
  154100    306.91739   -1479.3146    460.73454    356.45821   -663.16275    36822.805 
  154200    311.20941   -1478.1321    471.83972    387.97483   -158.32853    36822.805 
  154300    292.68966   -1469.0665    480.42104    322.65028   -391.17258    36822.805 
  154400    296.66739   -1527.3169    474.90115    276.70085   -605.43119    36822.805 
  154500    304.74386   -1478.3551    464.95096    351.89638   -572.62047    36822.805 
  154600    305.58183   -1483.1048    462.97927    348.92926    15.028184    36822.805 
  154700    294.10599   -1473.8849    496.77302    340.52929    271.51405    36822.805 
  154800    301.79346   -1462.4588    462.38247    352.00586     397.2784    36822.805 
  154900    297.86193   -1467.8922    461.38322     327.9594    -38.05335    36822.805 
  155000     294.5266    -1489.166    467.37222    297.73178   -141.18881    36822.805 
  155100    294.88976   -1514.2273     484.2594    291.18469   -100.34439    36822.805 
  155200    302.91867    -1522.654     444.6874    279.15674   -537.89384    36822.805 
  155300     305.6174   -1526.6506    474.86042     317.4239     -303.393    36822.805 
  155400     294.7885   -1517.1941    438.46535    241.97012   -216.93687    36822.805 
  155500    301.85082   -1470.5148    499.20882    381.03323    413.75715    36822.805 
  155600    299.90362   -1459.1953    464.53355     348.9537    33.995222    36822.805 
  155700    304.13174   -1447.8711    475.35374     390.0407   -115.45382    36822.805 
  155800    300.95894   -1450.2066    489.81518    387.95199    -160.0396    36822.805 
  155900    302.15004   -1447.2592     471.9817    378.40231    399.31014    36822.805 
  156000    294.27905   -1448.8488    473.61474     343.1824    370.82686    36822.805 
  156100    299.32247   -1478.4918    469.55448    332.07445    778.39068    36822.805 
  156200    301.83361   -1472.1347    496.94282    377.07026    229.54046    36822.805 
  156300     293.7938   -1494.0319    450.81261    273.02323    164.18485    36822.805 
  156400     297.7921   -1482.7186    470.95945    322.39631   -38.159843    36822.805 
  156500    304.53261   -1460.8334    487.13105    390.65166     90.57069    36822.805 
  156600    290.51858   -1493.2954    460.85859     269.1322    395.70991    36822.805 
  156700    313.16996   -1461.4575    474.93116    416.52442    26.569463    36822.805 
  156800    287.87799   -1458.4204    487.29028    318.60861    -523.7612    36822.805 
  156900     306.4792   -1548.6936    454.85308    279.23452   -713.37011    36822.805 
  157000    298.34218   -1553.2888    453.59459    236.92572   -139.49504    36822.805 
  157100    293.28101   -1547.2438    455.03791    221.73923   -552.31549    36822.805 
  157200    290.66843   -1504.6851    468.62318    266.17839   -121.93376    36822.805 
  157300    298.42494   -1558.0054    443.29336    222.27867   -208.22271    36822.805 
  157400    292.39279   -1538.8323    453.28507    224.41847    498.97483    36822.805 
  157500    304.06394    -1527.022    477.56279     312.7951    229.94947    36822.805 
  157600    299.50386   -1472.9014     458.2445    327.16757    491.23607    36822.805 
  157700    297.15546   -1495.2423    458.09261    294.15359    676.80328    36822.805 
  157800    302.56154   -1505.9366    466.80536    316.39212     581.5673    36822.805 
  157900    302.02127   -1455.6923    477.14457    374.55509     301.2694    36822.805 
  158000    305.10742    -1464.294    480.07593    382.71128    676.31565    36822.805 
  158100     316.1481   -1544.9594     441.7633    313.19715    291.51051    36822.805 
  158200    300.26637   -1467.7681    473.36835    350.84091    727.60273    36822.805 
  158300    304.11699   -1534.4559    440.01038    268.04653   -36.707089    36822.805 
  158400    290.12949   -1490.9014    473.37295    282.29742    401.19182    36822.805 
  158500    306.35149   -1498.5573    473.01911    346.96473    66.234573    36822.805 
  158600    302.04263   -1478.9965    479.75647    353.95847    -196.0867    36822.805 
  158700    304.02091   -1456.7464    466.64184      371.957    22.348648    36822.805 
  158800    297.61924   -1476.9337    475.16285    331.61022    611.84924    36822.805 
  158900    296.34797   -1495.8242    484.81143    316.67284    646.94831    36822.805 
  159000    298.63271   -1524.6107    456.27015    269.58099    673.05033    36822.805 
  159100    297.08198   -1531.1267    464.31676     264.1641    444.70332    36822.805 
  159200    309.48224   -1531.7841     466.5107    321.25582    320.94754    36822.805 
  159300     299.6924   -1521.4591    456.11361    277.32367    446.01353    36822.805 
  159400    317.01872   -1512.8152    475.51022    382.98882    54.426954    36822.805 
  159500    285.51238   -1528.7809    442.99994     193.3595   -295.69505    36822.805 
  159600    302.08337   -1527.5009    494.99352    320.87374   -273.06244    36822.805 
  159700    298.85152   -1493.0493    442.88255    288.73509   -412.40592    36822.805 
  159800    307.31373   -1524.7415    458.71268    310.78508   -518.53045    36822.805 
  159900     300.9461   -1522.6234    451.71213    277.37472   -232.82508    36822.805 
  160000    301.97084   -1514.7704    483.38743    321.49392   -750.76503    36822.805 
  160100    299.67036   -1530.6827    465.61982    277.50751   -908.31263    36822.805 
  160200    298.27123    -1527.917     450.7683    259.15339   -478.39053    36822.805 
  160300    287.76979    -1561.071    453.84477    182.02774   -117.12157    36822.805 
  160400    305.53666   -1577.9294    463.33582    254.25884   -76.611335    36822.805 
  160500      298.838   -1526.4844    465.62821    277.98507   -31.099087    36822.805 
  160600     292.8531   -1534.5767    476.20865    253.65999   -295.17683    36822.805 
  160700    302.01154   -1508.7339    440.78711    285.11245   -211.74785    36822.805 
  160800    303.54297   -1519.4334    480.54407    321.03098   -378.54198    36822.805 
  160900    297.27533   -1567.8294    448.82514    212.83601   -163.02503    36822.805 
  161000     291.5634   -1563.7893    458.42462    200.88524   -315.76907    36822.805 
  161100    301.14633   -1489.6972    465.02798    324.51374    231.98521    36822.805 
  161200    307.04601    -1518.528    465.97073    323.05719   -193.78814    36822.805 
  161300    307.42951   -1473.9326    477.37661    380.77666    510.31432    36822.805 
  161400    299.46132   -1533.9439    469.47187    277.16189    110.96442    36822.805 
  161500    292.86929   -1502.1513    488.25299    298.20223     139.5132    36822.805 
  161600    305.02884     -1530.32    485.89826    322.15555    387.66114    36822.805 
  161700    310.89018   -1525.0505    440.82875     308.6152     156.0062    36822.805 
  161800    297.92105   -1546.4071    465.41693      253.743   -165.85104    36822.805 
  161900    298.59795    -1495.793    466.73892    308.71182   -332.99927    36822.805 
  162000    297.05567   -1548.3857     444.0258    226.49632    262.15357    36822.805 
  162100    299.54563    -1510.153    488.61836    320.47695    -130.5199    36822.805 
  162200    294.25728   -1535.0875    472.57721    255.80869    17.843446    36822.805 
  162300    298.97603   -1565.8949    464.20139    237.76624      73.9906    36822.805 
  162400    297.28099   -1602.6953    466.55193    195.72227   -394.78788    36822.805 
  162500    299.70084    -1567.704    471.36135     246.3643    37.422695    36822.805 
  162600    308.25803   -1561.2665    443.48062    263.25859    -334.9323    36822.805 
  162700     293.7284   -1536.5652    475.70387    255.08812    -513.7502    36822.805 
  162800    298.56147   -1525.7959    470.04231    281.84878    -197.4574    36822.805 
  162900    297.55949   -1534.3164     473.6782    272.47518   -306.94239    36822.805 
  163000     302.6561   -1535.1067    482.67781    303.51812    -441.7993    36822.805 
  163100    308.40345   -1501.2543     462.5164    342.95809   -155.31087    36822.805 
  163200    307.82424   -1518.6503    456.93114    317.38191   -701.43648    36822.805 
  163300    298.37596   -1497.1691    479.06146    318.66364   -288.83315    36822.805 
  163400    294.25336   -1513.2511    468.08984    273.14016   -96.830816    36822.805 
  163500    302.01074   -1486.2453    471.19207    338.00248   -492.61684    36822.805 
  163600    311.49121   -1487.6113    441.36532    349.28368   -373.14931    36822.805 
  163700    293.91356   -1488.2226     470.5137    299.07017   -573.20195    36822.805 
  163800     308.0093   -1513.3012    462.43275    329.06173    108.22006    36822.805 
  163900    300.61347   -1538.1197    478.28149    286.95744    170.76644    36822.805 
  164000    307.78394   -1569.4806    457.69783    267.13779    254.05786    36822.805 
  164100    291.73346   -1529.8003    473.41201    250.62352    585.32289    36822.805 
  164200    289.90681   -1475.8124    484.89301    307.90876    169.94338    36822.805 
  164300    301.03812   -1497.8298    466.28025    317.14864    788.96694    36822.805 
  164400    306.06228   -1515.1009    492.66475    348.77101    356.88409    36822.805 
  164500    293.88786   -1540.4772    477.94339    254.13014    501.53764    36822.805 
  164600    307.36298   -1510.1679      510.928    377.79463    898.11937    36822.805 
  164700    296.26319   -1503.9772    498.83022    322.15877    649.94008    36822.805 
  164800    306.49017    -1515.572    443.87111    301.42332    79.654815    36822.805 
  164900    306.06549   -1532.9366    459.36745    297.65245   -171.01592    36822.805 
  165000    308.77172   -1503.7632    493.54635    373.12905   -162.87164    36822.805 
  165100    299.82047   -1525.7518    485.91113    303.40229    155.06606    36822.805 
  165200    296.62209   -1534.0688    478.59682     273.4417   -327.86819    36822.805 
  165300    295.71331   -1544.9553     486.6731    266.56004    -123.4903    36822.805 
  165400    303.09551   -1540.6457     455.3557    272.62562   -95.705585    36822.805 
  165500    301.94942   -1575.0793    464.58373    242.28538    418.15818    36822.805 
  165600    290.23096   -1545.7778    463.87235    218.37493   -266.53255    36822.805 
  165700      301.161   -1528.4194    444.60214    265.43144   -369.51136    36822.805 
  165800     295.7478   -1510.6523    489.88292    304.22737    163.18787    36822.805 
  165900    297.56398   -1594.3457     469.9657    208.75352   -225.53263    36822.805 
  166000    297.46157   -1519.2854    487.23833    300.62768   -448.16063    36822.805 
  166100    298.30173   -1520.1427    479.59903    295.89507   -673.74125    36822.805 
  166200    296.58381   -1543.4357    461.31352    246.62003    48.858727    36822.805 
  166300    293.51489   -1527.0315    509.93543    297.89682    156.65042    36822.805 
  166400    303.44135   -1545.6279    496.69447    310.53165    372.66838    36822.805 
  166500    290.32541   -1538.0561    467.12971    229.77723    253.36141    36822.805 
  166600    308.67635   -1527.3408    493.68102    349.25891   -442.72445    36822.805 
  166700    300.85106   -1544.7005    466.30001    269.45971   -166.49977    36822.805 
  166800    296.78831   -1540.4326    469.07353    258.29932   -542.98581    36822.805 
  166900     301.9785   -1542.6584    479.32983    289.58267   -812.84489    36822.805 
  167000    293.61032   -1568.1012    499.93348     247.2528     84.24647    36822.805 
  167100    300.09574   -1562.7595    499.45406    281.17076    736.37867    36822.805 
  167200    298.85885    -1516.862    474.45362    296.52629    531.60011    36822.805 
  167300    301.33378   -1569.0931    461.63681    242.56656    630.73399    36822.805 
  167400    300.38467    -1589.136     471.4583     228.0929    418.50337    36822.805 
  167500    299.06591   -1577.3067    475.54985    238.10549    253.56043    36822.805 
  167600     287.0138   -1520.5238     485.8201    251.16335    506.70116    36822.805 
  167700    297.96408   -1521.8707    490.84367    303.89894   -60.293997    36822.805 
  167800    302.01835   -1484.8985    479.75952    347.95083    75.430196    36822.805 
  167900    295.76424   -1528.4041    452.36665     249.0329    109.56963    36822.805 
  168000    298.57203   -1523.8446    482.45603    296.26116    843.96019    36822.805 
  168100     309.2569    -1529.951    491.25305    346.82167    888.09158    36822.805 
  168200    303.64866   -1486.5352    467.78567    341.64423     726.9149    36822.805 
  168300    295.32133   -1516.2842    497.30207    304.10391    223.76246    36822.805 
  168400    291.91733   -1523.8033    487.54923    271.58151   -318.22522    36822.805 
  168500     297.6575   -1547.8999    492.66718    278.31975   -365.51078    36822.805 
  168600    308.21412   -1553.8098    489.15095      316.189    -325.4013    36822.805 
  168700    306.79394   -1554.9775    471.72766    291.23538    15.421501    36822.805 
  168800    298.61139   -1543.4283    487.58601    281.98371   -709.18529    36822.805 
  168900    300.03272   -1522.6197    465.80293    287.37708   -490.03551    36822.805 
  169000    290.46748   -1537.2777    485.01572    249.07812    99.565004    36822.805 
  169100    307.19212   -1546.5542    489.23574    318.95059    92.072273    36822.805 
  169200    296.20837   -1571.1126    463.78935    219.73691    279.78927    36822.805 
  169300    288.47492   -1532.2233    476.50291    236.69269   -239.91856    36822.805 
  169400    306.15566   -1555.5354    462.64737    278.73752    82.294601    36822.805 
  169500     303.6423    -1569.062    484.41198    275.71533    166.45898    36822.805 
  169600    306.90431   -1577.9259    438.43058    235.48433    513.53907    36822.805 
  169700    303.75714   -1555.9187    495.82573    300.78681     65.55253    36822.805 
  169800    308.46547   -1541.0241    471.41361    312.36338    693.86864    36822.805 
  169900    296.96432   -1595.5874    458.43599    193.29552    503.44236    36822.805 
  170000    303.27863    -1568.524    482.24757    272.45958    781.54594    36822.805 
  170100    306.40079   -1589.0313    467.42175    251.11429    1067.6487    36822.805 
  170200    304.57232   -1590.0858    483.09074    257.53689    1206.1399    36822.805 
  170300    296.20228   -1586.0917    472.30356    213.24467    750.89778    36822.805 
  170400    300.24413   -1550.4617    480.19604    274.87533    520.83239    36822.805 
  170500    298.12438   -1557.9199    468.90699    246.63123    175.09725    36822.805 
  170600    297.35418   -1490.0463    474.88964    317.03691    457.59739    36822.805 
  170700     304.8544   -1508.8505    465.62706     322.5723   -88.605722    36822.805 
  170800    309.22832   -1512.8692    481.73079    354.25323    390.73955    36822.805 
  170900    295.55113    -1515.294     474.6124    283.43404    493.29857    36822.805 
  171000    296.86484    -1558.996    488.95597    259.96122    364.62989    36822.805 
  171100    307.78248   -1461.9607    468.21625    385.16958    280.89254    36822.805 
  171200    298.33141   -1561.5266    465.92299    240.96811    65.723129    36822.805 
  171300    302.91263   -1519.8656    490.51506    327.74573   -292.82756    36822.805 
  171400    313.55647   -1511.1372    458.11765    351.76284   -183.52565    36822.805 
  171500    308.77116    -1514.908    484.45919     352.8946   -192.12293    36822.805 
  171600     304.0637   -1496.1457    463.29427    329.40181    -344.9513    36822.805 
  171700    294.84155   -1508.3418    468.22715    280.82192   -433.40603    36822.805 
  171800    284.43698   -1493.0389     480.5477     261.8313    4.7399559    36822.805 
  171900    305.32651   -1484.5991    479.99835    363.31011   -367.22775    36822.805 
  172000    292.83867   -1498.5303    502.62145    316.05453   -255.47147    36822.805 
  172100    290.84818   -1512.3617    490.18671    280.87067    60.663316    36822.805 
  172200    288.64952   -1506.5978    484.35257    270.95009   -43.906926    36822.805 
  172300    294.43616   -1503.6191    514.30565    329.80693   -212.11279    36822.805 
  172400    314.05598   -1554.7809    455.21813    307.45745   -173.28619    36822.805 
  172500    296.08112   -1530.0446    464.28004    260.72549   -465.35238    36822.805 
  172600    302.30161   -1552.8673    483.30038    284.79191 -0.074808885    36822.805 
  172700    294.77629   -1561.4544    466.30808    225.49793    575.81661    36822.805 
  172800    304.16501   -1598.8233    472.43111    236.31493    594.98076    36822.805 
  172900     304.2777   -1601.0946    472.86256    234.97998    490.16776    36822.805 
  173000    304.84625   -1568.0472    481.67083    279.38282    1344.9788    36822.805 
  173100    290.13128    -1625.681    478.42374    152.57664    779.73335    36822.805 
  173200    304.27543   -1587.9936    471.91629    247.12452    993.68947    36822.805 
  173300    307.40474    -1534.984    488.50873     330.7464    627.10015    36822.805 
  173400    301.45565   -1516.6548    468.25435    302.16835    392.68294    36822.805 
  173500    308.15288   -1486.1569    479.42478    373.84129    397.85182    36822.805 
  173600    308.26089   -1507.0236    476.59446     350.6282    360.86893    36822.805 
  173700    295.10654   -1506.2537    484.83315    300.70324    295.00977    36822.805 
  173800    302.45155   -1495.4954    496.97414    356.50931     650.0698    36822.805 
  173900    291.33479   -1518.8591    475.17104    261.53766     288.8457    36822.805 
  174000    286.32366   -1488.6316    467.10283    261.24631   -9.9087993    36822.805 
  174100    291.76477   -1518.0787    476.26602    265.33944   -808.70651    36822.805 
  174200     306.7917   -1469.1309    494.30846    399.65274   -348.51225    36822.805 
  174300    296.77662   -1489.2827    490.02068    330.34398   -128.09838    36822.805 
  174400     300.7362   -1485.4356    477.80039    339.71029   -40.398284    36822.805 
  174500    306.38715   -1504.2248    493.37575    361.81365   -556.79269    36822.805 
  174600    288.90428   -1478.4353    481.51518    297.41654     49.81198    36822.805 
  174700    303.50929   -1495.8931    498.62922    362.50553    106.60694    36822.805 
  174800    301.10665   -1480.1806    478.10158    346.92617    309.33716    36822.805 
  174900    293.14835    -1508.932    470.75163     275.1704    156.21408    36822.805 
  175000    306.32127   -1559.4926    483.96352    296.83848     -42.8917    36822.805 
  175100     296.2709   -1523.9617    497.22363    300.60223   -389.87021    36822.805 
  175200    300.46302   -1480.7083    488.68059    354.09393   -155.32465    36822.805 
  175300    299.98517   -1469.3599    496.33925    370.96015    149.31812    36822.805 
  175400     297.8687   -1503.4431    472.34319    303.39883   -217.07459    36822.805 
  175500    297.47853   -1512.2997     488.4869    308.93783    305.37571    36822.805 
  175600    302.35199   -1539.8982    473.52189    288.20821   -35.171207    36822.805 
  175700    301.14164   -1542.7119    481.41912    287.86919    336.09143    36822.805 
  175800    292.76834   -1523.1366    492.09822    280.60994    63.325681    36822.805 
  175900    300.34486   -1532.6784    468.86138    281.77524   -652.62596    36822.805 
  176000    307.40652   -1547.2061    460.39253    290.41602   -395.21574    36822.805 
  176100    300.33574   -1600.1725    486.97834    232.35726    244.97609    36822.805 
  176200    304.45701   -1573.7586    487.59319    277.84994    618.01159    36822.805 
  176300    297.11507   -1560.7278    467.44343    237.83797    7.2370127    36822.805 
  176400    304.92941   -1570.9288    482.74488    277.94781    -490.8479    36822.805 
  176500    301.36883   -1578.6913      461.584    233.07247    143.18488    36822.805 
  176600    309.83211   -1508.2066     506.3561    386.24618    324.38317    36822.805 
  176700    288.99789   -1572.6876    494.46771    216.53622   -127.18881    36822.805 
  176800    306.83037   -1538.8649    478.14922    313.93271   -321.77081    36822.805 
  176900    291.10998   -1551.4296    476.83136    229.62035   -493.37329    36822.805 
  177000    295.39883    -1533.938     440.2581    229.75334   -124.72049    36822.805 
  177100     299.7564   -1507.1903    466.38214    302.14772      641.851    36822.805 
  177200    294.75829    -1552.108    478.34567    246.80124    503.86555    36822.805 
  177300    303.93116   -1526.8949    509.54306    344.30764    661.74422    36822.805 
  177400    309.21446   -1520.9187    505.18895    369.59971    986.19734    36822.805 
  177500    296.86419   -1562.9225    488.47246    255.54833    -49.53874    36822.805 
  177600    292.37965   -1549.7743     468.4409     228.5735    283.82276    36822.805 
  177700    316.13705   -1545.3795    446.12205    317.08631   -365.87118    36822.805 
  177800    294.18931   -1569.2738    420.91416    169.65481   -557.46945    36822.805 
  177900    299.48595    -1577.751    479.80491    243.79809   -236.58088    36822.805 
  178000     294.1955   -1542.1473    459.26081    235.15568   -305.67009    36822.805 
  178100    299.94466   -1562.9404    474.99172    255.85063    156.09854    36822.805 
  178200    301.98785   -1573.5564    464.82061    244.21732    462.61639    36822.805 
  178300     307.2153    -1547.044    459.18757    288.51648    443.83874    36822.805 
  178400     298.0847   -1530.5723    456.68391    261.57803    66.481654    36822.805 
  178500    297.64589   -1577.4463     449.9484    206.00252     66.39483    36822.805 
  178600    298.15265   -1614.6824    449.47465    170.56309   -69.900842    36822.805 
  178700    296.41803   -1551.1606    449.08441    225.92331    374.60716    36822.805 
  178800    300.66148   -1513.2251    466.24321    300.02892    587.25862    36822.805 
  178900    304.44325   -1536.4951    482.95895    310.41759    457.33468    36822.805 
  179000    301.72819   -1506.3751    495.80499    341.21975   -54.263285    36822.805 
  179100    297.07383   -1535.9245    460.41592    255.42901   -212.79125    36822.805 
  179200     291.8449   -1513.5789    496.41843    290.35064   -859.53421    36822.805 
  179300    301.64727   -1500.1791    468.53266    319.78087   -565.09035    36822.805 
  179400    293.55129   -1478.5309    479.07943    315.70456   -587.28383    36822.805 
  179500    297.79194   -1512.4241    477.02973    298.76044   -979.50511    36822.805 
  179600    299.34624   -1552.1006    456.29984    245.31752   -425.21179    36822.805 
  179700    297.32539   -1552.4994    495.38205    274.94718   -176.22915    36822.805 
  179800    306.75464   -1484.2446    475.63712    365.70161   -206.45128    36822.805 
  179900    301.27164   -1522.0475    464.38631    292.08316   -312.06259    36822.805 
  180000    295.71053    -1469.638    477.40818    332.59988   -175.91788    36822.805 
  180100    299.21265   -1460.0186    465.02964    345.53087   -372.37601    36822.805 
  180200     311.6052   -1477.6597    473.62763    392.00827   -38.604219    36822.805 
  180300    304.59313   -1491.0714    477.09786    350.65167   -447.93042    36822.805 
  180400    293.64019    -1475.405     493.9585    334.10775   -66.258867    36822.805 
  180500     302.8687   -1483.6482     484.2906    357.54183   -140.16878    36822.805 
  180600    303.62008    -1538.116    469.30236    291.45209    -55.30595    36822.805 
  180700    297.94135   -1522.7194    460.46304    272.56783   -153.79873    36822.805 
  180800    303.90098   -1526.1359    474.83312    310.22147   -28.764032    36822.805 
  180900    294.55063   -1516.9133    457.60681    260.32672    327.79473    36822.805 
  181000    304.79543   -1508.1068    496.50164    353.92638    902.32796    36822.805 
  181100    301.79042   -1561.5065     456.5171    247.07918    928.84599    36822.805 
  181200    306.79103   -1540.7302    465.63764    299.37962    1178.6075    36822.805 
  181300    299.51343   -1520.3879    473.82743    295.30687    304.94924    36822.805 
  181400    287.58893    -1504.932    475.17837    258.69007    402.00706    36822.805 
  181500    299.80297   -1490.9695    468.83632    321.03136     748.3575    36822.805 
  181600    291.83832   -1525.5749    467.55031    249.45701    187.87727    36822.805 
  181700    303.34462    -1535.226    465.53791    289.34356    95.831229    36822.805 
  181800    312.30426   -1536.3149    472.45381    335.31116    -342.0202    36822.805 
  181900    293.15785   -1530.6797    459.93046     242.6441   -135.94878    36822.805 
  182000    297.52316   -1486.9062    484.58347    330.62785   -320.50948    36822.805 
  182100    305.43502   -1512.6128    471.03602    326.82022   -51.499032    36822.805 
  182200    302.96098   -1485.7701    442.78259    314.32537   -27.200506    36822.805 
  182300    310.07432   -1485.1059    479.11046    383.18632    164.08543    36822.805 
  182400    304.15489   -1451.4028    474.97941    386.23843    256.18311    36822.805 
  182500    300.19282    -1505.909    490.18733    329.18943    534.12519    36822.805 
  182600     302.5758   -1471.1153    458.89264    343.36454   -146.05952    36822.805 
  182700    302.76519   -1465.0957    466.14055    357.48062   -439.06403    36822.805 
  182800    300.82021   -1500.5438    474.50201    321.68011   -448.88335    36822.805 
  182900    288.36587   -1502.1128    473.04329    262.85503    227.66484    36822.805 
  183000    306.64926   -1542.5024    465.15797    296.49256     534.3155    36822.805 
  183100     311.0151   -1487.8781    495.30206    400.82064      1066.54    36822.805 
  183200    287.99513   -1450.7997      487.535    326.99882    469.15655    36822.805 
  183300    305.64071   -1492.3047    460.00453    337.01839    44.600741    36822.805 
  183400    292.78917   -1493.2542    477.01077    295.49818    224.12591    36822.805 
  183500    302.58269   -1457.8549    503.74472    401.50788    1008.1838    36822.805 
  183600    299.92703   -1473.8271    504.68967    374.58294    421.64808    36822.805 
  183700    304.80056   -1462.0615    477.65803      381.151    714.56689    36822.805 
  183800     286.2512   -1465.3823    498.46899    315.53715   -272.58749    36822.805 
  183900    309.64389   -1448.5165    502.55617    441.29301    153.11796    36822.805 
  184000     301.6052   -1491.5488    459.61421    319.30422    210.67547    36822.805 
  184100    296.76469   -1534.2312    465.84699     261.1683   -612.98379    36822.805 
  184200    301.24235    -1511.204    488.18734    326.59651    374.24158    36822.805 
  184300    292.96999   -1561.0883    466.01688     217.4803   -767.63595    36822.805 
  184400     309.8373   -1550.0662    474.21215    312.26583    231.11288    36822.805 
  184500    288.80108    -1548.762    466.63318     211.7455   -57.655003    36822.805 
  184600    284.95839   -1490.0807      484.512    271.08978    53.155092    36822.805 
  184700    295.86698   -1467.7934    472.39678      330.134    316.82494    36822.805 
  184800    313.04978   -1547.6411     487.3893    342.26055     106.0268    36822.805 
  184900    307.37722   -1558.8144    461.70163    279.98562   -225.98352    36822.805 
  185000    301.02563     -1510.28    457.40613    295.76837    267.92078    36822.805 
  185100    287.27584     -1519.37    483.74401      251.415    276.51436    36822.805 
  185200     293.2325   -1520.9814    455.85799    248.60439   -198.52738    36822.805 
  185300    299.46709   -1502.6067    474.96185    314.01485   -680.40073    36822.805 
  185400    302.10699   -1552.3097    465.20643    266.38361   -285.62724    36822.805 
  185500    305.58717   -1498.8825    470.22735    340.42349    368.36172    36822.805 
  185600    302.91391   -1539.3742    495.08406    312.81184   -112.73492    36822.805 
  185700    294.45503   -1557.2578    474.84556    236.79266     267.5445    36822.805 
  185800     301.7828   -1500.9701    472.68138    323.74576   -28.825607    36822.805 
  185900    290.94834   -1524.1737    475.95392    255.27456   -31.299884    36822.805 
  186000     302.7819   -1517.9379     467.8295    306.40222   -404.70066    36822.805 
  186100    291.56097   -1505.6127    465.90418    266.53057   -414.24868    36822.805 
  186200    304.89989   -1481.5978    492.71114    377.11288    -371.2031    36822.805 
  186300    300.34346   -1494.7073    441.92526    292.80397   -492.43449    36822.805 
  186400    293.94212   -1487.8975    487.11299    316.12247   -243.89151    36822.805 
  186500    302.01196   -1487.0897    482.39617    348.36764   -288.97562    36822.805 
  186600    294.39324   -1495.5347    470.66527    294.05868    137.77369    36822.805 
  186700    303.04651   -1505.4494    439.39906    291.64577   -105.63015    36822.805 
  186800    299.44368    -1457.702    449.13191    332.98474   -297.42459    36822.805 
  186900    313.89971   -1483.5095    461.58932    384.39996   -438.70755    36822.805 
  187000    303.32385   -1490.9303    470.25205    338.26035   -233.45812    36822.805 
  187100    288.17814   -1505.8834    478.74671    263.94674   -148.52693    36822.805 
  187200     296.0634     -1518.24    464.90144    273.07209    636.40366    36822.805 
  187300    302.54285    -1452.078    492.74389    396.10554    683.82225    36822.805 
  187400    289.07749   -1467.3032    489.62215    317.43159   -48.513805    36822.805 
  187500    289.67578   -1497.0017    466.50114    267.29252   -539.08126    36822.805 
  187600     293.9804   -1530.6777    463.70709    250.10791   -475.28971    36822.805 
  187700    296.07236   -1503.9657    457.96253    280.44757   -556.10534    36822.805 
  187800    294.62256   -1457.8395    489.60835    351.72434   -713.16956    36822.805 
  187900    296.88335   -1498.5447    462.96378    294.50328   -481.08327    36822.805 
  188000    308.28443   -1509.8334     494.9928    366.32218   -105.15766    36822.805 
  188100    304.22993    -1434.941    509.24921    437.30627     161.7914    36822.805 
  188200    293.82605    -1493.777    470.64288    293.25291    328.59234    36822.805 
  188300    306.76413   -1465.1052    491.97684    401.22325    87.821846    36822.805 
  188400    295.26195   -1509.1723    484.57967    298.22739   -82.729218    36822.805 
  188500    301.88464    -1500.843    497.80572     349.4535    352.23564    36822.805 
  188600    303.72241   -1476.5481    492.86138     377.0375    305.78026    36822.805 
  188700     302.4905   -1487.5233    461.96259    329.64442     266.3598    36822.805 
  188800    299.62218   -1495.8432    496.08917    342.60051    113.35851    36822.805 
  188900    294.13239   -1471.1555    464.07283    310.67681    110.79025    36822.805 
  189000    302.60807   -1522.3298    483.59035    316.99234    109.67434    36822.805 
  189100    302.05404   -1528.1103    474.02381    299.16315    496.87457    36822.805 
  189200    293.87313   -1529.8027    455.95123    242.74647    304.87658    36822.805 
  189300    301.87021   -1512.0072    462.42418    302.84305    552.89913    36822.805 
  189400    298.30651    -1517.418    474.88165    293.92377    332.61913    36822.805 
  189500    301.87813   -1492.7388    467.17715    326.89996    385.11978    36822.805 
  189600    300.21119   -1539.6912    445.39024     250.6924    285.01668    36822.805 
  189700    305.02323   -1510.3547    454.06597    310.26343   -66.927772    36822.805 
  189800    304.12026   -1493.1961    470.86543      340.176   -130.23747    36822.805 
  189900    297.34601   -1544.7795    467.61791    254.99534    -330.1212    36822.805 
  190000    301.16626   -1483.1403    465.40685    331.53878    64.532175    36822.805 
  190100      298.764   -1496.7511    477.56734    319.32604    168.62869    36822.805 
  190200    290.35643   -1500.5114    470.55017    270.88133   -168.92281    36822.805 
  190300    292.90999   -1498.6304    485.73874    299.39125     85.50346    36822.805 
  190400    301.20875   -1445.9864    479.49333    382.96953    153.56329    36822.805 
  190500    314.67393     -1434.67    477.67234    452.79115    105.62398    36822.805 
  190600    302.63393   -1520.1887     486.7118     322.3708   -389.24536    36822.805 
  190700    294.48565   -1467.1955    444.05351    296.20007   -228.94939    36822.805 
  190800    311.39967   -1474.5737    490.71245    411.25833   -249.60397    36822.805 
  190900    301.14515   -1476.9069    497.77705    370.04787    310.81582    36822.805 
  191000    299.82229     -1515.39     487.1549    315.01598    -69.57037    36822.805 
  191100    296.24389   -1486.9259    472.75745    313.05084     232.4345    36822.805 
  191200     291.8636   -1500.2209    476.17866    283.55267   -111.80325    36822.805 
  191300    296.87906   -1485.5532    477.10314    321.61494   -99.849526    36822.805 
  191400    314.67105   -1517.9212    480.97682    372.83144    507.84141    36822.805 
  191500     301.3027   -1540.4001    457.66925    267.15268   -142.92991    36822.805 
  191600    299.42017   -1540.9726    495.48334    295.96027   -325.59819    36822.805 
  191700    298.47963   -1485.9239    451.51673    302.82864   -60.984476    36822.805 
  191800    299.58735   -1574.6014    465.22201    232.81906    138.46124    36822.805 
  191900    300.16715   -1504.8312    477.88068    317.84561    184.47524    36822.805 
  192000    297.30635   -1495.1468     451.0243    287.85681   -165.05975    36822.805 
  192100    304.63403    -1504.092    467.49201    328.20843   -301.49118    36822.805 
  192200    304.25649   -1504.0292    467.38604    326.47382   -460.38048    36822.805 
  192300    296.44138   -1503.8618    461.71758    285.95984   -996.85247    36822.805 
  192400    294.09468   -1483.3786    483.92131    318.13318    -243.1183    36822.805 
  192500    308.94729   -1506.7697    466.63048    343.99333     215.4902    36822.805 
  192600    289.35645   -1532.2358    461.41865    225.54533    47.810161    36822.805 
  192700    296.27127   -1507.3857    467.53533    287.49158    553.36383    36822.805 
  192800    292.47723   -1486.1071    468.89273     293.1297    688.11844    36822.805 
  192900    294.41261   -1479.5928    491.16253    330.58465    531.32747    36822.805 
  193000    294.87148   -1476.0688    482.55995    327.56183    661.56515    36822.805 
  193100    301.88899   -1498.8094    465.62588    319.32676    646.13044    36822.805 
  193200    293.21511   -1491.9428    462.92453    284.63155    336.99204    36822.805 
  193300    300.28772   -1516.8788    475.26422    303.72164    348.37118    36822.805 
  193400    305.71507   -1550.7272    462.19522    281.11972   -238.25792    36822.805 
  193500    293.04328   -1518.1585    438.74605    233.46758   -102.46456    36822.805 
  193600    305.65818   -1505.6213    473.04766    336.82318    -171.1839    36822.805 
  193700    305.06639   -1511.5163    464.31295    319.54212    -483.4876    36822.805 
  193800    292.41195   -1459.7753    477.68429    327.96059   -382.06986    36822.805 
  193900    299.88594     -1467.93    477.19666    352.80293    -68.85297    36822.805 
  194000    296.05697   -1492.9684    489.54466    322.95813   -253.24399    36822.805 
  194100    298.48208   -1499.2069    461.80587    299.84572   -151.33407    36822.805 
  194200    291.09567   -1459.1075    479.15578    324.20267   -239.82415    36822.805 
  194300    299.51864   -1452.8146    491.27399    380.35005   -598.53574    36822.805 
  194400    305.32143   -1444.9241    478.30683     401.2708   -453.67656    36822.805 
  194500    310.31139   -1437.4921    493.41303    446.16486   -664.96924    36822.805 
  194600    294.50371   -1454.8593    462.46023    327.02398   -819.02813    36822.805 
  194700    292.22864    -1433.128    479.87457    355.97685   -321.36398    36822.805 
  194800    293.13974    -1450.135    487.81304    350.99026   -709.15878    36822.805 
  194900    306.37199    -1496.677    483.36052    359.27826   -657.09738    36822.805 
  195000    300.84322   -1497.9576    473.42202    323.28945   -237.53561    36822.805 
  195100    294.76567   -1506.4259    475.09071     289.2615    95.468532    36822.805 
  195200    296.61893   -1513.4035    488.31574    303.81171   -138.31415    36822.805 
  195300    289.88398   -1516.3087    463.10622     245.5234   -11.242684    36822.805 
  195400    305.55166   -1511.1386    450.67639    308.45733   -156.95574    36822.805 
  195500    302.29448   -1558.1718    456.95805    253.11318    323.85135    36822.805 
  195600    305.84349   -1498.9451    431.67793    302.95986    95.252482    36822.805 
  195700    306.52152   -1539.7435    456.43392    289.95509    -205.5439    36822.805 
  195800    301.25592   -1520.0814    453.22369    282.81622   -145.30065    36822.805 
  195900    292.95427   -1543.1505    456.79945    226.13017   -1217.6813    36822.805 
  196000    301.61938   -1517.5629    470.41955    304.15899   -543.31955    36822.805 
  196100    304.17411   -1527.0986    487.80121    323.45059   -288.82516    36822.805 
  196200    290.62701   -1499.9227    437.66114    239.79321   -673.46613    36822.805 
  196300    297.62122   -1513.3653    454.83571    274.86039   -367.00628    36822.805 
  196400    296.86642   -1544.6524    449.13308    234.48902   -179.72315    36822.805 
  196500    294.97636    -1568.326    475.70521    228.91979   -134.85396    36822.805 
  196600    301.58991   -1566.7013    476.80652    261.27547   -1007.8686    36822.805 
  196700    300.10944   -1539.3724    426.09233    231.25751   -778.41914    36822.805 
  196800    303.08976   -1548.8754    455.08553    264.10001   -523.95849    36822.805 
  196900    295.01207   -1578.3241    464.13281    207.50929   -635.12144    36822.805 
  197000     296.5151   -1547.5289    451.80019    232.70561    264.10354    36822.805 
  197100    296.72066   -1547.8395     445.8704    227.38619   -196.99612    36822.805 
  197200     304.0992   -1545.1777    467.37964    284.61424   -242.10214    36822.805 
  197300    299.01588   -1567.2799    439.22421     211.5826   -55.258134    36822.805 
  197400    294.23613   -1562.3675    477.30277    233.15952   -290.64076    36822.805 
  197500    292.47933   -1586.7958    460.69951    184.25713    -447.1949    36822.805 
  197600    305.27358   -1558.4583    447.48455    256.70001   -935.05214    36822.805 
  197700    296.48873   -1553.5127     470.8171    245.62062   -1036.8636    36822.805 
  197800    296.91067   -1535.4027    452.89697    247.70087   -488.43531    36822.805 
  197900    295.58274    -1522.586    453.11162    254.78286   -140.56025    36822.805 
  198000    307.38748   -1559.2627    474.26818    292.14986   -66.508993    36822.805 
  198100    294.32177    -1587.757    440.49754    171.34844    212.88915    36822.805 
  198200    291.69364   -1531.0572    462.32578    238.10201    212.48779    36822.805 
  198300    303.49573   -1577.0248    478.39334    261.07727    552.27063    36822.805 
  198400     306.6819   -1552.9683    438.69059    259.70549   -173.38428    36822.805 
  198500    307.93425   -1527.3692    443.67995    295.90465   -665.09625    36822.805 
  198600    300.60752   -1532.9861    433.93528    247.71821   -572.19799    36822.805 
  198700    295.24222   -1526.4772    471.52899    267.78343   -427.09598    36822.805 
  198800    299.81026   -1541.9177    479.93676    281.21629    66.962745    36822.805 
  198900    288.28218   -1548.8772     482.3099    224.98226    552.75703    36822.805 
  199000    308.73746   -1510.4082     472.2681    345.05234    687.65885    36822.805 
  199100    299.69189   -1516.3904    465.76616    292.04259    225.94911    36822.805 
  199200    301.52716    -1548.005     469.3432    272.22736    332.25937    36822.805 
  199300    290.62275   -1514.3109    438.98326    226.70807   -192.96834    36822.805 
  199400    293.49274   -1508.6088    479.99272    286.27762   -488.90721    36822.805 
  199500    306.39655   -1531.7841    472.07891    312.99964   -32.630436    36822.805 
  199600    307.01241   -1542.1932     462.7078    295.97861   -376.23842    36822.805 
  199700    302.82645   -1517.3532    477.39592    316.75292   -478.70689    36822.805 
  199800    302.02163   -1472.6323    470.87465    351.34685   -621.60249    36822.805 
  199900    300.14729   -1503.2749    449.20497    290.63722   -96.824977    36822.805 
  200000    295.65683   -1489.5671    481.51868    316.54077     51.47278    36822.805 
  200100    313.82037   -1479.5064    489.20801    415.66625    281.93027    36822.805 
  200200    306.54315   -1542.4296    464.29169    295.22365    560.87782    36822.805 
  200300    306.28538   -1548.8221    458.90204    282.28672    489.26087    36822.805 
  200400    303.89707   -1557.4092    469.49313    273.59067    300.70416    36822.805 
  200500    295.03218   -1556.4008    472.71141    238.10122    763.56254    36822.805 
  200600    294.31993   -1564.2084    487.83876    242.23001    392.98303    36822.805 
  200700    303.70222   -1574.1092    465.36128     251.8859   -7.4179187    36822.805 
  200800    297.32609   -1546.2462    453.04526    238.86678   -455.72209    36822.805 
  200900    292.41276   -1582.6386    457.83162    185.24819   -196.18481    36822.805 
  201000    298.20575    -1551.042    449.96865    234.93533   -46.549683    36822.805 
  201100    295.78574    -1565.525    470.17587    229.81758   -472.89973    36822.805 
  201200    303.59989   -1555.7858    455.73866    260.12813   -197.88949    36822.805 
  201300    310.83711   -1546.4007    444.30581    290.50428   -162.85941    36822.805 
  201400     300.9094   -1553.9415    460.27529    254.45531    -47.25568    36822.805 
  201500    298.60212    -1557.011    475.09826    255.87177    36.890245    36822.805 
  201600     291.0913   -1543.5009    475.70216    236.33617    498.63707    36822.805 
  201700    295.45708   -1520.9991     480.2439    282.93902   -92.303035    36822.805 
  201800    300.23417   -1517.3601    476.12173    303.85801    516.93029    36822.805 
  201900    297.45222   -1513.0736    456.43208    275.99126   -183.26258    36822.805 
  202000     293.1035     -1486.39    478.24617    305.00598    -407.1572    36822.805 
  202100    291.93866   -1482.4341    470.59299    296.09002   -306.60198    36822.805 
  202200    295.17711   -1510.1742    463.95996    276.22574   -221.95126    36822.805 
  202300    290.72956   -1532.6351     442.0072    211.88629    -655.5263    36822.805 
  202400    312.01114   -1514.3572    486.19234    369.69417   -766.91922    36822.805 
  202500    295.09129   -1489.7054    441.05734    273.40742   -687.24101    36822.805 
  202600    310.02787   -1467.0557    473.10363    395.02164   -905.97392    36822.805 
  202700    294.45328   -1472.5781    455.31997    301.93891   -261.02751    36822.805 
  202800    299.99426   -1529.7402    479.31395    293.59531   -444.71064    36822.805 
  202900    304.48187   -1543.1164     468.1903    289.20059   -124.95819    36822.805 
  203000    301.46896   -1525.9096    458.59399    283.31278    -214.0411    36822.805 
  203100    312.46805   -1541.2751      476.153    334.78393   -50.042962    36822.805 
  203200    304.49908   -1568.6365    483.79656     279.3639    359.47517    36822.805 
  203300    298.40542   -1549.3888    437.87718    225.39164    374.59199    36822.805 
  203400    303.09773   -1566.7961    489.74001    280.86946   -66.871393    36822.805 
  203500    293.20795   -1541.3195    470.19648    242.49477     460.6543    36822.805 
  203600    292.70113   -1542.1927     452.6044    221.75887    65.062846    36822.805 
  203700    293.72029   -1532.9277    448.86922    231.85466    120.17145    36822.805 
  203800    276.91929    -1592.261     505.6703    154.05137     132.3079    36822.805 
  203900    284.99055    -1573.488    446.97702    150.29154    505.70387    36822.805 
  204000    296.98687   -1536.5381    466.97632     260.9862    155.62585    36822.805 
  204100    306.64349   -1526.1921    470.23938    317.85843    195.98834    36822.805 
  204200    303.56956    -1558.604    468.96066    270.39608    315.03751    36822.805 
  204300    292.19845    -1534.198    438.20122    213.09829   -382.50835    36822.805 
  204400    295.16929   -1542.5625    463.79175    243.63417    113.72979    36822.805 
  204500    300.35566   -1565.7875    458.91131    238.76446    776.02445    36822.805 
  204600    288.60212   -1593.0124    482.46598    182.43652     745.2574    36822.805 
  204700    305.56541   -1526.2822    451.68924     294.3882    975.02092    36822.805 
  204800    301.64906   -1513.2334    474.71654    312.91843   -58.588075    36822.805 
  204900    304.93842   -1542.1266     446.7961     270.8416    141.13664    36822.805 
  205000    293.90534   -1511.4815    461.54138    266.80208    41.677228    36822.805 
  205100    312.34071   -1515.0793    463.16789    347.42413    90.161561    36822.805 
  205200    300.43259   -1570.8548    445.32213    220.45268    404.29445    36822.805 
  205300    310.80968   -1597.3788     446.2593    241.35686    418.97323    36822.805 
  205400    306.68903   -1544.9082    461.10239    290.20935    535.67777    36822.805 
  205500    295.25789   -1513.5169    446.05192    255.33685   -93.204141    36822.805 
  205600    301.46138   -1525.6212    462.65147    287.62478    360.47333    36822.805 
  205700    300.79941   -1513.1282     441.4325    275.93303    247.11166    36822.805 
  205800    298.29363     -1515.85    449.13371    269.68613    366.66551    36822.805 
  205900    297.18488   -1500.9544    457.06763    287.54831     15.69101    36822.805 
  206000    298.33692   -1495.4044    470.31604    311.50807    14.879976    36822.805 
  206100    296.62393   -1473.1463    488.81993    344.59554    263.89535    36822.805 
  206200    304.95436   -1473.8478    455.19367    347.58944    330.24901    36822.805 
  206300    287.60718   -1484.7062     473.2751    277.09441   -177.00478    36822.805 
  206400    291.25417   -1482.0011    471.56727    294.43074     214.3635    36822.805 
  206500    303.44964   -1473.6105    462.55047    348.44216   -158.64722    36822.805 
  206600    301.26565   -1476.1364    474.82287    348.40398   -168.06441    36822.805 
  206700    296.38952   -1490.8234    470.29407    307.34242   -171.29666    36822.805 
  206800    309.88665   -1503.4284    479.29964    364.21225   -46.755235    36822.805 
  206900    293.60474   -1545.2193    482.61089    252.78709   -462.45991    36822.805 
  207000    293.12139   -1478.3835      457.908    292.75451    126.00966    36822.805 
  207100    300.21999   -1476.8571    440.93139    309.10717    267.64513    36822.805 
  207200    297.08692   -1523.0498    467.40712    275.35358    397.29952    36822.805 
  207300    295.30606   -1496.6201    489.17645    315.57405     443.6884    36822.805 
  207400    299.14052    -1508.045    442.99576    275.14741    525.25127    36822.805 
  207500    303.14105   -1484.0101    450.71874    324.82832    632.53252    36822.805 
  207600     307.6481   -1489.6454    469.86169    358.52822    805.33861    36822.805 
  207700    304.60686   -1476.1797    464.07083    352.57778    1258.5392    36822.805 
  207800    306.86357   -1490.0789    465.82751    350.54575     857.9253    36822.805 
  207900    303.98792   -1476.6181    456.60795    341.90358    195.68972    36822.805 
  208000    303.78819   -1500.6791    451.88787     312.2277    23.801161    36822.805 
  208100    300.50488   -1496.7745    453.99144    303.52612    69.202941    36822.805 
  208200    293.33599   -1479.1849     457.7919    292.79842    7.9326449    36822.805 
  208300    293.86262   -1485.4223     471.8327    302.96118   -128.79113    36822.805 
  208400    288.14765    -1486.475    467.45892    271.93072    337.65869    36822.805 
  208500    309.86094   -1489.7918    470.48847    368.92253    506.53969    36822.805 
  208600    294.73689   -1440.1232    457.67526    338.01972    515.44167    36822.805 
  208700    302.32969   -1461.2224     495.9556    389.21783    624.59639    36822.805 
  208800    298.79476   -1481.5416    452.33959    309.44552    258.67934    36822.805 
  208900    288.97424   -1468.6811    455.00759    280.97663    364.24553    36822.805 
  209000    295.66229   -1480.4717     480.6037    324.74559    718.04408    36822.805 
  209100    303.29402   -1450.0785    438.33756    347.06402    415.09234    36822.805 
  209200    300.29727   -1411.7623    471.93009    405.54685    840.33496    36822.805 
  209300    302.93458   -1429.1706     467.6044    395.62838    332.17428    36822.805 
  209400    301.82266   -1420.4387    490.86986    422.64427    217.51968    36822.805 
  209500    311.52658   -1463.7723    432.93774    364.85354    245.58355    36822.805 
  209600    298.34561   -1443.7388    484.34658    377.24308   -656.52416    36822.805 
  209700     303.3587   -1467.2536      469.907    361.74817   -495.36509    36822.805 
  209800    306.93478   -1451.2233    437.42202    361.31487   -6.7591988    36822.805 
  209900    306.95528    -1455.301    457.66153    377.56849   -524.47729    36822.805 
  210000    296.82625   -1474.0174    467.48996    323.30085   -382.50638    36822.805 
  210100    298.15984   -1455.4757    474.59456    354.92195    79.810392    36822.805 
  210200    303.97252   -1467.4432    468.20512    362.60668    136.99009    36822.805 
  210300    296.59553   -1478.9795    434.82082    284.63605   -309.57061    36822.805 
  210400    303.86197   -1474.5212    455.10797    341.93624    98.139396    36822.805 
  210500    296.00781   -1461.8845    446.01214    310.28931    49.252352    36822.805 
  210600    305.78932    -1457.235    449.21686    361.96622   -403.61755    36822.805 
  210700    305.93259   -1488.6599    454.37202    336.33827    207.47456    36822.805 
  210800     296.0361   -1503.9062    456.34179    278.72395   -130.92631    36822.805 
  210900    299.65934   -1458.0499    462.82751    347.29867    81.599932    36822.805 
  211000    292.79336   -1460.7724    456.43336    307.42133     56.19716    36822.805 
  211100    298.20103   -1466.0976    460.03606    329.92603   -225.89118    36822.805 
  211200    304.41371   -1506.3968    469.47567     326.9002   -178.08811    36822.805 
  211300    307.79178   -1508.0493     455.0785    325.98485    19.081555    36822.805 
  211400    293.85803   -1482.8823    427.15304    260.80095   -60.649577    36822.805 
  211500    293.20756   -1522.4702    445.35865     236.5045   -292.40021    36822.805 
  211600    295.70566   -1470.1824    475.03288    329.65845   -64.881158    36822.805 
  211700    298.16371   -1519.7466    457.61285    273.68665   -55.588905    36822.805 
  211800    304.18909   -1509.9981     442.4575    295.27447   -456.04706    36822.805 
  211900     313.7162   -1479.4962     451.7616    377.76342   -711.58268    36822.805 
  212000    302.13679   -1450.3682    471.73349    374.98572   -1190.4775    36822.805 
  212100    302.65143   -1480.9603    455.68879    330.65454   -199.63693    36822.805 
  212200     309.5202   -1468.9697    445.63942    363.36899   -89.831056    36822.805 
  212300    297.47595    -1464.839    451.38148     319.2816   -276.54941    36822.805 
  212400    303.55056   -1487.2846    426.86568    299.53545   -659.25248    36822.805 
  212500    291.83905    -1462.871    429.16848    273.78234   -538.85671    36822.805 
  212600    303.07272   -1478.0282    465.78491    345.57023   -126.27029    36822.805 
  212700    293.24522   -1505.3814    434.99883    243.40222   -587.72761    36822.805 
  212800    299.04197   -1507.0947    453.53543    286.19591   -768.87498    36822.805 
  212900    315.49149   -1510.9374    466.45337    368.96754    81.719783    36822.805 
  213000    313.32452   -1450.6516    458.82156    411.91317   -245.13626    36822.805 
  213100    304.45997   -1519.9655    464.11951    308.18266    363.62246    36822.805 
  213200    304.51391   -1507.8988    450.89722    307.26868    146.52598    36822.805 
  213300    290.53928   -1514.2115    465.56819    253.01845    125.41395    36822.805 
  213400    306.27621   -1528.1107    447.32424    291.37922    163.72698    36822.805 
  213500    306.77064   -1546.7206    484.23326    311.89349    887.09431    36822.805 
  213600    285.47399   -1519.6416    479.21516    238.54203    253.53198    36822.805 
  213700     312.1367    -1507.693    430.85504    321.58358    173.20898    36822.805 
  213800    284.26575   -1505.4632     456.2939     224.3861   -456.70269    36822.805 
  213900    295.35327   -1502.8015    446.06969    266.49734    -797.4331    36822.805 
  214000     293.9643   -1471.7408    450.47138    295.73699   -38.681488    36822.805 
  214100    294.98869   -1464.5829    464.67183    321.68476    48.286732    36822.805 
  214200    289.87562   -1507.4188    466.17153    257.44121    120.32221    36822.805 
  214300    294.12384   -1505.6851     448.5295     260.5656    359.15339    36822.805 
  214400    309.32626   -1453.4507    442.38669    374.76633    -254.8628    36822.805 
  214500    306.93294   -1462.3003    439.90555    352.71323   -396.64148    36822.805 
  214600    296.21861   -1436.7312    483.75296     374.1278   -688.77233    36822.805 
  214700     307.3134   -1431.2285    460.20468    405.78861   -459.21802    36822.805 
  214800    307.47315   -1462.7017    442.97464    357.80112   -228.94135    36822.805 
  214900    294.48406   -1483.8581    442.10759    277.58453   -291.54852    36822.805 
  215000    310.22993   -1508.4537    457.16157    338.58683    422.18771    36822.805 
  215100    303.51585   -1498.4066    465.70359     327.0958    876.23868    36822.805 
  215200    286.08036     -1494.25    434.11805    221.55308    532.59839    36822.805 
  215300    298.80256   -1485.4601    442.52327    295.74574   -412.08094    36822.805 
  215400    299.40393    -1457.211    452.70399    336.86976   -13.959547    36822.805 
  215500    299.75303   -1480.9244    448.83179     310.8482   -201.31577    36822.805 
  215600    294.68479   -1467.9193    474.37172    326.68672   -146.04823    36822.805 
  215700    297.31303   -1470.2987    448.24047    309.95092    250.66867    36822.805 
  215800    293.87543   -1427.8718     483.7242     372.4606    270.40839    36822.805 
  215900    290.16374   -1418.2101    483.85882    365.62802   -438.70691    36822.805 
  216000    304.26526   -1462.6989    452.37667    352.83403   -476.27459    36822.805 
  216100     303.3317   -1432.7388    467.97113    394.20611   -85.110604    36822.805 
  216200    297.15967   -1519.0107     445.9944    258.30579    395.15225    36822.805 
  216300    303.19561   -1509.2107    471.51852    320.67193   -178.21836    36822.805 
  216400    303.97999     -1520.85    450.91505    291.94331    310.46326    36822.805 
  216500    297.78884   -1516.9864    453.14841    270.30294    200.89154    36822.805 
  216600    295.38365    -1548.203    420.58824    195.75054    102.80176    36822.805 
  216700    304.11705   -1460.6089    446.82549    348.70884    18.478829    36822.805 
  216800    299.80476   -1486.0478    465.47872    322.60348    79.795288    36822.805 
  216900    290.33364   -1497.2585    430.60135     234.0833    1.9755711    36822.805 
  217000    299.27804   -1500.9751    454.40717    294.24486   -198.83941    36822.805 
  217100    302.92328   -1537.0323    452.74245    272.85417    681.78382    36822.805 
  217200    299.96059   -1503.6353    476.43685    316.67225    627.76579    36822.805 
  217300    305.58653   -1510.7507    445.40124    303.72635   -3.4776017    36822.805 
  217400    294.81349   -1488.5031    464.61525    296.92301   -478.82817    36822.805 
  217500    305.02876   -1465.1948    456.62269    358.00475    9.9494441    36822.805 
  217600    296.96857   -1427.1633    464.39914     367.7018   -401.92473    36822.805 
  217700    304.79526   -1477.8746    448.11512    335.77125   -301.78919    36822.805 
  217800    304.07772   -1456.8758    461.47767    366.91792   -472.68202    36822.805 
  217900    299.27107   -1511.6197    439.16014    268.32201    240.48701    36822.805 
  218000    299.23064   -1511.5351    448.75622    277.82152   -392.70261    36822.805 
  218100    291.17938   -1446.6078    477.82595    335.74758    40.385281    36822.805 
  218200    299.17524   -1441.8591    487.68004    386.17313    -224.2013    36822.805 
  218300    295.59018   -1457.0702    460.16926    327.38967   -615.78339    36822.805 
  218400     306.9127   -1439.0457    441.91698    377.88856    367.56861    36822.805 
  218500     304.1822   -1430.0948    458.08057    390.76992   -520.84021    36822.805 
  218600    290.41643   -1506.5078    479.48832    274.09188   -224.23379    36822.805 
  218700    291.95385   -1489.4982     447.3191     265.8201    313.62762    36822.805 
  218800    299.62676   -1481.2909    484.51428    345.59842    162.21964    36822.805 
  218900    298.60954   -1505.7262    466.62993    298.72146    229.35112    36822.805 
  219000    309.21472   -1485.3874    476.48646    376.42969    319.03811    36822.805 
  219100    303.21333   -1509.4323    469.90844    318.91962    883.03354    36822.805 
  219200    301.96799    -1536.129    445.07284    261.80798    378.54876    36822.805 
  219300    292.52084   -1516.7166    453.25136    247.07418    275.25243    36822.805 
  219400    306.70196   -1484.3917     454.6947    344.37607    595.90657    36822.805 
  219500    297.60423   -1544.5479    440.36333    229.12922    310.62102    36822.805 
  219600    281.97931   -1506.9134    458.50981    214.90815    971.99875    36822.805 
  219700    301.06298   -1508.4785     465.2368    305.56787    842.71758    36822.805 
  219800    290.64497    -1514.445    448.38351    236.07376    752.07995    36822.805 
  219900    309.81001   -1505.4705    462.67029    345.19745   -210.99643    36822.805 
  220000    294.26206   -1506.8134    456.88162    268.40862   -507.45423    36822.805 
  220100    299.57027   -1479.1487    471.67412    334.64744   -373.96916    36822.805 
  220200    289.96063   -1480.8497     461.1501    279.36965   -459.27938    36822.805 
  220300     297.5457   -1526.2736    442.28617    249.06418   -281.90286    36822.805 
  220400    287.71691   -1533.1133    445.80065    201.70442     80.52956    36822.805 
  220500    300.59031   -1501.1612    466.49264    312.02333   -856.90353    36822.805 
  220600    291.43596   -1478.5474    468.14157    295.27317   -1038.8444    36822.805 
  220700    306.00609   -1501.4095    443.48317    313.02913    -954.9391    36822.805 
  220800    297.20463   -1531.1817    450.40739    250.74925   -843.69918    36822.805 
  220900    296.43344   -1548.4208    434.64374    214.29145   -395.79744    36822.805 
  221000    291.54831   -1537.9207    445.55843     213.8201    96.542068    36822.805 
  221100    298.66684   -1495.7867    443.78787    286.07567    456.47609    36822.805 
  221200    293.50538    -1478.874    454.28541    290.36176    499.66458    36822.805 
  221300    297.84714   -1510.2049    432.67008    256.86732    316.24889    36822.805 
  221400     306.3995   -1511.9586    450.26397    311.02336   -87.521947    36822.805 
  221500    297.46084   -1458.7708    467.65297    341.55362    140.67589    36822.805 
  221600    309.19146   -1470.4346    448.38573    363.17753   -376.99614    36822.805 
  221700    300.60835   -1476.9842    436.97578    306.76435   -317.14964    36822.805 
  221800    297.77856   -1494.4074    436.33125    276.01873    49.108209    36822.805 
  221900    290.91354   -1521.3586    453.28023    235.26008    323.09762    36822.805 
  222000    294.21051   -1556.9321    444.63833    205.81563    478.94414    36822.805 
  222100    299.33839   -1545.5647    439.83144    235.34989    475.64664    36822.805 
  222200     296.9882   -1498.8425    441.71803    273.42947    235.10772    36822.805 
  222300     299.3463   -1521.4144    471.30024    291.00443    206.08014    36822.805 
  222400    299.50974   -1496.6485    453.57232    298.77464    264.83945    36822.805 
  222500    296.53379   -1484.9887     461.9672    305.49662    291.51221    36822.805 
  222600    294.75206   -1471.9088    450.96981    299.59667     459.7981    36822.805 
  222700    298.80261   -1494.2534    426.44082    270.87013    535.34423    36822.805 
  222800    294.14107   -1490.7476    457.28894    284.33966   -104.95557    36822.805 
  222900    293.40722   -1473.9065    465.84524    306.44927     142.9114    36822.805 
  223000    306.64005   -1484.2417    445.97425    335.52827     170.4308    36822.805 
  223100    309.08536   -1473.2153    431.22132     342.7571     187.6925    36822.805 
  223200    303.81423   -1441.4485      441.076     360.7631    46.258266    36822.805 
  223300    298.26671   -1473.8679    440.91251    303.32648    167.67458    36822.805 
  223400    305.41668   -1475.0619     424.5945    317.84743   -433.26988    36822.805 
  223500    303.16117   -1421.2776    472.25985    409.19205   -541.96654    36822.805 
  223600    293.45106    -1451.117    466.84948     330.4395   -633.72241    36822.805 
  223700    291.99383   -1438.7676    464.03023    333.44098   -1036.9206    36822.805 
  223800    292.05199   -1502.7575    443.51192    249.19331   -565.95351    36822.805 
  223900    295.95573   -1475.3473    455.03119    305.61214   -748.58235    36822.805 
  224000    287.94822   -1480.3693     450.8739    260.55798   -809.59959    36822.805 
  224100    304.42811   -1483.7456    449.95095    330.09122   -352.19838    36822.805 
  224200    289.64158   -1460.4763    464.72753    301.89107    321.09732    36822.805 
  224300    296.19192   -1467.8193     433.3319    292.49911   -210.84752    36822.805 
  224400    293.75976   -1499.4594    455.49893     272.1295    358.87376    36822.805 
  224500    309.00959   -1496.8229    442.56874    330.15748   -229.75233    36822.805 
  224600    298.76738   -1470.5533    463.25534    331.22694    164.80601    36822.805 
  224700    294.94907   -1449.0382    454.24659    326.62662   -174.57887    36822.805 
  224800    300.58196   -1448.9074     480.6975    378.44467   -117.28988    36822.805 
  224900     296.9711   -1475.6094    463.79606    318.66395    52.974517    36822.805 
  225000    309.23916   -1479.4058    442.89519    348.92951    457.07411    36822.805 
  225100    305.89922   -1451.9379    478.11384    396.65264   -221.29645    36822.805 
  225200    290.85191    -1462.291    462.87357    303.64497    247.89333    36822.805 
  225300    302.22956   -1506.7984    434.56119    281.79881    86.825522    36822.805 
  225400    285.88033   -1481.5146    475.22708     274.5014   -380.52072    36822.805 
  225500    303.50514   -1506.7762    440.32822     293.3029     66.50168    36822.805 
  225600    295.84296   -1500.3434     449.4213    274.50094   -86.921134    36822.805 
  225700    303.07325   -1475.1199    460.03814     342.7341   -531.33197    36822.805 
  225800    292.13213   -1469.8844    443.74369    282.65719    -173.9887    36822.805 
  225900     308.0721   -1515.0273    458.26239    323.44662     -128.732    36822.805 
  226000    290.96432   -1528.8878    462.29321    236.97139   -422.03875    36822.805 
  226100    307.93672   -1504.0213    453.99888    329.58256   -614.49598    36822.805 
  226200    294.27678   -1540.4549    464.07754      242.029    293.17097    36822.805 
  226300    300.66028   -1508.4147    472.08382    310.67448    168.91178    36822.805 
  226400      287.257   -1499.7583    454.05275    241.25106    44.279313    36822.805 
  226500    286.72584   -1458.7479    469.26885     295.0979    74.328961    36822.805 
  226600    299.60562   -1482.3543    484.69519    344.62122    356.94654    36822.805 
  226700    299.35429   -1526.2446    457.61475    272.52452   -74.683273    36822.805 
  226800    296.07687   -1489.6342    458.55355    295.39035   -312.04362    36822.805 
  226900    297.84875   -1512.5079    445.57784    267.47924   -592.01006    36822.805 
  227000    307.18557    -1541.268    464.70917    299.68093   -147.76386    36822.805 
  227100    304.38771    -1482.415     457.6947    338.98456   -560.53503    36822.805 
  227200     291.2581   -1456.6035    454.44174    302.72045   -653.34479    36822.805 
  227300    304.96544    -1444.365    460.20823    382.13644    -242.2335    36822.805 
  227400    297.10942   -1511.0239    448.48418    268.55727   -228.27806    36822.805 
  227500    304.37501    -1446.463    473.06319    390.24818   -129.18744    36822.805 
  227600    292.39751   -1464.9309    459.11915    304.17514   -23.164443    36822.805 
  227700    305.11362   -1487.2939    479.09422    358.75737     220.8112    36822.805 
  227800    300.60821   -1499.6962    457.90299    304.97898    711.47991    36822.805 
  227900    297.84447   -1493.0798    465.86079    307.17117    765.49877    36822.805 
  228000    297.39888   -1495.7294    442.65429    279.31873    274.37049    36822.805 
  228100     290.5934   -1460.6297    446.97123    288.24574   -289.55347    36822.805 
  228200    288.36018   -1484.4963    475.50692    282.90963    -260.3075    36822.805 
  228300    305.31085   -1492.8131    438.09166    313.11929    81.022007    36822.805 
  228400    292.13536   -1468.3069    468.08371    308.58921   -55.059521    36822.805 
  228500    297.16304   -1468.3858    485.69761    348.64901    636.48307    36822.805 
  228600    303.40876   -1472.5012    466.78641    353.60425    885.68146    36822.805 
  228700    307.93407   -1473.7743     469.8439    375.66279    995.50297    36822.805 
  228800    302.21483   -1466.7241    460.38624    347.63222    506.83708    36822.805 
  228900    292.33687   -1484.0515    463.50163    289.16529    539.82959    36822.805 
  229000    303.78932   -1465.6709    471.66656    367.01963   -161.15705    36822.805 
  229100    282.64742   -1463.0414    477.41493    280.67849    69.865136    36822.805 
  229200    301.62984   -1467.7074    453.14735    336.78913    339.02923    36822.805 
  229300     308.0121   -1483.8027    422.77819    318.91824    8.3366832    36822.805 
  229400     309.3848   -1435.8365    440.78758    391.04375    227.20361    36822.805 
  229500    293.30429   -1443.6985    452.65535    323.00627   -189.71248    36822.805 
  229600    304.94625   -1485.7895     458.5803      338.998    65.684345    36822.805 
  229700    297.58264   -1464.1426    444.81239    313.88691     168.5753    36822.805 
  229800    301.42324   -1508.0779    435.56355    277.90918    474.13745    36822.805 
  229900    310.97336   -1517.8415    451.56194    326.93005    168.08088    36822.805 
  230000    307.85321   -1494.6154    436.80407    321.41953    270.88458    36822.805 
  230100    307.48444   -1481.9884    446.61772    342.20807   -249.27319    36822.805 
  230200    306.36069   -1482.9999    434.00839    323.55266   -35.708559    36822.805 
  230300    297.75221   -1491.2588    448.25975    290.97771    67.312345    36822.805 
  230400    305.31438   -1496.8266     459.8816    330.91147   -110.58162    36822.805 
  230500    296.58706   -1523.0464    447.82541     253.5357   -116.10076    36822.805 
  230600    298.86772   -1487.1264    440.06401    291.91208    366.14042    36822.805 
  230700    301.27954   -1514.8414    442.05162    276.99001   -66.918225    36822.805 
  230800    292.38338   -1527.1646     463.6751    246.43404   -225.71211    36822.805 
  230900    304.21915   -1534.4765    464.10833    292.58161    134.21157    36822.805 
  231000    298.20977   -1501.4854    453.86097    288.40229    211.15195    36822.805 
  231100    296.75178   -1520.3767    450.98447    260.10244    416.47365    36822.805 
  231200     305.2027   -1489.3971    455.94075     333.8998    157.38415    36822.805 
  231300     300.7303   -1486.7242    472.81455    333.40942    -120.7399    36822.805 
  231400    306.25685   -1453.3243    477.25735    396.01193   -242.02495    36822.805 
  231500    296.52153    -1438.587    471.60032    361.47649   -400.81092    36822.805 
  231600    305.23812   -1422.1093    460.62424    406.02983   -713.13646    36822.805 
  231700    301.55849   -1466.5195    479.09821    363.60823   -333.75286    36822.805 
  231800    296.80646    -1486.519     463.1704    306.39107    241.52776    36822.805 
  231900    289.17679   -1492.4979    453.52212    256.58177   -97.699987    36822.805 
  232000    300.49843   -1482.3179    469.23314    333.19552    188.21339    36822.805 
  232100    303.87393   -1472.5869    461.90515    350.72132    274.39779    36822.805 
  232200    299.22609    -1495.347    480.27739     325.5104    -138.4357    36822.805 
  232300    306.46451   -1487.4609    470.76461    356.31298   -179.27642    36822.805 
  232400    288.91731   -1464.7085    471.62908    301.31568   -683.05828    36822.805 
  232500    310.81411   -1465.7095    494.44367    421.23029   -371.75481    36822.805 
  232600    293.05971   -1475.3177    456.43866    294.07462    188.73691    36822.805 
  232700    307.87447   -1487.1278    447.38717    339.58551    92.062516    36822.805 
  232800     302.2733   -1515.8888    478.50458     316.8478    251.84208    36822.805 
  232900    294.19271    -1502.468    454.48298    270.04467   -608.93852    36822.805 
  233000    310.19623   -1522.6107    444.60529    311.72258    229.60318    36822.805 
  233100    292.20534   -1481.4432    483.86306    311.54585    114.48667    36822.805 
  233200    308.75893    -1460.594    453.11541    375.81003    408.40582    36822.805 
  233300    298.81018   -1471.6712     462.4532    329.49869    597.16373    36822.805 
  233400    304.63752   -1524.2592    436.72707    277.29198    215.44695    36822.805 
  233500    299.24517   -1511.6255    476.66013    305.70011    -305.5271    36822.805 
  233600    306.59285   -1558.7437    430.94627    245.78682   -538.67224    36822.805 
  233700    302.69605    -1538.645    447.20111    264.68211   -615.18254    36822.805 
  233800     297.5778   -1480.6868      443.437    295.94562   -521.94798    36822.805 
  233900    301.24022   -1547.7235    448.02737    249.90748   -48.560422    36822.805 
  234000    305.99818   -1548.2687    461.28226    283.93355   -171.48322    36822.805 
  234100    294.93004    -1491.582    473.23838    302.98939    420.72945    36822.805 
  234200    287.70959    -1490.047    487.33895    286.27621    889.12852    36822.805 
  234300    310.86262   -1483.1172    466.35044    375.94673    613.80389    36822.805 
  234400    291.88397   -1454.6639    465.96947    318.99177   -467.12863    36822.805 
  234500    294.11333    -1485.819    482.98943    314.84444    143.72779    36822.805 
  234600    295.52623   -1466.0141    472.88922    330.87917   -574.65297    36822.805 
  234700     297.0844   -1489.6621    443.73408    285.05687   -85.227543    36822.805 
  234800    301.64794   -1428.4065    487.50638    410.53017   -163.99025    36822.805 
  234900    308.59317   -1444.1789    476.58288    414.94996   -8.3705142    36822.805 
  235000    299.39368   -1471.8632    447.10153    316.56913   -672.35904    36822.805 
  235100    286.33914    -1497.802    449.05068    234.09313    408.06823    36822.805 
  235200    304.62139   -1484.8177    456.54136    336.47544    455.97581    36822.805 
  235300    297.75558   -1492.4396    477.82942    319.38168    439.94244    36822.805 
  235400    295.70998   -1493.8903    466.38655    297.32353    398.06438    36822.805 
  235500    297.64764   -1448.3196    469.91382    355.10251    433.49425    36822.805 
  235600    297.15459   -1480.5078    475.10243    325.89396    -246.4618    36822.805 
  235700    299.24031   -1498.6653     454.0856    296.06402   -506.20791    36822.805 
  235800    305.75118   -1473.2571    472.96217     369.5185    163.93001    36822.805 
  235900    291.66058   -1522.3472    427.74621    212.08439    108.64212    36822.805 
  236000    289.98666   -1486.7916    497.07082    309.46514    149.81757    36822.805 
  236100    301.48615    -1501.718    439.79295    288.78038   -67.496463    36822.805 
  236200    306.60331   -1528.7069    464.20352    309.12775    346.71433    36822.805 
  236300     303.7505   -1520.5407      472.669    312.97837    371.10343    36822.805 
  236400    301.52727    -1494.623     471.7075    327.97422    690.86961    36822.805 
  236500    279.57748    -1532.898    448.65219    168.30532    544.19533    36822.805 
  236600    302.47993   -1542.2276    450.28153    263.21169     414.8729    36822.805 
  236700     309.8529   -1529.4343     477.1206    335.87606    610.67025    36822.805 
  236800    311.96726   -1532.6321    463.60002    328.63037     105.9595    36822.805 
  236900    302.13151   -1547.9994    461.28776    266.88514    382.76731    36822.805 
  237000    300.78136   -1553.8343    448.59976    242.31329    150.95545    36822.805 
  237100    294.34115   -1512.5171    452.28209    258.45971     349.1389    36822.805 
  237200    300.73342     -1544.34    459.12108    262.11417   -4.0510005    36822.805 
  237300    308.71115   -1560.0888    457.58638    280.57215    239.78876    36822.805 
  237400    292.32257   -1555.7783     434.3581      188.231    392.65927    36822.805 
  237500    306.30156   -1551.2107    440.61013    261.67865   -375.22714    36822.805 
  237600     298.3027   -1571.9152     444.7941    209.32201   -431.73618    36822.805 
  237700    300.43245   -1547.2761    452.77499    251.48364   -11.602473    36822.805 
  237800    296.17316   -1487.1817    458.05766    297.77838     125.3448    36822.805 
  237900    302.33303   -1523.1429    443.47886     274.8356    816.18864    36822.805 
  238000    297.30121   -1529.7275    481.52543    283.75419   -76.780063    36822.805 
  238100    303.13201   -1477.4537    465.40757    346.03299   -160.91528    36822.805 
  238200    299.97629   -1522.7244    432.11682    253.33348   -124.27053    36822.805 
  238300    292.64553   -1575.1146    423.25993    159.24345   -722.13872    36822.805 
  238400    302.95217   -1565.4042    460.95237    252.82166   -1065.8211    36822.805 
  238500    296.81232   -1585.6863    412.97267    157.05234   -337.53322    36822.805 
  238600    302.72477   -1572.8823    434.95514    218.32752    89.011993    36822.805 
  238700    305.36582   -1530.5473    451.59855    289.13819   -479.45373    36822.805 
  238800    312.65497   -1512.1921    471.49876    360.05011    67.292247    36822.805 
  238900     308.3854   -1518.7968    446.51992    309.33834    293.24998    36822.805 
  239000    305.62237   -1520.2615    442.74378     291.7186     502.2402    36822.805 
  239100    301.42508   -1549.2712     458.9646    260.12524   -12.958737    36822.805 
  239200    297.10577    -1522.786    454.51673    262.81141    210.82243    36822.805 
  239300    294.59044   -1532.1075    473.77545    261.47956    419.63457    36822.805 
  239400      302.194   -1527.9929    450.23116      276.115    348.16522    36822.805 
  239500    299.71202    -1551.336    461.44046     252.8615    270.52604    36822.805 
  239600     301.1512   -1561.1395    451.34196     239.4073    290.82155    36822.805 
  239700    306.03632   -1530.1053    469.22648    310.21207    69.211173    36822.805 
  239800    296.87743   -1501.1046    460.80559    289.75867    158.95441    36822.805 
  239900    295.16092   -1511.1769    465.30256    276.49308   -298.22368    36822.805 
  240000    301.46095   -1452.7376    483.46943     381.3243   -172.62563    36822.805 
  240100    303.03285   -1499.0671    468.01484    326.58261    -465.3199    36822.805 
  240200    291.63197   -1476.1455    470.10584     300.5175   -527.54646    36822.805 
  240300    304.22043   -1477.8181    457.45625    342.59359   -18.491098    36822.805 
  240400    293.33259   -1488.2835    466.77093    292.66365    485.23795    36822.805 
  240500    303.96898   -1480.3113    469.98729    351.50489    588.63906    36822.805 
  240600    302.80418   -1478.1865    477.64655    356.07041     955.0224    36822.805 
  240700    293.18975   -1496.9712    454.46963    271.03469    664.96876    36822.805 
  240800    298.47904   -1529.3555     455.6846    263.56223    892.73011    36822.805 
  240900    298.00212   -1511.2736    472.91678    296.73968    1108.5144    36822.805 
  241000    296.53921   -1536.9642    465.20865    256.78682    774.40072    36822.805 
  241100    306.30058   -1499.6474    458.59753    331.22501    632.67498    36822.805 
  241200    297.26811   -1493.9952    455.01746    292.83023    667.68809    36822.805 
  241300    300.91403   -1496.5074    458.99892    310.63374    502.99191    36822.805 
  241400    307.45269   -1439.2547    478.36055    416.54229    476.11057    36822.805 
  241500    294.93703   -1452.5314    474.32567    343.15861   -150.03446    36822.805 
  241600    300.09072   -1472.7217    473.99112    345.72315   -192.35715    36822.805 
  241700    298.99457   -1517.5805    457.10205    279.06437   -258.03945    36822.805 
  241800    311.13225   -1520.6929    449.66503    322.89355   -352.74708    36822.805 
  241900    291.75238   -1467.9001    454.21908    293.41555    506.61433    36822.805 
  242000    294.82652   -1508.5423    447.42245    259.74938   -70.624775    36822.805 
  242100    302.07373   -1485.5773    478.86917     346.6297    381.98674    36822.805 
  242200    302.70944   -1486.4607    475.52256    345.24783    753.35183    36822.805 
  242300     294.9592   -1486.0755    460.74393    296.13206    102.08208    36822.805 
  242400    300.34086   -1510.9522     460.4407    295.06282    499.32742    36822.805 
  242500    295.62964    -1546.924    465.70176     243.2451    391.41159    36822.805 
  242600    298.19588   -1513.3361    447.59528    270.22365    55.018495    36822.805 
  242700    302.84333   -1511.6886    448.37437    293.47163     386.3192    36822.805 
  242800    307.08312   -1492.6061    473.58579    356.76044    146.71605    36822.805 
  242900    294.66266   -1510.0996    444.91566    254.95118    341.74019    36822.805 
  243000    295.95326   -1487.9027    463.35227    301.36682    200.19477    36822.805 
  243100    296.14799   -1492.9422    466.48086    300.32834    427.71632    36822.805 
  243200    296.93238   -1482.2142    461.82728    309.91692   -60.650613    36822.805 
  243300    302.42355   -1460.8726    465.30642    359.33894   -298.41397    36822.805 
  243400    294.86857   -1481.6247    444.06997    283.50291   -214.87774    36822.805 
  243500    301.22156   -1490.2507    435.53078    294.80012    653.54865    36822.805 
  243600    293.40603   -1513.4028    457.20538     258.3078    451.55401    36822.805 
  243700    295.47757   -1540.4275    467.97212    251.33064   -56.452697    36822.805 
  243800    300.44403   -1478.7377      489.275    356.57386    717.19665    36822.805 
  243900    309.64048   -1461.5182    477.46131    403.18121    766.05561    36822.805 
  244000    304.66791   -1505.7083    458.40167    317.65364    513.58822    36822.805 
  244100    301.99443   -1510.7974    465.29354    307.47869     583.8274    36822.805 
  244200    307.00379   -1504.6824    480.08813    350.83104     340.4158    36822.805 
  244300    299.02884   -1502.3774    471.29673    308.61564    564.62331    36822.805 
  244400    298.49583    -1495.561    433.00103    274.74832    471.26857    36822.805 
  244500    294.62683   -1516.2505    467.94788    271.67198      784.641    36822.805 
  244600    299.99247   -1445.7696    453.58661    351.83051    486.92676    36822.805 
  244700    300.63782   -1492.0749    440.89972    295.72958    36.676212    36822.805 
  244800    297.51678    -1499.181    450.31614    284.05716   -81.418767    36822.805 
  244900    292.16945    -1507.674    462.31646    263.60761    323.95073    36822.805 
  245000    305.39803   -1554.3949    449.53694    263.37325    434.50011    36822.805 
  245100    297.25074    -1570.017    441.36546    203.07857    361.36164    36822.805 
  245200    298.89492   -1532.1607    460.11735    267.05302    620.89585    36822.805 
  245300    309.96985   -1545.3602    484.70815    328.06167    296.64902    36822.805 
  245400    312.63728   -1478.7621    461.54984    383.45203     396.9952    36822.805 
  245500    297.61476   -1463.5791    476.23964    346.02157   -219.97122    36822.805 
  245600    294.35558    -1475.714    444.52624    287.57162   -21.800835    36822.805 
  245700    303.04743   -1479.8692    440.80942    318.64042   -60.183221    36822.805 
  245800    296.87129   -1527.9502    469.08247    271.16238    137.06041    36822.805 
  245900    307.93434   -1547.9184    462.34329     294.0193     399.8227    36822.805 
  246000    289.05912   -1559.9895    458.19637    193.23728    432.53764    36822.805 
  246100    305.06781   -1573.9468    451.06616    243.87122    485.40592    36822.805 
  246200    307.77927   -1540.6796    461.82292    300.04295    691.62644    36822.805 
  246300    305.39734   -1515.7783    459.09781    311.54768    626.52692    36822.805 
  246400    293.12159    -1516.808    452.44192    248.86485   -45.852354    36822.805 
  246500    295.81214   -1503.8097    453.27682    274.75211   -194.81451    36822.805 
  246600    305.61257   -1483.5538    476.08304    361.72165   -439.51409    36822.805 
  246700    290.44748   -1485.2826    477.35945    293.32731    43.444052    36822.805 
  246800    300.99922   -1521.0108    447.66665    275.17972    129.03135    36822.805 
  246900    307.93939   -1466.6309    477.96564    390.95173    298.68418    36822.805 
  247000    303.22984   -1437.9233    467.82579    388.41993    332.07761    36822.805 
  247100    296.23225   -1466.2038    475.87774    336.84108    216.77801    36822.805 
  247200    298.12316   -1455.6989     472.7643    352.70409    625.31624    36822.805 
  247300    294.07745   -1451.2919    481.81128    348.03264   -62.922215    36822.805 
  247400    298.05912   -1492.0081    461.73335    305.07704   -54.342015    36822.805 
  247500    305.14969   -1504.1409     485.1687    348.14647   -174.62619    36822.805 
  247600    307.00497   -1506.8867    450.66476    319.20865   -129.28505    36822.805 
  247700    303.30545   -1487.8043    451.03252    322.08445   -550.04913    36822.805 
  247800    290.05719   -1491.0857    476.82383    285.24001    -538.5485    36822.805 
  247900    291.04323   -1487.6789    475.86674    292.10731    11.394077    36822.805 
  248000     304.1254   -1522.9653    449.83746    289.40187    366.21496    36822.805 
  248100    318.49456   -1485.9393    475.31536     416.2818    241.78858    36822.805 
  248200    287.02218   -1527.8209    444.47622    202.55992    366.88986    36822.805 
  248300    291.88478   -1513.1251    465.92726    260.49194   -236.63137    36822.805 
  248400    294.68342   -1483.3168    486.35947    323.27081   -447.78484    36822.805 
  248500    310.96283   -1525.8263     447.9653    315.30149    53.295243    36822.805 
  248600    308.07341   -1504.8683     474.3572    349.70636   -461.76109    36822.805 
  248700    301.98067   -1533.0545    440.43436    260.30081   -251.09679    36822.805 
  248800    299.16625   -1549.5165    460.83186    251.62725   -2.2267621    36822.805 
  248900    285.97189   -1539.1828      480.821    222.83733   -25.237978    36822.805 
  249000    297.63331   -1524.0583    450.62652    260.01236   -163.82947    36822.805 
  249100    302.72721   -1536.9069    465.11264     284.4713    130.76403    36822.805 
  249200    294.99713   -1580.2142    457.45872    198.87815    41.105663    36822.805 
  249300    306.39629   -1538.4206    469.44213     303.7252   -62.138963    36822.805 
  249400    300.34558   -1518.1617    448.00321    275.43698   -297.52931    36822.805 
  249500    299.94499   -1450.5904     472.3219    365.53226    59.381569    36822.805 
  249600    303.50365   -1516.7912    476.29327    319.24624   -343.21361    36822.805 
  249700    300.14908   -1504.1987    453.81715    294.33359   -97.204428    36822.805 
  249800    284.06378   -1488.4903    473.50204    257.66216   -274.92421    36822.805 
  249900    304.06968   -1518.8144    470.93495    314.40063    267.44459    36822.805 
  250000    308.57582   -1540.0465    479.81868    322.24046    285.75796    36822.805 
  250100    296.65554   -1496.7126    472.08797    304.43895    205.29956    36822.805 
  250200    310.22954   -1478.4698     471.6765    383.08387    692.27451    36822.805 
  250300    312.39703   -1505.9417    482.94995    376.59618    157.01268    36822.805 
  250400    313.55328   -1456.9061    473.80269    421.66462    134.57603    36822.805 
  250500    296.78195   -1470.9539    496.94669    355.62273   -25.403996    36822.805 
  250600    305.91167   -1469.8345    477.43431    378.13226    139.22443    36822.805 
  250700    306.96321   -1484.1434    491.51035    382.61042    299.13711    36822.805 
  250800    300.79688   -1512.6926    475.88774    310.81255    40.795046    36822.805 
  250900    305.77127   -1516.7737    476.89878    330.02848    40.329609    36822.805 
  251000    302.46932   -1519.0778    460.83457      296.867     671.8354    36822.805 
  251100    313.66597   -1511.7137    458.38302    351.94232   -76.077931    36822.805 
  251200    305.73222    -1513.975    464.50416    320.25767    397.21544    36822.805 
  251300    302.95488   -1529.3523     465.0248     292.9581    272.09037    36822.805 
  251400    297.24617   -1512.0652    478.69601    298.34043    630.30573    36822.805 
  251500    296.96409    -1525.701    463.83529    268.58021    36.387737    36822.805 
  251600    302.18887   -1571.6278    463.84199     246.0679    7.4771107    36822.805 
  251700     302.1593    -1557.936    470.15397    265.93919   -526.48704    36822.805 
  251800    294.42041   -1537.8064    479.64063    260.88401   -271.04719    36822.805 
  251900    289.97347   -1595.3666    466.84529    170.60547    8.2852595    36822.805 
  252000    300.58772   -1584.9187    463.62344    225.38504   -85.958909    36822.805 
  252100    302.04812   -1549.1253    459.48818    263.58605   -426.10218    36822.805 
  252200    303.54044   -1579.9098    448.58671     228.5859   -790.25034    36822.805 
  252300    298.24546   -1504.8948    469.27444    300.56627   -445.75376    36822.805 
  252400    304.00563   -1545.2674    448.07744    264.80314    -338.1273    36822.805 
  252500    311.95792   -1507.9773    466.62026    356.26363    -298.5212    36822.805 
  252600    300.51987   -1514.5756    454.31383    286.11459   -199.03403    36822.805 
  252700    300.01266   -1503.3763    462.87624    303.60396   -627.55243    36822.805 
  252800    304.18643   -1530.4893    472.55532    304.86914    136.41896    36822.805 
  252900    299.94157   -1532.4075    463.42507    274.80301    316.73198    36822.805 
  253000    294.52007   -1540.1837    479.67271    258.98536    242.40401    36822.805 
  253100    294.67118   -1534.3187    481.67198    267.52657    354.03267    36822.805 
  253200    298.65118   -1523.9054    482.68025    296.77916    180.21011    36822.805 
  253300    294.85962   -1512.2146    455.62293    264.42585     442.9092    36822.805 
  253400    301.64021   -1518.3262    467.40705    300.47656   -417.01959    36822.805 
  253500    287.85628   -1511.6936     477.8162    255.76405    -337.5606    36822.805 
  253600    297.66791   -1539.0995    478.63037    273.13005   -560.42659    36822.805 
  253700    297.30719   -1519.1732    451.45896    264.26887   -746.00308    36822.805 
  253800    295.32469    -1555.867    450.33011    217.56425   -315.11502    36822.805 
  253900    299.71371   -1574.9219    453.78366     221.6264   -488.63973    36822.805 
  254000    301.39984   -1572.6007    453.42755    231.14557   -396.07389    36822.805 
  254100    307.75983   -1564.9785     474.1007    287.93471   -423.49235    36822.805 
  254200    303.37856   -1532.3576    434.93614    261.76223    493.71242    36822.805 
  254300    289.42661   -1504.8606    471.05562    262.87183   -309.74077    36822.805 
  254400    298.37356   -1536.7256    450.57392    250.60891    42.195798    36822.805 
  254500    303.84061   -1589.4293    471.24012    243.06463    373.20786    36822.805 
  254600    302.02879   -1587.4096    472.68784    238.41482    597.73341    36822.805 
  254700    304.55402   -1566.5345    484.68634    282.60178     854.8326    36822.805 
  254800    293.36298   -1555.3829    467.67466    226.60412    267.00698    36822.805 
  254900    298.81708   -1546.1376    472.44089    265.05088   -141.37194    36822.805 
  255000    296.76317   -1538.1179    430.82118    222.24907   -892.10146    36822.805 
  255100    298.64698   -1539.4297    476.29758    274.85343   -570.08292    36822.805 
  255200    305.62126   -1490.5984    474.87227    353.50527    -737.9895    36822.805 
  255300    302.48872   -1484.7539    461.91807     332.3613   -514.97431    36822.805 
  255400    301.03672   -1478.3346    462.62503    332.98234    -802.0969    36822.805 
  255500    299.79392    -1545.694    469.69812    267.12811    97.963023    36822.805 
  255600    291.26695   -1547.6877    460.63143    217.86552   -261.65859    36822.805 
  255700    304.42578   -1530.1067    472.46093    306.22968    105.01148    36822.805 
  255800    292.17662   -1494.6662    481.03282    295.36384    483.95147    36822.805 
  255900    305.84928   -1497.3492    477.50147    350.40519   -17.685974    36822.805 
  256000    291.76168   -1540.2519    478.25182    245.13815    20.274916    36822.805 
  256100    302.34674   -1551.0855    477.26744    280.74295   -605.85243    36822.805 
  256200    301.21395   -1539.0269    452.27618    262.73525   -41.235757    36822.805 
  256300    299.77108   -1581.6772    488.83459    250.17907   -483.93528    36822.805 
  256400     301.5341    -1528.031    476.28961     299.1789   -520.42233    36822.805 
  256500    294.17894   -1535.4517    475.81352    258.32979   -605.34406    36822.805 
  256600      301.213   -1505.3659    460.32326    304.43899   -381.57361    36822.805 
  256700    297.91399   -1520.5812    455.07504     269.1954   -519.09463    36822.805 
  256800    303.08406    -1502.471    476.14836    331.54172    560.22982    36822.805 
  256900     290.6634   -1545.1331    480.78912    237.87384   -112.93282    36822.805 
  257000    295.76426   -1531.8797    477.50806    270.69888     364.8911    36822.805 
  257100    302.00195   -1499.5167    471.06602    324.56565    683.94059    36822.805 
  257200    306.84437   -1517.1085    487.12072    344.72329    1065.3954    36822.805 
  257300    290.75753   -1503.7656    485.63906    284.51298    1227.7999    36822.805 
  257400    301.07389   -1490.9738    462.80593    320.69061    635.03378    36822.805 
  257500    309.04715   -1505.0444    471.52665    351.06213    240.11138    36822.805 
  257600    297.14437   -1518.0764    456.03608    269.21328    63.209363    36822.805 
  257700    298.02836   -1484.0448    470.35953     321.5287    10.147793    36822.805 
  257800    286.65074   -1497.9706    470.17331    256.44311   -178.08235    36822.805 
  257900    295.25895   -1520.2073    477.77599     280.3753    38.998468    36822.805 
  258000    295.43016   -1536.2524    465.19084    252.51205   -148.19326    36822.805 
  258100    304.78742   -1516.2277    470.90943    320.17733    -312.9208    36822.805 
  258200    293.07413   -1547.3532    480.09821    245.76326    306.23706    36822.805 
  258300    302.37872   -1546.7409    479.44873    287.41212    688.15149    36822.805 
  258400     304.4876   -1538.4064    484.95375    310.69981      288.099    36822.805 
  258500    294.44407   -1509.9751    464.50022    273.68097    595.65918    36822.805 
  258600    298.86048   -1526.9109    491.88152    303.91264    319.99189    36822.805 
  258700     304.8574    -1537.972    504.64661    332.48384    177.33165    36822.805 
  258800    310.71838   -1548.9962     460.0788    303.14989    248.86876    36822.805 
  258900    289.50825   -1528.1098    455.39632    224.32908   -120.32815    36822.805 
  259000    304.57504   -1489.8792    487.74035    362.40528   -262.95167    36822.805 
  259100    300.54543   -1543.4363    459.38155    262.43609    573.27356    36822.805 
  259200    301.23737   -1570.6589    458.02634    236.95833    561.88052    36822.805 
  259300    295.37936   -1570.3956     468.3737    221.32415    281.99694    36822.805 
  259400    289.26442   -1547.9263     475.3845    223.40835   -206.71364    36822.805 
  259500    297.49434   -1524.3246    473.44104    281.93792    266.75759    36822.805 
  259600    307.10328   -1511.5729    473.50111     337.7993    19.407115    36822.805 
  259700    305.97307   -1523.5782    477.98188     325.2112    160.45994    36822.805 
  259800    293.05553    -1527.514    497.24118    282.66211   -68.066137    36822.805 
  259900    304.88901   -1514.5751     461.5313    312.90699   -521.88755    36822.805 
  260000    305.75907    -1529.314    475.15052    315.68529   -132.32636    36822.805 
  260100    299.17513   -1509.0196    488.88653     320.2187   -717.64004    36822.805 
  260200    302.09453   -1498.4651    453.00856    307.97452   -181.25853    36822.805 
  260300    301.08529   -1497.4056    468.99755    320.50143    -420.7009    36822.805 
  260400    305.68425   -1500.4641    502.21754    371.26707    78.039937    36822.805 
  260500    296.23909   -1506.6643    500.51506    321.04858    502.05956    36822.805 
  260600    308.30553   -1569.9152    460.56329    271.90546    821.66774    36822.805 
  260700    309.56785   -1532.4737    475.77911    330.21814    199.87218    36822.805 
  260800    293.63504   -1532.6395    456.06569    238.95738    522.44658    36822.805 
  260900    295.39767   -1539.7718    451.04977    234.70607   -336.31033    36822.805 
  261000    304.42634   -1493.1222    497.31347    368.06923    108.23392    36822.805 
  261100    291.57957   -1542.2438    443.57836    207.65693    40.680718    36822.805 
  261200    304.09964   -1552.2367    501.20188    311.37941    272.18968    36822.805 
  261300    308.15728   -1532.0051     450.5737    299.16175    91.935055    36822.805 
  261400    292.63187   -1552.4009    467.26926    225.90521   -52.737038    36822.805 
  261500    301.01126   -1538.4702     479.8328    289.94048    475.28485    36822.805 
  261600    300.77285   -1517.6215    499.67584    329.56412    582.24013    36822.805 
  261700    304.36668   -1537.3713    452.04242    278.28177    335.23619    36822.805 
  261800    302.62367   -1546.9685    468.57929    277.41246    -441.1658    36822.805 
  261900    307.83991   -1541.9216    464.10352    301.35318   -152.33831    36822.805 
  262000    312.17956   -1497.0167    475.06716    376.66407   -713.65577    36822.805 
  262100    292.04875    -1510.593    465.84911    263.68051   -32.561288    36822.805 
  262200    292.33256   -1565.7544    475.36363    219.30512     697.3529    36822.805 
  262300    293.75543   -1564.3485     477.5195    229.24156     112.6732    36822.805 
  262400    293.21088   -1525.1781    472.84219    261.29495    252.53142    36822.805 
  262500    297.41019   -1543.6256    462.21229    251.03116   -94.014734    36822.805 
  262600    298.50673   -1507.7257    447.41967    277.05117    140.94187    36822.805 
  262700    301.39015   -1517.4315    464.36382    297.20768    166.98177    36822.805 
  262800    306.41467   -1524.2592    458.12993    306.65672    579.60063    36822.805 
  262900    308.68066   -1504.1382    501.83571    380.63542    587.99193    36822.805 
  263000    293.82236   -1559.2625    489.76529    246.87321    201.82103    36822.805 
  263100    295.71296   -1567.9243    445.76097    202.67731   -206.89792    36822.805 
  263200    302.60991   -1563.8867    440.80562    232.65899   -23.379754    36822.805 
  263300    295.72146   -1487.4487    488.73044    326.16046   -279.16707    36822.805 
  263400    303.16452   -1481.3238    465.83683    342.73782  -0.43545195    36822.805 
  263500    308.74004   -1559.6855    468.26457    291.78311   -238.03238    36822.805 
  263600    296.94614   -1527.8443    460.85088    263.37205   -131.39487    36822.805 
  263700    298.46877   -1550.3697    467.96591     254.7833    133.22247    36822.805 
  263800      291.351   -1563.3034    473.85423    215.84919    32.353292    36822.805 
  263900    303.82877   -1565.4731    464.95168    260.67934    131.64903    36822.805 
  264000    289.18208   -1524.6014    478.67337    249.65326   -150.09486    36822.805 
  264100    301.24566   -1502.6292    447.18856    294.18731   -722.69833    36822.805 
  264200    292.28339   -1526.0878    470.89746    254.28526   -301.49377    36822.805 
  264300    294.64696   -1528.9849    485.95162    277.03156    -337.3227    36822.805 
  264400    297.62634   -1507.6655    459.89465    285.64203   -274.39455    36822.805 
  264500    291.29273   -1526.4887     449.3465    227.89514   -256.62884    36822.805 
  264600    295.83569   -1559.5268    486.39905    252.26272   -255.62264    36822.805 
  264700    291.67917    -1543.385    449.48394    212.86763   -653.28008    36822.805 
  264800    303.75837   -1499.9081    468.21173    329.18893   -7.4486531    36822.805 
  264900    310.23086   -1540.3862    474.83319     324.3301    116.12537    36822.805 
  265000    293.21999   -1558.6367    465.67711    220.71215    250.18853    36822.805 
  265100    294.84636   -1576.6563    452.45579    196.75762    334.90362    36822.805 
  265200    303.99537   -1533.1971    469.26487     298.0149     307.4024    36822.805 
  265300    292.02804   -1587.6529    451.57574    172.25443   -139.19831    36822.805 
  265400    297.04688   -1525.2945    468.82344    274.34572     80.67224    36822.805 
  265500    295.97527   -1515.7151    470.24317     280.5439   -26.569425    36822.805 
  265600    305.51509   -1467.3469    469.94748    371.35624    16.807172    36822.805 
  265700    308.52712   -1513.6498    466.15612    334.75637    124.36874    36822.805 
  265800     304.3126   -1543.0325    508.45369    328.78955    712.95037    36822.805 
  265900    302.57521   -1541.7501    460.86236    274.69686    380.02433    36822.805 
  266000    298.97094   -1494.6417    489.71702    334.51221   -491.01173    36822.805 
  266100    305.75472   -1535.5402    467.75491    302.04404   -188.61007    36822.805 
  266200    297.93621   -1534.3452    473.11164    273.56755   -395.55312    36822.805 
  266300    293.16851   -1502.2942    490.58892    301.73585   -187.13022    36822.805 
  266400    298.12229   -1451.3493    497.63055     381.9161   -287.24412    36822.805 
  266500    301.36043   -1466.0156    473.73505    357.86159   -187.74956    36822.805 
  266600    304.48573   -1480.8044    492.33734    375.67693   -222.16711    36822.805 
  266700    310.92615   -1523.5152       466.65    336.13296    91.200968    36822.805 
  266800    309.37888   -1529.5871    471.77241    328.25141   -70.610573    36822.805 
  266900    298.82396    -1515.165    474.62898     298.2424    178.00123    36822.805 
  267000    299.40771   -1545.9524    446.41794    241.85921     81.02642    36822.805 
  267100    300.68256   -1536.5912    467.49328    278.00726     257.6252    36822.805 
  267200    305.77366   -1568.4209    475.32262    276.81589    405.82633    36822.805 
  267300    296.42108   -1524.1494    454.93328    258.79701    137.16894    36822.805 
  267400    296.21934   -1495.2361    484.37432    316.24756    10.278201    36822.805 
  267500    302.44928   -1531.4621    477.65344    301.21177    635.59898    36822.805 
  267600    311.62722   -1532.4753    475.67838    339.34208    610.87923    36822.805 
  267700    300.83722   -1503.7409    489.15616    333.21337    584.92711    36822.805 
  267800    311.57935   -1524.0768    491.26426    363.11204     207.7799    36822.805 
  267900    299.55249   -1543.0183    466.23854    265.26259    40.978171    36822.805 
  268000    301.23314   -1499.8162    481.91047    331.66619    146.94603    36822.805 
  268100     294.1403   -1478.9076    486.59599    325.48331    303.29086    36822.805 
  268200    299.71095   -1513.4788    465.05464    294.32816    294.41376    36822.805 
  268300    296.25409    -1516.486    489.78259    300.56158   -412.88648    36822.805 
  268400    301.48664   -1506.3251    451.40169    295.78428    14.217541    36822.805 
  268500    288.08956   -1528.5871    461.13163     223.2311   -312.70654    36822.805 
  268600    301.32759   -1513.2579    485.75475    322.49193   -312.01854    36822.805 
  268700    310.73257   -1479.2825    456.19124    369.03963   -426.38175    36822.805 
  268800    299.07809   -1530.8715    486.70209    295.74753   -684.12137    36822.805 
  268900     289.6454   -1515.2014    461.53122     243.9868   -398.45175    36822.805 
  269000    301.42099   -1479.6631    483.74025    354.49063   -244.73457    36822.805 
  269100    298.55375   -1499.7111    457.13452    294.99123   -584.29231    36822.805 
  269200    298.18197   -1496.1627    463.50421     303.2437   -716.11007    36822.805 
  269300    304.68285   -1486.7854    494.98641    373.22818    209.40824    36822.805 
  269400    300.63344   -1496.5163    457.53524    307.90413   -173.66294    36822.805 
  269500    300.84784   -1513.6618    497.08376    331.26762    102.39705    36822.805 
  269600    306.35023   -1489.5252    485.14771    368.11979    43.730249    36822.805 
  269700    302.31353   -1499.0485    456.17786    311.54163    85.788608    36822.805 
  269800    301.46421   -1497.4631    473.62887    326.77289   -373.50885    36822.805 
  269900    306.00487   -1485.2667    478.03132    363.71467   -91.199519    36822.805 
  270000    301.94554   -1510.7471    452.49467    294.51112   -19.986249    36822.805 
  270100    296.21741    -1520.108    467.46375    274.45641    218.41363    36822.805 
  270200    307.56586   -1542.9177    469.81374    304.83953     308.7776    36822.805 
  270300    295.95942   -1529.1033      483.914    280.75553    496.17447    36822.805 
  270400    294.87816   -1503.5505    470.76369     288.3138    153.81803    36822.805 
  270500    295.13719   -1515.2735    462.05471    269.04233   -226.72351    36822.805 
  270600    300.95734   -1527.8411    469.38529    289.88049    -360.6049    36822.805 
  270700    306.26788   -1532.6892    451.75688    291.19603   -349.92075    36822.805 
  270800    306.57878    -1512.326    459.94057    321.13585   -790.78054    36822.805 
  270900    298.47089   -1528.2326    454.99685    263.96083   -634.82454    36822.805 
  271000    309.28916    -1546.543    462.81545    301.93662    -105.2359    36822.805 
  271100    289.90674    -1522.629    483.29751    259.49638    308.09568    36822.805 
  271200    293.45524   -1543.3296    492.71922    264.11536    588.28484    36822.805 
  271300    299.23167   -1504.0014    485.52761     322.1312    11.759876    36822.805 
  271400    291.57193   -1547.8075    486.01282    244.49344   -236.37364    36822.805 
  271500    295.21576   -1498.6647    463.89384    287.84219   -158.80106    36822.805 
  271600    302.53139   -1486.8801    458.06158    326.56972   -765.31752    36822.805 
  271700    305.81816   -1520.3636    488.24724    337.99715   -997.64311    36822.805 
  271800     303.2699   -1536.6959    473.62656    295.62754   -1160.5278    36822.805 
  271900    320.21935   -1504.0364    446.89363    377.49039   -687.67962    36822.805 
  272000    302.80059   -1522.0394    475.65958     310.2145   -1215.0883    36822.805 
  272100     306.0784   -1500.0259    432.21891     303.4724    -325.1046    36822.805 
  272200    308.80823   -1507.8621    487.41854    363.06596   -110.01475    36822.805 
  272300    293.45757    -1524.156    473.12031    263.70041    352.43029    36822.805 
  272400    306.89029   -1531.5341    466.55051    309.93325    170.40465    36822.805 
  272500    303.44903   -1473.7531    480.92043    366.66673      31.3854    36822.805 
  272600    295.58931    -1524.341    494.08178    294.02743    426.96911    36822.805 
  272700    299.41745   -1543.9897    460.67306    258.12075    483.06694    36822.805 
  272800    295.47897   -1534.9557     476.7661    265.60273   -122.90294    36822.805 
  272900    301.18603   -1526.8798    475.86222    298.34331    128.78821    36822.805 
  273000    298.44487   -1495.0274    469.75668    311.80933    239.07735    36822.805 
  273100    307.29288    -1447.847    494.04488    422.91841    22.144544    36822.805 
  273200    307.28088   -1489.4467    502.35704    389.57708    164.46826    36822.805 
  273300    306.61522   -1518.5753    460.75645    315.86569    138.50187    36822.805 
  273400     298.1738   -1469.9968    492.39714    358.26597    240.22231    36822.805 
  273500    301.32043   -1489.3695    487.59055    348.18401   -665.54544    36822.805 
  273600    301.26272   -1504.0621    447.88984    293.53221   -977.51396    36822.805 
  273700    301.93186   -1503.4511    470.69436    319.94555   -131.52417    36822.805 
  273800    304.63788   -1526.0857    471.08258    309.82258        145.6    36822.805 
  273900    305.99704   -1536.6611    472.78517    307.03896    984.64533    36822.805 
  274000     298.4274   -1555.7138    479.42048     260.7084    855.21879    36822.805 
  274100    298.83377   -1521.1137    490.79678    308.50546    438.78341    36822.805 
  274200    292.11192   -1525.5888    463.14005    246.25866    10.722047    36822.805 
  274300     297.4127    -1542.111    469.17155    259.51635   -89.312812    36822.805 
  274400    303.81637   -1490.6029    464.49356    335.03586    83.582574    36822.805 
  274500     307.0042   -1527.4348    493.01785    341.01024   -346.02468    36822.805 
  274600    306.71022   -1539.7562     446.5192    280.87306    52.349424    36822.805 
  274700    294.37313   -1584.3859    463.61281    198.06484    146.12129    36822.805 
  274800    286.20953   -1563.0041    457.99461     177.2543     480.1482    36822.805 
  274900    307.14704   -1531.8179     484.0856    328.33486    274.17162    36822.805 
  275000    303.70711    -1563.074    499.70508    297.28683   -223.30785    36822.805 
  275100    290.95289   -1549.0011    467.92618    222.43986    271.95727    36822.805 
  275200    298.90528   -1537.0149    453.12247    255.25033   -39.973596    36822.805 
  275300    290.94182   -1550.2588     463.8888    217.09513   -135.64614    36822.805 
  275400    300.84959   -1566.3534     476.1757    257.67584   -91.339113    36822.805 
  275500    291.26028   -1563.6269    468.57903    209.84409   -528.76688    36822.805 
  275600     292.8586   -1582.0926    460.84388    190.80395    -647.3964    36822.805 
  275700    304.17191    -1551.869    474.12063    284.98966   -408.21338    36822.805 
  275800    298.19075   -1571.6017    465.19864     229.5385   -512.35061    36822.805 
  275900    303.91726   -1552.0102    482.24147    291.82846   -302.72248    36822.805 
  276000    301.01023   -1522.5529    454.08115    280.10149   -587.36615    36822.805 
  276100    299.13479   -1470.9142    481.58735    350.84409   -714.36825    36822.805 
  276200     293.6695   -1588.7271     451.8719    178.83043   -472.86488    36822.805 
  276300    301.72481   -1578.9613    454.37279    227.18621    561.96381    36822.805 
  276400    306.98541   -1547.2869    478.57414    306.63025    733.68909    36822.805 
  276500    294.56104   -1533.4793    467.47205     253.6726    549.33098    36822.805 
  276600    301.32134   -1506.9523    482.14387    325.15868    81.609453    36822.805 
  276700    303.70947   -1513.6374    491.93988    338.96872    190.58011    36822.805 
  276800    298.53952   -1542.7324    480.15786    274.92955   -114.71678    36822.805 
  276900     303.5472   -1513.5361     480.7195    327.12268   -697.11262    36822.805 
  277000    292.35253   -1473.0407    476.54805    313.29277   -437.13998    36822.805 
  277100    294.49346   -1500.8298    472.85204    291.39935   -285.58328    36822.805 
  277200    280.85425   -1507.9062    469.58009    219.94519    93.296836    36822.805 
  277300     304.4884   -1500.2145    469.47221    333.41371   -106.23726    36822.805 
  277400    293.38413   -1459.2244    489.40094    344.58368    31.234177    36822.805 
  277500    304.85891   -1499.3227    488.85065    355.34392   -395.94936    36822.805 
  277600    295.15622   -1527.2554    484.09117    279.18219    292.59445    36822.805 
  277700    301.31572   -1548.4693    464.93485    266.40742   -65.731707    36822.805 
  277800     301.4029   -1480.4037    480.57988    350.50868   -551.07617    36822.805 
  277900    301.43743   -1491.5444    495.64094    354.58371   -134.17449    36822.805 
  278000    305.65741   -1493.2026    486.36168    362.55242    -253.3718    36822.805 
  278100    306.98147   -1517.6945    483.43046    341.06131    22.165867    36822.805 
  278200    296.63481   -1525.8052    491.08368    294.24913     299.9264    36822.805 
  278300    295.47583    -1516.733    475.58887    282.63417    305.60044    36822.805 
  278400    293.90855   -1490.0798    483.48685    310.16367   -173.04192    36822.805 
  278500    299.44138   -1544.8198    467.45974     264.1845    457.61184    36822.805 
  278600    293.91847    -1513.985    472.72063     275.5367    580.77654    36822.805 
  278700    303.46959   -1533.6439    459.08164    285.02929    727.74102    36822.805 
  278800    303.77465    -1494.102     469.8822    336.73853    440.36664    36822.805 
  278900    299.89802   -1519.6721    481.24859    305.16683    317.37753    36822.805 
  279000    303.18472    -1555.914    474.44622    276.84755    223.42293    36822.805 
  279100    299.59091   -1533.5197    471.99525    280.68998   -245.49907    36822.805 
  279200    289.40252   -1518.8924    475.09595    252.77246    131.95611    36822.805 
  279300    287.14847   -1498.3896    489.40026    277.48102    113.24808    36822.805 
  279400    311.33428    -1530.624    467.32132    331.52391    770.04938    36822.805 
  279500    298.17008   -1535.4652    502.76955    303.15327    235.61274    36822.805 
  279600    301.00548   -1514.5132    459.25219    293.29093    489.97974    36822.805 
  279700    296.38999   -1514.5291    458.43661     271.7813    191.89182    36822.805 
  279800    311.24167   -1551.4337    476.96751    319.94552    417.62145    36822.805 
  279900    291.83647   -1497.1129    473.57704    283.93749   -220.63177    36822.805 
  280000    308.18361   -1477.9916    438.18702    340.90649   -374.37668    36822.805 
  280100    309.59508   -1493.2518    485.02623    378.80919   -213.88145    36822.805 
  280200    299.67217   -1551.2273    467.69415    259.04541    7.8435056    36822.805 
  280300    301.02579   -1571.4444    478.98337    256.18192    896.84078    36822.805 
  280400    307.04033   -1515.4006    508.36352      368.552    1000.2041    36822.805 
  280500    306.20236    -1506.182    471.91719    337.56999    558.65947    36822.805 
  280600    298.90577   -1528.2256    461.54693    272.46623    133.00102    36822.805 
  280700    300.17533   -1544.6372    464.39964    264.59518    538.74121    36822.805 
  280800    304.31001   -1576.7058    471.96223    258.61314    374.66252    36822.805 
  280900     303.4482   -1501.4179    466.08494     324.1628    215.78891    36822.805 
  281000    309.48837   -1532.9662    471.09811    324.68852    359.45612    36822.805 
  281100    312.57988   -1535.5846    480.48816    345.31066    466.06811    36822.805 
  281200    306.70654   -1515.7812    473.51773    331.83014   -70.611166    36822.805 
  281300    297.88459   -1532.0507    483.16293    285.68214   -275.56037    36822.805 
  281400    298.98784    -1504.986    431.92975     266.4564   -343.17691    36822.805 
  281500    304.53259   -1501.1486    467.57811    330.78349    340.85751    36822.805 
  281600    296.70146   -1569.4391    497.91258    257.74271   -38.701355    36822.805 
  281700    289.69893   -1532.3692    483.76179    249.28946    240.91649    36822.805 
  281800     299.5517   -1510.8018     476.6623    307.89926     130.1284    36822.805 
  281900    299.18849    -1552.699    483.10961    270.82218    89.037361    36822.805 
  282000    300.44138   -1531.7015    464.45538    278.77855    172.23674    36822.805 
  282100    294.73085   -1544.6354    478.25641    254.06163    39.957444    36822.805 
  282200    290.28753   -1542.3814    489.09966    247.25212    283.13572    36822.805 
  282300    310.61242   -1530.8868    473.03495    333.74074    946.61858    36822.805 
  282400    296.61557   -1536.6786    474.83882    267.04471    357.19024    36822.805 
  282500    309.25668   -1523.8428    468.54023    330.21605    579.75969    36822.805 
  282600    296.68809   -1520.7045    466.00588     274.5108    671.52378    36822.805 
  282700    301.96728   -1516.6624     469.0326    305.23121     152.4644    36822.805 
  282800    293.31266   -1511.8794    480.25291    282.46047   -71.940812    36822.805 
  282900    300.74959   -1520.9944    475.38183    301.79294    96.188888    36822.805 
  283000    294.01813   -1521.8968    489.77329    285.12399    460.26473    36822.805 
  283100    307.42354   -1520.5966    482.26495    338.97425    454.50146    36822.805 
  283200    298.75768   -1518.6574    498.49316    318.31728     1264.678    36822.805 
  283300    305.01826   -1467.6178    488.08538    386.99748    801.77972    36822.805 
  283400    289.28251   -1466.8462     497.2065    326.39152    419.01416    36822.805 
  283500    309.66983   -1488.5727    471.95837    370.75527    302.75061    36822.805 
  283600     296.9708   -1513.9412    491.66784    308.20265    259.02716    36822.805 
  283700    304.11786   -1519.0865    482.40509    325.81453    68.521315    36822.805 
  283800    299.77326   -1505.5694     437.9451    275.40712   -540.12145    36822.805 
  283900    295.64175    -1498.851    510.10223    335.77283   -293.42811    36822.805 
  284000     298.8984   -1493.1293    482.58406    328.56666   -639.20279    36822.805 
  284100    293.12322   -1542.5157    472.24562    242.96808    91.970786    36822.805 
  284200    308.35108   -1523.9139    473.85131    331.39881   -754.21652    36822.805 
  284300    299.98751   -1483.5628    451.99635    312.42487   -733.00571    36822.805 
  284400    301.89234   -1495.6591    489.85998    346.72607   -594.94706    36822.805 
  284500    312.74554   -1495.4236     463.7055    369.43116   -718.39465    36822.805 
  284600    288.10895   -1464.9389    467.55215    293.38667   -702.30064    36822.805 
  284700    293.69439   -1451.9571    478.65144    342.49146   -953.39461    36822.805 
  284800    295.77677   -1480.3762    459.92425    304.67457   -465.37114    36822.805 
  284900    300.95041   -1492.1226    459.91243    316.09509   -232.08207    36822.805 
  285000     302.2286   -1487.9972    482.97833    349.01288    254.70112    36822.805 
  285100     296.6222   -1552.2658    475.96045    252.60885   -31.736517    36822.805 
  285200    297.96155   -1530.8218    478.74143    282.83432   -105.15039    36822.805 
  285300    292.86898   -1541.7225    479.62444    250.00109    237.42729    36822.805 
  285400    297.20333    -1577.781    444.46702    198.20373    138.51871    36822.805 
  285500    299.71056   -1506.5688    478.03937    314.22111    70.578726    36822.805 
  285600    291.19896   -1538.2264    484.74434    251.13515   -661.74818    36822.805 
  285700    293.69347   -1514.0008    468.25071    270.04294   -148.58902    36822.805 
  285800    300.93329   -1501.4403    466.59577    313.38396   -672.97576    36822.805 
  285900    302.17689   -1476.4947    482.16461    359.46997   -520.27336    36822.805 
  286000    299.51488   -1488.8074    484.98489    338.05129   -77.964584    36822.805 
  286100    293.17938   -1529.3506    469.79495    253.93411     447.6207    36822.805 
  286200    295.35024   -1532.0549    486.91371    278.07442    800.42524    36822.805 
  286300    308.43757   -1509.5161    482.23119    354.56396    404.23776    36822.805 
  286400    300.27115   -1476.3496    467.89681    336.80927    478.44947    36822.805 
  286500    303.55449   -1553.4941    453.76481    260.24262    -275.4049    36822.805 
  286600    294.65102   -1540.7539    472.85517    252.18429   -84.162394    36822.805 
  286700    291.97529   -1540.8108    480.65866    247.94318   -661.44657    36822.805 
  286800    298.91695   -1566.4077     469.9603    242.74764    256.10368    36822.805 
  286900    290.24684   -1541.8437    483.95863    242.46655     -846.899    36822.805 
  287000    303.36391   -1532.0846    465.09659    292.13011   -580.48306    36822.805 
  287100    296.12076   -1514.9165    469.85899    281.61014   -1028.0131    36822.805 
  287200    301.88403    -1537.559    492.28899    307.21795   -617.27324    36822.805 
  287300    300.28943   -1523.0935    461.63081    283.88126    3.1251364    36822.805 
  287400    297.96911   -1523.6544    483.95965    295.25376    70.438707    36822.805 
  287500    303.00196   -1522.9735    467.49668    302.01968    310.30249    36822.805 
  287600    290.09225   -1565.6884    495.24853    229.21906   -53.055819    36822.805 
  287700    305.56656   -1570.0363    461.23978    260.18974   -101.10578    36822.805 
  287800    304.94997   -1524.5797    489.58031    331.22445    17.514361    36822.805 
  287900    293.82694   -1543.5734    453.79951    226.61708   -214.29018    36822.805 
  288000    298.31406   -1539.3589    470.51318    267.64823    175.67774    36822.805 
  288100    289.30575    -1517.533    476.57047    255.17281    -184.0319    36822.805 
  288200    301.40728   -1545.2309    461.58321    266.70445   -271.66207    36822.805 
  288300    305.06816   -1554.7822    494.91669    306.88787    128.15594    36822.805 
  288400    303.38954   -1514.6237    477.88122    322.49042   -47.373736    36822.805 
  288500    306.49707   -1536.0506    481.87083    318.97535   -88.021365    36822.805 
  288600    299.48296   -1539.4219    484.08543    286.39442   -111.77937    36822.805 
  288700    305.64507   -1502.9563    471.11638    337.49814    442.53992    36822.805 
  288800    301.09934   -1490.3385    470.08011    328.71408    475.48642    36822.805 
  288900    303.84461    -1538.925    483.73501    306.08168    20.467346    36822.805 
  289000    288.43157   -1546.2208    472.82445    218.82252    133.45316    36822.805 
  289100    292.10547   -1575.1992    495.74691    229.22619   -80.577815    36822.805 
  289200    305.46736   -1580.6772    470.72621     258.5909    195.21223    36822.805 
  289300    288.77366   -1551.5199    475.74868    217.98026   -270.64892    36822.805 
  289400    294.51989   -1541.7284    472.65047    250.41753   -442.19878    36822.805 
  289500    300.31357   -1544.8633    474.09886    274.68767   -63.399793    36822.805 
  289600    290.40811   -1541.2498    465.59387    225.41816    11.809125    36822.805 
  289700    296.57653   -1595.8793    469.00895    201.83925     185.9629    36822.805 
  289800    299.60137   -1578.8982    451.10727    214.47037     794.6873    36822.805 
  289900    293.18152   -1541.4111    471.48212    243.57045    797.41527    36822.805 
  290000    304.94347   -1549.7072    471.60334    288.09091    205.32752    36822.805 
  290100    301.33743    -1532.302     477.8647    295.60182    453.94145    36822.805 
  290200    308.89713   -1540.3672    477.68881    321.22943    571.46255    36822.805 
  290300    309.93471   -1508.6126    476.97315    356.91688    586.71981    36822.805 
  290400    303.30502    -1522.969    469.49764    305.38293    489.69127    36822.805 
  290500     302.5436   -1582.7093    439.08392    211.81754    319.08905    36822.805 
  290600    317.95173   -1580.5038     469.0531     313.0231    684.85029    36822.805 
  290700    310.73173   -1607.6163    449.66262    234.17336    304.42075    36822.805 
  290800    301.29193   -1530.1106    486.13714    305.86187    17.273062    36822.805 
  290900    296.05449   -1536.1294    454.55254    244.79387    567.33514    36822.805 
  291000    298.15549   -1491.4765    471.34425    315.65129    514.09553    36822.805 
  291100    303.55628   -1548.5836    477.11899    288.51532    774.77853    36822.805 
  291200    293.23141   -1555.0985    466.85081    225.47521    462.56288    36822.805 
  291300    290.05042   -1521.4871    478.99141    256.97584   -120.83728    36822.805 
  291400    304.04151    -1518.675    462.21676    305.69556    75.350797    36822.805 
  291500    298.68824   -1526.0928    466.01196    278.08956   -207.98843    36822.805 
  291600    310.80954   -1559.0036    447.17147    280.64363    2.4256454    36822.805 
  291700    308.67024   -1528.7265    451.26187    305.42665   -473.89351    36822.805 
  291800    308.24245   -1501.2129     449.3182    329.08003   -900.50636    36822.805 
  291900    298.37063   -1513.0274    458.92456    282.64454   -926.88202    36822.805 
  292000    295.61677   -1536.8154    466.66268    254.25697   -1349.4311    36822.805 
  292100    305.01352   -1476.1002    454.78899    345.19735   -770.30017    36822.805 
  292200    298.04511   -1516.6601    474.32005    292.94892   -567.71556    36822.805 
  292300    298.35225   -1522.2526    451.04323    265.45569   -502.29471    36822.805 
  292400    292.52245   -1539.7693    447.43882    218.21616   -231.58797    36822.805 
  292500    297.93002    -1543.997    480.38356    271.15997   -222.87761    36822.805 
  292600    306.12536   -1479.7593    484.02359    375.75413     329.4475    36822.805 
  292700    294.41992   -1512.9503    430.77479    236.87215   -36.545214    36822.805 
  292800    304.90096   -1477.5225    485.20116    373.68304    90.987577    36822.805 
  292900    293.29272   -1553.9681    468.38821    228.41772    188.29276    36822.805 
  293000    300.08069   -1532.0271     457.3663    269.74791    866.37483    36822.805 
  293100    302.37266   -1524.5378    444.45779    274.59708    183.71918    36822.805 
  293200    305.53796   -1509.6266    435.17363    294.40515    58.011015    36822.805 
  293300     307.7603   -1539.4874    482.16411    321.49135    515.05025    36822.805 
  293400    295.69701   -1564.0163    462.10929    222.86215    196.60668    36822.805 
  293500    305.71411   -1565.5317    445.86003    249.97571   -39.135114    36822.805 
  293600    305.86465   -1535.6699    474.57341    309.22537    167.65918    36822.805 
  293700    308.84805   -1517.7314    438.11242    304.06888   -199.66397    36822.805 
  293800    299.56526   -1544.3385    452.13649    249.89755   -284.99019    36822.805 
  293900    306.86169   -1528.9018    464.38973    310.27662    605.21047    36822.805 
  294000      308.032    -1540.615    432.69896     272.1158    102.21398    36822.805 
  294100    300.10701   -1539.2595    449.30699    254.57418    399.24435    36822.805 
  294200    303.84099   -1512.7931    452.73588    301.19824    216.46569    36822.805 
  294300    308.25525   -1527.8505    462.00156    315.18312   -268.24657    36822.805 
  294400    296.40568   -1553.1631    456.31475    231.09583   -110.86143    36822.805 
  294500    296.22878   -1509.5772    435.78017     253.3546   -225.54324    36822.805 
  294600    302.40265   -1523.0146    444.07811    275.87497   -114.50974    36822.805 
  294700    303.35721   -1555.5932     444.8582    248.35304   -575.50157    36822.805 
  294800    299.28223   -1540.6839    467.14095     267.2886   -342.53484    36822.805 
  294900    300.22219   -1569.5914    443.58341     219.0347    -121.8532    36822.805 
  295000    305.75457   -1555.0445    432.46749    247.25157    328.90386    36822.805 
  295100    298.91728   -1539.9373    450.86742     250.1266    226.68947    36822.805 
  295200    298.62814   -1561.6059    462.45715    238.75239    215.68936    36822.805 
  295300    294.34303    -1518.553    445.72673     245.8769    267.49463    36822.805 
  295400    288.38088   -1523.2347    457.88729    226.64437    715.23945    36822.805 
  295500    298.19683   -1512.8342    478.22701    301.36158   -151.64107    36822.805 
  295600    301.67818   -1539.9461    448.87842    260.49806    664.89969    36822.805 
  295700    302.36493   -1533.7677    443.94882    264.82359    755.70351    36822.805 
  295800    292.62177   -1540.9371    461.27686    231.33134    698.95198    36822.805 
  295900     297.1829   -1545.0372    457.31953    243.70856    509.36103    36822.805 
  296000    305.36736   -1533.8792    474.48818    308.70285    200.79237    36822.805 
  296100    291.91648   -1541.3812    466.90925    233.35989    751.99811    36822.805 
  296200    301.28106   -1542.3186    442.29819    249.76623    243.02447    36822.805 
  296300    288.03645   -1538.0179    477.63166    230.06245    317.79058    36822.805 
  296400    293.17658   -1541.7929    451.23825    222.92266   -41.967505    36822.805 
  296500    299.28287   -1524.7224    468.97088    285.08283    369.94813    36822.805 
  296600    303.14554   -1520.8992    451.43844      288.679    81.997477    36822.805 
  296700    294.34044   -1543.5102    471.98924    247.17059    304.37894    36822.805 
  296800    304.36459   -1531.7309    452.61321    284.48361    480.43557    36822.805 
  296900    303.75744   -1564.5327    422.27668    218.62516    354.47074    36822.805 
  297000    300.07491   -1565.5551    436.60662    215.43445    81.796103    36822.805 
  297100    293.46393    -1560.753    453.02373    207.03538    320.35157    36822.805 
  297200    292.83317   -1563.3413     471.2934    219.89081   -314.33935    36822.805 
  297300    299.91993   -1536.6852    451.43505    258.43833   -248.01401    36822.805 
  297400    297.53321   -1521.5186    458.10835    269.58544    259.79396    36822.805 
  297500    295.54706   -1537.2617    465.52289    252.35861    500.21695    36822.805 
  297600    288.69078   -1533.7328    461.82068    221.46802    290.81148    36822.805 
  297700    300.02216   -1557.4689    447.71844    234.39608   -69.389395    36822.805 
  297800    311.61301   -1512.4101    468.74056    352.40583    117.52545    36822.805 
  297900     306.5211   -1542.6916    461.39387    291.96512    56.208821    36822.805 
  298000    303.99064   -1501.3038     464.8892    325.51137     561.5019    36822.805 
  298100    298.29723   -1538.1158    444.07915    242.38194    304.34097    36822.805 
  298200     308.3142   -1587.7517    428.55839    222.10285     203.7567    36822.805 
  298300    294.80168   -1588.8725    451.18354    183.06903    -325.7714    36822.805 
  298400    303.37568   -1504.3991    470.37341    325.14517    326.53524    36822.805 
  298500    295.71028    -1507.479    459.48687     276.8365   -151.04193    36822.805 
  298600    306.58775   -1554.5184    456.12689    275.16985   -166.09227    36822.805 
  298700    313.40087    -1505.847    471.96781    370.20603   -259.50015    36822.805 
  298800    294.51732   -1519.6522    454.87847    254.71027   -564.81073    36822.805 
  298900    298.60177   -1502.8929    468.30605    303.19612    -491.3928    36822.805 
  299000    298.43355   -1491.1586    457.63826    303.50901   -837.72166    36822.805 
  299100    301.56187   -1524.4573    473.03778    299.62522   -389.02687    36822.805 
  299200    306.99809   -1504.3293    462.99474    334.06519   -238.66322    36822.805 
  299300    299.94002   -1481.9265    463.15804    325.01006   -339.30989    36822.805 
  299400    298.85311   -1450.0974    474.47937    363.29098    -24.29822    36822.805 
  299500    299.74449   -1507.0554    451.25166     287.0988    29.872485    36822.805 
  299600    295.57912   -1467.8341    470.74479    327.15172     128.3233    36822.805 
  299700    299.96259   -1461.9602    478.74487    360.66433    198.42207    36822.805 
  299800    288.66694   -1472.3949    450.16675    271.04515    -454.9925    36822.805 
  299900    301.47566   -1479.8821    499.48223     370.2586    37.687118    36822.805 
  300000    306.77818   -1518.2157     475.4382    331.63708   -258.58322    36822.805 
  300100    308.84369   -1502.4136    459.74676    341.00151    77.887834    36822.805 
  300200    304.64263   -1511.0656    490.06462    343.84598   -233.07379    36822.805 
  300300    294.43494   -1520.1796    447.33701    246.27229   -340.11969    36822.805 
  300400    306.19939   -1513.8474    500.93739    358.91146   -210.07848    36822.805 
  300500    292.39487   -1523.8306    479.32666    265.47113   -625.72888    36822.805 
  300600    298.68906   -1515.8074    449.99863    272.36526   -625.74878    36822.805 
  300700    295.52889   -1507.8064    473.42847    289.63806   -281.68471    36822.805 
  300800    303.25566   -1551.5877     497.9044    304.94982   -129.58764    36822.805 
  300900    303.66894   -1536.7844    453.83255    277.53285    168.97121    36822.805 
  301000    298.97634   -1531.4341    464.89907    272.92604    85.597766    36822.805 
  301100    302.54128    -1548.888    472.47143    279.01604    -104.3012    36822.805 
  301200    298.28726   -1540.4785    468.29754    264.19302   -404.26363    36822.805 
  301300    302.68667   -1496.2021    454.35705    314.23896    -404.9988    36822.805 
  301400    296.42747   -1505.8346    445.38001     267.5872   -1136.0813    36822.805 
  301500    301.63897    -1505.454    474.59189    320.52794   -604.80809    36822.805 
  301600    295.14868   -1558.5976    474.01743    237.73243   -803.52892    36822.805 
  301700    299.75875   -1527.2238    439.15883    254.90149   -21.471642    36822.805 
  301800    295.35794   -1490.4333    467.04194    299.85875   -148.56353    36822.805 
  301900    301.29589   -1536.9855    459.45195    272.31944   -15.892885    36822.805 
  302000    309.47449   -1488.8021    485.45537    383.14772    479.24354    36822.805 
  302100    300.87211   -1480.2343     463.8856    331.60575    197.49548    36822.805 
  302200    302.07322   -1461.2811    464.89367     356.9482    11.350096    36822.805 
  302300    294.55118   -1475.6027    456.50468    300.53767   -270.78991    36822.805 
  302400    298.56519   -1453.2942    494.37998    378.70492    93.938077    36822.805 
  302500    301.93615   -1468.6139    455.92373    340.03139    195.04525    36822.805 
  302600    299.17418   -1497.0749    462.03318    305.30571    218.46249    36822.805 
  302700    293.70484   -1474.9127    474.32276      315.254   -24.643578    36822.805 
  302800    298.45296    -1520.914    469.69204     285.8943   -174.40158    36822.805 
  302900    307.47397   -1505.5209    457.07123    329.08212   -357.22266    36822.805 
  303000     300.2338    -1468.593     475.9081     352.4098    398.16843    36822.805 
  303100    306.67042   -1501.0638     464.9054    337.77333    384.60749    36822.805 
  303200    294.36226   -1468.3292    461.58912    312.04917    962.25209    36822.805 
  303300    302.45955   -1477.1248    477.67427    355.61591    591.18054    36822.805 
  303400    293.32991   -1495.2921    465.48385    284.35598    726.57622    36822.805 
  303500    301.65053   -1507.5417    460.26226    304.16243    666.14884    36822.805 
  303600    301.75407   -1512.9222    477.25001    316.23359    303.52247    36822.805 
  303700    295.37461   -1531.8295     449.4638    240.95904    553.74914    36822.805 
  303800    297.57465   -1517.9928    472.62324    287.81171   -383.61729    36822.805 
  303900    296.37133   -1530.0891    446.41051    244.11161     386.7225    36822.805 
  304000    300.13939   -1523.6018    450.29854    271.36844    128.83325    36822.805 
  304100    299.00554   -1507.6587    472.13308    304.06633    -492.6475    36822.805 
  304200     305.6183   -1529.1339    480.57862    320.66281   -207.69859    36822.805 
  304300    305.52322    -1497.102    478.63851    350.32867   -359.18372    36822.805 
  304400    297.09405    -1477.171    447.03007    300.88719   -181.62458    36822.805 
  304500    293.75438   -1487.7837    478.99649    307.27865    250.86365    36822.805 
  304600    300.30925   -1486.0833    474.99624     334.3457    345.76411    36822.805 
  304700    300.17179   -1509.8854    456.62227    291.55375   -55.374836    36822.805 
  304800    296.93022   -1529.2114    461.06546    262.14819    252.74923    36822.805 
  304900    290.95187   -1497.1009    474.58671      280.996   -199.48622    36822.805 
  305000    299.15012   -1525.5337    471.65226     286.3582    23.570704    36822.805 
  305100    309.17547   -1542.3883    461.53727    304.30379    -320.5111    36822.805 
  305200    283.28543   -1492.5943    466.19208    242.76109   -500.50082    36822.805 
  305300    296.62625   -1467.2842    509.02006    370.66823   -620.56755    36822.805 
  305400    296.84071   -1508.8407    456.11928    277.17172   -575.14349    36822.805 
  305500    305.54423    -1495.725    479.15742    352.31868   -304.92109    36822.805 
  305600    295.15505   -1495.5714    478.82283    305.59254   -111.70245    36822.805 
  305700    291.03675   -1468.2305    474.91627    310.57623   -704.91791    36822.805 
  305800    294.75801   -1474.5082    478.20101    324.25514   -940.65787    36822.805 
  305900     302.9433   -1468.6435    485.46221    374.05244   -488.36214    36822.805 
  306000    284.91519   -1515.2511    454.73075    215.94464   -103.31954    36822.805 
  306100    299.45829   -1525.1706    462.58577    279.03551   -508.36497    36822.805 
  306200    295.57848   -1504.1953    476.36845    296.41134    294.24318    36822.805 
  306300    301.09221   -1490.3395    461.71317    320.31418   -91.943458    36822.805 
  306400    300.52398   -1487.7763    484.57011    343.18859   -111.51765    36822.805 
  306500    302.79985   -1524.3048    446.89671    279.18292   -588.01219    36822.805 
  306600    297.51851   -1529.6246    474.83905    278.14427   -85.859166    36822.805 
  306700    292.71573   -1536.1786    467.01233    242.24634   -60.515821    36822.805 
  306800    306.33876   -1596.6124    452.91047    228.74395    29.003023    36822.805 
  306900    304.49402   -1585.7211    461.66793    240.12801   -322.52211    36822.805 
  307000    299.77533   -1576.5705    495.70719     262.1774   -58.724596    36822.805 
  307100    298.38215   -1581.7209    462.86105    217.93916   -99.148607    36822.805 
  307200    289.87415   -1525.8827    458.12803    230.92724    -15.01688    36822.805 
  307300    292.25647   -1559.1874    445.81212    195.97974    -280.5833    36822.805 
  307400    306.12034    -1510.851    475.32868    335.94503     294.0068    36822.805 
  307500    299.03039   -1515.1267    474.10991    298.68645    561.27146    36822.805 
  307600    296.82174   -1540.3034    453.69232    243.19707    687.92656    36822.805 
  307700    301.72712   -1529.4348    481.33582    303.68601    400.80434    36822.805 
  307800    291.48877   -1538.2117    487.95051    255.65436    858.59435    36822.805 
  307900    305.52147   -1551.6353    485.17671     302.3257    160.22252    36822.805 
  308000    296.07717   -1549.6744    466.57043    243.36836    -239.6154    36822.805 
  308100    301.49749   -1520.5569    455.17456    285.37387    146.35779    36822.805 
  308200    291.03699   -1526.1792    502.92711    280.63942    342.92446    36822.805 
  308300    301.89246   -1527.7944    456.34722    281.07856    42.948193    36822.805 
  308400    305.87275    -1562.034    471.86696    280.19108   -40.469199    36822.805 
  308500     293.5904   -1505.9869    477.73441    287.07873    294.43265    36822.805 
  308600    302.60383    -1553.358     462.5608    264.91561    175.64729    36822.805 
  308700    292.03611    -1566.445    447.69875    189.62156   -24.018682    36822.805 
  308800    295.45531   -1535.4353    488.86638    277.11741   -244.86908    36822.805 
  308900    303.46708   -1514.9266    474.17473    318.82846   -520.73591    36822.805 
  309000    301.03483   -1546.9305    482.02006    283.77298   -227.85904    36822.805 
  309100    302.72228   -1504.9897    476.50497    327.75879   -461.76855    36822.805 
  309200    309.62952   -1523.4128    477.11954    340.89579    327.43585    36822.805 
  309300    310.82488   -1473.9746    451.20309    369.77287   -505.78831    36822.805 
  309400    302.22643   -1508.5192    465.97045     311.4733    86.555972    36822.805 
  309500    304.19683   -1548.6232    484.42271    298.64917   -589.03618    36822.805 
  309600    290.59116   -1562.8038    457.08482    196.17523   -116.43059    36822.805 
  309700    300.42867   -1555.3111     455.4223    246.07893   -364.50314    36822.805 
  309800    310.32749   -1549.4573    454.00566    294.86436    527.46173    36822.805 
  309900    289.58606   -1533.5408    477.40338    241.25377    428.39849    36822.805 
  310000     304.3471   -1486.9381    475.08906     351.6739     343.0603    36822.805 
  310100    295.51561   -1514.9412    464.26265    273.27796   -24.703774    36822.805 
  310200    291.40539   -1537.0836      459.375    227.83343    26.648271    36822.805 
  310300     302.3067   -1534.8236    482.22845     301.7865    208.73064    36822.805 
  310400    313.41618   -1562.2582    435.27452    277.17014    212.59057    36822.805 
  310500    303.61719   -1546.1293    478.98615    293.10967    516.37255    36822.805 
  310600    298.47132   -1561.3426    473.30867    249.16463    355.70698    36822.805 
  310700    293.18786   -1557.3471    481.29533    237.47599    247.75246    36822.805 
  310800    304.71532   -1515.1384    463.81417    313.84836   -424.23004    36822.805 
  310900    293.66424   -1547.0657    467.62423     236.2206   -427.92797    36822.805 
  311000    300.57111   -1553.1958     458.0712    251.48133   -150.01337    36822.805 
  311100    302.73348   -1528.7848    454.52847    282.03734    299.64537    36822.805 
  311200    304.87358   -1528.2643    473.64917    311.26656     306.1872    36822.805 
  311300    306.21194   -1506.4654    464.15311    329.56541    448.46313    36822.805 
  311400    317.05675   -1519.7802    473.60617    374.29011    286.88023    36822.805 
  311500    298.05158   -1520.7702    455.09149    269.63928    390.01133    36822.805 
  311600    305.68216   -1518.5027    500.83441    351.83588      303.202    36822.805 
  311700     303.4179   -1520.4033    487.57551    326.53222    588.85127    36822.805 
  311800    300.23751   -1549.7454    446.18954    241.55549    468.29647    36822.805 
  311900    307.72767   -1588.0369    443.25159     233.8831    660.35634    36822.805 
  312000    300.81362   -1543.1327    459.09552    263.65517    368.01832    36822.805 
  312100    306.53573   -1514.5676    458.26515    317.02592    11.120631    36822.805 
  312200    304.98463   -1520.8754    450.89034     296.3941    588.53272    36822.805 
  312300    307.52097    -1575.141    444.61194    247.21334    386.16749    36822.805 
  312400    299.73582   -1526.3729     466.2898    282.78058    43.941383    36822.805 
  312500    301.18987   -1504.0015    471.15055    316.52714    202.77937    36822.805 
  312600    304.95014   -1510.1764    478.24217    334.29047    126.14455    36822.805 
  312700    293.89358   -1517.9349    444.84073    243.59531   -30.941703    36822.805 
  312800    301.60545   -1550.1314    480.76425    281.87274    14.347271    36822.805 
  312900    298.56593   -1568.7914    449.77545     218.6065    261.89401    36822.805 
  313000    295.95146   -1551.3042    451.52445    226.12941    213.14099    36822.805 
  313100    302.98479   -1545.7965    459.52852    271.15165   -34.273851    36822.805 
  313200    303.10905   -1519.8778    488.21588    326.31439    192.94637    36822.805 
  313300    297.59651   -1489.2362    462.53885    306.58193   -215.18487    36822.805 
  313400    304.52087   -1517.9201    478.20346    324.58484   -12.766701    36822.805 
  313500    290.98801   -1527.2448    466.66628    243.09362   -98.337772    36822.805 
  313600    300.87107   -1493.0402    455.43492    310.34456    29.571816    36822.805 
  313700    295.08882   -1514.2806     462.7636    270.52738    154.31791    36822.805 
  313800    297.00626   -1503.2342    474.61691    302.01759   -74.300367    36822.805 
  313900    298.73214   -1533.5544    451.46281    256.27542    315.52249    36822.805 
  314000    310.50089   -1521.4687    467.91666     337.5408    733.50494    36822.805 
  314100      291.146   -1466.8838    450.80903    288.30514    436.57732    36822.805 
  314200    310.08931   -1498.1699    476.01879    367.09788      953.786    36822.805 
  314300    313.21674   -1535.2494    457.99895    326.00994    542.13124    36822.805 
  314400     302.4633   -1544.6468    459.76445    270.20092    35.969782    36822.805 
  314500    296.60663   -1568.1204    451.63814    212.36219    174.59246    36822.805 
  314600     309.5281   -1526.4541    465.57338    325.85387   -282.98025    36822.805 
  314700    290.38664   -1477.3087    466.63254    290.30172    -76.82759    36822.805 
  314800    302.17542   -1523.9878    448.81096    278.61665   -715.94452    36822.805 
  314900    303.42319   -1495.8913    475.15736     338.6497   -535.59777    36822.805 
  315000    289.62517    -1506.979    464.26784    254.85525   -1023.1897    36822.805 
  315100    295.79206   -1449.1267    475.05606     351.1244   -616.35872    36822.805 
  315200    301.75792   -1489.0684    482.07538    344.92999   -835.70913    36822.805 
  315300    309.65084   -1528.9318    463.57128    321.92401   -187.95807    36822.805 
  315400    290.63585   -1509.1429    472.46261    265.41415   -40.954574    36822.805 
  315500    305.67388   -1483.9902    445.77066     331.2476   -213.48101    36822.805 
  315600    296.44022   -1522.4287    463.61194     269.2821     142.5614    36822.805 
  315700    298.72557   -1512.8941    453.48914    278.93261    19.124483    36822.805 
  315800    298.71892   -1539.2079    457.12773    256.22761   -130.08574    36822.805 
  315900    309.92812   -1538.9466    468.43143    318.01158    893.43828    36822.805 
  316000    308.89143   -1546.5694    451.45995    288.77278    655.19817    36822.805 
  316100    297.09918   -1574.6757    443.22043    199.59583    795.21788    36822.805 
  316200    296.71403   -1493.6024     462.8434     298.5666    394.50441    36822.805 
  316300    288.31575   -1504.0858    460.00435    247.61849     574.1197    36822.805 
  316400    302.61136   -1487.3602    476.90212    345.28848   -143.72312    36822.805 
  316500    303.45003   -1521.2863    474.21039    312.42808   -136.28786    36822.805 
  316600    296.64176   -1516.3765    418.73326    231.35854   -387.92793    36822.805 
  316700    307.10934   -1532.4384      455.073    298.53283   -670.67235    36822.805 
  316800    293.93466   -1487.6836    477.67281     306.8628   -136.82513    36822.805 
  316900    293.40643    -1455.415    467.85438    326.94637   -441.29937    36822.805 
  317000    301.00316   -1547.8304    468.43876    269.14986   -106.16603    36822.805 
  317100     303.8426   -1560.6877    466.61849    267.19344    78.110896    36822.805 
  317200    303.37103   -1529.6734    479.79789    309.27454    676.40894    36822.805 
  317300    296.74626   -1556.1407    469.07241    242.40172    115.85419    36822.805 
  317400    310.17736   -1530.1023    469.20226    328.74338     770.4861    36822.805 
  317500    295.57842   -1525.7911    440.32516    238.77192   -189.86128    36822.805 
  317600    310.85288   -1544.2226    449.56538    298.01266    422.74945    36822.805 
  317700    290.34357   -1540.8554    471.44905    231.37858    209.04424    36822.805 
  317800    292.55171   -1571.0515    442.72468    182.35093   -228.17655    36822.805 
  317900    303.58048   -1566.6009    455.44716    248.93467    807.24854    36822.805 
  318000    298.61353   -1536.7178    460.72786    261.84571    546.39294    36822.805 
  318100    294.95593    -1569.927    456.20761    207.72963    376.29466    36822.805 
  318200    302.81768   -1530.9312    453.34296    279.08269    373.30449    36822.805 
  318300    295.60833   -1551.0456    458.19885    231.52513   -269.46417    36822.805 
  318400    294.18983   -1529.9882    437.84401    225.87261   -524.27996    36822.805 
  318500    300.43673   -1506.5477    463.51165    302.96783   -185.41342    36822.805 
  318600    300.42612   -1494.5359    453.10709    304.52756   -695.00917    36822.805 
  318700    300.64393    -1492.642     471.4565    325.74665   -347.65635    36822.805 
  318800    299.24651   -1508.4791    473.07933    305.27176   -168.12859    36822.805 
  318900    303.75722   -1465.8098    457.18018    352.25062   -766.57159    36822.805 
  319000    261.51129   -1499.5521    470.41554    142.47524   -1010.5428    36822.805 
  319100     300.6909   -1538.2756    456.79965    265.66665   -442.31944    36822.805 
  319200    292.59113   -1529.4024    463.89726    245.34924   -588.01307    36822.805 
  319300    291.72095   -1487.8372    447.39989    266.51848   -227.07078    36822.805 
  319400    307.90472    -1509.742     450.9112    320.63091   -611.86318    36822.805 
  319500    298.18393   -1525.0422    463.84738    274.71618   -390.35801    36822.805 
  319600    309.65665    -1554.258    461.02746    294.08002    209.04557    36822.805 
  319700    294.58034   -1563.2614    468.66979    225.17468    68.452767    36822.805 
  319800    294.02603   -1567.8463    483.85419    233.29079    582.81261    36822.805 
  319900    286.43244   -1534.5505    469.33365    218.04564    689.43612    36822.805 
  320000    295.47633    -1590.848     484.0498    216.98233    392.33644    36822.805 
  320100    287.26589   -1539.1258    484.50723    232.37786   -140.18342    36822.805 
  320200    290.10089   -1557.6604    451.49035     193.5276    763.84779    36822.805 
  320300    302.73762    -1561.252    456.31267    251.37294    516.15608    36822.805 
  320400     301.1701   -1607.9855    461.51307    202.81703    713.22098    36822.805 
  320500    310.83059   -1613.3077    474.27857    253.54088    1250.3638    36822.805 
  320600    298.51462   -1599.0967    449.45003    187.74586     956.0282    36822.805 
  320700    305.93648   -1594.8239     477.9101    253.72984    670.84729    36822.805 
  320800    306.25049    -1573.062    477.31541     276.3038    426.50618    36822.805 
  320900    295.35343   -1570.5181    436.72697    189.43882    208.40866    36822.805 
  321000    292.60567   -1583.1249     460.5614    188.35603    303.55507    36822.805 
  321100    303.16746   -1573.3265    469.56826    254.47968    354.87717    36822.805 
  321200    301.91803   -1563.5312    458.65171    247.76082     298.3489    36822.805 
  321300    298.39011   -1520.1307    487.85136    304.55537   -168.47235    36822.805 
  321400    296.79683   -1520.0796    459.42388    269.04085   -40.394668    36822.805 
  321500    299.85345   -1538.7537      453.527    258.16396    298.16222    36822.805 
  321600    297.78743   -1559.9377    482.41369    256.61059    45.708932    36822.805 
  321700    309.30658   -1526.0488    454.33813    314.03148   -231.06501    36822.805 
  321800    296.51441   -1555.9561    489.42777    261.90299   -705.74823    36822.805 
  321900    297.09968   -1544.3267    477.13941    263.86609   -458.26985    36822.805 
  322000    309.84524   -1553.9189    462.43406    296.67065   -120.42029    36822.805 
  322100    300.41453   -1509.7357    491.04427    327.21303    674.91659    36822.805 
  322200    290.24871    -1530.379    453.13779    223.11872    544.98736    36822.805 
  322300     292.6728   -1555.0073    462.57397    218.78694    252.92987    36822.805 
  322400    307.94247   -1527.6521    494.69008    346.66872   -24.965509    36822.805 
  322500    293.45058   -1477.4543    456.00746    293.25799    65.070366    36822.805 
  322600    307.01008   -1481.6331    486.04497    379.86538     228.8083    36822.805 
  322700    307.56132   -1485.6354    499.29708    391.58486    167.78368    36822.805 
  322800    298.53476    -1483.068    469.61813    324.03288    538.90512    36822.805 
  322900    308.85393   -1457.2385    472.46902    398.94472      248.099    36822.805 
  323000    304.43214   -1479.2672    471.18274    355.81945    125.87173    36822.805 
  323100    293.77038   -1480.9353    475.27555    310.47779   -75.271425    36822.805 
  323200    308.80499   -1524.6057    459.64588    318.53518   -437.18708    36822.805 
  323300    291.25544   -1497.5467    474.85945    282.18301   -189.68016    36822.805 
  323400    302.57756   -1516.7508    464.14413    302.98841   -506.32581    36822.805 
  323500    303.58558   -1489.9748    498.82808    368.96447   -257.71364    36822.805 
  323600     296.3462   -1498.8229    469.80244     298.6572    168.72652    36822.805 
  323700    301.69235   -1508.8553    455.22598    297.99997    264.19505    36822.805 
  323800    302.18517   -1524.1383    438.85172    268.55062   -270.62262    36822.805 
  323900    304.33224   -1484.0416    447.47696    326.89167   -37.143537    36822.805 
  324000     298.9808   -1476.2721    470.26782    333.47675   -204.05476    36822.805 
  324100    295.68839   -1485.2136    485.65451    325.17141    -301.9068    36822.805 
  324200    293.58138   -1490.3949    466.23205     291.1279   -225.60038    36822.805 
  324300     290.0844   -1488.8842    503.52541      314.265   -425.21532    36822.805 
  324400    304.70617   -1523.4321    468.34257    310.04212   -621.90673    36822.805 
  324500    301.41026   -1510.5681    444.36944    284.16675   -103.50421    36822.805 
  324600    301.34205   -1491.0407    452.41089    311.43001   -179.77083    36822.805 
  324700    315.77962   -1524.9359    468.80394    358.61051    87.626473    36822.805 
  324800    307.86183   -1523.9225    443.86778    299.21475    225.85535    36822.805 
  324900    292.86896   -1540.8935    458.37929    229.58482    177.49682    36822.805 
  325000     301.8305    -1543.717    471.74987    280.28103    462.96845    36822.805 
  325100    303.32136   -1543.0734    449.11411     264.9682    524.45591    36822.805 
  325200    299.26718   -1531.5545    446.94479    256.15439    281.78638    36822.805 
  325300    295.77898   -1512.5913    469.08033    281.62547    672.90864    36822.805 
  325400    289.35427   -1532.4917    470.35155    234.21254    413.05135    36822.805 
  325500      298.201    -1557.661    450.29119     228.6176    289.56868    36822.805 
  325600     298.3024   -1574.8131    454.42412    216.05279    948.79493    36822.805 
  325700    296.75526   -1583.6649    455.46686    201.31227    814.75876    36822.805 
  325800    302.36162   -1557.5835    456.49455     253.5387    901.36157    36822.805 
  325900    306.20245   -1583.6498    468.70694    256.89234    372.80682    36822.805 
  326000    298.36761   -1571.3336     467.5933     232.9936    396.42123    36822.805 
  326100    295.65613   -1584.0496    423.64755    164.18395    414.85412    36822.805 
  326200    302.95496   -1534.7494    427.56459    250.10112    128.07282    36822.805 
  326300    300.25396   -1516.5955     468.9711    297.56062    168.42049    36822.805 
  326400    289.32259    -1532.867    472.04287    235.38662    247.00648    36822.805 
  326500    290.44497   -1530.8021    499.93794    270.37511   -95.493423    36822.805 
  326600    305.04039    -1520.261    491.88128    338.24933    -184.9888    36822.805 
  326700    311.41029   -1558.9499    474.41727    310.63451    167.26185    36822.805 
  326800    301.14003   -1507.1836    465.72108    307.69225    349.80573    36822.805 
  326900    304.59206   -1496.3671    466.83218    335.08543     371.8547    36822.805 
  327000    297.58178   -1540.5405    450.29162    242.96438    403.31489    36822.805 
  327100    305.76836   -1509.2684    471.14744    331.76941     467.7248    36822.805 
  327200    295.39772   -1524.4415    455.79992    254.78675    610.97422    36822.805 
  327300    299.28793    -1550.124    443.89874    234.63182    703.32105    36822.805 
  327400    307.07044   -1556.4428    469.99904    289.28014    584.71879    36822.805 
  327500    295.47033   -1556.8998    471.03856    237.89234    316.12856    36822.805 
  327600    286.57014   -1534.0914    469.39372     219.1817   -247.21094    36822.805 
  327700    301.01623   -1530.0561    489.97939    308.52336   -445.59865    36822.805 
  327800    287.88357   -1552.4054    471.23341    208.59176   -640.39364    36822.805 
  327900    298.37747   -1543.2422     446.2527    239.78858    285.66744    36822.805 
  328000    301.42667   -1563.7448     443.8547    230.54884    405.15517    36822.805 
  328100    302.22516   -1555.5426    439.10547    237.57916    127.16277    36822.805 
  328200    311.42185     -1533.37    463.06615     324.9151     15.05241    36822.805 
  328300    296.55294   -1487.8136    463.91581     304.7061    80.011808    36822.805 
  328400    314.46022   -1529.5445    485.97199    365.25887    -321.1192    36822.805 
  328500    309.98938   -1511.9246    459.21733    336.09396     40.42449    36822.805 
  328600    311.24845   -1527.5418    466.08068    332.98101   -437.88539    36822.805 
  328700    293.79876   -1541.3011    458.86299    233.82663   -646.59629    36822.805 
  328800    301.62281   -1540.0433    460.22195    271.49633    78.451402    36822.805 
  328900    291.51935   -1553.6878    457.18544    209.55026     238.5435    36822.805 
  329000    312.52255    -1540.398    470.55167    330.30391   -478.41307    36822.805 
  329100     297.5742   -1536.9173    466.16551    262.42752   -511.30192    36822.805 
  329200    296.20975   -1527.6115    457.58211    257.03698   -926.48362    36822.805 
  329300    299.45662   -1529.9084    458.61504    270.31945   -850.82472    36822.805 
  329400    310.07218   -1546.4394    462.62025     305.3531   -649.96901    36822.805 
  329500    309.39685   -1519.4653    452.90926    319.59057   -220.37959    36822.805 
  329600    301.01216   -1482.1646    468.46931    334.88656   -613.31127    36822.805 
  329700    298.70918   -1532.1559    461.20667    267.31498   -148.60349    36822.805 
  329800     302.1319   -1522.6163    468.05733    299.03956   -240.01864    36822.805 
  329900      300.137   -1519.5098    468.63626    293.78745     335.9786    36822.805 
  330000    304.11158   -1569.4087    482.77715    275.83626    367.71429    36822.805 
  330100    285.93175   -1571.4089    422.25536    131.86578   -76.214094    36822.805 
  330200    303.00537   -1551.6076     453.3903     259.2945   -266.94702    36822.805 
  330300    299.34889   -1548.5256    485.15144    277.75603   -37.276704    36822.805 
  330400    300.39418   -1572.4315    457.59917    230.98087   -670.23862    36822.805 
  330500    294.91435    -1566.985    457.33803     211.6158    -142.0933    36822.805 
  330600    299.57714   -1577.8069    470.85119    235.19705    162.40468    36822.805 
  330700    308.27879   -1590.0493    443.13969    234.22787    373.26854    36822.805 
  330800    306.46828   -1581.2478    443.90333    235.68166   -73.322655    36822.805 
  330900    304.34647   -1559.1605    474.88441    279.24401   -134.32546    36822.805 
  331000    291.52262    -1555.726    467.51117    217.85245    -123.2619    36822.805 
  331100    305.56112   -1515.3955    476.93767    330.50412    29.156861    36822.805 
  331200    302.84736    -1574.079    455.69569    238.42052   -168.61243    36822.805 
  331300    294.49642   -1543.6558    470.51323    246.24784    362.60654    36822.805 
  331400    304.44822   -1523.2577    496.34652    337.06475   -76.434766    36822.805 
  331500    310.49487    -1503.379    483.31235    370.99929    285.69539    36822.805 
  331600    307.77766   -1458.9632    495.75982    415.68899    126.64992    36822.805 
  331700    300.99905   -1465.2607    471.11911    354.38155    109.04888    36822.805 
  331800    308.50491   -1526.1966    481.67936    337.63339    -217.5356    36822.805 
  331900    300.75811   -1560.5368    451.14736    238.05431   -328.59652    36822.805 
  332000    294.04834   -1522.8106    468.46223    263.03456    66.132493    36822.805 
  332100    289.77425   -1498.6553    479.35996    278.93891    141.61745    36822.805 
  332200      295.112   -1543.7645    479.34303    257.72673   -936.00858    36822.805 
  332300    309.04709   -1563.5178    470.49208    291.55394    24.543888    36822.805 
  332400    307.20768   -1514.4088    447.76697    309.69692    269.00708    36822.805 
  332500    301.65916   -1499.0542    486.06009    338.48648   -29.501942    36822.805 
  332600    295.59613   -1481.1502    466.21104    309.37802     545.9722    36822.805 
  332700    292.58158    -1531.246    454.92056    234.48617   -306.01199    36822.805 
  332800    295.71086     -1504.88    492.34539    312.29666    56.325216    36822.805 
  332900    298.76549   -1492.4209    471.43907    317.53462   -407.25141    36822.805 
  333000    294.46506   -1476.2776    452.36141     295.3337   -1134.4256    36822.805 
  333100    312.90901   -1499.2092    479.96855      382.641   -460.57298    36822.805 
  333200    299.72445   -1463.9603    442.01484    320.86723    114.66213    36822.805 
  333300    307.09034   -1530.9992     475.1196    319.93349     172.7079    36822.805 
  333400     300.7313   -1532.9784    484.01718     298.3624    867.55006    36822.805 
  333500    290.07638   -1472.8142    482.00259    308.77631   -458.07656    36822.805 
  333600    293.51628   -1514.9633    433.29995    233.33577   -68.114453    36822.805 
  333700    304.17847   -1525.0104    456.91323    294.67031    144.06273    36822.805 
  333800    298.08251   -1532.3166     459.4448    262.58483     157.2368    36822.805 
  333900    297.10381   -1544.9441    446.29122    232.41898    36.425831    36822.805 
  334000    307.87922   -1536.5537    492.34514    335.13881    58.697511    36822.805 
  334100    295.67449   -1483.5514    461.92796    303.04486    283.62461    36822.805 
  334200    309.38314   -1489.9414    468.51145    364.65527    1.8071622    36822.805 
  334300    291.40982    -1486.496    478.61569     297.6816    391.98164    36822.805 
  334400    300.31917   -1474.5606    456.33582    327.25234    312.43513    36822.805 
  334500    303.94436   -1531.1824    471.35379    301.88999    605.23344    36822.805 
  334600    294.77752   -1553.1295    486.68726    254.20751    908.56519    36822.805 
  334700    295.37113   -1591.4395      458.428    190.29774    139.91671    36822.805 
  334800    296.95683   -1584.9576    446.87421    192.33001   -180.90749    36822.805 
  334900    285.93853   -1522.6365    454.04313    212.45626    9.7792742    36822.805 
  335000     301.8984   -1528.4165    473.84821    297.98406   -239.75654    36822.805 
  335100    296.79641   -1521.5893    486.14675    294.25213    84.946981    36822.805 
  335200    295.76741   -1519.1708    461.19017    267.10392   -326.71342    36822.805 
  335300    300.54158    -1499.858    469.07378     315.6894    414.88286    36822.805 
  335400    294.36527   -1527.0553    464.05809    255.80552   -289.22395    36822.805 
  335500    307.89528   -1575.2933     446.3293    250.45538   -72.045981    36822.805 
  335600    295.34875   -1580.7755    480.81185    223.24525   -112.56647    36822.805 
  335700    306.70407   -1540.0432    487.26006    321.29943    57.040492    36822.805 
  335800    290.92882   -1570.7814    445.23431    177.85986   -817.82691    36822.805 
  335900     301.3884   -1581.3458    455.93828    224.85999    38.610825    36822.805 
  336000    307.20205   -1539.5774    458.28027    295.01641    119.96906    36822.805 
  336100    297.69148   -1559.7799    429.85948    203.78433   -299.37006    36822.805 
  336200    303.62458   -1553.2822    467.62956    274.63325    598.81774    36822.805 
  336300    304.49314   -1493.3485    464.47519    335.30397    209.03886    36822.805 
  336400    297.57217   -1514.7751    435.63074     254.0258   -469.14623    36822.805 
  336500    308.32289   -1522.2864    441.28583     300.3345     117.3542    36822.805 
  336600    298.45491   -1551.4593    438.77362    224.43936   -140.49872    36822.805 
  336700    297.71503   -1556.4104    441.78142    219.18122   -631.26499    36822.805 
  336800    299.58535   -1525.2239    479.10627    296.07196   -820.04488    36822.805 
  336900    300.67146   -1504.7509    436.75019    279.05478    -616.2324    36822.805 
  337000    293.82182   -1499.2117     463.2885    280.44481   -756.83143    36822.805 
  337100    304.63368    -1552.776    466.73895    278.76982   -529.10732    36822.805 
  337200    303.57672   -1523.8077    450.22785     286.4917   -521.97202    36822.805 
  337300    304.86432   -1520.5912    473.63992    318.88892   -87.143526    36822.805 
  337400    313.38639   -1511.1755    443.08659    335.93145   -614.42378    36822.805 
  337500    301.39611   -1521.9366    446.74472    275.11017   -487.54653    36822.805 
  337600    299.56072   -1562.4066    459.34671    239.01935   -398.70955    36822.805 
  337700    288.02961   -1585.2021     437.5316     142.7475   -419.61036    36822.805 
  337800    307.29032   -1557.9785    462.88014    281.61071   -471.01648    36822.805 
  337900    307.03884   -1526.0763    423.47169     272.9777   -80.528721    36822.805 
  338000    306.98708   -1536.4592    472.32798    311.21926    565.76038    36822.805 
  338100    300.77637   -1528.9223    438.10474    256.70795    351.35953    36822.805 
  338200    309.30381   -1496.3281    460.82933    350.23099     245.8805    36822.805 
  338300    298.51172   -1469.2385    481.71273    349.85379    310.31003    36822.805 
  338400     296.6293   -1450.8467    461.63989    339.73921    20.355268    36822.805 
  338500    295.23994   -1464.5358    460.89504    319.08066   -416.39947    36822.805 
  338600    310.26254   -1475.6151    435.17132    349.58123   -84.642741    36822.805 
  338700    302.51947   -1461.1874     478.6311    372.77859   -510.56376    36822.805 
  338800    297.24516   -1480.8892    470.84239    321.65836   -569.37035    36822.805 
  338900    292.76798   -1448.1353    467.65839    331.16973    271.56267    36822.805 
  339000    299.99179    -1457.221    477.31497    364.10442   -51.809286    36822.805 
  339100    298.85055   -1484.0441    462.64518    317.49862   -535.96991    36822.805 
  339200    298.30571   -1481.1663    449.04532    304.33555    2.0426028    36822.805 
  339300    303.31692   -1522.0896    482.48048     319.2985    127.37034    36822.805 
  339400     303.7548   -1489.5708    468.58294    339.88144    87.127804    36822.805 
  339500    301.23434    -1503.855    463.70268    309.42502    1.7722294    36822.805 
  339600    296.86912   -1505.9687    485.99794    310.04964    139.70372    36822.805 
  339700    312.74132   -1523.7968    456.28007    333.61361    52.111005    36822.805 
  339800    307.55214    -1472.985     473.1974    378.09447    421.98286    36822.805 
  339900    302.74173   -1494.1002    483.39895    345.62942    390.94055    36822.805 
  340000     309.0955    -1481.329    472.62288    376.09037    568.35467    36822.805 
  340100    303.37978   -1491.6852    475.95957     343.4635    273.10701    36822.805 
  340200    301.16604   -1468.3542    466.08238    346.99953    199.42313    36822.805 
  340300    303.39276    -1499.506    472.28984    332.03118    94.240813    36822.805 
  340400    305.12336   -1458.4969    454.87198    363.37581   -557.19473    36822.805 
  340500    304.29341   -1475.1401    465.13136    353.27372   -338.88196    36822.805 
  340600    296.90903   -1499.1441    445.13499    276.19004    487.88891    36822.805 
  340700    305.19486    -1514.951    462.55448    314.92452    479.87299    36822.805 
  340800    300.08982   -1469.6223    471.27032     346.0977    312.19399    36822.805 
  340900    309.88627   -1472.2932    481.39041    397.43652    381.51451    36822.805 
  341000    295.70072     -1462.08    462.10124    324.80705   -9.4966974    36822.805 
  341100    294.83816   -1500.3158    482.66893    303.27453   -223.91323    36822.805 
  341200    305.60089   -1479.1144    470.68998    360.71564    159.26341    36822.805 
  341300    302.35506   -1457.3588    520.33891    417.57839    606.01203    36822.805 
  341400     307.9769   -1465.8646    466.01574    379.93611   -228.02687    36822.805 
  341500    309.82687   -1477.5322    481.70961    392.25059   -166.32195    36822.805 
  341600    289.91695   -1440.0591    493.87652    352.69104   -698.72909    36822.805 
  341700    288.17469   -1456.0527    501.96579    336.98111   -894.25354    36822.805 
  341800    302.13636   -1450.8808      456.256    358.99374   -441.96932    36822.805 
  341900    306.30549   -1485.3005    468.18814    355.18445    224.01664    36822.805 
  342000    307.70813   -1455.8553    457.21601    379.94165    445.07985    36822.805 
  342100    301.90314   -1440.8004    485.11201     396.8852    16.051203    36822.805 
  342200    298.03699   -1424.0103    488.86132    400.10368   -86.866771    36822.805 
  342300    299.51554   -1448.4075    468.55205    362.02139     46.63288    36822.805 
  342400    301.84622   -1452.5867    467.73978    367.47168    216.67522    36822.805 
  342500    290.84802   -1485.9179    477.97446    295.10147   -352.06679    36822.805 
  342600    298.07651   -1470.9292    465.58908    330.08959   -401.70451    36822.805 
  342700    295.71721   -1460.5185    487.10663    351.44784   -433.09972    36822.805 
  342800    302.67636   -1474.9345    471.56397    352.66722   -498.02359    36822.805 
  342900    307.40068   -1481.8438    490.07403    385.43366   -109.69427    36822.805 
  343000    301.18151   -1476.3477    492.26462    365.25756    146.58602    36822.805 
  343100    298.13441   -1439.5954    475.45595    371.54967    196.75807    36822.805 
  343200    292.69129   -1450.6102    482.81155     343.5044    805.50094    36822.805 
  343300    291.59908   -1451.0669    464.79025    320.13318     622.1689    36822.805 
  343400     297.0762   -1469.0064    481.21124    343.15297    619.20391    36822.805 
  343500    301.20998   -1505.0337    468.50934    312.94374    100.31462    36822.805 
  343600    312.73623     -1518.35    471.38761    354.14519    599.32439    36822.805 
  343700    290.56791   -1470.0255    475.73117    307.49565    1019.3361    36822.805 
  343800    298.82136   -1471.0014    466.08623    333.85163    333.56857    36822.805 
  343900    301.05599   -1465.7242    482.03308     365.0871    767.75334    36822.805 
  344000    296.56468   -1473.6304    495.96232    350.98834    435.14193    36822.805 
  344100    295.01243   -1411.3769    495.40922    405.73449    311.02082    36822.805 
  344200    307.65473   -1417.5564     485.7007    446.48596   -346.11868    36822.805 
  344300    300.45975   -1485.7669    463.17051    323.51057    128.99745    36822.805 
  344400    304.12148   -1446.4766    501.97612    418.01169    -229.8761    36822.805 
  344500    296.90801   -1477.7746      465.816    318.23607   -341.09896    36822.805 
  344600    305.33338    -1449.885    482.75876    400.81545   -280.69222    36822.805 
  344700     298.2186   -1504.6109    478.23346    309.68891   -583.80418    36822.805 
  344800    302.61106   -1540.1876    443.10003    258.65767   -400.55589    36822.805 
  344900    300.79358   -1553.2757    434.57343    228.90034   -386.63181    36822.805 
  345000    304.04136   -1519.3251    487.62918    330.45722   -235.93228    36822.805 
  345100    302.53755   -1506.0361    454.94005    304.31984   -131.42084    36822.805 
  345200    292.85385   -1488.8508    499.60554    322.78613   -427.74391    36822.805 
  345300    298.79718   -1490.8435    471.37401    319.18892   -122.65607    36822.805 
  345400    295.11287   -1497.8651    479.39751     303.6845    60.624116    36822.805 
  345500    312.88747   -1479.3754    480.72901    403.13875   -302.50644    36822.805 
  345600    293.82513   -1535.4502    486.20685     267.1395   -720.14771    36822.805 
  345700    302.03425    -1521.834    480.04909    311.37606   -667.61997    36822.805 
  345800      292.758   -1528.1307    493.53421    277.00543    -812.0343    36822.805 
  345900    306.68125   -1501.6237    449.46504    321.82167   -818.83655    36822.805 
  346000    293.44095   -1480.9388    477.78969    311.51254   -602.90307    36822.805 
  346100    303.35423   -1528.2938    439.76468     270.5456   -703.03862    36822.805 
  346200    307.34925   -1532.7407    482.84557    327.07789   -256.64999    36822.805 
  346300    295.06099   -1521.0527    493.08661    293.95367    158.54089    36822.805 
  346400    295.19108   -1535.1443    456.87077    244.22903    16.791603    36822.805 
  346500     296.5589   -1502.0062    501.25512    327.87951    121.99288    36822.805 
  346600    303.59051   -1504.8169    483.48544    338.80178    360.28014    36822.805 
  346700    297.10427   -1517.4188    464.47585    278.13095    387.55634    36822.805 
  346800    309.68612   -1539.4127    486.71449    334.74441    80.370033    36822.805 
  346900     300.2269   -1524.6084    493.80692    314.26236    -342.7583    36822.805 
  347000    292.69677   -1463.2883    477.38861    325.42792   -407.11992    36822.805 
  347100    307.69087   -1470.8531    475.46219    383.11264   -609.12263    36822.805 
  347200    295.80999   -1481.2787    482.60042    326.59704   -543.31233    36822.805 
  347300    306.28576   -1517.7062    462.65984    317.16208   -669.36744    36822.805 
  347400    304.02046   -1537.5345    482.89821    307.42328   -187.58994    36822.805 
  347500    301.50966   -1516.8327    498.94292    332.92099   -182.15534    36822.805 
  347600    290.75634   -1522.1605    472.86328    253.33696   -207.25284    36822.805 
  347700    292.76224   -1567.6108    469.77553    213.78564    174.15577    36822.805 
  347800    294.30376   -1554.3715    484.10019    248.25585    95.226329    36822.805 
  347900    306.38508   -1590.5188    458.28787    240.42254   -292.96405    36822.805 
  348000    300.69311   -1563.5419    491.08009    274.69066    289.51863    36822.805 
  348100    314.62948   -1594.4946    450.15486    265.24991   -255.96059    36822.805 
  348200     308.7456   -1563.9623    470.78226    290.04887    22.142779    36822.805 
  348300     306.8679   -1549.1386    457.56066    283.23858    196.26024    36822.805 
  348400    278.53028   -1516.1277    507.38646    239.11831    131.41596    36822.805 
  348500     295.1175   -1512.2184     464.1373    274.09181    412.80955    36822.805 
  348600    302.05463    -1599.227    452.16087    206.18614   -84.479876    36822.805 
  348700    304.10685   -1552.1797    465.08556    275.35248    20.389023    36822.805 
  348800     295.0338   -1525.9893     478.9806    274.78914    -714.0048    36822.805 
  348900    297.28861   -1553.7743    485.11368    263.23922   -20.768038    36822.805 
  349000    301.69808   -1511.1523    467.50648    308.00911   -248.93415    36822.805 
  349100    305.89414   -1502.3728    496.60501    364.68614    34.083967    36822.805 
  349200    310.09048   -1486.7109    482.27928    384.82255   -246.76813    36822.805 
  349300    298.73457   -1520.6789    458.67836    276.37741   -74.477478    36822.805 
  349400    306.51613   -1547.8045    488.53457    313.97063    -277.0574    36822.805 
  349500    304.10202   -1590.4405     434.3007    206.28515   -419.45654    36822.805 
  349600    292.64498   -1515.1607    472.13375    268.06863   -304.45574    36822.805 
  349700    302.70604   -1481.6975    485.89206    360.36528   -550.30568    36822.805 
  349800    288.98059   -1494.4714    480.50665    280.71382    217.57488    36822.805 
  349900    295.92693   -1500.5249    483.05236    308.32677    377.80172    36822.805 
  350000    293.43731   -1481.9015    490.94961    323.69346   -133.44893    36822.805 
  350100     294.1815   -1482.5269    460.37102    295.82354   -10.507107    36822.805 
  350200    290.57941   -1483.8264    488.88238     306.8975   -634.19155    36822.805 
  350300    293.79585   -1514.0598    467.11039    269.30225   -258.15137    36822.805 
  350400    305.10965   -1510.2383     456.7928    313.49382   -235.30794    36822.805 
  350500    302.55441    -1531.868    489.54206    313.16552    79.926125    36822.805 
  350600    298.38066   -1522.6232    472.62134    286.79053    96.267775    36822.805 
  350700    288.90754   -1521.5974    484.69471    257.44856   -237.41142    36822.805 
  350800    295.70464    -1542.355    460.43207    242.88045    -754.9875    36822.805 
  350900    298.85454    -1548.758    469.15921    259.31658   -102.35952    36822.805 
  351000    292.71532   -1519.0554    450.44489    242.80018   -421.64628    36822.805 
  351100    292.74271   -1574.7743    450.62626     187.3854   -191.27388    36822.805 
  351200    295.86308   -1558.8261    490.02324    256.71035   -60.225421    36822.805 
  351300    308.50638   -1559.1438    442.56856     265.5819   -315.66875    36822.805 
  351400    299.78706   -1524.1881    459.90278     278.8079    375.41351    36822.805 
  351500    309.36991   -1523.1994    485.12064    347.94715    499.92625    36822.805 
  351600    305.81593   -1536.4888    487.07042    320.68519   -599.00354    36822.805 
  351700    301.77278   -1508.2616    437.15029    280.87825   -1115.5622    36822.805 
  351800    296.06906   -1516.3225    504.95438    315.06788   -1163.3116    36822.805 
  351900    302.77492   -1558.2777    476.39858    274.60016   -500.32128    36822.805 
  352000    298.82386   -1532.0526    499.97424    306.69961   -623.93803    36822.805 
  352100    305.77667   -1583.0573    453.70205    240.57242   -311.45954    36822.805 
  352200    289.88435   -1572.5767    476.49954    202.65034   -263.24044    36822.805 
  352300    307.25497   -1591.2486    461.52491    246.82692    121.32239    36822.805 
  352400    290.22044   -1588.5595    470.27972    181.95349    317.96661    36822.805 
  352500    304.62929   -1581.5107    492.90362    276.18013    838.94735    36822.805 
  352600    299.96695   -1550.8316    473.90668    266.97422   -38.224949    36822.805 
  352700    315.71371   -1498.4977    465.90341    381.85285    388.66881    36822.805 
  352800    296.79031   -1513.1498    530.32867    346.84623   -28.943442    36822.805 
  352900    305.68282   -1509.8808    454.67704    314.30339     -538.928    36822.805 
  353000    296.38919   -1472.0644     478.6864    334.49228   -4.5026206    36822.805 
  353100    295.60482   -1520.9156    458.14264    261.58322   -132.08889    36822.805 
  353200     285.5999   -1525.8089    493.52672    247.25038    364.18351    36822.805 
  353300    301.44132   -1513.7666    500.14973    336.88773     719.0828    36822.805 
  353400    303.40714   -1515.8113    462.35855    305.85903    474.94457    36822.805 
  353500    301.12482   -1465.7142     513.4919    396.86432    129.72863    36822.805 
  353600    305.89789    -1490.178    468.76645    349.05913    399.26083    36822.805 
  353700    298.56295   -1472.5797    478.14836    343.17771     299.5814    36822.805 
  353800    305.01209     -1447.57    455.30971    374.24191   -269.93052    36822.805 
  353900    303.96872   -1501.2271    487.04859    347.64922    -464.5579    36822.805 
  354000     298.8918   -1513.0582     490.3097     316.3338   -78.706309    36822.805 
  354100     293.9123   -1535.7503    461.41965    242.44274    77.009239    36822.805 
  354200    299.89543   -1494.1244    506.22754     355.6819   -153.45906    36822.805 
  354300    297.04209   -1525.1184      442.044    247.72101   -32.266531    36822.805 
  354400    307.98891   -1482.6979    493.14844    390.28938   -617.76946    36822.805 
  354500    300.24987   -1493.4371    473.38175    325.11137   -653.12982    36822.805 
  354600    300.68474   -1488.4298    481.26117    339.94634   -505.49033    36822.805 
  354700    295.39812   -1514.3717    485.62613    294.68452   -355.47158    36822.805 
  354800    308.29221   -1489.3861    468.95359    360.76519    -372.6599    36822.805 
  354900    291.77228   -1512.3044    476.92989    271.81124    90.683528    36822.805 
  355000    297.62994   -1498.8708    494.14582    328.70403    262.33379    36822.805 
  355100    295.88847   -1507.1899    481.26361    299.70067    233.07377    36822.805 
  355200    299.28323   -1553.8211    487.14439    274.15928    245.78361    36822.805 
  355300    295.87398   -1480.1521    498.43163    343.84154    121.38146    36822.805 
  355400    302.89792   -1466.2848      501.653    392.39863   -76.795976    36822.805 
  355500    302.00857   -1485.9969    459.34417    326.39321   -255.51781    36822.805 
  355600    304.77779   -1505.0314    477.65038     338.0715   -508.88767    36822.805 
  355700    293.75732   -1532.7815     486.6327    269.93027   -913.37306    36822.805 
  355800    289.66156   -1511.1568    471.12353    257.69617   -949.11625    36822.805 
  355900    294.92301   -1551.5696    481.22864    250.96055   -989.65323    36822.805 
  356000    307.10256   -1524.2677    448.41262    300.01271   -607.38624    36822.805 
  356100     289.5274   -1547.0325    480.23107    230.32698   -428.17535    36822.805 
  356200    305.18149   -1545.2904    476.55161    298.52238   -373.63672    36822.805 
  356300     311.6854   -1534.7429    470.50035    332.15717   -1084.5252    36822.805 
  356400    301.40235   -1493.2374    461.07136    318.16396   -334.96607    36822.805 
  356500     306.8157   -1537.6243    458.34827    295.30657   -200.18699    36822.805 
  356600    304.76236   -1516.6537     466.8851    315.61478    102.52529    36822.805 
  356700    306.41605   -1537.8697      470.218     305.1405   -448.66958    36822.805 
  356800    302.83288   -1494.1882    498.27054    360.82134   -240.87589    36822.805 
  356900    300.82206   -1484.6506    479.10018    342.17982   -510.99373    36822.805 
  357000    305.37581   -1542.6281    478.90284     304.4065   -57.762983    36822.805 
  357100    295.28814   -1545.5186    496.63343    274.05222   -512.93451    36822.805 
  357200    301.70999   -1548.3219    492.36508    295.75146   -9.2785111    36822.805 
  357300    299.10992   -1543.9099    458.43084    254.58051    -67.72157    36822.805 
  357400    298.48279   -1512.9794    467.04564    291.31611   -117.33379    36822.805 
  357500    297.92596   -1578.7917    475.50167    231.46515   -230.48046    36822.805 
  357600    292.61832    -1547.048     474.1369    238.06511   -128.64805    36822.805 
  357700     316.3443   -1544.7999    460.15184    332.62419    154.15576    36822.805 
  357800    297.25048   -1559.7725    475.61389    247.57032    344.28874    36822.805 
  357900    310.65466   -1514.1784    467.36263    344.96607    383.23457    36822.805 
  358000    300.38516   -1580.8126    460.89175    225.85197    171.86851    36822.805 
  358100    315.94154   -1565.4208    525.46562     375.5127    802.55456    36822.805 
  358200    298.00243   -1583.7937    448.57318    199.87724   -186.00577    36822.805 
  358300    290.09662   -1576.8138    465.16748    188.03223   -445.84033    36822.805 
  358400    297.10139    -1569.376    472.90914    234.59413   -208.97173    36822.805 
  358500    302.09723   -1532.3866    485.66802    306.72466   -31.909338    36822.805 
  358600    298.72156   -1566.1879    465.06753    237.19925    81.211787    36822.805 
  358700    292.69634   -1526.4984     482.0642    266.89153    251.73041    36822.805 
  358800    305.20589    -1550.058    480.11938    297.43186    235.27393    36822.805 
  358900    308.11068   -1573.7013    472.86214    279.54527    407.76477    36822.805 
  359000    307.35604   -1556.7935    472.87995     293.0899    776.73414    36822.805 
  359100    309.96091   -1566.5662     464.6275    286.73505    675.59475    36822.805 
  359200     300.5481   -1563.3786    467.45927    250.58349    588.74316    36822.805 
  359300    291.48358   -1593.0979    472.15529    184.94974    352.21066    36822.805 
  359400    301.79621   -1627.1036    444.51814    169.50913    385.76535    36822.805 
  359500    286.75903   -1586.4201    495.24289     193.5484    78.473887    36822.805 
  359600    299.51776   -1567.1099    454.43707     229.2139    603.71074    36822.805 
  359700    294.72883    -1572.379    472.13579    220.18842    397.51609    36822.805 
  359800    309.28008   -1541.8687    514.48129    358.23606    522.61884    36822.805 
  359900    293.33178   -1568.8761     452.3504    197.64688    418.49407    36822.805 
  360000    307.93188    -1546.595    469.70006    302.68833    565.09029    36822.805 
  360100    301.52553   -1551.4242    481.33767    280.79532    201.42327    36822.805 
  360200    295.77276   -1543.4182     484.6432    266.33361    432.03982    36822.805 
  360300    303.59031   -1537.5613    488.85086    311.42195    347.96164    36822.805 
  360400    308.05977   -1541.1543     450.2807    289.28266    350.45348    36822.805 
  360500    295.26626   -1513.8942    457.37057    266.31567   -324.28042    36822.805 
  360600    300.69555   -1511.6388    468.17686    303.70143   -140.50384    36822.805 
  360700    310.36279   -1496.6134    466.24706    360.10782   -223.79276    36822.805 
  360800    296.70282   -1537.1608    480.36965    272.48421    105.01142    36822.805 
  360900    302.54673   -1494.2082    469.69914    330.94798    470.06681    36822.805 
  361000    289.68233   -1511.6097    466.46084    252.67358    529.03562    36822.805 
  361100    292.07569   -1530.7228    465.27393    243.09623    628.29319    36822.805 
  361200    305.64798   -1515.0047    472.80338    327.14981    675.43311    36822.805 
  361300    293.05386   -1556.8686    474.45252    230.51137    437.51453    36822.805 
  361400    294.78359   -1555.7335    464.03037    228.97383    79.331466    36822.805 
  361500    309.23852   -1509.1373    459.99626    336.29619   -360.53971    36822.805 
  361600    301.27618   -1518.5784    448.25601    279.44237   -119.71622    36822.805 
  361700    310.58819   -1468.4723    456.70866    379.72035   -72.669919    36822.805 
  361800    304.92159   -1506.6824    471.90425    331.31861    217.83783    36822.805 
  361900    312.83661   -1472.9215    463.58072    392.21654     291.1126    36822.805 
  362000     302.5675   -1433.9244    458.69083    380.31652   -684.57338    36822.805 
  362100    305.53355   -1464.8627    479.43493    383.41062   -181.61029    36822.805 
  362200    300.17946   -1468.8427    460.00083    336.00937   -586.89168    36822.805 
  362300    298.00477   -1459.6913    477.60354    353.02057   -690.12763    36822.805 
  362400    310.96107   -1427.4755    469.33568    435.01474   -401.66453    36822.805 
  362500    302.64375   -1441.3276    481.52512    396.08918   -266.85376    36822.805 
  362600    304.05407   -1479.3928     476.8698    359.68711   -422.31344    36822.805 
  362700    310.82118   -1489.6029    450.06141    352.98637    383.88622    36822.805 
  362800    304.38012   -1471.1272    510.48772    403.03142    287.18777    36822.805 
  362900     300.6394   -1481.0711    454.59829    320.43908     262.9649    36822.805 
  363000    300.11787   -1492.9426    487.17264    338.80541    654.27069    36822.805 
  363100    302.59198   -1459.2642    477.43595    373.83145     556.3375    36822.805 
  363200    316.25522   -1507.8663     471.6245    380.63145    643.79324    36822.805 
  363300     296.2769   -1484.8017      471.029     313.5945    -328.2388    36822.805 
  363400    295.62548   -1463.8491    480.68888    341.28852   -146.94897    36822.805 
  363500    292.21316   -1508.5367    487.77682    288.40106    104.03791    36822.805 
  363600    301.57889   -1532.7791    455.98655    274.32837    580.23428    36822.805 
  363700    299.90124   -1484.7081    456.11303    315.00973    429.41562    36822.805 
  363800    284.03973    -1518.436     475.9568    230.06355    512.72277    36822.805 
  363900    290.81798   -1520.8986    469.13682     251.1486    63.905693    36822.805 
  364000    293.49669   -1510.9292    431.64304    235.62523    199.71586    36822.805 
  364100    297.57265   -1501.8926     482.9857    314.26547    355.65766    36822.805 
  364200    295.63677    -1479.907    481.99261    326.58486    451.19753    36822.805 
  364300    303.61325   -1483.3893    477.95728    354.80319    552.13886    36822.805 
  364400    307.21607   -1451.0548    485.94908    411.27072    271.49982    36822.805 
  364500    300.52906   -1452.0924     456.2107    350.53582   -41.100102    36822.805 
  364600    302.29628   -1505.4127    469.78857    318.71079    168.86269    36822.805 
  364700     296.5821   -1463.2476    467.32471    332.81164    703.41384    36822.805 
  364800     302.4613   -1466.9185    460.51912    348.67492    334.97372    36822.805 
  364900    301.89006   -1503.4063    482.62862    331.73737    599.37508    36822.805 
  365000    311.79707   -1429.7939    509.54923    476.65529    770.24074    36822.805 
  365100    304.13879   -1459.8831    480.07836    382.78497    603.28765    36822.805 
  365200    303.43852   -1446.7904    492.22843    404.89042    628.61852    36822.805 
  365300    301.10442   -1429.9508    491.24662    410.29101    181.74372    36822.805 
  365400    300.98546   -1481.4406    482.58914     349.6108   -16.821814    36822.805 
  365500    295.29579    -1474.637    468.65714    316.99183    417.79288    36822.805 
  365600    294.80198   -1491.2845    475.68611    305.16094    304.50735    36822.805 
  365700    288.55503    -1518.672    468.98664    243.08664   -275.89263    36822.805 
  365800     290.3561   -1517.9054    480.88898    263.82465   -397.89231    36822.805 
  365900    306.91217   -1476.8281    484.97972    383.16651    -191.9192    36822.805 
  366000    296.93363   -1472.4925    485.15621    342.97319   -157.30862    36822.805 
  366100    307.26468   -1493.5843    476.92411    359.93397   -21.807058    36822.805 
  366200    297.00981   -1501.6429    476.85179    305.85964   -621.84381    36822.805 
  366300    295.75296   -1529.4872    448.58822    244.12088   -10.478502    36822.805 
  366400    287.26405    -1474.848    483.86276    296.00294   -370.20391    36822.805 
  366500    306.07807   -1496.0344    451.98168    327.22525   -574.04688    36822.805 
  366600    291.61254   -1496.7641    460.53492     270.2409    76.148933    36822.805 
  366700    296.61861   -1505.4859     479.8926    303.30481   -141.51186    36822.805 
  366800    309.74357   -1501.6544    480.50477    366.55041    414.62544    36822.805 
  366900    291.28557   -1526.5901      464.919    243.33418    655.21658    36822.805 
  367000    298.99895   -1479.2785    487.49515    347.77907    643.57212    36822.805 
  367100    295.24343   -1473.9548    494.70299    343.48521    63.559684    36822.805 
  367200     299.3263   -1488.8376    482.78771    334.97911    202.30855    36822.805 
  367300    302.26698   -1512.8552    460.30936    301.65787     119.3254    36822.805 
  367400    297.26264   -1490.2014    492.97095    334.55304    40.585638    36822.805 
  367500    302.71608   -1474.3013    477.95128    359.86566   -159.84477    36822.805 
  367600    301.44672   -1487.2117    467.03679    330.35382   -176.97473    36822.805 
  367700    308.34584   -1471.4254    475.59595     385.6085   -465.06916    36822.805 
  367800    304.21752   -1497.8958    475.01102    340.05757   -106.43443    36822.805 
  367900    294.31563   -1470.5634     473.6826    321.69957   -55.660596    36822.805 
  368000    292.02856   -1497.4699    495.87815    306.74215    68.885512    36822.805 
  368100    317.35556   -1519.5589    499.41572    401.65967   -305.60131    36822.805 
  368200    294.22824   -1515.5675    467.49358    270.11494    177.89992    36822.805 
  368300    303.59729   -1507.1717     496.9773    349.96934   -160.77538    36822.805 
  368400    293.94836   -1528.7676    469.77198    257.93931    51.969326    36822.805 
  368500     300.8156    -1503.734    492.87458    336.84183    804.79726    36822.805 
  368600    308.50129   -1532.7593    465.82223    315.19732    711.19041    36822.805 
  368700    295.88757   -1539.9202     465.2456     250.9483    611.58904    36822.805 
  368800    301.53494   -1541.6314    456.54218    265.83478    138.00991    36822.805 
  368900    295.00999   -1532.9744    478.35894    267.07576    1016.3877    36822.805 
  369000    288.84751   -1558.9169    464.91752    200.08298    710.80526    36822.805 
  369100    294.31917   -1534.5019    488.72939     272.8237    436.84482    36822.805 
  369200    303.00325   -1537.4474    460.01139    280.06624    392.17944    36822.805 
  369300    301.29045   -1514.9977    465.92487    300.75587    324.66732    36822.805 
  369400    292.28562   -1560.3087    467.45143    216.62833   -203.22417    36822.805 
  369500    307.62928    -1493.631    457.07314    341.66979   -282.22071    36822.805 
  369600    284.27522   -1529.2434    462.11928    206.47365   -488.34541    36822.805 
  369700    294.58987   -1531.8705    474.49501    262.43349    100.45045    36822.805 
  369800    300.90854   -1531.7526    454.05824    270.42327   -83.838641    36822.805 
  369900    301.18718   -1540.8573    489.37892    297.88764    342.34851    36822.805 
  370000     293.9425   -1553.7431    463.97176    227.13739    495.09406    36822.805 
  370100    293.04269   -1559.7491    463.41996    216.54822   -39.353899    36822.805 
  370200    300.27241   -1535.7673    484.96206    294.46247   -323.47571    36822.805 
  370300    302.51476   -1560.5023    485.11811    279.92956    567.43846    36822.805 
  370400    295.11556   -1552.0166    469.96532    240.11294    721.07015    36822.805 
  370500    296.70166   -1537.0921    471.47639    263.65448    247.57971    36822.805 
  370600    291.64693   -1539.4011    472.77533    239.99846     219.2148    36822.805 
  370700    289.95964   -1549.3415    488.93679    238.66016    429.33027    36822.805 
  370800    306.39451   -1590.4389    483.86677    266.12348    -292.6336    36822.805 
  370900    296.38734   -1550.7275    463.46446    240.59889    20.769875    36822.805 
  371000    299.45225   -1537.4933    472.49557    276.59552   -117.54896    36822.805 
  371100    290.75052   -1540.4524    461.20258    223.35832   -306.21594    36822.805 
  371200    305.22635   -1549.4641    460.56339    278.56141   -171.08224    36822.805 
  371300    298.13915   -1551.7783    463.08813    247.02016   -428.25927    36822.805 
  371400    302.71085    -1544.656    456.07811    267.61442   -1320.9797    36822.805 
  371500    301.97387   -1541.8808    459.14615    270.15583   -626.68824    36822.805 
  371600    295.52028   -1557.3408    456.09051    222.72715   -738.93303    36822.805 
  371700    296.70214     -1552.62    464.34771    241.00008   -93.655641    36822.805 
  371800    294.48901   -1542.2091    459.74305    236.89108    424.41464    36822.805 
  371900    303.97574   -1552.4501    450.58349    259.99253    659.13729    36822.805 
  372000    308.02839   -1522.5464    465.58435    323.05359    203.31613    36822.805 
  372100    297.55191   -1534.1566    466.51424    265.43706    1131.2034    36822.805 
  372200    297.22038   -1554.4763    468.43702    245.55488    573.73398    36822.805 
  372300    301.17985   -1526.0943    492.40324    315.64209    76.991304    36822.805 
  372400    290.71522   -1524.2861    463.97204    242.13589   -163.07642    36822.805 
  372500    304.64171   -1519.8482    461.96965    306.96434    780.51509    36822.805 
  372600    298.03358   -1482.0673    466.13589    319.30598    290.28496    36822.805 
  372700    296.58771   -1498.6359    456.69779    286.82153   -35.000136    36822.805 
  372800    309.64897   -1508.0676    467.66475    346.87334    22.338736    36822.805 
  372900    306.49159   -1471.8259     459.5124     360.8171   -797.42887    36822.805 
  373000    305.66437   -1480.5914    448.29669    337.12982   -185.27634    36822.805 
  373100    293.49548   -1498.9616    485.12282    301.06724   -485.28185    36822.805 
  373200    297.10598   -1539.9829    464.42803    255.52673   -193.34982    36822.805 
  373300    305.77634   -1500.6907      470.008    339.24349   -128.25822    36822.805 
  373400    305.39637   -1511.3595    449.12727    305.99165     -255.483    36822.805 
  373500    305.57414   -1518.1065    463.72197    314.63573   -427.79634    36822.805 
  373600     297.0305   -1533.7652    483.27055    280.24877   -876.44952    36822.805 
  373700    295.78729   -1519.6721    449.93043    255.43197    -691.4492    36822.805 
  373800     296.5487    -1514.093     454.3099    268.80175   -601.54174    36822.805 
  373900    284.34051    -1484.684    480.68883    269.89508    -997.0204    36822.805 
  374000    293.65074   -1495.6957    443.17663    263.08246   -511.17579    36822.805 
  374100    312.70252   -1507.1058    462.77987    356.63061   -496.81398    36822.805 
  374200    296.06193   -1484.4971    461.88342    303.79041   -266.76773    36822.805 
  374300    298.58565   -1489.6021    462.95622    311.06487   -575.49634    36822.805 
  374400    289.50042   -1502.0946    434.05865    228.97156    -1136.597    36822.805 
  374500    300.33175   -1484.1624    463.48731    324.85843   -700.34095    36822.805 
  374600     300.5729   -1473.9742    493.55522      366.195   -399.28421    36822.805 
  374700    293.22346   -1452.6892    463.34189       324.34   -81.106976    36822.805 
  374800    297.84898   -1488.0147    475.57059    321.96625    177.33908    36822.805 
  374900    301.28838   -1450.3901    460.43404    359.86335   -440.55807    36822.805 
  375000     298.4902   -1489.6646    466.54104    314.15952   -547.93185    36822.805 
  375100    292.45802   -1491.5335    492.55029    311.27478   -678.22059    36822.805 
  375200    306.23763   -1506.9553    454.38715    319.42461    -438.7973    36822.805 
  375300    304.34679    -1493.169    475.85126    346.20381   -731.86842    36822.805 
  375400    305.38904   -1504.3075    446.80618    310.68967   -1012.2006    36822.805 
  375500    309.83858   -1498.8587     496.6801    385.94708     49.22449    36822.805 
  375600    301.26039   -1504.2297    475.19031    320.65464   -412.30881    36822.805 
  375700    290.89223   -1487.9094    475.83251    291.16615   -387.72351    36822.805 
  375800    308.51155   -1479.2862    467.37342    370.26755    -371.9189    36822.805 
  375900    304.79885   -1487.4797    479.88759    357.95476   -176.57794    36822.805 
  376000    309.05837   -1497.3961    461.38552    348.61959   -40.975719    36822.805 
  376100    299.94228   -1507.0149    480.96157    317.73532   -83.093799    36822.805 
  376200    299.12843    -1529.825    453.67213    263.98963   -372.47486    36822.805 
  376300    305.48776   -1498.9744    498.76733    368.42624   -523.83239    36822.805 
  376400    305.25842   -1542.6168    461.16679    286.15578   -691.08369    36822.805 
  376500    300.50981   -1480.5629     460.9176    326.68601   -177.79875    36822.805 
  376600    295.66588   -1502.4657    467.85311    290.01716   -534.16959    36822.805 
  376700     287.6661   -1519.7711    491.08826    260.10655   -378.22025    36822.805 
  376800    297.02284   -1543.0974    488.88567    276.49734   -295.85356    36822.805 
  376900    295.09776    -1529.055    460.09309    253.12256   -117.71339    36822.805 
  377000    303.98695   -1511.3929    456.73473     307.2512   -163.44085    36822.805 
  377100    291.17865   -1532.4719    474.55101    246.60532    167.20814    36822.805 
  377200    308.38107    -1537.267    485.09608    329.42488    83.808159    36822.805 
  377300    307.76251   -1525.7826    457.46876    310.51072    163.44905    36822.805 
  377400    306.17095   -1520.3027    468.68947     320.0808   -314.83325    36822.805 
  377500    301.06656   -1520.6591    461.01571     289.1822   -398.89099    36822.805 
  377600    301.18377     -1564.33    473.79078    258.81153   -447.79142    36822.805 
  377700    304.98647    -1559.612    460.58392     267.3594   -346.65062    36822.805 
  377800     296.5843   -1538.4452    467.85498    258.15418    -187.3949    36822.805 
  377900    306.59613    -1555.271    479.67566    298.00358    -510.9315    36822.805 
  378000    307.21804   -1585.0844     467.6962    258.99698    71.789496    36822.805 
  378100    303.34562   -1573.7124    459.10284    244.42654   -180.28869    36822.805 
  378200    300.94742    -1509.788     475.3511    313.85495   -100.50381    36822.805 
  378300     299.6551   -1571.6863    466.01671    236.83245   -40.224199    36822.805 
  378400    297.27056   -1526.8885    451.73727    256.66772    -446.2895    36822.805 
  378500    298.38773   -1572.6077    472.26132    236.47761    108.99071    36822.805 
  378600    287.82503   -1530.9237     475.8837    234.46145    517.61301    36822.805 
  378700    302.92947   -1591.0856    450.30425    216.39036    647.59502    36822.805 
  378800    303.25484   -1546.2988    481.92572     294.2564    860.09767    36822.805 
  378900    283.49244   -1545.8214    462.11722    186.38662   -327.22885    36822.805 
  379000    300.69281   -1514.0142    469.74513    302.88211    70.292358    36822.805 
  379100    294.81821   -1504.1218    483.82138     300.5316   -170.76833    36822.805 
  379200    295.77978   -1534.0959    471.91499    262.95912    -41.16865    36822.805 
  379300    307.22675   -1526.9152    454.10729    303.61631   -1.5563743    36822.805 
  379400     309.5186   -1529.8431    457.78884     314.6378   -201.88086    36822.805 
  379500    299.11837   -1487.7872    491.59052    343.90075   -552.83289    36822.805 
  379600    298.39676   -1512.6581    456.28254    280.48894    180.92656    36822.805 
  379700    309.00535   -1537.9474    459.53706    305.98231    69.681094    36822.805 
  379800    304.15845   -1508.8892    443.30879    297.09738     634.7008    36822.805 
  379900    289.83783   -1553.6398    488.16549    233.04487   -215.37387    36822.805 
  380000    306.56055   -1554.9071    441.19026    259.72272   -184.51198    36822.805 
  380100    300.53948   -1539.3488    465.35254    272.46799    92.033431    36822.805 
  380200     312.5905   -1558.0191    459.17241    301.60803    182.28188    36822.805 
  380300    293.22595   -1533.8133     462.9151    242.80025    186.58081    36822.805 
  380400    305.94977   -1544.6108    446.51481    272.60723   -210.09089    36822.805 
  380500    302.10694   -1551.8287    472.64757    274.30554   -344.69488    36822.805 
  380600    300.85616    -1519.636    447.09913    275.34608   -156.26392    36822.805 
  380700    291.29041   -1547.7824    487.43927    244.68381    109.04507    36822.805 
  380800    306.55333   -1563.7146    456.66395    266.35649    -18.40069    36822.805 
  380900    293.90851   -1541.5019    451.81369    227.06825      386.143    36822.805 
  381000    297.10086    -1555.137    478.09162    254.01327    261.21368    36822.805 
  381100    303.91745   -1534.0913    451.84799    279.35471    363.68696    36822.805 
  381200    299.58842   -1520.9991    459.41001    280.61418   -73.727607    36822.805 
  381300    316.14898   -1519.5954    473.20226    370.00405    866.23034    36822.805 
  381400    301.85905   -1516.2721    447.14525    283.24925    146.55307    36822.805 
  381500    295.62793   -1544.7106    463.74384    243.49295   -271.20032    36822.805 
  381600    295.88488   -1509.4289    468.64587    284.82784   -42.887153    36822.805 
  381700    289.67975   -1500.3886    438.14403    235.56633   -108.48922    36822.805 
  381800    303.23329   -1483.7712    484.55165     359.3133   -215.27657    36822.805 
  381900    301.11136   -1472.0203    464.46529    341.47132   -24.812281    36822.805 
  382000    303.68271   -1509.3057     476.0675    327.30815    28.544898    36822.805 
  382100    298.15042   -1493.0611     459.4084    302.10814    263.20396    36822.805 
  382200     291.8543   -1534.8661    459.30732    231.99447    329.94967    36822.805 
  382300    295.56535   -1503.8118    467.25317    287.62064    566.81484    36822.805 
  382400     298.6669   -1517.1945    461.51757    282.39784    548.36627    36822.805 
  382500     294.9301   -1513.1971    441.49284    249.62903    531.08265    36822.805 
  382600    302.50411   -1513.9378     480.9671    322.29541    172.97095    36822.805 
  382700    286.28233   -1498.4538    471.15041    255.28658   -299.06371    36822.805 
  382800    303.81055   -1485.9867    457.75969    332.89213   -228.89485    36822.805 
  382900     305.0377   -1546.9847    470.41636    290.04863   -609.89602    36822.805 
  383000     310.6665   -1508.2472    467.72656    351.31416   -124.91006    36822.805 
  383100    305.40032   -1489.0838    464.35974    343.51752    272.50713    36822.805 
  383200    315.47537   -1507.0829    486.49173    392.78819   -492.67242    36822.805 
  383300    298.14415   -1532.9316    447.54947    250.35061   -692.77059    36822.805 
  383400    293.01934   -1512.8665    473.66937    273.57562   -1128.6781    36822.805 
  383500     299.7775   -1508.4213      464.366    298.99515   -1138.0514    36822.805 
  383600    297.56355   -1548.6803     468.6173     253.0686   -1138.5914    36822.805 
  383700    303.01562   -1513.4607    451.54418    295.64117   -977.02303    36822.805 
  383800    303.86058   -1509.0659    487.69921    339.97661   -828.72466    36822.805 
  383900    303.44298   -1500.1447     484.4586    343.78625   -109.75676    36822.805 
  384000    294.34868   -1509.5635    453.92173    263.08668   -562.77522    36822.805 
  384100    299.28875   -1510.1698    471.31638    302.00726   -759.11689    36822.805 
  384200    303.74715   -1527.9408    446.27689     279.1712   -767.59857    36822.805 
  384300    301.67736   -1496.5902    474.74584    329.71771   -908.85747    36822.805 
  384400    289.24254   -1480.2244    500.31083    315.93853   -334.65489    36822.805 
  384500    291.73729    -1475.293    492.19135    323.92736   -599.27788    36822.805 
  384600    304.74338   -1488.6444    458.35631    335.01021   -361.91291    36822.805 
  384700    300.82715   -1511.1292     474.4418    311.06555   -462.15215    36822.805 
  384800     298.3777   -1514.0201    446.70922    269.46826    -386.3703    36822.805 
  384900    292.26523   -1536.3502     463.1349    236.17891   -787.58438    36822.805 
  385000    301.70211    -1528.151    481.76915    305.29115    -178.1081    36822.805 
  385100    300.18805   -1477.0641    480.09483    347.92047    259.85464    36822.805 
  385200     304.7915   -1536.6983    453.57099    282.38657     1.233694    36822.805 
  385300    301.16758    -1538.583    475.42706    286.12231   -514.40115    36822.805 
  385400    293.17916   -1527.6329    468.56708      254.423      22.7808    36822.805 
  385500     286.7956   -1527.8728    456.23401    213.25066   -737.23775    36822.805 
  385600    313.29115   -1460.1805    480.24366    423.65684   -528.79677    36822.805 
  385700    297.12113   -1503.0778     489.0582     317.1298   -208.67146    36822.805 
  385800    308.70462   -1511.9728    477.51653    348.58906    586.92602    36822.805 
  385900    300.08727   -1533.0027    450.91629    262.35184   -394.72796    36822.805 
  386000    306.79532   -1490.8704    482.71489    366.33583   -473.04833    36822.805 
  386100     299.7914   -1490.6309    480.70314    333.18499   -135.63721    36822.805 
  386200     300.4253    -1499.458    487.87141    334.36607    151.00143    36822.805 
  386300    308.80651   -1488.2543    494.16723    389.41476    538.26495    36822.805 
  386400    289.08432   -1532.6964    466.59197    229.03889   -107.55642    36822.805 
  386500    310.65206   -1538.6972    463.93575     317.0087    404.63638    36822.805 
  386600    296.65024   -1488.2831    468.99349     309.7502    312.77985    36822.805 
  386700    289.24274   -1519.3591    459.56123    236.05517   -316.53665    36822.805 
  386800    300.05876   -1490.0447    465.90834    320.17415   -617.14648    36822.805 
  386900    304.54108   -1522.7543    487.94929    329.58698    181.24766    36822.805 
  387000    302.22159   -1488.8728    449.99061    315.11816   -128.73741    36822.805 
  387100    307.14807   -1459.6178    493.01079    409.46475   -301.79459    36822.805 
  387200    296.26032   -1472.7242    453.05398    307.62264    61.901814    36822.805 
  387300    299.81296   -1449.5765    468.67205    362.30483   -65.039284    36822.805 
  387400    302.73347   -1505.1582    463.14818    314.28361    137.07356    36822.805 
  387500    305.82247   -1522.0594    476.39327    324.46672    81.738289    36822.805 
  387600    297.70228   -1481.5351     462.6935    314.91151    255.24884    36822.805 
  387700    299.00878   -1527.5076    475.54448    287.64334    541.25137    36822.805 
  387800    295.22011   -1521.3823    467.08336    268.33365    313.08374    36822.805 
  387900    296.26607   -1514.6015    432.19928    244.91638    421.56229    36822.805 
  388000    311.86969    -1522.332    506.85574    381.74904    68.599811    36822.805 
  388100    305.09946   -1517.4916    448.51605    297.91812     377.3553    36822.805 
  388200     297.4245   -1505.7842    480.56519    307.28959    126.96424    36822.805 
  388300    303.02425   -1526.3708    450.32998    281.55553   -219.95557    36822.805 
  388400    307.15095   -1548.3867    459.61948    287.31746    483.00946    36822.805 
  388500    299.36433   -1536.7916    473.01056    277.41833    264.56497    36822.805 
  388600    312.52159   -1479.4948    463.30975    383.96084    45.786136    36822.805 
  388700    291.50886   -1481.7957    472.17926    296.38921    -189.0414    36822.805 
  388800    303.77893   -1520.5436    460.49951    300.93334    -41.58462    36822.805 
  388900    292.51957   -1467.8035    462.64527    305.37556   -550.85774    36822.805 
  389000    291.91648    -1488.977    457.01575    275.87049    -784.0491    36822.805 
  389100    288.78291   -1464.3948    483.48013    312.87822   -238.74145    36822.805 
  389200    304.88995   -1461.5311    500.40743    404.83134    142.53326    36822.805 
  389300    300.90596    -1489.163    476.47634    335.41947   -13.263033    36822.805 
  389400     300.2832   -1495.8182    468.53516    318.03295   -4.8065831    36822.805 
  389500    301.92593   -1490.3251    455.76709    318.11773   -231.89991    36822.805 
  389600    306.22298   -1447.0249    467.56282    392.46514    130.34962    36822.805 
  389700    299.89422   -1500.5636    479.92512     322.9349   -561.62815    36822.805 
  389800    310.45243   -1497.9152     468.6062     361.5668    418.30389    36822.805 
  389900    299.92469   -1503.9841    470.58828    310.31404    241.03572    36822.805 
  390000    301.35961   -1508.5109    469.32957    310.95722    16.415687    36822.805 
  390100    311.57976   -1486.3392    463.51604    373.10327    282.31803    36822.805 
  390200    304.28557   -1491.3193    476.94098    348.86902    103.55381    36822.805 
  390300     309.0643   -1486.1126    486.17617    384.72028    506.44846    36822.805 
  390400    295.89888   -1492.1033    460.42994    294.00026    726.78057    36822.805 
  390500    290.84035   -1482.8011    481.64244     301.8519    355.54647    36822.805 
  390600    302.61156   -1492.9905     456.7071    319.46403    698.66775    36822.805 
  390700     310.2592   -1546.1305    448.56349    292.44302    27.009551    36822.805 
  390800    297.68681   -1510.7689    468.67703    291.59192   -159.68908    36822.805 
  390900    287.92567   -1506.4638    460.46019    243.94872   -290.40877    36822.805 
  391000     310.8131    -1500.517    441.55834    333.53294    -722.8415    36822.805 
  391100    290.18772   -1499.0145    479.08316    280.15533    -847.4103    36822.805 
  391200     303.2618   -1489.9178    512.97156     381.7144    115.07735    36822.805 
  391300    301.31623   -1517.8615    428.82429    260.90698    -387.6655    36822.805 
  391400    307.02846   -1483.7011    482.91441     374.7492    203.25623    36822.805 
  391500    303.19897   -1506.4326    478.60978    330.55626    238.51928    36822.805 
  391600    310.84326   -1509.5061    467.45731    350.57791   -215.99549    36822.805 
  391700    298.04756   -1531.5082    467.38993    271.18174   -711.92172    36822.805 
  391800    289.45738   -1536.3503    434.00761    194.47197   -292.14469    36822.805 
  391900    309.89311   -1531.4507    451.67491    308.59413    56.328182    36822.805 
  392000    290.99276   -1492.8764    482.48596      293.303    105.66955    36822.805 
  392100    297.60204   -1543.8368    445.84836    235.31555    236.19713    36822.805 
  392200     298.2876   -1527.7092    447.71162    256.37787    490.82358    36822.805 
  392300    294.56095   -1511.3367    511.27699    319.61975    1008.0321    36822.805 
  392400    291.36355   -1522.6742     453.3663     236.0467    313.42781    36822.805 
  392500    296.72845   -1520.7069    474.21668    282.89999    679.37272    36822.805 
  392600     288.4241   -1589.7844    463.19526     165.5963    403.06317    36822.805 
  392700    301.38699   -1569.2648    468.28795    249.28434   -100.58416    36822.805 
  392800    311.37093   -1523.6981    448.81342    320.10617     236.4692    36822.805 
  392900    305.88823    -1507.954    480.60967    343.08308   -383.64485    36822.805 
  393000    300.76957   -1506.1678    494.23948    335.56668   -443.43431    36822.805 
  393100    286.28712    -1520.227    454.80956    217.19391    121.99079    36822.805 
  393200    295.03706   -1483.0375    485.31015    324.08517   -828.75692    36822.805 
  393300     303.5382   -1545.1278    485.52066    300.29177   -887.24685    36822.805 
  393400      286.555   -1524.3879    457.83253    217.25615     -332.222    36822.805 
  393500    299.50479   -1545.2394    467.99953    264.58875   -402.12872    36822.805 
  393600    302.17025   -1551.4088     481.5387    283.90021    150.35601    36822.805 
  393700    293.03371   -1524.4535    495.55617    283.93986   -196.65049    36822.805 
  393800    295.52793   -1547.6363    467.52739     243.9028    2.9584057    36822.805 
  393900    303.84615   -1547.2521    463.25906    277.28561    421.67998    36822.805 
  394000    313.38889   -1562.1135    490.66923    332.58737    352.86922    36822.805 
  394100    302.05294   -1561.5066    483.08163    274.81975    179.33814    36822.805 
  394200    295.77843   -1565.4591    474.52117    234.19602    444.52433    36822.805 
  394300    292.25008   -1537.1375     484.4379    256.62678    200.34428    36822.805 
  394400    300.13385   -1524.0184    489.70088    310.32941    54.282112    36822.805 
  394500    288.88788   -1551.5391    491.29191    234.01601    117.97576    36822.805 
  394600      299.479   -1557.6827     447.9581     231.9885   -587.23574    36822.805 
  394700    304.54978   -1540.9658    480.31875    303.78388   -120.74958    36822.805 
  394800    286.45058   -1507.0344    489.13961    265.44894   -1018.4853    36822.805 
  394900    292.82594   -1508.2404    470.68814    274.35408    -626.8968    36822.805 
  395000    302.56396   -1569.1028     497.3379    283.76933   -513.98671    36822.805 
  395100    304.48084   -1519.7956    451.12471    295.45118    80.214501    36822.805 
  395200     298.3937   -1478.7389    480.67127    338.78311    497.81703    36822.805 
  395300     308.8062   -1549.4659    480.92284    314.95738    632.85996    36822.805 
  395400    293.43492   -1554.4192    470.40445    230.61993    255.46165    36822.805 
  395500    291.31269   -1533.0815    461.03011    233.07534    264.84382    36822.805 
  395600    298.29542   -1529.0661    478.41968    285.76406    7.8433585    36822.805 
  395700    298.94238   -1513.0579    496.33582    322.58683   -366.13204    36822.805 
  395800    303.42906   -1511.7439    475.07684    322.74286   -397.18673    36822.805 
  395900    304.72392    -1469.084    475.78912    371.91622   -413.03041    36822.805 
  396000    290.40309   -1494.8918    489.29206    295.45187   -727.93656    36822.805 
  396100    293.33543   -1466.9032    497.62418    344.90986   -151.09979    36822.805 
  396200    305.37544   -1533.0155    462.17613    297.29067   -326.45963    36822.805 
  396300    303.30913   -1531.6582    489.54784     316.7623   -134.94965    36822.805 
  396400    303.35613   -1496.2557     481.9085    344.73604    156.72665    36822.805 
  396500    299.50891   -1485.8301    477.73778     333.7548   -286.17807    36822.805 
  396600    300.36183   -1461.5192    467.44401    351.59306   -370.01923    36822.805 
  396700    301.24267   -1482.6041    477.74638    344.75689    287.65097    36822.805 
  396800    304.19875   -1504.8748    502.49215    360.47564    340.95996    36822.805 
  396900    297.31806   -1519.1637    454.46312    267.33115   -166.25404    36822.805 
  397000     296.7671   -1542.9527    489.72766    276.33831   -420.34382    36822.805 
  397100    300.07623   -1458.4978    503.98088    389.87186    52.358099    36822.805 
  397200    306.93958   -1527.6453    484.12227    331.61462    340.07643    36822.805 
  397300    307.12533   -1510.6248     469.4529    334.79794   -222.24229    36822.805 
  397400    306.07461    -1542.515    473.74088     302.4883   -213.45143    36822.805 
  397500    299.15509   -1499.3537     467.5401    308.44833    -446.0274    36822.805 
  397600    310.52516   -1457.3726     478.1749    412.00394    119.45689    36822.805 
  397700    293.91764   -1523.7113    477.56138    270.64741    300.01069    36822.805 
  397800    296.36874   -1511.1043    483.12369      299.798   -518.26078    36822.805 
  397900    296.53826   -1516.8692     462.4806    274.14951    81.917464    36822.805 
  398000    297.27801   -1500.0069    496.70244    328.54782    88.399447    36822.805 
  398100    303.43997   -1525.5761    464.40506    298.28781   -266.51816    36822.805 
  398200    307.49739   -1544.7244    482.62915    315.54153    77.390822    36822.805 
  398300     299.8313   -1527.3798    487.44282    303.35445    485.31646    36822.805 
  398400    294.67341   -1552.7336    462.24928    229.69895    698.70401    36822.805 
  398500    298.02168    -1590.083    463.51421    208.61525    409.50758    36822.805 
  398600    296.93635    -1550.453    472.25351    252.12216     215.8072    36822.805 
  398700     305.8671   -1528.6374     458.5508    300.24621    342.03538    36822.805 
  398800    297.09176   -1501.9656    467.11752    296.16977    194.25133    36822.805 
  398900    300.39642   -1580.8414    465.36283    230.34466   -208.87163    36822.805 
  399000     297.9624   -1572.3017    453.14871    215.76545   -298.69067    36822.805 
  399100    308.80409   -1559.7764    448.84875    272.56336   -322.08961    36822.805 
  399200    302.24668   -1586.0504    469.55752    237.61989   -42.916672    36822.805 
  399300    298.07152   -1595.8842    459.50354    199.02673    69.491055    36822.805 
  399400    298.76399   -1552.1716    489.61996     275.9581    70.600377    36822.805 
  399500    308.38305   -1563.5763    488.26111    306.28942   -170.22606    36822.805 
  399600    288.54747   -1555.2315    476.02717    213.53383    235.97663    36822.805 
  399700    301.98331   -1503.9695    477.01112    325.97445    444.43546    36822.805 
  399800    308.95005    -1502.604    480.89175    362.43265    652.10359    36822.805 
  399900    309.32388    -1561.678    475.70456    299.84626    773.13033    36822.805 
  400000    300.67576   -1507.8099    452.12653    291.39144    402.65013    36822.805 
  400100     296.3499   -1519.4604    454.86766    263.10152   -463.35069    36822.805 
  400200    307.58678   -1507.7583    458.38559    328.66448    344.60774    36822.805 
  400300     301.2343   -1492.7494    476.50517    333.33286    -411.7888    36822.805 
  400400    303.18897   -1467.4212    466.47593    357.38909    228.73128    36822.805 
  400500    304.18424   -1500.3246       458.75    321.21875    108.08377    36822.805 
  400600    312.70317    -1524.848    454.43216    330.54361   -298.73631    36822.805 
  400700    295.36736   -1456.5414    467.50593    334.25687   -310.51569    36822.805 
  400800    299.02305   -1517.6895     460.1469    282.12775   -148.98277    36822.805 
  400900    309.77771    -1515.217     472.9668    345.60277    62.689877    36822.805 
  401000    290.91286   -1523.9149    469.86599    249.28649   -207.70791    36822.805 
  401100    290.35776   -1497.1636    475.46012    279.14498    -393.0936    36822.805 
  401200    312.44704   -1520.2537    454.71804    334.27634   -329.53175    36822.805 
  401300    306.61923   -1494.7286    473.83268    352.80653   -30.008805    36822.805 
  401400    298.33486    -1490.565    476.22258     322.2447   -182.04297    36822.805 
  401500    300.97476   -1540.9394    474.13674    281.61172    269.68177    36822.805 
  401600    293.97776   -1556.2416      483.103    243.92805    384.51799    36822.805 
  401700    292.49302   -1546.4866    478.51535    242.44353    535.05687    36822.805 
  401800    297.50863   -1497.4587    479.17951    314.60634  -0.71925893    36822.805 
  401900    302.10121   -1502.9767    472.22988    322.71414    357.61007    36822.805 
  402000    307.02266   -1526.8948    471.08056    319.69567   -53.773454    36822.805 
  402100    301.84128   -1532.5323    468.97603    288.74024   -9.9844078    36822.805 
  402200    301.75046   -1524.5036    441.69146    269.07745    213.60207    36822.805 
  402300    287.17752   -1551.1933    462.84977    198.25695   -452.82736    36822.805 
  402400    285.69367   -1513.8795    482.18433    248.25743    66.765078    36822.805 
  402500    306.38739   -1467.1908    480.67303    386.14605    167.09436    36822.805 
  402600    301.54026    -1496.101    493.79414    348.64102    452.80399    36822.805 
  402700    291.44989   -1496.7609    479.60328    288.58383    67.628567    36822.805 
  402800    304.32819   -1505.0438    482.77604    341.17047    24.400155    36822.805 
  402900    300.98908   -1526.2445    463.67287    285.90682   -216.82276    36822.805 
  403000    299.45821   -1503.5683    504.55773    342.60941    166.08858    36822.805 
  403100    300.43168   -1515.8304    461.51391    291.66473   -789.69299    36822.805 
  403200     310.3404   -1533.1039    478.99536    336.26536   -281.87763    36822.805 
  403300    292.85394   -1555.6074    443.44306    199.86748     -482.166    36822.805 
  403400    301.70209   -1498.5515     482.4969    335.61831   -160.31818    36822.805 
  403500    306.62732   -1531.2187    465.25985    307.77987     28.80667    36822.805 
  403600    308.81785   -1541.7365      469.196    311.01206    191.17618    36822.805 
  403700    290.92877    -1549.762    476.21388    229.85863    232.95851    36822.805 
  403800    292.34552   -1517.8711    456.46081    248.34365    211.60045    36822.805 
  403900    298.22463   -1499.5312    474.94472    311.50679    78.382404    36822.805 
  404000    305.43445   -1529.4925    454.70645    293.60841    143.64571    36822.805 
  404100     296.5242   -1505.7913    491.66815    314.35203   -473.79756    36822.805 
  404200    303.21646   -1487.4167     452.7205    323.76132   -498.48334    36822.805 
  404300    302.94237   -1493.7424    498.61701    362.10419   -177.55217    36822.805 
  404400     299.1322   -1475.0133    436.58183    301.72792   -150.44571    36822.805 
  404500    293.73969    -1509.522    473.18987    279.66801   -246.78217    36822.805 
  404600    306.57221   -1520.2486    489.32795    342.57113   -138.93874    36822.805 
  404700    299.63838   -1477.5132    473.96302    338.87701   -405.79527    36822.805 
  404800    293.68682   -1459.0544    482.45695    339.16579    -555.1068    36822.805 
  404900    289.91279   -1437.0105    477.53265    339.37711   -648.57053    36822.805 
  405000     298.9496   -1479.4522    489.27373     349.1628   -418.81435    36822.805 
  405100    292.27448   -1529.9945    474.58615    254.02735    239.35772    36822.805 
  405200     292.7539     -1517.48    476.59974    270.70331    109.99088    36822.805 
  405300    297.40093   -1549.9361    459.27655    241.74345     227.4943    36822.805 
  405400    296.29863   -1561.5512    466.76081    232.67413    235.43565    36822.805 
  405500    306.38007   -1541.9999    479.41202    310.04312    301.86952    36822.805 
  405600    297.50889   -1533.8432    477.15562    276.19915    438.42634    36822.805 
  405700    297.66946   -1468.2424    480.61573    345.97937    702.69207    36822.805 
  405800    297.50542   -1498.3401     463.8105    298.34151     513.3654    36822.805 
  405900    309.59716   -1529.6053    469.85051    327.28923    385.60538    36822.805 
  406000    303.83152   -1493.3619    494.58331    362.43444     393.0905    36822.805 
  406100    301.35652   -1502.3329    479.65561    327.44734    668.71741    36822.805 
  406200    306.81223   -1501.3826    479.71353    352.89802    1283.8665    36822.805 
  406300    291.37741   -1444.5934    509.85315    370.67641    957.87471    36822.805 
  406400    290.35312   -1481.9197    476.76283    295.67089    690.77539    36822.805 
  406500    294.86101   -1516.9304    464.08995    268.18336    76.214533    36822.805 
  406600    306.53875   -1507.9173    474.51531    339.93987 -0.084480958    36822.805 
  406700    299.20053   -1488.1208     444.2346    296.57933   -433.54132    36822.805 
  406800    303.52744   -1481.5051    460.66224    339.00784   -333.35362    36822.805 
  406900    296.05271   -1457.1551    482.30079    351.50843   -359.39193    36822.805 
  407000    301.96949   -1449.4468    471.11866    374.54277   -107.48488    36822.805 
  407100    299.70704   -1442.4463    496.40615    396.69456   -51.730648    36822.805 
  407200    317.28665   -1461.9541    488.28676    447.82686   -71.910999    36822.805 
  407300    300.73197   -1447.2853     481.2224    381.26366    408.80978    36822.805 
  407400    300.68217   -1424.1671    477.74249    400.67889    442.60334    36822.805 
  407500    302.90852   -1443.1028     475.0321    389.00715    44.962749    36822.805 
  407600    306.33599   -1467.5573    480.84062    385.71679    15.695678    36822.805 
  407700    289.79343   -1442.4433    461.06883    316.94576    68.402388    36822.805 
  407800    301.96638   -1464.4583    496.85712    385.25575    75.960549    36822.805 
  407900    307.83742   -1493.3375    459.05356    344.87615    43.635833    36822.805 
  408000    287.66576   -1516.0555    472.38899    245.12139    -147.2344    36822.805 
  408100    299.67292   -1499.1102    460.95101    304.42266   -409.91106    36822.805 
  408200    306.44151   -1473.8915    478.61441    377.62914   -414.02743    36822.805 
  408300    295.30681    -1480.525    459.13641    301.63245   -134.77194    36822.805 
  408400    294.58402   -1488.2311    475.24879    306.80052    -865.2266    36822.805 
  408500     303.9906   -1513.2602    469.60864    318.27425   -179.53854    36822.805 
  408600    290.63293   -1493.7645    481.72424    290.04104   -141.68849    36822.805 
  408700    306.98084   -1500.3966    465.22039    340.14635    149.29764    36822.805 
  408800    296.84836   -1505.2049    474.01748    298.73993   -1031.5609    36822.805 
  408900    291.73931    -1499.796     441.3704    248.61245   -604.02585    36822.805 
  409000    313.90757   -1502.8089    468.96693     372.5134   -129.88243    36822.805 
  409100    309.37926   -1561.1238    455.97559    280.91961   -174.38609    36822.805 
  409200    299.43573   -1567.4407    440.75424    214.83278   -160.78228    36822.805 
  409300     291.8101   -1545.6948    470.72749    232.38791   -376.19037    36822.805 
  409400    313.64719   -1531.4952    477.56076    351.25435   -2.8337866    36822.805 
  409500    302.98332   -1561.7353    460.94495    256.62264    14.503292    36822.805 
  409600    296.67638   -1566.7111    467.78725    230.23309    664.95124    36822.805 
  409700    302.19551   -1525.3884    461.62496    290.12008    185.96376    36822.805 
  409800    294.42996   -1494.1592    482.93326    307.86667    597.32497    36822.805 
  409900    312.38944   -1487.7778    465.78759    377.56374     402.4166    36822.805 
  410000    290.52842   -1528.6938    476.62154    249.54079    559.32304    36822.805 
  410100    295.39652   -1519.6613    470.66188    274.42349   -483.56186    36822.805 
  410200     304.0957   -1517.3844    447.48335    292.49554   -604.75705    36822.805 
  410300     296.0439   -1489.4012    462.67263    299.59468    29.597463    36822.805 
  410400    300.46384   -1526.0085    469.99038    290.10721   -244.13179    36822.805 
  410500    305.87398   -1524.4252    486.02854    331.96691     266.3115    36822.805 
  410600    297.52606   -1526.0993    445.24602    252.11038   -31.664547    36822.805 
  410700    304.22006   -1555.9542    495.86371    302.86328   -172.18122    36822.805 
  410800    285.39633   -1546.2877    424.98246    157.31523   -430.93131    36822.805 
  410900    302.73558   -1581.4423    493.94328    268.80404   -348.62902    36822.805 
  411000    309.40133   -1541.8835    486.44878    330.73203    96.383364    36822.805 
  411100    297.80957   -1554.0638    484.25044    264.42041    70.222557    36822.805 
  411200     290.1871   -1558.6643    472.49827    213.91791    101.84427    36822.805 
  411300    303.14493   -1552.7356    442.17309    247.57457    317.48722    36822.805 
  411400    297.39545   -1555.8969    488.53691    265.01845    -382.5187    36822.805 
  411500    300.24976   -1556.1222    495.58132    284.62538     187.7273    36822.805 
  411600    304.00177   -1498.9559     478.8484    341.86828   -206.93719    36822.805 
  411700    304.91534   -1528.3822    491.45853    329.14507    90.353283    36822.805 
  411800    304.82586   -1529.7255    472.83566    308.77809    414.36331    36822.805 
  411900    284.10001   -1518.5936    478.80084    233.02008    260.53729    36822.805 
  412000    301.44596   -1505.9457    498.26825    342.84795    1183.1947    36822.805 
  412100     300.6684   -1515.8988    476.79768    307.94065    521.60682    36822.805 
  412200    291.10728   -1506.4237    468.56615    266.34895    110.44428    36822.805 
  412300    297.58691      -1554.9    465.64199    243.97823   -118.70897    36822.805 
  412400    300.89033   -1533.0027    467.28396    282.31738     197.4953    36822.805 
  412500    305.59314   -1553.8681    478.18494    293.42219    801.59343    36822.805 
  412600    303.04819   -1549.5024    463.73421    271.93549    420.25958    36822.805 
  412700    301.50797    -1519.773    496.60112    327.63134     377.4605    36822.805 
  412800    309.39724   -1535.2941    463.90206    314.75639    74.693302    36822.805 
  412900    290.06688   -1552.8745    467.11341    213.78426   -147.52227    36822.805 
  413000    298.37276   -1529.3077    474.20948    281.65877    884.59757    36822.805 
  413100    297.92019   -1544.0369    493.48987    284.18236    491.40852    36822.805 
  413200    300.36648   -1519.3998     480.8573    307.14661    563.09576    36822.805 
  413300    309.66652   -1538.9538    475.83966    324.24059    223.12097    36822.805 
  413400    299.06409   -1542.3809    476.41775    273.89107    217.80801    36822.805 
  413500    307.01685   -1565.9492    483.44361    292.97824   -1.7375414    36822.805 
  413600    299.68775   -1577.0498    479.44998    245.04846   -651.13603    36822.805 
  413700    292.32685   -1580.5517    463.09399    192.21259   -753.72298    36822.805 
  413800    293.02537   -1529.4301    468.17312    251.54281   -1316.7708    36822.805 
  413900    305.48042   -1565.1911    485.86646    289.27577   -607.10279    36822.805 
  414000    300.55439   -1547.4024    470.35997    269.48859   -264.44799    36822.805 
  414100    299.02155   -1532.0811    438.87393    246.45647   -251.30406    36822.805 
  414200    303.36158   -1542.8102    489.16217    305.45966     100.2416    36822.805 
  414300    307.15232   -1581.0418    458.87455    253.92353    586.79738    36822.805 
  414400    306.99448   -1560.4211    470.27106    285.23357    46.207278    36822.805 
  414500    292.37232   -1529.2144     447.1093     227.7689   -163.97946    36822.805 
  414600    301.12385   -1499.7992    493.50164    342.78477    569.97694    36822.805 
  414700    300.94007   -1559.4806    480.01776    268.79609    199.69684    36822.805 
  414800    301.70732   -1571.2155    445.81571    226.29652    220.68016    36822.805 
  414900    304.37094   -1591.6837    477.77302    249.71905   -91.557611    36822.805 
  415000    295.25185     -1588.19    472.26446    206.84928      294.735    36822.805 
  415100    288.35763   -1611.7304     447.4561    127.61332    -11.47383    36822.805 
  415200    304.91444   -1585.7344    461.53622    241.86655    194.29469    36822.805 
  415300    305.21111   -1601.9961    459.50755    224.90526   -372.30221    36822.805 
  415400    318.04412   -1603.9283    456.93409    277.89358    216.06622    36822.805 
  415500    297.61099   -1591.1451    463.07471     205.2737   -42.664336    36822.805 
  415600    292.02826   -1603.0035    482.77161     188.1007    436.72646    36822.805 
  415700    308.00156   -1573.5317    482.46112    288.82495    407.80325    36822.805 
  415800    294.35142   -1539.6315    493.63306    272.74228   -333.88599    36822.805 
  415900    297.67822   -1562.7498     481.0595    251.95502   -318.58379    36822.805 
  416000    293.45818   -1552.0071    480.62298    243.35472   -235.98812    36822.805 
  416100    312.19896   -1568.5041    491.30328    321.49966    430.30555    36822.805 
  416200    287.77051   -1587.6622    487.89777    189.49272   -80.396703    36822.805 
  416300    305.36299   -1539.2767    481.80803     310.6056   -70.315692    36822.805 
  416400    291.57919   -1538.4538    498.84823     266.7151   -515.72268    36822.805 
  416500    291.37795    -1544.882     469.4202     229.9573   -50.909897    36822.805 
  416600    296.32353    -1591.564    474.35977    210.37185    256.65266    36822.805 
  416700    307.10406   -1599.3244    487.63975    264.18986    58.887758    36822.805 
  416800    299.11748   -1581.5652    468.26765    226.79585   -160.80563    36822.805 
  416900    305.84071   -1561.6148    459.71189    268.31164   -171.01456    36822.805 
  417000    292.74293   -1565.0068    475.61918    222.14684   -314.81973    36822.805 
  417100    289.58754   -1578.0481     486.1997    205.54936   -507.96863    36822.805 
  417200    307.57115   -1594.2355     461.4666    245.19826   -89.076485    36822.805 
  417300    300.16538   -1583.8072    477.18247    238.16344   -101.76797    36822.805 
  417400    295.21691   -1563.9863     504.7488    263.38075    27.888281    36822.805 
  417500    308.36641   -1562.4686    462.68626    281.74775    148.61532    36822.805 
  417600    309.74473   -1547.4997    487.02508    327.23058    30.118513    36822.805 
  417700    297.66908   -1574.2542    447.05974    206.40991   -152.93117    36822.805 
  417800    307.54764   -1588.6956    482.18365    271.34993    -593.2689    36822.805 
  417900    297.53401   -1576.5478    470.48184    226.93326   -664.25671    36822.805 
  418000    296.76234    -1587.728    468.89753     210.7116   -239.91292    36822.805 
  418100     295.5348   -1586.1844    479.53976    217.39782   -561.84225    36822.805 
  418200     307.3594   -1599.7867    498.48836    275.72016   -482.83407    36822.805 
  418300    301.61793   -1582.8764     438.0692    206.48868   -755.20436    36822.805 
  418400     297.7327   -1545.1426    500.70855    289.45536    191.88586    36822.805 
  418500    296.07407   -1532.3518    472.00953    266.11622     -71.8694    36822.805 
  418600    303.62735   -1556.3761    479.46059    283.38282   -110.78157    36822.805 
  418700    295.85821   -1555.0467    517.04226    287.48696    86.000128    36822.805 
  418800    305.58524   -1546.8821    500.27488    322.46281    177.23523    36822.805 
  418900    303.25203   -1522.9676    504.05716    339.70643      498.271    36822.805 
  419000    296.40958   -1591.1897    477.83828    214.61023     188.4811    36822.805 
  419100    293.94002   -1553.0196     470.8041     234.6821     45.93911    36822.805 
  419200     293.3169   -1578.2489    473.58863    209.44563    223.46481    36822.805 
  419300    289.90689   -1614.0792    462.36281    147.11217   -42.010855    36822.805 
  419400     305.8377   -1606.5359     465.5354    229.20054   -19.684884    36822.805 
  419500    285.28741   -1604.8544    489.16114    162.43925   -722.61644    36822.805 
  419600    291.12968   -1580.2555    482.82825    206.87953   -481.52177    36822.805 
  419700    293.68127   -1566.5084    488.29048    237.52039   -344.75919    36822.805 
  419800    295.44671   -1589.4766    458.88595    193.05716   -283.38305    36822.805 
  419900    292.11147   -1563.3162    474.34936     219.7385    -432.3829    36822.805 
  420000    304.40016   -1584.7133      472.039    251.08639   -150.34712    36822.805 
  420100    309.13527     -1568.36     479.0714    295.68611    -436.7921    36822.805 
  420200     299.8239   -1570.6993    477.98215    250.54114   -392.19872    36822.805 
  420300    299.08799   -1539.4204    485.97924    286.52017   -128.99575    36822.805 
  420400    302.81068   -1526.7654    488.79628    318.67047   -172.39657    36822.805 
  420500    298.94119   -1573.1614    461.12482    227.26705    -856.2637    36822.805 
  420600    297.54722   -1530.6163     517.7353    320.17745   -448.61508    36822.805 
  420700    301.12927   -1554.0478    495.70159    290.76038   -342.08787    36822.805 
  420800    293.26814   -1539.3083    473.28655    247.86567    -211.6617    36822.805 
  420900    290.95599   -1543.0997     485.4915    245.92049   -178.08452    36822.805 
  421000    309.54548   -1584.5328    519.25636    321.53607   -367.80594    36822.805 
  421100    305.92925   -1579.7496    490.42498    281.28658   -152.22262    36822.805 
  421200    292.66077   -1569.4703    472.87019    214.56624   -49.032194    36822.805 
  421300    304.87102   -1608.1869    502.30229    259.98557   -727.35983    36822.805 
  421400    299.31149   -1573.8327    471.38982    238.51976   -157.09852    36822.805 
  421500    306.11607   -1564.8028    505.42359    312.06898   -254.57712    36822.805 
  421600    294.58311   -1601.2325    466.96956     185.5158   -270.34362    36822.805 
  421700    301.37002   -1507.5172    510.23039     352.8984   -306.79498    36822.805 
  421800    309.09698   -1542.2911    471.88931    314.40131    130.33475    36822.805 
  421900    300.22303   -1562.9743    504.88919     286.9613   -56.256146    36822.805 
  422000    309.48454   -1544.7104    501.50035    343.32943    460.99821    36822.805 
  422100    299.74212   -1530.3387    496.42623    308.97942    425.52155    36822.805 
  422200    292.68095   -1570.8234    508.62835    249.06176    76.033989    36822.805 
  422300    306.56093   -1565.2723    464.50308    272.67202   -517.16732    36822.805 
  422400    300.67568   -1526.1896    505.99541    326.88024   -195.92352    36822.805 
  422500    298.82267   -1535.3031    487.83407    291.30364    75.500479    36822.805 
  422600    297.82758   -1539.9317    510.74394    305.12665     296.1891    36822.805 
  422700    288.71355   -1569.0177    487.80283    212.26728    661.74262    36822.805 
  422800    308.69106    -1546.674    494.14322    330.45382    701.01724    36822.805 
  422900     309.9667   -1511.3271    484.56495    361.93745    456.31171    36822.805 
  423000     302.0606   -1489.1608    527.64316    391.76141    565.82414    36822.805 
  423100    302.30511   -1528.7499    482.56296    308.18761    479.53502    36822.805 
  423200    307.07675   -1533.2275    504.60946     347.1342    894.21816    36822.805 
  423300    298.29831   -1545.9749    503.21871     293.6672    158.35415    36822.805 
  423400    294.82285   -1527.1841    475.59669     269.2654    462.67632    36822.805 
  423500     306.3443   -1571.5459    491.00202    291.92684    587.08973    36822.805 
  423600    303.46005   -1535.2712    514.81189    339.08945    1130.6878    36822.805 
  423700    300.68902   -1593.4002    505.95052    259.68452    1157.5297    36822.805 
  423800    300.73338   -1583.3062    479.70281    243.72953    462.35617    36822.805 
  423900     290.0371   -1522.8614    500.48089    277.03136     285.5959    36822.805 
  424000    288.46079   -1558.5644     490.1635    223.94883    58.294014    36822.805 
  424100    303.23092   -1530.9527    479.37704    306.94657   -141.44283    36822.805 
  424200    299.18982   -1529.4488    473.70426    284.67303    -518.5199    36822.805 
  424300    285.06572   -1559.4942    485.58141    203.22658    -714.6794    36822.805 
  424400    300.32032   -1539.4375    507.08545    313.13031   -532.47698    36822.805 
  424500    303.82874   -1579.2244    481.30283      263.279   -359.61828    36822.805 
  424600    293.68922   -1532.4919    527.65952     310.9416   -47.081758    36822.805 
  424700    288.21043   -1517.6338    459.34694    232.94131   -553.99855    36822.805 
  424800    292.46336   -1550.2546    473.33286    233.36014    2.7431878    36822.805 
  424900    307.09104   -1589.7902     478.0241     264.0502    85.042315    36822.805 
  425000    294.36248   -1577.8627    493.88776     234.8153   -190.21638    36822.805 
  425100     292.5557    -1533.399    487.45826    264.75492   -174.29278    36822.805 
  425200    292.79204   -1578.4158     466.2458    199.58446   -531.84086    36822.805 
  425300    304.89681   -1578.7062    491.28593     278.5655   -377.71519    36822.805 
  425400    291.67916   -1548.1221    501.06856      259.715    -627.7325    36822.805 
  425500     295.8316   -1544.4965    504.72566     285.6013   -748.11363    36822.805 
  425600    295.79388   -1543.7833    478.19525    259.61516   -304.40679    36822.805 
  425700      303.948   -1551.4133    467.57881    277.90039    55.962097    36822.805 
  425800    298.39258   -1529.5215     483.7654    291.08962   -384.07705    36822.805 
  425900    302.35465   -1540.9464    489.90379    303.55384    231.44315    36822.805 
  426000      307.519   -1552.1903    485.80525    311.34853    286.49402    36822.805 
  426100    304.23758   -1503.3987    475.41517    335.04875    205.46772    36822.805 
  426200    289.33374   -1531.3875    498.97019    263.84346    383.48775    36822.805 
  426300    300.31613   -1506.8546    497.07798    335.68697      531.593    36822.805 
  426400     287.8578   -1487.2463    508.25723    310.65922     731.7109    36822.805 
  426500    302.25845   -1516.0887    503.92359    342.00039    581.05064    36822.805 
  426600    299.10326   -1535.9564    466.63061    270.70392   -321.90457    36822.805 
  426700    304.45808   -1484.8542    506.68259    385.84857   -751.99366    36822.805 
  426800    290.99674   -1504.7112    488.72906    287.72912   -16.367994    36822.805 
  426900    294.64398   -1487.9512    465.26871    297.36893    74.429966    36822.805 
  427000    302.93815   -1521.4764    492.87801    328.61228    39.359854    36822.805 
  427100    302.39327    -1490.491    500.95857    365.23703    822.76366    36822.805 
  427200    297.79502   -1519.6379    490.65524    305.18589    530.36917    36822.805 
  427300     297.3123   -1498.6092    487.95853    321.35521    227.83419    36822.805 
  427400    297.08293   -1543.1299    466.94343    254.79188     91.49548    36822.805 
  427500    313.78892   -1547.4429     489.7482    348.12904   -33.585009    36822.805 
  427600    300.53292   -1515.0103    487.38749    318.81204   -91.663659    36822.805 
  427700    307.20503   -1537.6885    461.63532    300.27371   -118.50875    36822.805 
  427800    310.69603   -1548.6984    465.11761    308.38641    370.48109    36822.805 
  427900      300.139   -1535.3276    506.34345     315.6859   -36.314737    36822.805 
  428000    289.84528   -1528.7972    487.88911    257.64442    166.57009    36822.805 
  428100    303.32414   -1495.2066    468.64264    332.37595   -305.81817    36822.805 
  428200    308.57793   -1524.0807    482.87121    341.26827   -437.96329    36822.805 
  428300    299.20621   -1558.9075    464.29837    245.88186   -272.45398    36822.805 
  428400    296.55814   -1553.8706    495.82163    270.57825   -495.57332    36822.805 
  428500    297.57458   -1534.6028    481.46852    280.04675   -381.38776    36822.805 
  428600    289.05449    -1517.332    511.00847    288.68609   -607.73314    36822.805 
  428700    295.87259   -1495.5747    490.70461    320.68569   -446.65519    36822.805 
  428800    292.82376   -1540.4558    490.65527      262.096   -779.14333    36822.805 
  428900    290.62261   -1558.5824    491.38472    234.83742   -432.23078    36822.805 
  429000     299.5376   -1568.4701    454.89381    228.39939    721.47286    36822.805 
  429100    303.74979   -1555.0824    478.86762    284.63213    709.61672    36822.805 
  429200    294.73876   -1532.1642    504.18851    292.50035    843.07516    36822.805 
  429300    300.60844   -1565.6957    480.92588    262.00333    498.04424    36822.805 
  429400    294.37323   -1531.5377    467.24633    254.54706     1059.176    36822.805 
  429500    296.82222    -1561.895    495.10727    263.02255    1242.5678    36822.805 
  429600    297.79121   -1561.3921    503.97525    276.73464    630.27775    36822.805 
  429700    299.42978   -1555.8634    493.65114    279.28029    1133.2626    36822.805 
  429800    291.40432   -1560.3142    511.48676    256.70979    1253.2212    36822.805 
  429900    296.90164   -1545.7933    478.24727    262.62015    639.05907    36822.805 
  430000    302.98201   -1583.0564    492.18939    266.54015    422.14646    36822.805 
  430100    304.04685   -1587.1009    467.91319    242.99009   -327.71289    36822.805 
  430200    298.11162   -1594.5896    448.57813    189.57556   -11.670144    36822.805 
  430300    299.23525   -1565.4515      458.916    234.08556   -28.537419    36822.805 
  430400    296.15949   -1567.8467    469.91755    228.91204   -178.86984    36822.805 
  430500    293.74123   -1590.9917    489.96484    214.98018    268.20689    36822.805 
  430600    303.21664   -1581.7236    473.81795    250.55272   -95.891849    36822.805 
  430700    293.17353   -1555.8257    465.46082    223.09877   -190.02437    36822.805 
  430800    306.20215   -1573.7076    469.55432     267.6806   -113.49601    36822.805 
  430900    313.33932   -1602.2765    460.20589     261.7389    133.78691    36822.805 
  431000    292.50309   -1562.0757    477.08673    225.47093    653.02516    36822.805 
  431100    306.04479   -1549.4316    476.16207    297.85937    751.26722    36822.805 
  431200    296.37639   -1585.0465    459.66091    202.42728    371.60713    36822.805 
  431300    304.03785    -1581.676    470.75605    251.21753    679.44747    36822.805 
  431400    288.54859   -1558.7481    449.87123    183.86632   -61.330374    36822.805 
  431500    299.30812   -1577.2526    486.03854    249.73346    239.49667    36822.805 
  431600    304.97098   -1519.0329    479.22625    326.51137    409.85533    36822.805 
  431700    300.92852   -1552.5044    485.64814    281.35087    351.46444    36822.805 
  431800     293.3448   -1561.9927    489.73445    241.97264    547.11979    36822.805 
  431900    300.27253   -1566.7267    482.41247      260.954    256.08106    36822.805 
  432000    305.55339   -1571.2707    465.28396    262.94059    318.98011    36822.805 
  432100    316.43251    -1554.248     493.9413    357.36079    399.30025    36822.805 
  432200    307.21147   -1541.4612    468.32449    303.21908    200.03874    36822.805 
  432300    309.70587   -1586.6535    459.89601    260.77358    -315.6792    36822.805 
  432400    296.36126   -1561.5103    489.04244    255.27729   -278.03573    36822.805 
  432500    301.60735    -1568.576    469.86447    252.53694    108.58856    36822.805 
  432600    301.30947   -1594.3452    464.83902     220.4077   -637.24393    36822.805 
  432700    299.42394   -1564.6476    477.12288    253.94173   -364.22262    36822.805 
  432800    297.70946   -1526.3358    474.55578    282.00524   -62.093681    36822.805 
  432900    293.59844   -1521.6993    465.41635    259.08427   -522.87839    36822.805 
  433000    296.72492   -1534.6395    478.07166    272.80652   -349.11545    36822.805 
  433100    298.44918   -1531.5287    473.44389    279.01449    -213.2711    36822.805 
  433200    297.53121   -1557.6244    479.30386     254.6661    211.16352    36822.805 
  433300    305.49699   -1519.4615     462.1759    311.38904    161.82432    36822.805 
  433400    297.33775   -1555.4493    499.31478    275.98546    5.4428908    36822.805 
  433500    309.72936   -1576.9533    449.15573     259.8388    -93.30093    36822.805 
  433600    295.97141   -1555.9126     474.3833    244.46923    635.68085    36822.805 
  433700    308.08459   -1539.7415    486.01556    326.54156   -395.77934    36822.805 
  433800    299.81353   -1546.0816    485.66802     282.7983   -185.45483    36822.805 
  433900    304.40525   -1547.9894    471.74657    287.54066   -600.04844    36822.805 
  434000    289.59896   -1534.6981    463.22679    225.97762   -361.18011    36822.805 
  434100    301.51876   -1551.0742    470.75186    270.52926   -828.86267    36822.805 
  434200    291.40527   -1503.7459    456.58236    258.37794   -826.28536    36822.805 
  434300    311.07152   -1528.2755    453.51905    318.89298    -159.8562    36822.805 
  434400    290.53625    -1523.029    496.84009    275.45929   -246.42752    36822.805 
  434500    305.12485   -1518.4326    490.93457    339.50935     54.19505    36822.805 
  434600    305.17661   -1572.9474    485.22589    279.51777    322.06674    36822.805 
  434700    302.37267   -1593.0605    473.65425    235.27091     435.1679    36822.805 
  434800    302.67328   -1582.2631    477.69509    251.45603    406.66307    36822.805 
  434900    307.11045   -1547.4557    482.89622     311.3437     887.6502    36822.805 
  435000    294.88241    -1591.604    452.17492    181.69056   -296.78474    36822.805 
  435100    301.64056   -1545.9785    495.52947     300.9482    38.434326    36822.805 
  435200      317.045   -1539.6343     488.2372    369.01443   -211.09022    36822.805 
  435300    308.99689   -1542.2766    478.57187    320.64998   -310.80182    36822.805 
  435400    301.70487   -1504.0995    490.13519    337.72099    92.747457    36822.805 
  435500    302.53729    -1558.184     478.7213    275.95207    586.28507    36822.805 
  435600    292.81986   -1585.1246    495.05626     221.8108    433.86763    36822.805 
  435700    306.81584   -1553.4425    487.29009    308.43091    51.338997    36822.805 
  435800    302.08402   -1520.7087    508.23342    340.90872   -147.93691    36822.805 
  435900    298.69961   -1550.7142    496.05887    283.56596   -347.11324    36822.805 
  436000    291.93959   -1554.6506    479.38057    232.66524   -606.65819    36822.805 
  436100    306.13175   -1553.3907    490.23359    308.36137   -629.55759    36822.805 
  436200    298.57919   -1545.0008     478.1507    270.83172   -854.73358    36822.805 
  436300     307.7628   -1544.1842    471.52179    306.16343    19.322129    36822.805 
  436400    305.00213   -1560.5534    476.41518    282.31936    215.84403    36822.805 
  436500    305.68537   -1524.3176    515.73912    360.94014    310.92239    36822.805 
  436600    297.85609    -1589.903    480.42523    224.96447    306.17056    36822.805 
  436700    303.32836    -1547.696    509.08094     320.3438    256.00903    36822.805 
  436800    308.47284   -1532.5831    476.17791    325.60175   -105.92243    36822.805 
  436900    306.63513   -1516.3587    481.00558    338.42057   -92.681219    36822.805 
  437000    301.40512   -1538.6296     494.2446    305.95747   -633.50903    36822.805 
  437100    291.04445   -1523.9251    470.44443    250.44425   -665.18707    36822.805 
  437200    291.67523   -1537.7356    467.51947    236.53486   -133.28261    36822.805 
  437300    295.05005   -1565.5712    490.49012    246.78958    455.97351    36822.805 
  437400    307.94689   -1570.6422    489.27389    298.28222    244.71169    36822.805 
  437500    301.87918   -1558.5311    509.94493    303.88016    400.01839    36822.805 
  437600    295.27556   -1589.7748    479.33811     212.4443    301.52486    36822.805 
  437700    294.19599   -1593.3591    468.27407    192.95931    361.08361    36822.805 
  437800    308.00209   -1562.4865    469.79896    287.21037   -114.44357    36822.805 
  437900    298.85443   -1585.3037    488.18933    241.80056    304.17021    36822.805 
  438000    306.90635   -1645.6462    476.81419     206.1568   -140.98706    36822.805 
  438100    303.08423   -1645.2162    502.89856    215.54743    98.229713    36822.805 
  438200    301.00202    -1604.646    471.71142     215.6019   -244.09869    36822.805 
  438300    294.66907   -1618.7483    483.72257    185.13817   -123.91806    36822.805 
  438400    309.10694   -1602.0082    499.66357    282.50314   -243.31882    36822.805 
  438500    299.10034   -1575.2505    507.16067    271.92675   -434.70487    36822.805 
  438600    296.70938   -1572.9351    476.96433    233.33396   -395.32548    36822.805 
  438700     287.9159   -1610.2235    492.13786    171.82291   -341.36888    36822.805 
  438800    303.31239   -1613.4574    461.34183    206.77172   -534.80547    36822.805 
  438900    297.24287   -1587.7768    478.35583    222.27386   -867.80499    36822.805 
  439000    286.81757   -1617.6312    479.93952    147.29625   -201.88802    36822.805 
  439100    291.11905   -1611.8942    465.15636    157.52138   -406.50353    36822.805 
  439200    300.94042   -1635.9794    460.34766    172.62871   -286.27084    36822.805 
  439300        305.8   -1612.2377    472.72697    230.52143   -399.18649    36822.805 
  439400    284.72701   -1564.0609    471.43965    183.00061   -136.04212    36822.805 
  439500    297.30873   -1569.7443    491.19909    253.44469    205.17841    36822.805 
  439600    296.86043   -1549.4847    505.39442    285.89117    -184.9327    36822.805 
  439700    300.67178    -1548.535    480.45266    278.97458   -153.45281    36822.805 
  439800    306.27941   -1601.0665     484.2393    255.35283   -235.77384    36822.805 
  439900    305.08546   -1560.4139    473.00671    279.42375   -144.98672    36822.805 
  440000    302.10474   -1545.6108    473.90883    281.77486   -317.35907    36822.805 
  440100    300.67972   -1576.3836    491.59204    262.30095    116.45933    36822.805 
  440200    289.93177   -1565.3145    498.77981     232.4053    8.1720553    36822.805 
  440300    298.83804   -1544.9147    512.88209    306.80884   -274.05298    36822.805 
  440400    297.33879   -1559.0803    469.39366    242.43793   -385.44066    36822.805 
  440500    296.44789   -1573.0654    490.16306    245.23087   -229.51594    36822.805 
  440600    295.68499   -1567.1171    457.06166    214.65985   -72.919394    36822.805 
  440700     294.4397   -1604.2665    485.91039    200.78016   -529.37923    36822.805 
  440800    298.70039   -1543.2209    478.87111    273.87499    47.792453    36822.805 
  440900     299.0297   -1556.3282    475.18135    258.55329   -162.27729    36822.805 
  441000    305.06944   -1555.7424    497.31238    308.32918    88.419161    36822.805 
  441100    286.93519   -1556.9644    482.22807    210.77855   -59.515778    36822.805 
  441200    295.13688   -1594.2364    511.46529    239.48861    644.04439    36822.805 
  441300    295.64332   -1583.0527    465.01501    206.49091    141.74881    36822.805 
  441400    303.01282   -1613.1836    487.21559    231.57718    80.984146    36822.805 
  441500    305.41566   -1593.3025    473.10839    248.11613    142.00399    36822.805 
  441600    309.23316   -1566.8617    481.00166    299.55322    326.83134    36822.805 
  441700    309.66514    -1534.882    499.33285    351.79945    296.20019    36822.805 
  441800    307.65283   -1558.4928    491.90156    311.74192    452.02595    36822.805 
  441900    307.37089     -1628.56    483.03946    231.54943    362.31346    36822.805 
  442000    302.53441   -1589.8256    477.62517    243.20137   -148.38397    36822.805 
  442100    299.77667   -1584.0133     482.7077    241.74109    44.892921    36822.805 
  442200    288.13924   -1598.5544    475.58983    167.94462   -24.661324    36822.805 
  442300    299.74416   -1592.1003     500.5903    251.39108   -712.05555    36822.805 
  442400    300.74269   -1591.9155    479.51293    234.97205   -700.14538    36822.805 
  442500    291.54935   -1547.2201     483.9436    242.91053   -397.85718    36822.805 
  442600    295.51089   -1551.2135    493.96752    266.68933   -408.08393    36822.805 
  442700    320.01815   -1577.3537    484.36692    340.74498    263.96624    36822.805 
  442800     300.5986   -1539.1866    499.30225    306.84476    640.73523    36822.805 
  442900    300.91735   -1583.2752    489.32463    254.20659    449.31489    36822.805 
  443000    293.50657   -1562.3886     501.2792    253.84622    268.52137    36822.805 
  443100    311.41027   -1565.9921    484.08877    313.26369    522.03468    36822.805 
  443200    287.67668   -1555.9515    486.41335    219.29867    464.67907    36822.805 
  443300    298.41135   -1567.1653    472.26276    242.02733   -187.18571    36822.805 
  443400    297.44876   -1553.6511    486.98053    265.94676   -306.86869    36822.805 
  443500    304.35681   -1595.9588    475.88503    243.49272     357.3681    36822.805 
  443600    301.17453   -1571.5898    497.46183    275.18136    97.683193    36822.805 
  443700    301.15765   -1541.0349    481.23966    289.43844    754.39595    36822.805 
  443800    308.56114   -1552.2744    499.67172    329.79983    1180.1884    36822.805 
  443900      300.328   -1538.1331    484.00642    291.39009    186.24032    36822.805 
  444000    302.45078   -1524.8456    494.99324     325.1748    428.77988    36822.805 
  444100     286.2842   -1527.7724    521.57011    276.39603   -139.87286    36822.805 
  444200    289.19718   -1584.3861    510.82562    222.08845   -545.67356    36822.805 
  444300    303.25637   -1591.9549    486.36754    253.04896    -444.7195    36822.805 
  444400    310.02972   -1537.9989    494.41184    345.39491   -334.30725    36822.805 
  444500    298.51749   -1566.1023     496.8994    268.20243   -361.51109    36822.805 
  444600    299.45672   -1577.4255    498.61402    262.80174     37.46019    36822.805 
  444700    305.10664   -1545.2708    489.99671    311.65171   -103.57328    36822.805 
  444800    295.42742   -1549.6983    501.21242    275.07545    172.32105    36822.805 
  444900    294.54857   -1571.9359    499.08844    246.77647    410.44941    36822.805 
  445000     300.0261   -1590.5283    496.21993     249.8558    306.70205    36822.805 
  445100    294.64694   -1591.0843    506.24995     235.2303    883.14956    36822.805 
  445200    293.12866   -1608.4305    509.49918    214.33123     722.5448    36822.805 
  445300    309.78958   -1567.5973    513.50549     333.8143    898.76172    36822.805 
  445400    297.76595   -1570.0931    481.97917    245.92446    661.76978    36822.805 
  445500    301.87436   -1556.1628    501.11423    297.39609    128.61553    36822.805 
  445600     298.5759   -1602.2376    502.16944    237.59895     313.0229    36822.805 
  445700    297.22882   -1557.4225    500.71554      274.925    383.94439    36822.805 
  445800      290.942   -1550.3736    493.14286    246.23526     296.7382    36822.805 
  445900    295.22095   -1548.2018    539.40927     313.8438     75.61775    36822.805 
  446000    305.59692   -1547.3225    483.81667    305.61648    45.198055    36822.805 
  446100    293.74425   -1556.2603    498.52955    258.28974   -239.22576    36822.805 
  446200    303.89821   -1547.3231    482.82122    297.00996   -524.46462    36822.805 
  446300    287.50478   -1562.1814    472.22413     198.1094    46.460623    36822.805 
  446400    300.59157   -1578.4364    468.96222    237.22336   -443.77532    36822.805 
  446500    303.50296   -1567.1638    494.47909    287.05642   -16.611775    36822.805 
  446600    293.02667   -1577.7197    510.54737    245.63331    334.20244    36822.805 
  446700    307.16421   -1549.5762    490.44245    317.01025    1085.5963    36822.805 
  446800     300.7258   -1532.9568    511.09166    325.43377    888.66866    36822.805 
  446900    309.97979    -1534.296    493.95925    348.42149    664.34601    36822.805 
  447000    297.79852   -1534.7461    497.48791    296.92611    760.07338    36822.805 
  447100    295.40263   -1585.7063     509.3724    247.11647    373.23196    36822.805 
  447200     304.0926   -1560.0128    505.34743    307.71732    718.10814    36822.805 
  447300    301.85657   -1606.4644     520.4877     266.3883    371.01536    36822.805 
  447400    310.00791   -1623.4265    497.58276     263.0405    361.15377    36822.805 
  447500    306.94523   -1603.5212    494.25119    265.89296   -107.52103    36822.805 
  447600    292.29711   -1536.0612    485.33728    258.81321    -538.0118    36822.805 
  447700     287.7232   -1539.2074    496.13067    245.96855   -660.54045    36822.805 
  447800    290.72776     -1536.13    505.67308    272.04919   -807.89309    36822.805 
  447900     296.7359   -1548.4172     502.5868    283.59319   -118.08265    36822.805 
  448000    294.05668    -1547.535    513.12825     283.0135    178.94972    36822.805 
  448100    298.20794   -1545.3269    504.44221    295.13384    435.62188    36822.805 
  448200     303.6412   -1584.2002    478.62072    254.78095    374.25033    36822.805 
  448300    311.44246   -1584.1392    493.34346    304.51551    387.60796    36822.805 
  448400    289.59405   -1596.0295    507.59827    208.99569    44.371097    36822.805 
  448500     296.3326   -1574.7113    485.65421    238.55963    376.73982    36822.805 
  448600     295.2734    -1552.267    473.10847    243.71278    25.058257    36822.805 
  448700    295.64097    -1557.617    514.10066    281.00179   -115.08783    36822.805 
  448800    325.21534    -1528.674    493.06487    421.40682   -150.05906    36822.805 
  448900    292.24783   -1520.7639    491.46565    280.01807    12.679268    36822.805 
  449000    302.27111   -1522.0713    526.54243    358.69327   -241.38845    36822.805 
  449100     310.8726   -1497.6819    522.51754    417.59387     358.8958    36822.805 
  449200    285.97773   -1553.2871    508.70846    236.64659   -79.356001    36822.805 
  449300     305.5025   -1512.3416    523.57313    379.93079   -156.86468    36822.805 
  449400    290.01824   -1540.5502    478.57766     237.3549   -98.877341    36822.805 
  449500    305.90965   -1542.3613     543.3841    371.54624     -126.481    36822.805 
  449600    296.94188   -1575.2134    503.69009    258.82305    299.74519    36822.805 
  449700    287.65991   -1600.1103    506.20403    194.85549    93.497704    36822.805 
  449800    300.96854   -1528.9881    517.21116    336.60955    223.80861    36822.805 
  449900     303.5418   -1562.4632    483.63618     281.0881    37.612042    36822.805 
  450000    299.05496    -1533.496    481.50793    287.82524    -88.74006    36822.805 
  450100    298.76705   -1571.8783     494.4866    261.13178   -35.076391    36822.805 
  450200    302.03434   -1547.1777    530.71618    336.69985    684.40886    36822.805 
  450300    306.34266   -1511.6983    522.75296    383.51805    100.58956    36822.805 
  450400    295.45793   -1518.7365    517.74834    322.70991   -420.78891    36822.805 
  450500    304.28393    -1529.627    501.15043     334.7634   -56.540255    36822.805 
  450600    298.18981   -1539.8824    514.94655    311.00146   -160.88687    36822.805 
  450700     301.3533   -1532.9059    480.65988    297.86425   -233.87301    36822.805 
  450800    295.79352   -1549.6139    507.54258    283.13021   -382.36204    36822.805 
  450900    302.53624   -1535.3267    519.98527    340.06855   -454.97462    36822.805 
  451000    295.60343   -1547.4564    524.84554    301.73909   -346.48379    36822.805 
  451100    305.70439   -1554.9959    513.75441    328.36227    14.257607    36822.805 
  451200    293.41222   -1538.8757    487.08359    262.74082   -74.165626    36822.805 
  451300    309.36009   -1520.8348    501.74572    366.89285   -528.54534    36822.805 
  451400    297.21749   -1589.0965    501.09966    243.58432   -16.034261    36822.805 
  451500     305.6547   -1589.9116    477.21548     256.6851   -75.991516    36822.805 
  451600    293.99779   -1568.3445    479.30218    228.11409   -176.72623    36822.805 
  451700    305.81444   -1555.2099    495.84705    310.73406    -302.5971    36822.805 
  451800    295.05688    -1547.848     506.9114    280.96473   -378.37294    36822.805 
  451900    300.49884    -1527.653    520.34052    338.96966   -289.24161    36822.805 
  452000     304.9383   -1548.5311    511.02883    328.66928   -246.26822    36822.805 
  452100    296.08717   -1576.9766    505.59417    255.13471    2.9765523    36822.805 
  452200    300.92305   -1530.8098     483.7579    301.13082    92.896725    36822.805 
  452300    290.74993   -1496.5868    502.95718    308.97582   -144.23306    36822.805 
  452400    299.45894   -1549.2905    499.98364    292.31635   -236.16464    36822.805 
  452500    294.04265   -1560.6911    496.28767    252.95394    259.14778    36822.805 
  452600    292.92718   -1539.8613    502.15273    274.65132     779.2416    36822.805 
  452700    310.38222    -1576.459    525.25059    339.35281    723.67021    36822.805 
  452800    294.56829   -1564.9994    492.99432    247.70724   -46.439499    36822.805 
  452900    301.03161   -1567.1374    520.87869    302.41034   -88.074874    36822.805 
  453000    297.02122   -1561.2048     475.8219    245.31894    6.3581722    36822.805 
  453100    297.43429   -1555.3999    507.59056    284.74311   -1012.4128    36822.805 
  453200    298.56136   -1545.4117    517.12086    309.31106   -190.23792    36822.805 
  453300    293.47491   -1554.4807    505.81112    266.14428   -245.22185    36822.805 
  453400    307.19701   -1575.3042    518.88479    319.87157    263.76592    36822.805 
  453500    301.34653   -1590.3383    474.22541    233.96698   -32.517169    36822.805 
  453600    289.56498   -1563.8131    523.24139    256.72501   -15.407738    36822.805 
  453700    294.08538    -1513.087    505.26796    309.72978    -108.4852    36822.805 
  453800    293.92983   -1540.3645    477.25026    253.73775    249.13887    36822.805 
  453900    295.86207   -1516.4333    550.64094    359.71632    -38.76646    36822.805 
  454000    304.39296   -1592.1817    479.98318    251.52988   -62.979231    36822.805 
  454100    310.95122   -1545.2213    512.22357    360.11267   -43.099447    36822.805 
  454200    294.34064   -1526.7013    483.61246    275.60358   -528.80287    36822.805 
  454300    300.81839   -1528.1563    510.12506    329.68257   -445.30439    36822.805 
  454400    310.29512   -1597.2265    514.53091    307.47546    766.44517    36822.805 
  454500     292.7522    -1576.939    496.41414    231.05115    475.74407    36822.805 
  454600    301.12701   -1550.3029    506.42563     305.2192    549.06566    36822.805 
  454700    294.24079   -1563.6134     477.7333    232.36498   -111.78552    36822.805 
  454800    300.79128    -1491.657    505.92645    361.86177   -526.79283    36822.805 
  454900    294.83928    -1552.342    505.42278     274.0072    -775.5305    36822.805 
  455000    293.99528    -1536.777    503.53423     283.9024   -747.27567    36822.805 
  455100    301.62936   -1581.8183    508.65488    278.18362   -154.22438    36822.805 
  455200     295.6537   -1553.8856     524.4881    295.17763    5.5754586    36822.805 
  455300    304.30867    -1565.825    505.48795    303.01379   -65.128366    36822.805 
  455400    296.54236   -1566.3116    530.55536    292.80027    90.738852    36822.805 
  455500    301.28884   -1625.6209    517.12272    241.32329    75.966042    36822.805 
  455600    296.73093   -1600.4981    501.31568    230.21887   -426.04702    36822.805 
  455700    298.52983   -1573.3505    518.07353    282.18368   -416.81701    36822.805 
  455800    294.06269   -1557.2755    500.79602    260.96771    -44.34944    36822.805 
  455900    299.99532   -1579.4414    508.66333    273.24819   -263.02436    36822.805 
  456000    302.22619   -1571.4496     471.8584    254.42974   -200.63125    36822.805 
  456100    312.76116   -1597.9846    505.12335    308.35797   -321.71704    36822.805 
  456200    289.36032    -1592.054     483.8878    188.21359   -44.936066    36822.805 
  456300    297.50015   -1608.6077    506.78896    231.02876   -421.59637    36822.805 
  456400    303.64928   -1577.3008    495.72174    278.81754   -359.29569    36822.805 
  456500    311.53738   -1574.5373    499.75215    320.95141    184.12617    36822.805 
  456600    301.01894   -1588.6256    503.75074    263.73741    121.04347    36822.805 
  456700    299.16321   -1623.6205    517.38494    234.06277    807.25879    36822.805 
  456800    299.61689   -1599.6365    512.35247    255.04686    1028.5316    36822.805 
  456900    311.09109   -1592.5347    467.59386    268.79626     1042.598    36822.805 
  457000    302.81246   -1565.3113    528.22085    319.55711    304.24898    36822.805 
  457100    303.91071   -1599.3483    481.62719    243.84678    546.17547    36822.805 
  457200    293.08715   -1566.5402    509.95904    256.49542    590.38017    36822.805 
  457300    300.40764   -1607.5479    510.93396     249.2596    571.83101    36822.805 
  457400    298.66602   -1619.6203    504.64918    223.09968    232.51067    36822.805 
  457500    299.30412   -1597.5475    515.25418    258.63628    279.59931    36822.805 
  457600     293.3343   -1607.5241    480.74554    187.40534   -140.47385    36822.805 
  457700    296.12341   -1581.0288    469.55346    215.20419   -475.94834    36822.805 
  457800    308.47867   -1608.2675    505.01119    278.77674    145.90144    36822.805 
  457900    304.98196   -1576.8827    469.97754    259.46207   -64.984656    36822.805 
  458000    294.14195   -1595.1775    522.75413    245.37892    48.218944    36822.805 
  458100      303.639   -1610.5018    482.57128    232.42002    416.73747    36822.805 
  458200    295.09387    -1646.004    468.27866     144.3417   -200.56671    36822.805 
  458300     299.0564   -1606.9233    498.60202    231.49851    404.12224    36822.805 
  458400     305.9557   -1629.1414    464.31829    205.90661   -369.43368    36822.805 
  458500    300.21998   -1558.3855    515.02837     301.6757   -476.69722    36822.805 
  458600    299.12384   -1562.3765    461.97684    239.72223   -588.36245    36822.805 
  458700    304.52216   -1562.9651    511.83521    313.17739   -439.26606    36822.805 
  458800    301.27045   -1599.5572    488.76134    238.94322   -172.62656    36822.805 
  458900    318.58338   -1581.3631    482.27328    328.21387    447.03399    36822.805 
  459000    309.79587   -1581.3533    518.70301    325.28404   -81.455647    36822.805 
  459100    293.85828   -1551.2377    480.44719    245.74089    -142.5982    36822.805 
  459200    297.76837   -1558.8788    466.31574    241.48608    189.39023    36822.805 
  459300    298.54128   -1596.2655    499.21819    240.46467    94.491178    36822.805 
  459400    313.64518   -1555.1905    498.60011    348.58945   -11.407009    36822.805 
  459500    293.42782   -1575.1735     500.1463    239.57568   -649.87402    36822.805 
  459600    312.84621   -1556.3192    462.44214    307.72322   -580.07445    36822.805 
  459700    291.54354   -1545.9851    514.34482    274.52071   -326.05645    36822.805 
  459800    310.04398   -1588.6054    511.87686    312.31729    518.35798    36822.805 
  459900    305.09284   -1572.1491    514.84153    309.55639    561.74266    36822.805 
  460000    293.59706   -1540.5899    508.97728    283.74849   -109.97086    36822.805 
  460100      305.952   -1574.3701    470.34392    266.68695   -318.65394    36822.805 
  460200    299.47955   -1586.4596    489.13983    244.39577   -136.71465    36822.805 
  460300    298.56352   -1577.2162    492.66704    253.06249   -195.84419    36822.805 
  460400    303.81905   -1548.4544    478.81214    291.51499   -96.312964    36822.805 
  460500    295.73907   -1549.6896    515.35721    290.62524   -240.03173    36822.805 
  460600    304.84714   -1580.5367    485.50097    270.72751   -220.31635    36822.805 
  460700    300.46974   -1581.9955    503.40193    267.55822   -415.43215    36822.805 
  460800    295.95436   -1548.6161    467.87156    245.17767   -370.77265    36822.805 
  460900    298.35885   -1576.1383    461.33217    221.88854   -299.81574    36822.805 
  461000    295.61795   -1573.1084    485.87412    237.18068   -360.10288    36822.805 
  461100    303.05066    -1597.977    487.64886    247.38656    525.51462    36822.805 
  461200     297.7855   -1610.6374    507.38277    230.87135    305.74401    36822.805 
  461300    303.11489   -1572.0448    475.07219    261.02979    153.48997    36822.805 
  461400    300.04589    -1585.151    482.46815    241.57002    -7.159688    36822.805 
  461500    303.14695   -1524.4219    503.89088    337.61506   -146.77267    36822.805 
  461600    306.43715   -1542.1102    503.59378     334.3703   -553.84328    36822.805 
  461700    298.56075   -1515.5554    498.04731    320.09102   -359.77055    36822.805 
  461800    295.26167    -1567.491    445.21228    200.54007   -853.82831    36822.805 
  461900    302.47754    -1579.136    488.98951    265.00057   -659.16007    36822.805 
  462000    293.69009   -1579.5032      495.749    232.02362   -416.59257    36822.805 
  462100    298.35013   -1562.5019    479.15438    253.30803   -356.40733    36822.805 
  462200    293.47734   -1563.7961    497.30727    248.33593   -382.32683    36822.805 
  462300    294.27779   -1553.0351    505.02285    270.39855   -78.428612    36822.805 
  462400    295.03148   -1567.6432    483.07482    237.21906   -219.38197    36822.805 
  462500    291.43652   -1568.3619    470.57516    207.89481   -754.26131    36822.805 
  462600    303.64281   -1528.3218    497.43031    329.47607   -829.88591    36822.805 
  462700    309.74182   -1553.5097    492.08749    326.26989   -310.59613    36822.805 
  462800      294.352   -1539.1059    493.87868     273.5161   -378.91988    36822.805 
  462900    293.47731    -1504.559    502.12694    312.39245   -1069.0955    36822.805 
  463000    305.54965   -1553.5122    497.11167    312.51005   -489.08208    36822.805 
  463100    287.74936    -1548.017    493.14736    234.29285    50.692748    36822.805 
  463200    308.80551   -1568.9387    491.82702     306.3857    13.242644    36822.805 
  463300    298.87797   -1600.1646    499.05765    237.91345    643.41588    36822.805 
  463400     294.4588   -1582.7975    486.66981    223.09408    99.919573    36822.805 
  463500    296.90415   -1552.0956    490.64441    268.72613    650.93741    36822.805 
  463600    299.17433   -1581.9722    481.43075    239.80667   -499.17831    36822.805 
  463700    302.40929   -1570.8954    486.26266    270.20847   -876.11396    36822.805 
  463800    305.90119   -1589.6961    472.98539    253.77485     -80.3248    36822.805 
  463900    306.88212   -1631.2095    500.49383    244.16462  -0.21278099    36822.805 
  464000    295.55763   -1626.6273    487.74984    185.26729    464.21855    36822.805 
  464100    301.99739   -1574.0828    489.24943    268.16251    898.44811    36822.805 
  464200    302.59282   -1603.9866    503.15078     254.8277    980.10561    36822.805 
  464300    285.06966    -1637.447    497.77604    137.48601    688.43377    36822.805 
  464400    302.45955   -1610.9517     490.2714    234.38616    541.37209    36822.805 
  464500     297.8742   -1580.1821    514.27877       268.62    233.67472    36822.805 
  464600    300.58787   -1572.3071    478.12412    252.49807   -119.92638    36822.805 
  464700    290.49147   -1533.6052    506.83694    274.67933    -302.8812    36822.805 
  464800    297.78424   -1525.6349    491.48368    299.96908    -70.63328    36822.805 
  464900    292.65753    -1526.256    472.52395    257.41975   -493.11932    36822.805 
  465000    297.04643   -1520.9452    524.69565    334.56526   -975.30903    36822.805 
  465100    296.02658   -1540.9196    498.10776    283.43387   -349.06149    36822.805 
  465200    304.19884   -1502.1741    495.24525    355.92991   -630.81481    36822.805 
  465300    297.16323   -1505.9178    494.85037     320.2706   -803.96079    36822.805 
  465400    310.22308   -1516.5767    516.67495     389.9465   -173.08274    36822.805 
  465500    301.19656   -1515.6417    501.22435    334.99064     -221.647    36822.805 
  465600    300.76731   -1554.3665    494.66811    287.78655   -435.28034    36822.805 
  465700    306.95542   -1505.0254     480.5387    350.72193   -244.37868    36822.805 
  465800    301.55999   -1547.0748     492.6002    296.56165   -299.31939    36822.805 
  465900    288.54397    -1557.246    499.16608    234.64251    614.55594    36822.805 
  466000    293.73453   -1578.8702    494.08469    231.19141    670.04654    36822.805 
  466100     299.0131   -1537.6171    500.48429      302.493    590.54229    36822.805 
  466200    294.95584   -1511.8945    516.77931    326.33339    574.12104    36822.805 
  466300    297.19369   -1556.9656    468.90533    243.41428    346.78675    36822.805 
  466400    308.41406   -1548.1171    504.77141    338.39786    505.65327    36822.805 
  466500    303.07206   -1533.9023    484.59875    308.50699     227.8176    36822.805 
  466600    301.07727   -1519.3964    497.14585    326.62306   -264.97278    36822.805 
  466700    305.20849   -1514.7866    470.69645    323.29196   -54.298089    36822.805 
  466800    282.15099   -1496.1913    484.23546      252.125   -735.28154    36822.805 
  466900    300.39216   -1533.0841    504.11153    316.83163   -253.78818    36822.805 
  467000    310.20633   -1548.0275    472.80818     314.5539    536.89997    36822.805 
  467100    289.21491   -1615.9678    473.44614    153.20666    380.05931    36822.805 
  467200    299.62721   -1588.0262    508.44162    262.79255    152.29054    36822.805 
  467300    293.08531   -1546.8399    490.50851    256.73693    -310.4387    36822.805 
  467400    292.76016    -1550.779    504.43743    265.27008    159.21251    36822.805 
  467500    304.10406   -1564.4985    475.78707     273.7227   -460.51784    36822.805 
  467600    305.26233   -1530.1837    484.26628    321.70592    -607.5868    36822.805 
  467700    289.35424   -1513.6521    482.20416    264.90464   -105.15837    36822.805 
  467800    297.38879   -1527.1897     487.1443    292.30324    -407.0449    36822.805 
  467900    296.11024   -1528.6666    488.60469    286.55862    149.89503    36822.805 
  468000    298.59492   -1566.6243    507.41017    278.53817    333.60296    36822.805 
  468100    304.95136   -1496.6543    489.78266    359.35845   -32.940534    36822.805 
  468200    298.92547   -1504.6947    490.17902    324.71752   -628.56635    36822.805 
  468300    300.57477   -1532.7518    488.88894    302.75949    37.287011    36822.805 
  468400    299.34862   -1485.9476    503.24236     358.4237    1.9117462    36822.805 
  468500    294.26351   -1498.5138     510.2846    330.11769    250.85517    36822.805 
  468600    299.27791   -1521.7628    504.41557    323.46499    242.48727    36822.805 
  468700    290.03819   -1514.4759     471.2083    256.14916    413.70896    36822.805 
  468800    307.08781    -1501.972    476.48043    350.31016   -92.304158    36822.805 
  468900    303.20492   -1553.1809    502.61675    307.84163    272.50597    36822.805 
  469000    303.58339   -1541.6695    474.53494    292.96684    280.41067    36822.805 
  469100    293.08537   -1548.6689    489.11609    253.51582    270.92973    36822.805 
  469200    292.88524     -1544.95    495.78547    263.00743   -732.97062    36822.805 
  469300    288.09067   -1528.2104     487.3498    249.83099   -316.47425    36822.805 
  469400    296.67841     -1574.61    485.37117    239.92715   -539.88819    36822.805 
  469500    275.41787   -1554.7857    466.34595    145.47572   -334.22124    36822.805 
  469600    299.68682   -1522.7225    505.00978    324.93141   -393.80193    36822.805 
  469700    301.55207   -1520.1141    445.90913     276.7958   -634.54512    36822.805 
  469800    301.21347   -1505.1564    482.31071    326.63816   -211.59162    36822.805 
  469900    307.49593   -1531.8005    484.93904    330.76868    230.59816    36822.805 
  470000    301.54993   -1512.8786    485.88881    324.00133    40.849774    36822.805 
  470100    303.66179   -1540.2506    481.37887    301.58091    27.629764    36822.805 
  470200    301.29162   -1558.2934    504.27232    295.81281   -93.853232    36822.805 
  470300    290.98186   -1513.7317    465.79144    255.70435   -577.97752    36822.805 
  470400    304.32897   -1538.0128    489.76022    315.18909   -530.05964    36822.805 
  470500    296.36734   -1549.1893    485.82032    264.40332   -442.84507    36822.805 
  470600    302.06663   -1553.9944    469.60728    268.91895   -303.42144    36822.805 
  470700    300.28517   -1572.0237    470.80299    244.10412   -600.58994    36822.805 
  470800    308.81482   -1570.2252    497.15887    310.47265    -282.1467    36822.805 
  470900    296.63134   -1576.2288    472.50835     225.2347   -411.21657    36822.805 
  471000    297.06171   -1563.0975    481.86299    249.64871   -324.94004    36822.805 
  471100    292.96711   -1548.1934    489.91844     254.2638   -434.03362    36822.805 
  471200    296.50183    -1551.245    470.62484    247.75477   -435.83378    36822.805 
  471300    293.28213   -1554.5029    512.37656    271.82382   -716.16879    36822.805 
  471400    294.50444   -1553.4165    472.62588    238.63569   -857.71292    36822.805 
  471500    304.35997   -1541.1458    476.29147    298.72625   -570.15647    36822.805 
  471600    304.77168   -1507.5107    495.79303    353.70744    -308.2225    36822.805 
  471700    288.95045   -1512.5123    478.00751    260.03872    120.14337    36822.805 
  471800    291.28247   -1506.9997    487.16747    285.15907   -501.93485    36822.805 
  471900    308.02677   -1504.6132    465.80594    341.20124   -318.72201    36822.805 
  472000    299.15717   -1506.7972    494.03627    327.51035     -39.1811    36822.805 
  472100     307.5851   -1483.6473    484.57772    378.96005   -270.87569    36822.805 
  472200    302.98987   -1516.5233    485.94907    326.86808    -232.2341    36822.805 
  472300    311.09116   -1523.8119    489.48229    359.40773   -287.46007    36822.805 
  472400    297.43708   -1506.8842     484.3465    310.02724   -399.62799    36822.805 
  472500    291.44666   -1504.5189     493.1029    294.31092   -1282.5471    36822.805 
  472600    292.46063   -1507.6298    484.46899    287.10885   -583.24557    36822.805 
  472700    302.29815   -1528.1525    476.66616    302.85693    -398.1313    36822.805 
  472800    301.13359   -1484.5403    482.47133    347.05692   -314.22531    36822.805 
  472900    297.46049   -1507.8261     512.7452    337.58891    358.92218    36822.805 
  473000    295.64665   -1531.8588    485.22493    277.90969   -138.71888    36822.805 
  473100    302.29578    -1480.117    478.60495    352.82071    25.253032    36822.805 
  473200     303.2992   -1521.6916    479.26518    316.40176   -108.50792    36822.805 
  473300    305.80488   -1502.1333    529.59527      397.516   -480.80116    36822.805 
  473400    294.59734   -1533.5664    482.09884     268.3749   -134.57758    36822.805 
  473500    295.34465   -1496.7095    481.04187    307.52291   -319.50439    36822.805 
  473600    305.93909   -1525.1206    518.19132    363.72607    -583.4713    36822.805 
  473700    303.29313   -1516.2025    456.34777    298.94629   -420.56569    36822.805 
  473800    303.19525   -1490.0362    502.30545    370.63169    -1047.505    36822.805 
  473900    294.64059   -1523.1126    473.23821    270.16181   -939.33406    36822.805 
  474000    293.92535   -1489.9116    507.89669      334.817   -969.62479    36822.805 
  474100    293.33495   -1495.1984     474.0686    293.05696   -778.55398    36822.805 
  474200    303.60876   -1561.4481    481.26171    280.02867    -1054.163    36822.805 
  474300    303.88888   -1514.4493    474.01417    321.03493   -818.16034    36822.805 
  474400    308.97452    -1560.002    476.19282    300.44536   -324.67242    36822.805 
  474500    302.21324   -1488.2694    478.74468    344.43821   -556.27668    36822.805 
  474600    297.85865   -1467.4167    490.09012    357.12704    -325.7313    36822.805 
  474700    299.78634   -1476.0472    482.55841    349.60125   -313.89522    36822.805 
  474800    299.83911   -1505.4355    474.23525    312.12621   -34.955211    36822.805 
  474900    294.38462    -1511.909    497.94088    304.92136     547.5627    36822.805 
  475000    303.93993   -1487.7607    487.72839    361.66647    481.57897    36822.805 
  475100     289.1339    -1532.709     483.8859    246.54234    407.42147    36822.805 
  475200    296.76563   -1498.5417    485.45183    316.46691    500.66669    36822.805 
  475300    303.45514   -1521.0575    461.99992    300.46926   -403.21093    36822.805 
  475400     306.4501   -1521.1752    463.58342    315.35295    309.06197    36822.805 
  475500    302.83656   -1526.5489    482.04355    312.25008    643.38408    36822.805 
  475600    291.10498   -1469.7161    511.42516    345.90521    323.51735    36822.805 
  475700    290.42387   -1472.6735    477.08432    305.55554    472.98407    36822.805 
  475800    303.25303   -1502.1486    470.58436    327.05704    563.53659    36822.805 
  475900    295.11686    -1528.156     500.7115     294.7255   -242.78168    36822.805 
  476000    299.88237   -1535.6905     497.3313    305.16102   -293.22696    36822.805 
  476100    304.37207   -1549.2096    477.14949     291.5747   -539.66634    36822.805 
  476200     312.1647   -1552.5997    486.95782    332.90511   -228.81979    36822.805 
  476300    297.74849   -1547.6814    504.51626      290.795    184.84541    36822.805 
  476400    288.67134   -1535.6391      507.299    264.95293    53.625145    36822.805 
  476500    290.38025   -1538.9181    477.92388    239.95505    177.16878    36822.805 
  476600    295.45989   -1572.0274    497.35997    249.03937    928.63277    36822.805 
  476700    304.66258    -1530.366     480.7313    315.30167    883.47981    36822.805 
  476800    298.24473   -1527.3643    495.39299    304.21205    580.06917    36822.805 
  476900     308.8064   -1546.3055    487.40018    324.59599    400.97178    36822.805 
  477000    296.76755   -1518.9234    492.29416    302.93616    8.3716684    36822.805 
  477100    312.64804   -1524.8764    470.98496    346.82099    169.00498    36822.805 
  477200    303.94272   -1517.0757    464.83303    309.46853    234.56681    36822.805 
  477300    303.21151   -1492.9792    496.86471    362.32086    597.23862    36822.805 
  477400    292.86347   -1498.7397    479.88326    293.21802    218.02334    36822.805 
  477500    309.90893   -1494.1899     483.2714    377.52231    92.637847    36822.805 
  477600    294.08235    -1504.823    482.08005    294.79234    56.898628    36822.805 
  477700    313.42116   -1510.0778    486.46244    380.56082    489.92224    36822.805 
  477800    300.14949   -1482.2934    485.03596    347.45955    114.85595    36822.805 
  477900    307.57998    -1511.899    479.36853     345.4763    342.88153    36822.805 
  478000    295.83155    -1532.996    467.27006    259.64601    -237.6826    36822.805 
  478100    301.99766    -1508.438    487.63936    332.19843   -274.10336    36822.805 
  478200    297.26314   -1492.8719    472.83535    311.74916    144.85207    36822.805 
  478300    303.22999   -1522.0577    480.67198    317.13238   -173.51973    36822.805 
  478400    305.59119   -1514.8412    478.60168    332.85708   -183.15998    36822.805 
  478500    307.65385   -1522.6009    468.18557    323.92239    54.085994    36822.805 
  478600    292.59625   -1494.3388    499.91382     316.4523    96.742768    36822.805 
  478700    301.23806   -1495.4065    456.90671    311.09413     108.0618    36822.805 
  478800    298.93212   -1551.0949    501.27233    289.44044    149.89758    36822.805 
  478900    299.90879   -1534.7672    484.35082    293.22224   -246.05742    36822.805 
  479000    289.76579   -1551.7091    476.89565    223.38292   -19.031706    36822.805 
  479100    293.90877   -1569.1484    472.48179      220.091    548.60456    36822.805 
  479200    301.56352   -1582.4898    467.05198    235.61425    -147.6052    36822.805 
  479300    308.08676   -1549.5542    500.05659    330.77964    331.85507    36822.805 
  479400     290.7322   -1588.2827    471.48212    185.72549    182.80881    36822.805 
  479500    299.99192    -1553.865    478.18388    268.32998    284.52603    36822.805 
  479600    293.23575   -1558.5656    472.76445    227.94122   -14.027666    36822.805 
  479700    285.38406   -1544.0389    511.38397    245.91056   -566.60232    36822.805 
  479800    304.86446   -1533.3707    478.30494    310.77506   -351.35601    36822.805 
  479900    299.08548   -1532.7256    485.08248    292.30692   -552.95761    36822.805 
  480000    293.70958   -1530.7883      477.486     262.5629   -335.21882    36822.805 
  480100    307.81019   -1522.8146    456.93422    313.15772   -662.88222    36822.805 
  480200    300.76873   -1518.8711    496.84706    325.46723   -565.37435    36822.805 
  480300    290.83713   -1509.3117    469.23928     262.9237   -484.78651    36822.805 
  480400     311.8118   -1526.7806     471.1584    341.34374   -667.79178    36822.805 
  480500    311.74089   -1517.6471    486.72939    365.73057   -512.72546    36822.805 
  480600    311.71265   -1504.6108    473.18734    365.09828    275.95351    36822.805 
  480700    294.26493   -1547.7014    466.34762    236.99943    161.79009    36822.805 
  480800    303.54004   -1517.2731    497.42487    340.05893    551.60369    36822.805 
  480900    296.01436   -1543.0689    458.89902     242.0211    54.223929    36822.805 
  481000    309.21119   -1514.4264    510.42093    381.30937    36.255259    36822.805 
  481100    294.27049   -1519.8344    463.19453    261.73827   -18.711592    36822.805 
  481200    299.56887    -1497.686    490.95202     335.3817    309.62651    36822.805 
  481300    284.19467    -1491.536    492.61514    274.31602   -28.918108    36822.805 
  481400    296.49421   -1545.6816    473.06929    255.72848   -136.33495    36822.805 
  481500    296.53661   -1519.4188    474.85831    283.97026   -259.07987    36822.805 
  481600    300.17976   -1479.1334    475.61734    341.33654    -320.4785    36822.805 
  481700    287.61547   -1519.7787    487.13631     255.9202   -19.029019    36822.805 
  481800    300.88698   -1535.1566     495.9923    308.85677     314.2582    36822.805 
  481900    296.80657   -1518.6544     473.3339    284.41963   -286.57801    36822.805 
  482000    303.90326   -1537.6015     465.4536    289.38659   -399.59358    36822.805 
  482100    298.90483   -1540.2133    466.48463    265.41207    491.39943    36822.805 
  482200    307.19755   -1514.3124     489.9705     351.9515   -92.713288    36822.805 
  482300    297.55084   -1555.2051    484.70612    262.57563    385.00317    36822.805 
  482400    299.99352   -1531.7759    479.14903    291.39133    371.76021    36822.805 
  482500      298.831   -1531.9561    482.45827    289.31213    296.81025    36822.805 
  482600    304.65231   -1512.6296    478.47311    330.73384    555.93765    36822.805 
  482700    306.82257   -1488.3779    491.00502    377.24055    689.66893    36822.805 
  482800    296.49851   -1467.2398    466.68892    327.80912    427.77428    36822.805 
  482900    296.52728   -1470.5066    501.70937    359.69167   -24.057979    36822.805 
  483000    296.56969   -1481.9424    471.29782    318.03435    424.93008    36822.805 
  483100    293.53188   -1492.6001    496.78105    319.24996    441.22667    36822.805 
  483200    303.68302   -1484.1695    500.60962    376.98786    320.61781    36822.805 
  483300    293.78518    -1493.913    472.59952    294.89042    -55.70039    36822.805 
  483400     307.2036   -1488.4908    473.53168    361.36144   -303.72078    36822.805 
  483500    307.40015   -1543.2676    469.82139    303.75491    -310.7636    36822.805 
  483600    304.20755   -1538.4575    491.49357    315.93382    250.13457    36822.805 
  483700    295.15814   -1500.4365    470.56134    292.47978    213.95403    36822.805 
  483800    305.93332   -1518.1537    512.03173    364.50745    25.324338    36822.805 
  483900    304.00382   -1524.5007    456.31568    293.79998    340.56716    36822.805 
  484000    302.85475   -1486.2691    474.88329    345.45116    296.39864    36822.805 
  484100    290.64856   -1524.4622    484.98216    262.67128    863.02195    36822.805 
  484200     313.4878   -1540.5979    460.93763     324.8145     699.3082    36822.805 
  484300    285.38035   -1491.4975     477.7003    264.75171    390.21542    36822.805 
  484400    299.80966   -1541.1554    499.37329    301.41241     325.5951    36822.805 
  484500    294.16488    -1565.449    456.27588     208.7319    536.41731    36822.805 
  484600     297.9521    -1515.024     517.9926    337.84091    100.61777    36822.805 
  484700    299.30524   -1537.0384     467.5577    271.45387    236.78982    36822.805 
  484800    300.63539    -1510.028    497.55272    334.41856    738.25332    36822.805 
  484900    311.42894   -1511.3313    485.71648    369.63586    609.00284    36822.805 
  485000    299.43522   -1510.9648    481.80091    312.35308    515.32017    36822.805 
  485100    294.08143   -1585.1537    483.19825    215.57564    42.328511    36822.805 
  485200    297.78183   -1515.6151    476.46481    294.95926    353.55104    36822.805 
  485300    291.79898   -1471.7216    477.83342    313.41724    194.16321    36822.805 
  485400    304.99495   -1494.8878    494.12878    365.66637    103.26704    36822.805 
  485500     309.8653   -1497.1742    486.58004    377.65121    178.46872    36822.805 
  485600    296.89179    -1472.845    502.86158     360.1385   -303.69608    36822.805 
  485700    314.03651   -1434.0881     496.6334    469.47829    44.708887    36822.805 
  485800    293.50135   -1458.8865     497.7236    353.76941   -242.88005    36822.805 
  485900    316.09235   -1495.6084    475.59145    396.12658    55.823038    36822.805 
  486000    297.40163   -1452.9952    482.92667     362.3376   -265.06812    36822.805 
  486100    296.02435   -1465.9583    527.55603    387.83347   -438.15303    36822.805 
  486200    311.72722   -1491.5144    473.16734    378.23995    192.74048    36822.805 
  486300    304.52227   -1526.2961    470.58393    308.59553    26.305354    36822.805 
  486400    292.15982   -1511.9001    490.84753    287.86949    357.84614    36822.805 
  486500    292.94015   -1484.7148    458.83115    286.53434    9.9634681    36822.805 
  486600    300.06737   -1496.2099    499.75961    347.89882    787.64839    36822.805 
  486700    300.04904   -1511.9619    492.95935    325.26446    191.95034    36822.805 
  486800    301.22437   -1503.9811    477.82889    323.38042    797.02346    36822.805 
  486900    300.71144   -1540.0005    474.82327    282.05734    272.09535    36822.805 
  487000    294.42134    -1503.107    512.92598    328.87294    596.98734    36822.805 
  487100    297.46348   -1506.8612    499.16492    324.98695    616.55112    36822.805 
  487200    302.56923   -1551.2004    490.18079    294.53818    336.77944    36822.805 
  487300    295.34503   -1519.5912    487.15862    290.75964    626.82736    36822.805 
  487400    297.48102   -1472.7261    483.51973    343.55539    431.41457    36822.805 
  487500    303.37013   -1501.9554    515.48047    372.67102    206.76844    36822.805 
  487600    296.26664   -1527.8295    464.19236    263.68411    389.84194    36822.805 
  487700     300.0051   -1541.5607     486.1896    288.69898    263.73512    36822.805 
  487800    298.24252   -1546.0907    500.36298    290.44574    193.32516    36822.805 
  487900    302.41565   -1558.7728    454.06445    250.16142   -354.90823    36822.805 
  488000    291.82914   -1536.9193    502.13398    272.65524   -220.54492    36822.805 
  488100    294.33267   -1511.7401    488.41467    295.33127    32.582444    36822.805 
  488200    301.92914   -1521.1975    477.27553    308.76813    180.69159    36822.805 
  488300    295.77398   -1516.6204    502.99052    311.48416    177.59411    36822.805 
  488400    295.28987    -1538.322    486.43129     271.0544    144.35804    36822.805 
  488500    310.23306   -1494.2428    475.77838     371.4286   -218.91234    36822.805 
  488600    307.93236   -1525.3605    487.23452    341.45945    255.06563    36822.805 
  488700    303.58363   -1549.2784    486.99723    297.82132    58.078803    36822.805 
  488800    291.95606   -1542.3012    491.45588    257.16387    546.71467    36822.805 
  488900    293.39809   -1530.0115    472.06031    256.51846    96.422409    36822.805 
  489000    309.40347    -1515.088    486.81428    357.90255     570.5646    36822.805 
  489100    308.32073   -1586.1912    496.92075    292.05493    207.92925    36822.805 
  489200    294.08053   -1574.2153     461.2943    204.60603   -102.41261    36822.805 
  489300    293.83004   -1555.4059    482.69658     243.6955   -684.60696    36822.805 
  489400    294.65652    -1572.713    488.42991    235.82455   -438.87899    36822.805 
  489500    290.52704     -1550.04     478.4594    230.02629   -933.77274    36822.805 
  489600    293.42278   -1600.8782    474.82018    188.52227   -254.15192    36822.805 
  489700    297.90376   -1564.6116    478.65224    248.69642   -464.17788    36822.805 
  489800    303.19166   -1534.6122    471.29514    295.02932   -440.94852    36822.805 
  489900    295.47032   -1532.2286    502.67268    294.19764   -441.42361    36822.805 
  490000    307.11415   -1518.3343    475.42319    333.00867   -255.98701    36822.805 
  490100    312.17541   -1561.7273    495.14385    332.01154   -88.889149    36822.805 
  490200    305.18083   -1534.8308    496.56121     328.9886   -341.20636    36822.805 
  490300    289.36898   -1525.8588    481.70626    252.26611   -304.56423    36822.805 
  490400    305.65917   -1541.3729    476.91966    304.94798    365.56588    36822.805 
  490500    291.64823   -1534.8688    449.57635    221.33755    -667.6221    36822.805 
  490600    303.94259   -1525.5303     502.7401    338.92052   -667.32292    36822.805 
  490700    297.35098   -1537.3826    471.83823    266.63481   -95.702485    36822.805 
  490800    297.49411   -1521.9779    473.42572    284.26822    391.63413    36822.805 
  490900    296.59129   -1601.1585    445.88383    173.50106   -47.914969    36822.805 
  491000    295.10319   -1618.8023     462.5468    165.85326    270.93893    36822.805 
  491100    303.34481   -1589.4746    470.80579    240.36368    -390.3805    36822.805 
  491200    309.48454    -1571.437    464.99292    280.09539   -597.66914    36822.805 
  491300    301.02481   -1579.7604    452.84417    221.72231    -243.1652    36822.805 
  491400    295.30198   -1554.0694    469.40228    238.33221   -567.00056    36822.805 
  491500     300.6089   -1584.7857    486.99791    248.98744   -19.217357    36822.805 
  491600    305.17348   -1585.3692    485.85491    267.71093   -98.794556    36822.805 
  491700    308.47229   -1557.3027    481.22923    305.93103   -472.07023    36822.805 
  491800    308.81978   -1541.1813    473.04156    315.42156   -1176.6761    36822.805 
  491900     306.2233   -1541.9194     484.1865     314.1957   -835.14903    36822.805 
  492000    299.26975   -1545.1239    483.80324    279.45498    317.58871    36822.805 
  492100    301.05124   -1579.8057    467.23364    236.18485    588.08326    36822.805 
  492200    299.55735   -1523.8686    502.78698     320.9825    -81.93249    36822.805 
  492300    292.78586   -1537.0211    475.89405    250.59969   -388.62431    36822.805 
  492400    295.05082   -1517.4808    468.81933    273.21262   -302.12465    36822.805 
  492500    316.71573   -1525.0791    477.91611     371.7733   -162.44234    36822.805 
  492600    308.46433   -1558.8883     454.2207    277.30119    -44.83406    36822.805 
  492700     305.9265   -1562.7287    462.32197    270.19219    -363.3484    36822.805 
  492800    306.74541    -1509.147    491.75835    356.87913    128.42955    36822.805 
  492900    301.94305   -1535.5593    455.89553    273.08867   -164.40176    36822.805 
  493000    294.47112   -1529.8762    515.08561    304.48636    219.30764    36822.805 
  493100    302.19218    -1488.309    471.38374    336.94327   -68.330195    36822.805 
  493200     295.1229   -1471.7645     512.4212    362.85381   -376.54963    36822.805 
  493300     296.3882   -1432.5404    469.49891    364.82434    -381.5516    36822.805 
  493400    291.84052   -1426.6389    520.47808    401.33068   -172.09179    36822.805 
  493500     280.2948   -1450.6694    498.61123     303.7067   -518.43949    36822.805 
  493600    285.53272   -1432.8448    497.40197     343.7887   -619.97102    36822.805 
  493700    296.87183   -1488.1902    493.60233    335.44472   -617.70266    36822.805 
  493800    293.50764   -1432.6501    489.03111    371.34149   -976.55276    36822.805 
  493900    300.12103   -1440.7024     480.1918    384.07889   -612.75061    36822.805 
  494000    292.42808   -1471.0192    518.73897    357.84364   -1148.0862    36822.805 
  494100    308.64149   -1461.9875    467.83013    388.60514   -149.49943    36822.805 
  494200    296.64311   -1436.4918    492.79809     385.3141   -425.40548    36822.805 
  494300    304.08778   -1464.0059    511.40389    409.75916    142.85089    36822.805 
  494400    314.32011   -1487.2218    476.10269    397.08448    230.95299    36822.805 
  494500     303.5746   -1483.3761    523.90199     400.5879    203.47691    36822.805 
  494600    297.11114   -1482.9625    472.52718    320.66936    -26.24956    36822.805 
  494700    310.63259   -1486.7976    500.42937    405.31468    472.07038    36822.805 
  494800    298.49022   -1495.5292    516.37413    358.12813    404.77853    36822.805 
  494900    295.73065   -1537.8424    459.02808    246.10559    467.08688    36822.805 
  495000    306.28668   -1522.5876    494.26687    343.89182    649.36228    36822.805 
  495100    295.09892   -1520.3274    471.58568    273.34793   -226.93116    36822.805 
  495200    301.70105   -1492.5322    493.39192    352.52796    165.05768    36822.805 
  495300    300.04692   -1516.9142    497.79521    325.13842   -68.119139    36822.805 
  495400    306.88703    -1461.685    477.47359    390.69078    -110.6485    36822.805 
  495500    299.55315   -1447.1778    497.96125    392.82871    242.76047    36822.805 
  495600    297.67579   -1454.6939    504.71195     383.6525    317.91901    36822.805 
  495700    304.29946   -1478.1249    501.15799    386.34256    8.7323979    36822.805 
  495800    305.06717    -1533.123    487.67204      321.298     36.34688    36822.805 
  495900    307.36278   -1521.3208    483.15332    338.86623   -127.38682    36822.805 
  496000    309.23674   -1516.5021    474.01855    342.94574    -282.8496    36822.805 
  496100      292.008   -1519.0133    471.36822    260.59674    267.65456    36822.805 
  496200    304.73759    -1502.742    489.55318    352.08364     258.0456    36822.805 
  496300    301.10407   -1505.0491    448.96267    292.90724    413.20821    36822.805 
  496400     299.7343   -1546.1197    475.44674    272.18395    463.35236    36822.805 
  496500    298.94015   -1549.1118    519.45977    309.64699    511.96974    36822.805 
  496600     296.8183   -1539.9752    441.69283    231.51034    201.22161    36822.805 
  496700     306.1783   -1525.5825    499.80459    345.94915    59.133698    36822.805 
  496800    299.71698   -1514.4932     495.1665    323.45262   -176.35486    36822.805 
  496900    303.40742   -1486.1047    481.99367    355.20202    288.15001    36822.805 
  497000    300.08328   -1486.1561    494.37576    352.64004    216.38834    36822.805 
  497100    302.59006   -1500.2004    489.66707    345.11779    315.56376    36822.805 
  497200    296.74446    -1516.525    497.77875    310.71569    336.52256    36822.805 
  497300    302.18639   -1507.6344    475.95959    322.16784    508.13355    36822.805 
  497400      297.733   -1548.5443    471.56392    256.91038     485.7733    36822.805 
  497500    294.31155   -1519.8466    445.85536    244.57084    328.40862    36822.805 
  497600    297.08232   -1476.8939    475.59208    329.67375    254.71886    36822.805 
  497700    298.56809    -1516.876    479.38489    300.14097    12.202721    36822.805 
  497800    289.87518   -1510.2212    481.42221    269.88746    132.88335    36822.805 
  497900     294.2862   -1510.6354    474.18781    282.00098    148.64487    36822.805 
  498000    303.08818   -1481.8502    509.37226    385.40486    417.67121    36822.805 
  498100    302.67929   -1477.4352    500.30747    378.92318   -270.49236    36822.805 
  498200    303.01336    -1442.811    513.55201    428.28864    18.582968    36822.805 
  498300    311.74222     -1473.31    470.00221    393.34648    -242.0519    36822.805 
  498400    308.76549   -1486.8032    484.46281    380.97766   -511.40822    36822.805 
  498500    302.66758   -1508.8147    468.37691    315.56067   -599.94349    36822.805 
  498600    291.76521   -1507.1657    497.17618    297.16462   -543.86832    36822.805 
  498700    303.79075   -1494.2374    480.46651    347.25947   -361.86193    36822.805 
  498800    291.67979   -1528.1472    483.29879      261.923   -373.11634    36822.805 
  498900    294.36082   -1507.5001     494.2741    305.55682   -204.72203    36822.805 
  499000    290.62053   -1534.0295    466.80856    234.80476   -16.814225    36822.805 
  499100    290.27028   -1522.1118    466.20386    244.54864    58.950414    36822.805 
  499200    308.00785   -1471.2801    498.76722    407.41082    502.09199    36822.805 
  499300    316.30374   -1473.1147     447.8557    391.83159    928.21588    36822.805 
  499400    311.71745   -1516.0039    497.09121    377.63057    498.24811    36822.805 
  499500    305.71887   -1510.3489    503.02971    362.34947    24.037597    36822.805 
  499600    293.67011   -1472.8905    496.23329    339.03113    180.92276    36822.805 
  499700    304.44995   -1537.1061    480.03355    306.91116    505.47664    36822.805 
  499800    293.65984   -1528.0818    507.38516    294.94573   -17.332277    36822.805 
  499900    290.00179   -1536.6235    480.72984    243.36001   -49.273005    36822.805 
  500000    299.68601   -1539.2148    503.11434    306.54012   -409.01528    36822.805 
  500100    301.82175   -1528.9965    483.08332    306.29578   -1118.4761    36822.805 
  500200    293.59985   -1539.7912    466.12751    241.70984   -1052.4687    36822.805 
  500300    296.03858   -1571.9867    435.76245    190.07523   -388.02856    36822.805 
  500400    304.18096   -1587.7248    485.25622    260.30998   -609.36844    36822.805 
  500500    297.21929   -1547.5221    434.13772    218.20488   -599.17707    36822.805 
  500600    304.98865    -1573.786    454.47729    247.08849   -720.45742    36822.805 
  500700    300.26644   -1513.1997    467.43215    299.47332   -931.60891    36822.805 
  500800    293.79314    -1510.724    489.66161    295.17716   -252.18008    36822.805 
  500900    301.40334   -1532.2946    458.14422    276.18401   -165.38492    36822.805 
  501000     289.5235   -1516.8307    497.90306    278.18325    166.01616    36822.805 
  501100    307.05421   -1520.2597    457.72015     313.1117    156.65645    36822.805 
  501200    292.48435   -1562.0106    456.52489    204.89024    456.84582    36822.805 
  501300    306.56215   -1558.4284    474.84426     289.8626    523.13756    36822.805 
  501400    295.79243   -1521.7642    472.07076    275.50319    376.16117    36822.805 
  501500    304.22042   -1523.3842    486.17486    325.74608    635.29094    36822.805 
  501600    302.57825   -1508.3765    475.51199    322.73375    770.61515    36822.805 
  501700    298.36143   -1506.1766    482.58589    313.11554     615.0463    36822.805 
  501800    294.33272   -1527.3957      465.843     257.1043    295.92402    36822.805 
  501900    306.69874   -1525.3664    464.22544    312.91769    812.61582    36822.805 
  502000    298.17087   -1542.0346    492.23535    286.05321    146.12091    36822.805 
  502100    293.19414    -1534.572    494.79753    273.78146     134.8824    36822.805 
  502200    305.99561   -1525.6533    441.90705    287.16226   -234.39687    36822.805 
  502300    309.65031     -1550.03    460.78562    298.03783   -280.93184    36822.805 
  502400    303.31631   -1541.9103    472.68205    289.67659    -499.7707    36822.805 
  502500    301.66139   -1565.4007    504.18268    290.27252    231.24775    36822.805 
  502600    289.63469   -1550.6122    488.35527    235.35212    449.60077    36822.805 
  502700    293.44979   -1550.9343     488.2936    252.06063     50.36836    36822.805 
  502800    303.36344   -1524.5512    463.40689    297.97167   -363.06599    36822.805 
  502900    292.92331   -1528.0492    479.33433     263.6277   -433.75878    36822.805 
  503000    298.24427   -1506.7458    481.39689     310.8324   -398.20444    36822.805 
  503100    294.82464   -1525.9881    502.59577     297.4685    452.93064    36822.805 
  503200    297.37275   -1498.9333    494.40838    327.75182    -46.49574    36822.805 
  503300    303.24527   -1515.7006    512.05945    354.94546    190.22608    36822.805 
  503400     296.2621   -1575.7323    451.39759    202.96617  -0.83737636    36822.805 
  503500     304.2312   -1566.4722    468.34314    264.87461    381.50822    36822.805 
  503600    302.78111   -1604.2894    467.96513    220.18278   -71.051021    36822.805 
  503700    305.28424   -1564.2831     515.8153    319.25371    49.134875    36822.805 
  503800     298.2955   -1584.4937    486.83038    238.74745   -276.43158    36822.805 
  503900    299.28636   -1611.5693    471.23087    200.51157    292.02127    36822.805 
  504000    296.23117   -1610.1374    475.24563    192.27053    44.443847    36822.805 
  504100    299.21396   -1545.7798    484.87282    279.61869   -222.93901    36822.805 
  504200    299.16918   -1535.3599    471.02533    275.99045    145.37881    36822.805 
  504300    286.65998   -1513.8285    504.51434    274.96767    648.42889    36822.805 
  504400    298.31274   -1509.4233    482.12837    309.19312    118.63568    36822.805 
  504500    291.00965     -1561.61    497.67615    239.83524   -141.99967    36822.805 
  504600    299.37496   -1557.8859    454.03019    237.39124    -140.3379    36822.805 
  504700    297.16624   -1557.6206    482.08823    255.81918   -243.05727    36822.805 
  504800     289.5308   -1546.6071    481.96031    232.49678   -339.38404    36822.805 
  504900    293.34888   -1525.9597    483.17787    271.46736   -285.37328    36822.805 
  505000    281.52877   -1553.0564    509.86379    218.10062   -311.12249    36822.805 
  505100    309.28267    -1556.686    498.68308     327.6321   -31.717992    36822.805 
  505200    293.33739   -1565.0437    499.76142    248.91546    330.52038    36822.805 
  505300    302.40612    -1525.747    482.44294    311.52298   -233.57441    36822.805 
  505400      296.524   -1499.0292    479.04278     308.4878    -275.5069    36822.805 
  505500    296.18837   -1561.4309    479.70138    245.24102    287.04833    36822.805 
  505600    304.45192   -1578.5121    478.25494     263.7354   -410.86411    36822.805 
  505700    292.01761   -1537.3845    473.67297    244.57333   -465.43974    36822.805 
  505800    295.18279   -1551.6424    485.07033     255.8933   -504.29782    36822.805 
  505900     296.7443   -1569.5546    461.65502    221.56157   -852.71249    36822.805 
  506000     308.9161   -1554.0896    482.55578    312.45901   -590.68799    36822.805 
  506100    293.77665    -1558.478    505.67384    263.36155   -254.76913    36822.805 
  506200    293.55397   -1560.2038    506.84648    261.81066   -11.898343    36822.805 
  506300    297.83124   -1560.9051    494.54129    267.96703   -39.535024    36822.805 
  506400    290.46545   -1557.9346    493.69949    237.09584   -146.45057    36822.805 
  506500    294.43641    -1552.302    474.88671    241.70619   -243.89622    36822.805 
  506600    298.11837   -1576.6115     446.5696    205.57538   -368.11349    36822.805 
  506700    304.17529   -1565.4843    505.60055    302.86941   -109.89777    36822.805 
  506800    291.41252   -1615.9561    492.33695    181.95483    227.63741    36822.805 
  506900    310.42559   -1569.6594    476.70342    297.79955    216.06203    36822.805 
  507000    303.23638   -1553.6534    481.32662    286.22003    127.04159    36822.805 
  507100    296.76771   -1566.0658    477.25609    240.75634   -186.23394    36822.805 
  507200    301.54026   -1539.4597    503.66557    315.15375    -182.4352    36822.805 
  507300    312.21982   -1570.3171    490.13307    318.60997   -496.43915    36822.805 
  507400     294.1212   -1544.6092    484.00119    257.10132   -567.06718    36822.805 
  507500    290.01103   -1593.2451    457.28269     163.3327   -719.90235    36822.805 
  507600    303.07546   -1590.2219    508.11573    275.71957    -820.1826    36822.805 
  507700    288.27492    -1596.794    440.86397    135.58698   -469.09966    36822.805 
  507800    297.61469   -1582.8202    496.36362    246.90407   -1158.4026    36822.805 
  507900    298.62828   -1604.1367    460.14832    193.91334   -344.59875    36822.805 
  508000    296.55519   -1579.1098    488.85958    238.36374   -3.8014585    36822.805 
  508100    295.65005   -1565.4649    468.92349    228.01733   -527.37527    36822.805 
  508200    302.06003   -1584.4635    451.45816    220.27118    49.087712    36822.805 
  508300    300.75574   -1589.5229    466.51981    224.43002    364.12366    36822.805 
  508400    295.81627   -1558.0009     486.2612    253.56379     68.05466    36822.805 
  508500    296.31808   -1595.1233    475.73505    208.16343    681.37265    36822.805 
  508600    294.24444   -1539.7068    498.69709    277.25177    364.42611    36822.805 
  508700    295.08079   -1568.4682    461.72188    215.26202    296.07065    36822.805 
  508800    301.35578   -1608.0322    440.64349     182.7327    233.66956    36822.805 
  508900    297.78762   -1553.8707    496.09611    276.36084   -233.14068    36822.805 
  509000    296.77784   -1560.6201    456.26492    225.25626   -277.54934    36822.805 
  509100    290.29919   -1558.9249    482.27992    223.94112   -570.35581    36822.805 
  509200    289.95468   -1584.6295    448.06433    162.47751   -918.88654    36822.805 
  509300    296.11991   -1571.5851    476.07195    231.15072   -552.51761    36822.805 
  509400    285.49446   -1607.7468    455.70604    127.01937   -494.85164    36822.805 
  509500    288.32933   -1587.8042     451.3854    155.34204   -275.07857    36822.805 
  509600    302.38495    -1573.472    471.49739    252.75757   -459.33845    36822.805 
  509700     304.7595   -1564.4466    459.33357    260.25754   -280.15825    36822.805 
  509800    300.32165     -1577.29    482.07713    250.27542   -458.49066    36822.805 
  509900    296.49869   -1553.4338    495.19715    270.12418    91.057312    36822.805 
  510000    290.94988   -1567.9301    476.37836    211.94953    640.65893    36822.805 
  510100    303.87889   -1562.0459    493.53249    292.91184    378.79254    36822.805 
  510200    289.18753   -1546.9168    438.55431     187.2432    186.19069    36822.805 
  510300      306.265   -1575.2081    484.15827    281.06554     494.9488    36822.805 
  510400    301.10049   -1570.3311    461.90533    240.55182    899.23226    36822.805 
  510500    300.15824   -1574.5045     488.2721    258.52385    523.24755    36822.805 
  510600    313.66956    -1515.919    490.73947    380.10952    303.01384    36822.805 
  510700    299.18824   -1488.1373    500.22871     352.5019    35.871367    36822.805 
  510800     302.9673   -1508.4511    477.71822     326.6084    791.19909    36822.805 
  510900    302.96575   -1543.3109    486.19417     300.2175    273.87675    36822.805 
  511000    302.13503     -1552.22    481.78127    283.17379    642.67203    36822.805 
  511100    306.27412   -1516.8238    470.57043    325.90292    846.49514    36822.805 
  511200    298.56298   -1509.9683    485.62009    313.26093    491.25256    36822.805 
  511300    307.17445   -1516.2694    475.67145    335.59195    122.51218    36822.805 
  511400    311.33049   -1504.6256    499.72563    389.90972   -225.53733    36822.805 
  511500    290.95674   -1529.2775    492.88315    267.13767   -283.73169    36822.805 
  511600    293.12112   -1475.0688    495.51797    333.67798   -27.753999    36822.805 
  511700    296.65242   -1499.9632    478.75761    307.84398    365.94026    36822.805 
  511800    300.49106   -1564.1906    483.79575    265.85239    509.87313    36822.805 
  511900     308.5789   -1493.1728    476.42899    365.73825    288.66369    36822.805 
  512000    299.79978   -1487.2029      488.521    344.46833   -356.86013    36822.805 
  512100    298.73867   -1520.0512    461.30217    279.64728    38.034354    36822.805 
  512200    294.35649   -1518.8888    489.62806    289.50269    409.45548    36822.805 
  512300    302.45712   -1543.3981    468.52421    280.18168    362.50215    36822.805 
  512400    299.12259   -1517.0716    477.31203    300.35673   -21.437227    36822.805 
  512500    309.09936   -1545.0758     480.8311    320.56912    25.832837    36822.805 
  512600    307.62922   -1533.0814    472.64785    317.79382    499.52686    36822.805 
  512700    281.34367   -1528.0558     495.8541    228.26221   -111.85381    36822.805 
  512800    305.15736   -1517.1738     472.4881    322.46731   -72.101394    36822.805 
  512900    301.46895   -1533.5199    486.98842    304.09695    512.88787    36822.805 
  513000    298.87734   -1503.1286    501.58672    337.47564   -74.418169    36822.805 
  513100    285.17903   -1512.4285    481.75797    246.97642   -681.11433    36822.805 
  513200    302.36469    -1559.235    451.45202    246.85843   -414.46158    36822.805 
  513300    308.57877   -1524.9028    475.79382    333.37253   -272.76915    36822.805 
  513400     309.1078   -1534.1552    455.06712    305.76354    338.05505    36822.805 
  513500    291.08549   -1529.3309    479.88321    254.66116   -84.343392    36822.805 
  513600    304.29296     -1512.71    495.51072    346.08117   -77.478989    36822.805 
  513700    306.40234   -1536.8649    500.06155    335.92742   -192.77157    36822.805 
  513800    291.71786   -1543.5365    493.07897    256.48448   -572.56757    36822.805 
  513900    303.01321   -1536.4013    464.95399    286.09958   -167.37907    36822.805 
  514000    307.49844   -1479.4115    486.87402    385.10393   -629.85705    36822.805 
  514100    300.48305   -1513.2115    472.18743    305.18729   -369.62534    36822.805 
  514200     290.0324   -1528.4904    463.18102    234.08143   -806.69075    36822.805 
  514300    310.58327   -1491.5852     501.9099    401.78665    -708.0368    36822.805 
  514400    306.08821   -1513.2521    466.79456    324.86585   -220.55696    36822.805 
  514500    302.86304   -1564.9663    498.19159    290.09942   -372.03608    36822.805 
  514600     299.1745   -1506.1232    482.97836    317.20401   -111.77802    36822.805 
  514700    299.46259   -1536.1306    471.88932    277.39824    388.73353    36822.805 
  514800          300   -1512.8559    482.75996     313.9513    290.92638    36822.805 
  514900    292.75219   -1549.1177    461.07053    223.52878    60.156262    36822.805 
  515000    307.76129   -1581.4454    507.50099    304.87467    392.43645    36822.805 
  515100    306.15983   -1563.2271    476.24061    284.65776    364.84979    36822.805 
  515200    295.57536   -1564.3191    487.01313    246.91821     -438.928    36822.805 
  515300    294.33142   -1570.2845    470.54994    218.91659   -143.64703    36822.805 
  515400     303.4676   -1553.4624    465.39628    271.51653    212.18467    36822.805 
  515500    298.06963   -1553.2583    464.55586    246.69648    -191.0505    36822.805 
  515600    304.90995   -1573.0425    474.77741    267.77954     58.73073    36822.805 
  515700    296.38722   -1562.9944    506.49531    271.36235    361.96375    36822.805 
  515800    310.46329   -1584.7635    458.63293    264.79389    281.11148    36822.805 
  515900    298.18742   -1600.4336     472.7688     208.2618    806.97953    36822.805 
  516000    296.45668   -1590.7209      471.975    209.42675    608.72495    36822.805 
  516100    306.89456   -1558.9089    470.11168    286.13879    563.74338    36822.805 
  516200    292.75507   -1583.0355     461.6536    190.20691    414.68075    36822.805 
  516300    307.07572   -1599.9073    470.92565      246.766    309.62192    36822.805 
  516400    303.54177   -1548.0175    463.56082    275.45821   -178.89987    36822.805 
  516500    294.09926   -1573.1922     457.8683    202.28705    -452.7106    36822.805 
  516600    305.51912   -1591.9224    472.50716    249.35856   -663.81508    36822.805 
  516700    308.14385   -1580.0388    472.72562    273.21982   -418.49677    36822.805 
  516800    298.24974   -1556.3616    457.82146     237.6657    4.2572442    36822.805 
  516900    305.58593   -1584.1126    505.68433    290.64486    151.34882    36822.805 
  517000    299.93682   -1538.8071    461.51826    266.47539    433.05753    36822.805 
  517100    299.60231   -1556.4468      459.577    245.39576   -65.292128    36822.805 
  517200    307.60745   -1561.0463    492.45102    309.53458    200.44339    36822.805 
  517300    294.77906   -1553.1012    481.48671    249.04215    18.380783    36822.805 
  517400    290.09752   -1560.7905    456.91686    195.80891    110.43242    36822.805 
  517500    299.25181   -1546.0439    461.03905     255.6904    47.550044    36822.805 
  517600    301.28564    -1576.252    462.31924    235.87435   -47.367252    36822.805 
  517700    309.40983   -1541.8685    482.84519    327.18144   -22.582495    36822.805 
  517800    296.62961   -1533.6484    465.82719    261.12619    404.11554    36822.805 
  517900    303.00862   -1573.5688    483.66944    267.62693   -321.30138    36822.805 
  518000    304.21484   -1553.9679    458.85369    267.81623    74.794314    36822.805 
  518100      293.033    -1553.056    465.46342    225.24139   -805.44781    36822.805 
  518200    308.58988   -1558.9739    486.23998    309.79739   -493.69218    36822.805 
  518300    294.31789   -1552.1704    434.16341    200.58351   -628.14371    36822.805 
  518400    298.56377   -1564.6836    459.16236    232.09148   -116.57904    36822.805 
  518500    297.69202   -1510.6077    474.82417    297.92363    594.35693    36822.805 
  518600    319.82994   -1529.2909    507.73031    411.32788    122.62009    36822.805 
  518700    286.85073   -1513.2887    451.18492    223.03264   -13.290561    36822.805 
  518800    298.56291   -1543.9221    492.85799     286.5447    375.15375    36822.805 
  518900     293.7105   -1545.0823    484.15561    254.94255    397.22106    36822.805 
  519000    289.10419   -1513.3542    507.72422    289.60236   -245.77509    36822.805 
  519100    305.00943   -1552.6842    483.43262    297.23866   -316.05718    36822.805 
  519200    302.13148   -1519.9042    470.95215    304.64461   -454.25864    36822.805 
  519300    299.44867   -1511.2582    484.27198    314.59093   -730.89317    36822.805 
  519400     307.7469   -1540.0552    483.87288    322.57227   -393.66331    36822.805 
  519500    303.96048   -1568.3975    475.92444    269.31776    191.30808    36822.805 
  519600    296.55782   -1536.6994    486.37004    278.29633    233.00073    36822.805 
  519700    294.65922   -1558.1307    490.25272    252.24169    275.84749    36822.805 
  519800    304.23991   -1550.8516    455.55421    267.74534    681.35898    36822.805 
  519900    307.81928   -1518.4987    494.89315    355.47331   -304.15095    36822.805 
  520000    300.51711   -1538.7491    466.36437    273.97927     166.4659    36822.805 
  520100    298.83334    -1553.844    488.00228    272.97869    11.734449    36822.805 
  520200    305.12377   -1609.3122    480.30826    237.99862     397.0995    36822.805 
  520300    303.57236   -1567.8389    463.82986    256.04296    120.84155    36822.805 
  520400    301.99162   -1556.1776    466.96183    263.75427   -306.20985    36822.805 
  520500    302.29846   -1537.6166    467.26853    283.99662   -1100.2295    36822.805 
  520600    302.10105   -1545.8596    460.54272    268.14343   -616.32812    36822.805 
  520700    304.69304   -1537.9301    466.14016    293.28287   -196.02818    36822.805 
  520800    312.88163   -1502.9093    472.01739    370.86709    5.9273632    36822.805 
  520900    293.11363   -1507.2309    493.60612    299.57043   -553.00098    36822.805 
  521000    303.82962   -1527.6633     471.5643    305.10558   -13.454706    36822.805 
  521100    297.87142   -1515.7329     486.0047    304.78269    3.6056459    36822.805 
  521200    299.10668   -1499.7706    500.28544    340.55992   -203.32929    36822.805 
  521300    309.71836   -1562.2071    459.64487     285.0248    -373.7351    36822.805 
  521400    300.40904   -1521.7967    477.89781    301.98091    365.67314    36822.805 
  521500    303.98141   -1461.8351     499.9123    399.96176    572.18168    36822.805 
  521600    299.41515   -1492.1112     461.7625    311.07831    642.89043    36822.805 
  521700    296.41965   -1561.0112    481.42365    248.41921   -234.25284    36822.805 
  521800    303.56528    -1527.979    450.61003    282.65131   -259.40323    36822.805 
  521900    306.97734   -1544.8411    463.84441    294.31016   -108.38848    36822.805 
  522000    300.01074    -1542.214    455.39428    257.27563   -226.63089    36822.805 
  522100    339.54447   -1523.4028    475.29554    473.10542    59.108084    36822.805 
  522200    289.16362   -1529.3725    500.10627    266.23233   -258.10559    36822.805 
  522300    295.82164   -1528.1203    451.80238    249.00964   -200.26162    36822.805 
  522400    300.60622   -1535.1978    481.79041    293.35585    97.440817    36822.805 
  522500    307.57751   -1525.9464    463.57515     315.6245    -382.7529    36822.805 
  522600     298.2684   -1550.4998    487.27606    273.06573    176.41251    36822.805 
  522700     308.9176    -1535.631    479.04031    327.40882   -589.92113    36822.805 
  522800    302.78742   -1532.4587    480.80578    304.88243   -347.55926    36822.805 
  522900    300.52026   -1546.9071    502.41473    301.88571   -63.943604    36822.805 
  523000    297.96264   -1529.5625    471.88812    277.24515   -685.79649    36822.805 
  523100    294.86783   -1540.9695    502.86441    282.94921    -16.46293    36822.805 
  523200     301.2493   -1519.8014    485.97301     315.8159   -188.86325    36822.805 
  523300    295.22825   -1486.8144     467.4026    303.25724    190.74203    36822.805 
  523400    303.55745   -1509.9407     483.7398    333.78424    200.96221    36822.805 
  523500    319.73856   -1563.8424    479.58115    348.21784    648.40189    36822.805 
  523600    295.18595   -1554.8831    471.63948    239.23591    501.72582    36822.805 
  523700    310.39402   -1586.9649    470.66639    274.31558    514.68491    36822.805 
  523800    291.10178   -1569.3498    470.60926    205.44126     237.5133    36822.805 
  523900    294.35423   -1560.8214    463.22276    221.15473    109.51902    36822.805 
  524000    303.57047   -1524.8081    471.22469    306.46012   -35.264124    36822.805 
  524100    293.41814   -1588.8524    478.36092    204.06797   -18.171016    36822.805 
  524200    300.22679   -1539.0882    465.15757    271.13264   -35.967984    36822.805 
  524300    304.87109   -1560.0904    480.40111    286.18117    490.16901    36822.805 
  524400    296.93467   -1597.0647    446.14013    179.38955    593.41795    36822.805 
  524500    299.70966   -1556.7002    502.65858    288.70483    594.56535    36822.805 
  524600    295.08767   -1573.9907    469.49733    217.54584    76.420435    36822.805 
  524700    302.14872   -1584.9379    506.23375    274.96966    105.08395    36822.805 
  524800    292.54165   -1601.7099    459.87952    168.80227   -133.91948    36822.805 
  524900    294.26835   -1629.1255    476.13945    165.38251    502.42644    36822.805 
  525000     303.7277   -1626.1273    489.75545    224.37608    324.81927    36822.805 
  525100    296.62987   -1590.0673    505.83252    244.71378    307.78606    36822.805 
  525200    303.39487     -1594.17    480.59938    245.68621    397.30328    36822.805 
  525300    300.43506   -1571.6061    474.22587    248.61614    217.27544    36822.805 
  525400    296.61026   -1573.8211    474.34604    229.38565   -67.524862    36822.805 
  525500     300.4804   -1588.4285    478.08947    235.86049   -42.416213    36822.805 
  525600    296.81232   -1576.7162    462.96707    216.01681   -265.87886    36822.805 
  525700    313.61615   -1604.0503    454.25941     255.2589    459.46574    36822.805 
  525800     298.2127   -1560.2847    501.97659    277.73179   -203.52174    36822.805 
  525900    296.17095   -1580.4629    452.46235    198.89196   -101.17052    36822.805 
  526000    295.22302   -1573.2276    489.19856     238.6166   -125.68903    36822.805 
  526100    295.92944    -1549.258    478.35849    254.91103    -743.9901    36822.805 
  526200    290.31119   -1607.8632    452.04785    144.82452   -386.79803    36822.805 
  526300    291.62747   -1580.8329    485.06351    210.76758   -347.31119    36822.805 
  526400    303.56205   -1548.9129    476.12797    287.22088   -232.02951    36822.805 
  526500    293.65416   -1565.8331    459.97225    209.75604   -779.52718    36822.805 
  526600    307.34764   -1554.7346    489.87493    312.10613   -464.25504    36822.805 
  526700      302.729   -1574.8905    508.90402    290.28713    392.23473    36822.805 
  526800    292.82266   -1593.1423    481.65097    200.40035    1188.7966    36822.805 
  526900    304.20407   -1558.2048    500.63835    305.31569    517.22533    36822.805 
  527000    308.45868   -1543.8502    479.08694    317.18024    208.89628    36822.805 
  527100    293.55215   -1526.4223    476.37073    265.10831    95.940422    36822.805 
  527200     301.0654    -1546.579    483.63613     285.8775    -294.8687    36822.805 
  527300    304.61643   -1546.4371    491.40512    309.69761    340.29324    36822.805 
  527400    294.05183   -1539.8488    515.16746    292.71723    138.02859    36822.805 
  527500    296.20604   -1509.8165    516.03929     333.2725   -189.00528    36822.805 
  527600    309.46927   -1525.8064    453.13605    313.80074    69.611647    36822.805 
  527700    305.44797    -1543.426    487.98233    313.01137    284.39591    36822.805 
  527800    294.37168   -1549.1213    507.47088    277.18108    152.94646    36822.805 
  527900    300.92624    -1558.929    479.96454    269.23253    -199.6307    36822.805 
  528000    294.71683   -1569.1386    488.50344    239.74269   -277.92367    36822.805 
  528100    302.55011   -1541.1266    474.14655     288.4921   -731.41976    36822.805 
  528200     313.3358    -1543.478    483.42325      343.739    120.16221    36822.805 
  528300     293.4977   -1594.1734     465.4259    186.16844    187.29113    36822.805 
  528400     302.3397   -1607.6801    478.10665    224.95601    791.31266    36822.805 
  528500    304.66898   -1533.6967    482.48674    313.75506    261.97477    36822.805 
  528600    302.20924   -1556.6931    493.87064     291.1225    501.92114    36822.805 
  528700    293.86927   -1573.8345     497.3244    240.07057    191.92842    36822.805 
  528800    315.98611   -1524.3827    478.77957    370.06446    147.80751    36822.805 
  528900    304.25357   -1565.8694    485.92542     283.1599   -270.42163    36822.805 
  529000    299.89279    -1509.391    492.31003    326.48595   -33.472574    36822.805 
  529100    301.33745   -1565.6499    465.17265    249.56198   -78.471703    36822.805 
  529200    291.95359        -1577    499.76586     230.7639   -280.15282    36822.805 
  529300    296.92867    -1554.847    482.26886     257.7091   -219.23845    36822.805 
  529400    305.63328   -1558.1769    471.72809    282.83641   -915.87011    36822.805 
  529500    299.75973   -1550.8946    460.35218    252.42839    81.996007    36822.805 
  529600    308.55932   -1559.2283     489.6341     312.8002   -414.88765    36822.805 
  529700    306.91412   -1563.9949    476.69672     287.7254    113.20771    36822.805 
  529800    299.28748   -1556.5051    492.24208    276.59203   -257.76051    36822.805 
  529900    298.34702   -1573.1934    504.40466    267.85292     513.2783    36822.805 
  530000    298.01763   -1563.6874    471.63372     243.1122   -628.47091    36822.805 
  530100    297.52807    -1566.991    508.59819     274.5798   -481.79006    36822.805 
  530200    310.52095   -1571.1196    491.86077    311.92397   -257.55113    36822.805 
  530300    302.38988   -1573.6246    491.55557    272.68525   -650.96479    36822.805 
  530400    305.12659   -1575.2284    502.10229    293.88906   -434.18432    36822.805 
  530500    302.18868   -1544.9636    494.64656     303.5358   -461.05543    36822.805 
  530600    301.82542   -1523.7435    500.77723    329.25918   -158.54747    36822.805 
  530700    296.46091   -1542.9117    475.86861    261.14852    147.26358    36822.805 
  530800    295.34308    -1525.226    503.01156    300.96906   -489.56377    36822.805 
  530900    303.18951   -1582.6174    508.87256    284.59193    52.359278    36822.805 
  531000    291.56744   -1577.5978    490.24086    218.91111   -217.12334    36822.805 
  531100    303.82743   -1607.5146    506.86729    260.54741   -299.14722    36822.805 
  531200    304.01839   -1588.1661    466.55534    240.43953    64.568628    36822.805 
  531300    300.81649    -1581.969    506.21097    271.94727     220.8015    36822.805 
  531400    298.91665   -1606.0519    503.26621      236.408   -12.744018    36822.805 
  531500    302.65461   -1563.3736    469.72317    262.28994   -183.58171    36822.805 
  531600     310.1991   -1548.6278    489.04273    330.15576   -288.71973    36822.805 
  531700    304.37997   -1543.2984    531.40727     351.7791   -10.614209    36822.805 
  531800    298.21926   -1561.9149    496.83011    270.98448    -552.2534    36822.805 
  531900     302.2378   -1547.9887    517.07597    323.16022    58.700663    36822.805 
  532000     304.3678   -1500.2951    513.33625    376.65691   -519.87587    36822.805 
  532100    306.24658   -1540.9275    482.57405    313.67945   -638.44187    36822.805 
  532200    305.44362   -1568.7254    479.01774    278.72792   -154.29163    36822.805 
  532300    301.43757   -1567.9952    496.18584    278.67843   -207.93776    36822.805 
  532400    306.01346   -1599.8098    488.87851    260.05719   -453.86144    36822.805 
  532500    302.41327   -1556.7319    487.65767    285.78479   -184.79125    36822.805 
  532600    293.75894   -1623.0392     487.4741    180.52128     136.7074    36822.805 
  532700    305.69157    -1591.201    490.06892    268.41431    779.01758    36822.805 
  532800    298.57743   -1612.4408    476.05498    201.28814   -52.317572    36822.805 
  532900    303.19307   -1567.6982    509.30845    299.96294    200.49222    36822.805 
  533000    294.87965   -1560.7266     486.7227    247.10338    15.458108    36822.805 
  533100    296.82257   -1571.1793    496.93208    255.56462    5.4253047    36822.805 
  533200    304.13477   -1515.2218    520.53131    367.88116    51.948563    36822.805 
  533300    289.47872   -1583.0991    501.60369     215.4149    269.83437    36822.805 
  533400    304.29872   -1621.3841     482.5937    224.51582    220.07743    36822.805 
  533500      299.879   -1603.9111    466.95363    206.54767    719.72909    36822.805 
  533600    312.48254   -1640.4823    479.10325    238.59191    417.44915    36822.805 
  533700    296.22415   -1641.4063    512.81962    198.54414    97.099186    36822.805 
  533800    289.76593   -1666.0304    469.41831    101.58488    501.80275    36822.805 
  533900    294.73991   -1596.0704    459.92828    184.33912    370.88536    36822.805 
  534000    302.26765   -1596.4914    514.87816    272.59342    404.36531    36822.805 
  534100    298.24994   -1673.3747    489.69678    152.52882    31.489808    36822.805 
  534200    293.68575   -1632.0465    491.02606    174.73799    290.44447    36822.805 
  534300    309.45235   -1638.4196    479.77447    227.75012    305.22293    36822.805 
  534400     283.0929   -1614.7761    487.42029    140.94497   -99.182429    36822.805 
  534500    301.72155   -1649.0751    471.01107    173.69609    10.364431    36822.805 
  534600    299.99248   -1616.5829    471.94154    199.37219   -526.16426    36822.805 
  534700    294.36179   -1597.2005    491.15268    212.73936   -478.35567    36822.805 
  534800    290.64368   -1608.1037    492.86164     186.8874   -495.68844    36822.805 
  534900    300.31462   -1627.3581    481.95606    200.05473   -123.26729    36822.805 
  535000     305.0998   -1616.7882     495.1393    245.24622    552.79039    36822.805 
  535100    305.26877   -1628.1887    473.96754    213.43101    468.37742    36822.805 
  535200    308.81084   -1611.8092    498.93716    270.64917    306.25817    36822.805 
  535300    295.61503   -1661.3073    462.89041    125.98502    141.19753    36822.805 
  535400    298.71834   -1629.6515    480.96085    189.61455    -121.1795    36822.805 
  535500    304.68408   -1589.3997     519.1472    294.78019    268.06357    36822.805 
  535600    299.97446   -1565.8149    472.02001    250.13794    461.16675    36822.805 
  535700    306.83288   -1602.6365    512.12973    284.15282   -8.7208342    36822.805 
  535800    297.78777   -1559.6464    470.35585    244.84556   -527.09753    36822.805 
  535900     308.5329   -1547.5265    476.43742    311.18685   -672.57184    36822.805 
  536000    300.56159   -1611.2037    492.83629    228.19583   -594.49277    36822.805 
  536100    293.98553    -1628.932    492.29141    180.46088   -468.29423    36822.805 
  536200    304.80135   -1650.7637    493.66693    208.46131    64.034224    36822.805 
  536300    297.57182   -1610.4193    467.59508    190.34436    146.41787    36822.805 
  536400    301.95786   -1606.3498    519.99996     266.4689    438.17419    36822.805 
  536500    298.32301   -1578.6113    478.56104    236.48377    153.33072    36822.805 
  536600     289.6636   -1589.7288    465.27326    173.28304    349.86559    36822.805 
  536700    298.78754   -1605.9716    476.95542    209.59903   -254.00933    36822.805 
  536800    295.16822   -1614.0549    501.27338    209.61854    66.087176    36822.805 
  536900    297.40296   -1582.7773    484.55988    234.19471    82.128421    36822.805 
  537000    294.97524   -1600.8851    501.92178    222.57224    219.09647    36822.805 
  537100    306.42322   -1615.2686    476.20656     233.7622   -183.62983    36822.805 
  537200    301.58732   -1566.2834    485.10473    269.98009   -253.30811    36822.805 
  537300    304.22639   -1530.8203    469.55252    301.71434   -769.17071    36822.805 
  537400    311.96785   -1553.4326     485.2727    329.50515   -146.44325    36822.805 
  537500    310.34047   -1560.3869    470.34148    300.32872   -270.08543    36822.805 
  537600     291.1148   -1564.1354    483.29894    223.40367   -496.09951    36822.805 
  537700    299.79731   -1563.9669    503.38628    282.55857    466.39763    36822.805 
  537800    294.16972   -1568.2864    483.09644    232.73675   -208.65454    36822.805 
  537900     301.6148   -1571.1178    510.12484    290.28885   -307.58028    36822.805 
  538000    294.10154   -1567.1284    460.83239    211.32524   -156.63528    36822.805 
  538100    289.00089   -1557.1399     493.1771    230.80668   -544.65633    36822.805 
  538200    307.26495   -1548.6697    489.16629    317.09198   -193.96424    36822.805 
  538300    295.07998    -1588.478    480.22279     213.7496   -319.42684    36822.805 
  538400    306.17189   -1587.2481    470.70193    255.15217    207.91154    36822.805 
  538500    303.05851    -1601.567    489.05147    245.23431    -284.9143    36822.805 
  538600    302.37759   -1595.5015    479.31952    238.51726   -271.88242    36822.805 
  538700    285.37933   -1602.8911    469.41151    145.06482   -501.41895    36822.805 
  538800    301.92532   -1624.1865    465.85197    194.33844   -178.07395    36822.805 
  538900    310.35351   -1606.6143    471.12599    254.94428   -516.19605    36822.805 
  539000    294.04649   -1551.9936    486.16799    251.54899    76.088074    36822.805 
  539100    305.42735   -1574.8077    465.60144    259.15636   -513.87832    36822.805 
  539200    307.75079   -1607.2842     475.9702    247.45797   -634.97609    36822.805 
  539300    296.71388   -1612.8384    475.35196    191.83851   -268.73471    36822.805 
  539400    313.40089   -1596.3304    488.80301      296.558    315.78146    36822.805 
  539500    298.37527   -1604.3528    489.31875    221.73418   -56.353196    36822.805 
  539600    306.93294   -1558.5036    495.38316    311.98749    120.49739    36822.805 
  539700    302.75314   -1590.7359     477.0432    242.68911   -99.747414    36822.805 
  539800    307.72849   -1580.5193    466.18407    264.33685     634.2598    36822.805 
  539900    296.63597   -1581.0782    487.76337    235.66099    385.41585    36822.805 
  540000    293.52232   -1534.1285     481.3034    262.20119    -380.3647    36822.805 
  540100    304.53317   -1567.2019    485.95479    283.10944    234.48824    36822.805 
  540200    306.74671   -1546.3452    503.56047    331.48879    515.01951    36822.805 
  540300    306.52894   -1570.3102    479.73947    282.72722   -86.514439    36822.805 
  540400    308.18825   -1580.7809    515.53954    315.49059   -568.61069    36822.805 
  540500    304.95761   -1571.7958    479.28127    273.74353   -341.34002    36822.805 
  540600    297.84046   -1610.8699     461.8656    185.36782   -896.18491    36822.805 
  540700     301.0929   -1601.3042    496.13133    243.77076    192.58376    36822.805 
  540800    295.22203   -1595.7673    473.87619    200.75009    389.00168    36822.805 
  540900    295.36857   -1618.8308    485.88872    190.35566    393.79118    36822.805 
  541000    303.47297    -1630.996    483.47911    212.08976    610.30522    36822.805 
  541100    286.46293   -1546.2565    506.53992    243.68248    1107.9532    36822.805 
  541200    305.94928    -1581.749    508.82847    297.78038   -79.455475    36822.805 
  541300    299.96997   -1577.0631    458.51562    225.36521   -253.69561    36822.805 
  541400    302.00455   -1562.8624    473.70135    263.86687    120.94066    36822.805 
  541500    300.81761    -1555.356    515.64072    307.99495   -32.983646    36822.805 
  541600    300.66352   -1560.5158    465.34128    251.84534   -523.02091    36822.805 
  541700    300.54059   -1512.9349    496.83623    330.37048   -319.31746    36822.805 
  541800    311.70099   -1517.4644     496.5629    375.56805   -121.52551    36822.805 
  541900    303.94099   -1508.2244    509.68645    363.16551   -521.18466    36822.805 
  542000    311.35809   -1549.4969    473.07436    318.51076    283.98055    36822.805 
  542100    304.58159   -1577.5401    491.91865    278.95202   -227.47001    36822.805 
  542200    294.57012   -1577.3679    494.22537    236.57803    243.64444    36822.805 
  542300    294.99602   -1575.7724      485.368    231.22425    -245.5212    36822.805 
  542400    301.51294   -1553.0008    473.82887    271.65354   -634.77384    36822.805 
  542500    299.39326   -1551.9223    497.36787     286.7745   -587.85171    36822.805 
  542600    294.52933   -1571.5826    494.93977      242.895   -499.64972    36822.805 
  542700    297.65645   -1575.4956    475.64723    233.69941    -392.3693    36822.805 
  542800    304.71565   -1594.5869     472.7654    243.35267   -827.10412    36822.805 
  542900    281.73862   -1555.7326    498.21921    204.71999   -191.61712    36822.805 
  543000    291.30515   -1581.2251    491.48781    215.35565   -464.18272    36822.805 
  543100    297.92999   -1559.1821    486.55017    262.14136     -268.507    36822.805 
  543200    294.60126   -1590.2314    488.65198    218.28059   -4.9855415    36822.805 
  543300    296.50839   -1613.5943     475.3318    190.14179     46.40004    36822.805 
  543400    301.30084   -1646.6687    475.43358    178.64013   -256.89651    36822.805 
  543500    294.04625   -1637.3723    491.33719    171.33838     713.8009    36822.805 
  543600     292.4229   -1622.8214    471.47432    158.75353    47.160538    36822.805 
  543700    289.40948   -1543.9337    511.54699    264.21339    362.15769    36822.805 
  543800    297.25229   -1604.0854    460.78304    188.43468    904.21941    36822.805 
  543900    312.61761   -1614.7641     482.8544    268.66642    322.13313    36822.805 
  544000    302.74869   -1597.5524     472.5921    231.40148      64.2893    36822.805 
  544100    298.88194   -1618.8267    456.10457    176.31607    537.39956    36822.805 
  544200    299.30824   -1653.7421    480.96941    168.17536    469.85964    36822.805 
  544300    297.88579   -1651.9292    459.41612    142.06215    481.06609    36822.805 
  544400    312.19593   -1610.1422    525.76519    314.30996    334.45642    36822.805 
  544500    291.09983   -1609.8289    487.73536    182.07953    588.96551    36822.805 
  544600    311.84632   -1632.9911    453.77908    217.90862    592.04651    36822.805 
  544700    292.83842   -1631.4557    497.12909    177.63559    353.10507    36822.805 
  544800    300.46691   -1630.0386     471.6962    187.79669    3.5766588    36822.805 
  544900     304.0559   -1606.3033    493.91386    249.82888      204.226    36822.805 
  545000    314.10802   -1580.9157    470.85239    297.19009   -55.755371    36822.805 
  545100    298.77569   -1598.9732    506.62559    246.21457    711.08872    36822.805 
  545200    291.84709   -1628.6154     466.0306     144.9362    449.51703    36822.805 
  545300    309.79318   -1622.8021    489.32719     254.4473    31.877525    36822.805 
  545400    300.79699   -1634.6447    470.59372    183.56687   -305.37271    36822.805 
  545500    297.66861   -1620.7036    489.32827    202.22696   -82.858361    36822.805 
  545600    288.97431   -1585.4199    476.87861    186.10912   -305.78626    36822.805 
  545700    303.50138   -1626.4363     472.5045    205.80217   -659.03659    36822.805 
  545800    293.06801   -1593.3469    486.94313     206.5871   -291.89703    36822.805 
  545900      306.252   -1586.8066     505.8271    291.07772   -514.96784    36822.805 
  546000    299.82319   -1582.6502    481.94046    242.54535   -368.11099    36822.805 
  546100    305.51773   -1571.7752    490.73826     287.7306   -397.07818    36822.805 
  546200    293.43247   -1563.0269    502.66144    254.25823    11.402918    36822.805 
  546300    296.04278   -1599.4186    467.51468    194.41435   -223.73752    36822.805 
  546400    301.01702    -1631.933    490.97883    207.64953   -309.58159    36822.805 
  546500    302.77631   -1613.5793     483.5927    226.49896   -436.81796    36822.805 
  546600    290.76162   -1623.0031    493.90221    173.55696   -115.61966    36822.805 
  546700      310.224   -1679.0223    475.61572    186.44575     194.1963    36822.805 
  546800    292.56849   -1599.8387    473.93902    184.85322    505.15951    36822.805 
  546900    288.40972   -1669.0472    478.97023    102.04399    717.62031    36822.805 
  547000    308.86473   -1630.7751    467.87974     220.8673    938.35841    36822.805 
  547100     297.7675   -1612.5164    492.16381    213.69268    300.23307    36822.805 
  547200    304.57915   -1615.6468    480.78887    229.70465    782.72826    36822.805 
  547300    298.82945   -1641.3294    477.90241    175.37605    229.31831    36822.805 
  547400    293.33392   -1660.4023    469.70386    123.48372   -198.36791    36822.805 
  547500     300.9121   -1612.0814    486.72432    222.77647   -589.41808    36822.805 
  547600    310.12598   -1652.6823    470.07166    206.80262   -293.69528    36822.805 
  547700    298.37351   -1625.6895    464.31434    175.38516   -213.43655    36822.805 
  547800    296.39971   -1645.6227    497.65169    179.94642   -455.90909    36822.805 
  547900    308.75165    -1638.988    454.23092    198.49895   -579.20727    36822.805 
  548000    289.33862   -1611.4374    479.08531    163.93055      -440.12    36822.805 
  548100    308.05598    -1613.948    496.60731    262.79859   -257.69975    36822.805 
  548200    310.59403   -1658.7174    478.98131    211.77412    217.07401    36822.805 
  548300    304.36544    -1651.338    484.78202    197.04913    483.37494    36822.805 
  548400    296.65222   -1637.9597    479.73352    170.82252     32.54362    36822.805 
  548500    297.50688   -1637.0468    479.24341    175.07427    33.022595    36822.805 
  548600    314.48623   -1616.6019    482.66097     275.0069    475.62272    36822.805 
  548700    286.88427    -1619.434    473.77009    139.62277    13.900697    36822.805 
  548800    306.89727   -1640.9456    475.69936    209.70184    297.49149    36822.805 
  548900    292.37526    -1654.166    497.63737    153.35859    259.58301    36822.805 
  549000    294.34053   -1669.2297    486.14027    135.60252    69.613784    36822.805 
  549100     299.1865   -1672.0098    493.36843     161.7613    162.24688    36822.805 
  549200    292.53007   -1651.7803    488.97479    147.77521   -214.44992    36822.805 
  549300    305.48031   -1661.7018    480.94685    187.84499   -43.360724    36822.805 
  549400    298.35998   -1633.9993     487.6573    190.35772    63.635814    36822.805 
  549500    294.66531   -1630.6964    472.05369    161.50425   -341.05141    36822.805 
  549600    296.93621   -1632.1601    499.94186    198.10278   -367.45162    36822.805 
  549700    301.16266   -1652.2892    494.10436    191.07126   -256.33426    36822.805 
  549800    290.26914   -1609.0572    476.57531     167.9696   -81.813429    36822.805 
  549900    297.38535   -1618.7298    473.21197    186.81532   -769.92206    36822.805 
  550000    304.89771   -1626.4764    520.05942    259.57273   -69.460345    36822.805 
  550100    305.74218   -1608.0524     489.1486    250.86933   -318.50147    36822.805 
  550200    293.09838   -1583.5586    508.08392    237.65225   -184.56643    36822.805 
  550300    305.56942   -1579.0729    483.14599     273.0722     -214.171    36822.805 
  550400     302.4552   -1577.9544    502.70923    279.80176   -138.45063    36822.805 
  550500    314.64673   -1593.5033     530.4776     346.6412    368.07873    36822.805 
  550600    302.41208   -1578.6107    500.37867    276.62171    538.06006    36822.805 
  550700    301.25796   -1592.6736    475.61934    232.62885    270.21729    36822.805 
  550800    300.57643    -1589.848     506.6203    263.40207     260.8875    36822.805 
  550900    297.85109   -1561.7724    486.79651    259.44386    352.76924    36822.805 
  551000    300.36754   -1633.5714    496.47587    208.59837   -96.205371    36822.805 
  551100    308.31301   -1639.4517    490.07928    231.91842   -342.68489    36822.805 
  551200    299.49503   -1637.0818    478.24509    182.94822   -365.02495    36822.805 
  551300     304.0198   -1631.6311    482.70067    213.12613   -1096.4654    36822.805 
  551400    303.30597   -1635.0239    470.27714    194.11173   -996.83411    36822.805 
  551500    304.07513   -1646.9029    462.87985    178.28145   -659.79651    36822.805 
  551600    303.11748    -1638.562    474.44335    193.89542   -563.67557    36822.805 
  551700    298.39738   -1641.7583    464.35507    159.46398    106.40299    36822.805 
  551800    304.40317    -1624.725     465.5775    204.62661    316.07828    36822.805 
  551900    297.03024   -1637.7325    492.30511    185.31486    214.26961    36822.805 
  552000     308.6734   -1650.1619    456.12062    188.86411    515.40821    36822.805 
  552100    298.42906   -1593.8624    505.76013    248.90694    539.44138    36822.805 
  552200     293.1942    -1618.247    487.44079    182.75001    426.31971    36822.805 
  552300    296.64301   -1635.9652    493.72779    186.76997    595.77967    36822.805 
  552400    296.71389   -1623.7699    482.36615    187.92118    605.54079    36822.805 
  552500    307.26408   -1611.1217    514.08041    279.55023    459.28219    36822.805 
  552600    302.73685   -1584.6537    507.05437    278.70942     125.7592    36822.805 
  552700    299.42631   -1557.3429    463.23921     247.3733    268.67664    36822.805 
  552800    301.04805   -1551.6532     491.4095    288.49901    82.054193    36822.805 
  552900    306.53716   -1638.5591    503.87402     238.6497     108.7622    36822.805 
  553000    292.71682   -1604.4606    467.82214      174.779   -162.57281    36822.805 
  553100    311.03964   -1586.0914    493.86352    301.27873    594.69315    36822.805 
  553200    301.00002   -1593.6046    481.02669    235.94958    322.94968    36822.805 
  553300    302.23668   -1613.9361    489.12775    229.25962   -91.607464    36822.805 
  553400    301.20804   -1627.3914    500.32504    222.39309   -322.54099    36822.805 
  553500    293.47885   -1612.3438    487.02609    189.51378    -554.7897    36822.805 
  553600    311.15246   -1572.3179    503.16656    324.86073    123.17216    36822.805 
  553700    300.91017   -1596.6615    498.38246     249.8459   -90.640853    36822.805 
  553800    315.31204   -1619.0484    509.47914    303.07831    169.12641    36822.805 
  553900    299.04869   -1625.9508    469.13103    182.96545    220.08801    36822.805 
  554000    301.21114   -1611.0946    515.41163    253.79034    492.22023    36822.805 
  554100    293.19643   -1623.2884    484.99728    175.27509    535.38057    36822.805 
  554200    295.66369   -1604.3146    495.42568    215.73097    430.29349    36822.805 
  554300    304.37385   -1601.5542    464.96685    227.05547    423.10422    36822.805 
  554400    304.51461   -1611.7828    506.31704    258.80769    294.19365    36822.805 
  554500    300.18887   -1611.0089    481.05598    214.94056   -116.22941    36822.805 
  554600    305.17726   -1622.3427    473.15608     218.0556    21.104306    36822.805 
  554700    293.25044   -1607.0478    487.99625    194.75659   -526.61079    36822.805 
  554800    294.17667   -1598.5609    495.90811    215.30506   -844.59431    36822.805 
  554900    301.24326   -1579.6582    478.73095    248.68997   -392.81723    36822.805 
  555000    296.88931   -1530.4864    478.26602    277.89046    143.48613    36822.805 
  555100    291.21316   -1600.3509    483.20804    187.53795    333.18431    36822.805 
  555200    307.92732   -1548.9484    504.37646    334.99096    473.44963    36822.805 
  555300    307.30069   -1585.8968      504.162    295.02067     48.27755    36822.805 
  555400    298.78605   -1580.6712    480.93969    238.87706   -21.851201    36822.805 
  555500    301.44451   -1571.5652    497.25174     276.2054    362.97682    36822.805 
  555600    294.14225   -1567.2106    464.91392    215.50693    183.58618    36822.805 
  555700    298.27145   -1582.6454    481.50812     235.1658    73.372279    36822.805 
  555800    296.37114   -1595.0608    498.13441    230.86298   -178.83744    36822.805 
  555900      299.662   -1609.5587    458.61925     191.5935    115.52007    36822.805 
  556000    302.46245   -1617.9175     483.8007    220.96264    -94.71138    36822.805 
  556100     297.8372   -1617.0977    515.32851    232.58843   -175.15004    36822.805 
  556200    297.91293   -1565.3085    479.38966    248.77798   -36.958902    36822.805 
  556300    294.68124   -1587.2792    482.04401    214.98321    5.9916233    36822.805 
  556400    297.25197   -1581.2764    484.06207     234.5213     -408.605    36822.805 
  556500    304.80924   -1558.5497    489.61073     296.6544   -538.80544    36822.805 
  556600    301.71872   -1583.7201     478.5866    246.61388   -218.71721    36822.805 
  556700    302.43761   -1612.1371    464.35363    207.18464     -431.754    36822.805 
  556800    294.74649   -1570.6379     449.4373    199.31011   -452.51484    36822.805 
  556900    304.61522    -1589.621    475.53987    250.64309    237.99316    36822.805 
  557000    302.34271   -1575.8857    488.86015    267.51739    612.17462    36822.805 
  557100    284.32728   -1565.1169    464.62117     173.3353    519.82863    36822.805 
  557200    305.40873   -1571.9928    503.94391    300.23033    317.90226    36822.805 
  557300    303.82334   -1568.6721    469.21838    261.72274     50.06413    36822.805 
  557400    302.54925   -1553.7202      482.451    284.19906    141.54788    36822.805 
  557500    307.78631   -1569.7194    489.22539    298.43714    116.86762    36822.805 
  557600    298.22028     -1573.58    479.85513    242.34899    207.91909    36822.805 
  557700    300.57401   -1600.1801    483.80154    230.24037    623.66743    36822.805 
  557800    286.36863   -1589.1062    480.96447    174.83478    162.20128    36822.805 
  557900    308.93465   -1507.5382    505.63345    382.17108    387.56395    36822.805 
  558000    295.47178   -1563.6155    459.68297    219.82755   -346.74986    36822.805 
  558100     296.5612   -1592.2271    503.43547    239.84931    154.24025    36822.805 
  558200    306.56678   -1612.4703     480.9915    241.98868   -190.53662    36822.805 
  558300    300.90231    -1620.704    499.01869    226.40438    199.87551    36822.805 
  558400    299.27145   -1579.5006    471.35865    232.64129    167.38492    36822.805 
  558500    292.11407   -1621.1687    491.74765    179.29601   -337.66988    36822.805 
  558600    292.85604   -1549.5666    506.81625    269.29085   -77.295479    36822.805 
  558700    290.40456   -1572.5206    499.75216    228.28971    208.47463    36822.805 
  558800    295.03625   -1589.1084    500.36649    233.06699   -118.82084    36822.805 
  558900    309.84164   -1605.5557    492.31665     274.9003    10.408537    36822.805 
  559000    306.51449   -1569.7941    473.02386    276.46296    224.79245    36822.805 
  559100    307.51338   -1569.2179     481.8976    290.38808    393.88792    36822.805 
  559200    304.00409   -1570.2407    470.96691    262.71242    275.69349    36822.805 
  559300    289.05362   -1561.6962    459.73897    193.04856   -175.12579    36822.805 
  559400    300.21716   -1552.8685    483.34247    275.49413   -41.625393    36822.805 
  559500    300.07127   -1548.0115     481.6412    277.99619    224.55977    36822.805 
  559600    288.16872    -1532.085    493.05324    252.00947    86.188903    36822.805 
  559700    310.85795   -1527.6131      484.762    349.84155     146.4557    36822.805 
  559800    302.93744   -1514.5344    510.40151    353.07453   -185.46085    36822.805 
  559900    296.92529   -1512.9382    506.55364     323.8875   -483.72321    36822.805 
  560000    298.51491    -1522.817    483.07567    297.65245   -164.28505    36822.805 
  560100    299.20277   -1546.8477    489.09932    282.72718   -215.50309    36822.805 
  560200    309.64837   -1576.0827    504.19241    315.38314    82.984537    36822.805 
  560300    298.82404   -1552.1879    482.85625    269.44707    372.59734    36822.805 
  560400    302.03245   -1579.7635    487.71985    261.10927    -462.4326    36822.805 
  560500    303.51425   -1558.4907    468.41086    269.71177   -707.22735    36822.805 
  560600    312.50281   -1553.1071    487.29397    334.24864   -408.10841    36822.805 
  560700    298.75466   -1527.5415    478.59772    289.52419    405.83964    36822.805 
  560800    307.74229   -1524.7639    491.48931    345.45938    188.14466    36822.805 
  560900    293.30953   -1537.0752    483.22486    260.22252    79.475037    36822.805 
  561000    299.85681   -1539.0215    471.94102     276.3253    391.29565    36822.805 
  561100    293.61214   -1535.6653    482.71984    262.48315    143.35598    36822.805 
  561200    299.93804   -1578.4689    482.26915    247.56995    92.249256    36822.805 
  561300    293.17187   -1605.4719    480.90525    188.88954   -146.16948    36822.805 
  561400    301.62874    -1577.087    491.05011    265.30735     211.5918    36822.805 
  561500    302.60994   -1528.2559    496.92968    324.41402    681.30587    36822.805 
  561600    310.43689   -1525.5782    465.81475     331.0427      214.681    36822.805 
  561700     299.2065   -1562.7824    484.34168    262.05147   -102.72125    36822.805 
  561800    297.01166   -1541.0052    497.15399    286.80784   -334.58965    36822.805 
  561900     288.0662   -1551.5721    489.63335    228.64321   -257.26623    36822.805 
  562000    302.19601   -1574.4848    501.71612    281.11703   -568.85684    36822.805 
  562100    295.54961   -1550.5923    488.00576    261.52228    165.30587    36822.805 
  562200    306.85957   -1516.6055    476.06392    334.23765    297.87184    36822.805 
  562300    309.89904   -1534.2692    479.53174    333.65902    99.234168    36822.805 
  562400    291.50373   -1530.3891    511.76917     287.3627   -79.621664    36822.805 
  562500    312.23238    -1560.212    493.29108     331.9293    1195.9053    36822.805 
  562600    311.86472   -1553.5343     499.6341    343.30283    978.65407    36822.805 
  562700    299.98498   -1629.6783    482.04341    196.34509     332.1014    36822.805 
  562800    294.70801   -1581.9864    483.09141    221.44327    423.74423    36822.805 
  562900    303.83056   -1572.7086    469.11051    257.61064    397.97182    36822.805 
  563000    297.55644   -1576.4797    482.09466    238.71465    118.37443    36822.805 
  563100    292.93882     -1578.61    467.21499    201.01707    440.88486    36822.805 
  563200    293.87712   -1553.5725    488.86898    251.91223    473.44487    36822.805 
  563300     306.2124   -1550.0023    485.85679    307.73426    166.11268    36822.805 
  563400    287.03718   -1569.1907    485.04481    201.82591    190.01993    36822.805 
  563500    301.75224   -1558.9654    475.59054    268.52273    227.14465    36822.805 
  563600    294.94428   -1568.6069    471.53221    224.32209    20.016304    36822.805 
  563700    294.18298   -1598.9949    493.11127    212.10245   -59.171658    36822.805 
  563800    308.04163    -1531.029    506.08178    355.12777    203.68364    36822.805 
  563900    312.20316   -1546.3528    479.98224    332.34874    585.90098    36822.805 
  564000    305.51815   -1568.2619    505.02394    305.53146    713.99556    36822.805 
  564100    298.16162   -1531.9371    495.18004      299.054    959.62416    36822.805 
  564200    302.98065     -1523.52    530.07766    363.95866     200.7633    36822.805 
  564300    302.29572   -1519.4963    479.02567    313.86185    752.12912    36822.805 
  564400     296.9219    -1536.293    487.50367     281.4675   -453.08046    36822.805 
  564500    299.10373   -1545.9374    490.46797    284.56234    161.37363    36822.805 
  564600    296.51025   -1546.9459    491.30995    272.77665    250.30355    36822.805 
  564700    307.88339   -1549.5403    499.43131    329.25709    168.22795    36822.805 
  564800    293.48569    -1520.027     468.2431    263.07819    609.20994    36822.805 
  564900    291.54168     -1492.02    505.06829    319.20097    667.82341    36822.805 
  565000     295.2446   -1516.1345    491.44143    298.04924    126.58952    36822.805 
  565100    304.22873   -1525.4473    486.52285    324.06821    301.16333    36822.805 
  565200     290.4448   -1549.4598    502.16981    253.94846   -175.97317    36822.805 
  565300    305.26792   -1528.0367    501.87422    341.48588      687.965    36822.805 
  565400    305.69786   -1586.0663    486.14314    269.65141    267.79298    36822.805 
  565500    311.98056   -1519.5899    478.81845    356.95059     319.3596    36822.805 
  565600    296.94255   -1526.0137    491.34107    295.67676    108.35631    36822.805 
  565700    301.29339   -1510.2955    514.37223     353.9186    105.59204    36822.805 
  565800    299.48666   -1513.7997    491.75085     319.6985   -353.58557    36822.805 
  565900    300.84096   -1517.1601    490.07541    320.73018    237.41785    36822.805 
  566000    295.19333   -1477.9323      520.851    365.43128    -139.8401    36822.805 
  566100    295.12769   -1531.0981    492.92408    284.04448    561.09863    36822.805 
  566200    299.40849    -1560.113    496.70864    277.99283    110.66327    36822.805 
  566300    309.46037   -1526.9142    485.90597    345.42293   -232.23843    36822.805 
  566400      294.569   -1541.8963     458.3015    236.12071   -734.26467    36822.805 
  566500    299.17915   -1515.3039    505.62882    330.69467   -104.31908    36822.805 
  566600    294.80099   -1509.0115    487.85593    299.59932    210.82417    36822.805 
  566700    295.86414   -1539.1287    498.23324    284.62251    450.22386    36822.805 
  566800    298.81305   -1501.6569    499.36578     336.4384    352.01918    36822.805 
  566900    308.56325   -1520.4429    496.52323    358.49224   -35.974581    36822.805 
  567000    299.92691   -1497.9518    504.08011    349.84811     105.6187    36822.805 
  567100    300.16676   -1483.1637     505.5271    367.15772   -593.86188    36822.805 
  567200      304.324   -1500.6167    486.55479    349.35756   -880.22573    36822.805 
  567300    290.99733   -1556.8406    494.25141    241.12469   -481.18386    36822.805 
  567400    308.40692   -1577.9395    477.73961    281.51169   -323.42754    36822.805 
  567500    308.45665   -1555.3234    484.53374    311.14468   -616.90677    36822.805 
  567600    302.76498   -1552.7382    494.31688    298.01344    572.30244    36822.805 
  567700    301.83261   -1572.4495    502.82423    282.63242   -232.21352    36822.805 
  567800    288.50809   -1560.7768    487.90104    219.68597   -32.761989    36822.805 
  567900     296.2499   -1570.4597    490.76546      247.552    218.14613    36822.805 
  568000     308.7031   -1514.7137    488.84775    357.17258    283.80145    36822.805 
  568100    291.78392   -1505.3275    542.01373    343.92412    1242.7054    36822.805 
  568200    295.22265   -1529.2075    489.88717    283.32359    259.43011    36822.805 
  568300    296.23155   -1516.9981    515.20545     325.3713    265.13665    36822.805 
  568400    298.93862   -1537.2737    514.56364    316.58206   -49.632135    36822.805 
  568500    296.70251   -1564.6133    505.99963    270.66034    317.99801    36822.805 
  568600    300.95556   -1548.3988    483.92319    283.85274     86.91508    36822.805 
  568700    311.19929   -1530.8808    507.26376    370.60485    492.72153    36822.805 
  568800     301.4501   -1577.3484    514.30788    287.50335   -391.69921    36822.805 
  568900    309.98663   -1575.1582     455.2521    268.88282   -280.79487    36822.805 
  569000    283.10912   -1540.6127    514.53093    242.29172   -532.81403    36822.805 
  569100    292.74323   -1524.9619    468.64208    255.21595    -1108.126    36822.805 
  569200    293.49138   -1509.4799    500.92631    306.33402   -637.68839    36822.805 
  569300    304.43383   -1543.1018     500.6106    321.42025   -312.52383    36822.805 
  569400    306.59689   -1570.9845    524.29309    326.91098   -397.65342    36822.805 
  569500    299.66646   -1498.2475    504.13682    348.44227   -617.55657    36822.805 
  569600    301.35017   -1492.4433    483.17642    340.82934   -227.19124    36822.805 
  569700    302.21466   -1537.2407    495.61811    312.34675   -682.71342    36822.805 
  569800    291.99941   -1519.3815    475.81095    264.63279   -255.67863    36822.805 
  569900    293.29384   -1587.0968    485.93894    212.84471   -420.82338    36822.805 
  570000    304.13864   -1587.9544    493.34547    267.98011   -16.540141    36822.805 
  570100    299.87278   -1570.3548    486.57137    259.69382    338.38193    36822.805 
  570200    301.94586   -1529.0697    502.04513    325.74044   -245.45364    36822.805 
  570300    304.30743    -1554.108    504.20784    313.44506   -436.47654    36822.805 
  570400    287.24063   -1572.2417    489.84453     204.4861   -57.457749    36822.805 
  570500    292.72556    -1567.198    502.98101    247.23965   -294.31621    36822.805 
  570600    291.18605   -1607.1502    480.95245    178.36157   -409.57663    36822.805 
  570700    300.72521   -1557.5976    491.00065    280.69938   -746.28823    36822.805 
  570800    294.72091   -1574.2021    479.08109    225.27504    -1426.475    36822.805 
  570900     296.1386   -1577.3122     479.1701     228.6055   -1335.0733    36822.805 
  571000    295.97971    -1576.089    485.72863    235.67534   -589.15873    36822.805 
  571100    288.20484   -1578.3797    464.42552    177.24884   -457.51135    36822.805 
  571200    300.05949   -1554.7748    512.99272    302.53174   -130.76447    36822.805 
  571300    294.96193   -1551.3901    505.29135    275.37716    448.83904    36822.805 
  571400    302.42888   -1547.8898    495.75515    302.79437    281.31766    36822.805 
  571500    305.54097    -1523.564    508.96564    354.27327    577.77765    36822.805 
  571600    297.93843   -1532.2386    483.91707     286.4896    560.65003    36822.805 
  571700     290.7891   -1556.0716    477.77996    224.48938    113.93367    36822.805 
  571800    303.14923    -1563.333      500.156    294.97929    109.10882    36822.805 
  571900    301.61233   -1543.1721    497.02544    305.12403    478.44257    36822.805 
  572000    310.76746   -1563.3075    484.50348    313.48311    603.13649    36822.805 
  572100    287.94902    -1600.691    491.93024    181.29618    -103.7162    36822.805 
  572200    305.53016   -1560.7034    491.23571    299.35553   -413.08425    36822.805 
  572300    289.73868   -1559.1099    477.23502    216.20003   -370.26397    36822.805 
  572400    303.95973   -1556.0582    486.54498     292.2742   -186.21918    36822.805 
  572500    299.28758   -1539.2025    484.66514    286.31818    -831.7013    36822.805 
  572600    298.22949   -1518.6147    481.78429    299.28466   -63.762835    36822.805 
  572700    304.96184    -1546.229    494.01794    314.06602   -771.75909    36822.805 
  572800    300.49538   -1520.4788    500.75544    326.54327   -870.80235    36822.805 
  572900    306.08205   -1527.6234     491.3183    334.99075    -977.2354    36822.805 
  573000    303.04608   -1533.8825    470.63678    294.44847   -420.21648    36822.805 
  573100    293.27062   -1621.2374    472.55792    165.21909    111.88383    36822.805 
  573200    300.64977   -1612.7246    492.49031    226.72401   -200.76357    36822.805 
  573300    291.90618   -1565.8818    458.13852    200.04239   -354.14005    36822.805 
  573400    294.91595   -1589.3441    475.19796    207.12372   -403.76809    36822.805 
  573500    304.96575   -1594.2235    475.51234    247.58343   -153.14696    36822.805 
  573600    294.04942   -1613.3073    445.04767     149.1281    171.84933    36822.805 
  573700    312.29499   -1601.4384    485.79142     283.4838   -122.60765    36822.805 
  573800    289.63093   -1613.8445    500.10003    183.84768    -97.88734    36822.805 
  573900    302.36335   -1601.0145    439.24314    192.86402    68.758479    36822.805 
  574000    291.09447   -1619.4182     471.0416    155.77247    479.62399    36822.805 
  574100     299.2673   -1598.1282    470.89166    213.52814   -8.5537057    36822.805 
  574200    302.22903   -1561.8978    490.45101    282.58685   -120.10171    36822.805 
  574300    297.37416   -1598.1848    489.24428    223.34251    52.839989    36822.805 
  574400    305.34099     -1615.83    493.40315     245.5489    329.41802    36822.805 
  574500    294.50852   -1568.4291    502.58555    253.60099   -94.414634    36822.805 
  574600    304.21381     -1533.09     477.2986    307.13436   -280.70393    36822.805 
  574700    291.51474   -1582.5877    470.78326    194.22747   -579.23317    36822.805 
  574800    299.64285   -1585.6405    475.92597    232.73265   -631.12329    36822.805 
  574900    306.19588   -1580.7262    476.72316    267.80275   -900.78689    36822.805 
  575000    300.92726   -1585.4185    471.35931    234.14233   -736.19114    36822.805 
  575100    311.44996   -1579.1046    482.99327    299.23354    -631.3346    36822.805 
  575200    292.40093   -1631.5163    467.05338    145.53923   -195.38472    36822.805 
  575300    308.27983   -1633.7981    462.58897    209.93306   -199.25729    36822.805 
  575400     306.4548   -1559.9867     459.3367    272.31575    71.555115    36822.805 
  575500     309.3839   -1559.1005    499.91188    326.90002    128.77239    36822.805 
  575600    306.22762   -1567.5725    490.67768    295.05315   -116.97707    36822.805 
  575700    297.18495   -1544.6643    473.07503     259.8461   -215.61211    36822.805 
  575800    291.37098   -1553.0683    478.65709    230.97665   -217.22559    36822.805 
  575900    310.97101   -1574.0971    476.50022    295.60222   -66.752476    36822.805 
  576000    311.93477    -1573.088    450.53738    274.96629     19.35839    36822.805 
  576100    295.88922    -1542.616    471.00627    254.02061    88.163806    36822.805 
  576200    290.18797   -1570.9928    455.75953    184.85454    181.74287    36822.805 
  576300    302.11505   -1595.7385    449.39676    207.18125    579.82587    36822.805 
  576400    300.38007   -1568.6874    466.02032    243.08293    316.23482    36822.805 
  576500    300.73156   -1544.1918    455.52462    258.65757    402.82492    36822.805 
  576600    305.68978   -1528.7301    460.08602    300.89423    42.792452    36822.805 
  576700    304.39059   -1569.1789    478.10963    272.64854   -198.91578    36822.805 
  576800    301.95031   -1554.4926    445.96766    244.26003   -39.982451    36822.805 
  576900    294.84312   -1560.7868    471.90992    232.06675   -248.93526    36822.805 
  577000    304.78841   -1583.8375    473.32967    254.99224    165.17154    36822.805 
  577100     295.8378   -1578.3886    459.03544    206.04679   -90.397762    36822.805 
  577200     296.2483   -1588.8333    448.12292    186.52863    664.97971    36822.805 
  577300    289.42906   -1555.3203    501.34272    242.71017    512.91844    36822.805 
  577400    286.16002    -1565.525    450.48827    167.00526    64.274289    36822.805 
  577500    291.15602   -1554.6951    480.88846    230.61815   -61.208225    36822.805 
  577600    294.87239   -1552.4597    476.51046    245.12553   -192.50691    36822.805 
  577700    299.11663   -1583.0462    457.25608     214.2995   -226.51397    36822.805 
  577800    287.11767   -1603.9678    466.60485    148.96946    295.75471    36822.805 
  577900    300.42784   -1601.4182    472.02365    216.56949   -647.40541    36822.805 
  578000    299.05995   -1601.3023    464.11364    202.64698   -399.97375    36822.805 
  578100    309.97258   -1581.5292    458.99787    266.19467   -533.49119    36822.805 
  578200    302.25324   -1534.3508    488.69144    308.48278   -529.73617    36822.805 
  578300     302.1903   -1559.5718    494.72893    289.01732    204.64414    36822.805 
  578400    312.54624   -1574.7386    472.06497    297.58276   -199.36581    36822.805 
  578500    305.08863   -1552.5289    486.15795    300.47419    254.22358    36822.805 
  578600    302.75592   -1574.0499    478.78287    261.12713   -103.83659    36822.805 
  578700    296.07668   -1574.6421    460.20565    212.03373   -403.32817    36822.805 
  578800    296.86318   -1556.7909    465.19054    238.39342   -68.314232    36822.805 
  578900    293.43843   -1561.2564    470.62982    224.02381   -292.64275    36822.805 
  579000    291.09228   -1555.1019    482.41853     231.4559    137.34714    36822.805 
  579100    291.87897   -1536.9851    488.07969     258.7583   -228.17633    36822.805 
  579200     292.3018   -1518.9982    478.82035    269.38024    182.20546    36822.805 
  579300    287.65012   -1530.3843    468.95048    227.28408   -451.56362    36822.805 
  579400     301.8928   -1551.6884    482.98582    283.82477    87.746447    36822.805 
  579500    301.53787   -1538.1348    463.82249    276.62487    105.04256    36822.805 
  579600     298.6521   -1551.1411    466.77755    253.64487    278.90212    36822.805 
  579700    306.39771   -1561.5544    480.54233    291.69799    1.0248417    36822.805 
  579800     297.3337   -1533.5509    474.05968     272.6106    168.06633    36822.805 
  579900    306.83828   -1577.8075    476.17127    273.04766    107.74281    36822.805 
  580000    288.61609   -1587.5204    472.13087    177.65604    523.22887    36822.805 
  580100    306.68447    -1565.794    476.88224    285.08295    588.41952    36822.805 
  580200    300.30249    -1575.577    479.40691    249.23242    343.32365    36822.805 
  580300    305.22387    -1569.718     450.2795    248.01255    536.93728    36822.805 
  580400    295.81478    -1541.069    464.81598    249.04379   -198.66047    36822.805 
  580500    301.62041   -1514.9807    493.53526    329.86154   -363.82196    36822.805 
  580600    308.95824   -1543.1169    448.24566    289.31027   -413.39994    36822.805 
  580700    299.18905   -1539.0342    471.72548    273.10539   -664.81565    36822.805 
  580800    302.20946    -1559.964    489.29162    283.27362   -796.94121    36822.805 
  580900     300.9487   -1578.6102     437.4083    207.09564   -962.72723    36822.805 
  581000     289.7962   -1556.9507    464.26048     205.6424   -1151.9476    36822.805 
  581100    304.58046   -1540.8468    467.04366    290.76524   -706.38338    36822.805 
  581200    300.37315   -1561.5249    465.88087      250.075   -712.19755    36822.805 
  581300    297.86318     -1539.16    469.85416     265.1681   -970.27371    36822.805 
  581400    298.44065   -1579.8802    480.32181     237.5027   -627.97809    36822.805 
  581500    293.01316   -1551.0642    473.93467    235.61552    228.88763    36822.805 
  581600    294.01747   -1623.5805    469.79408     163.4582    372.99542    36822.805 
  581700    309.14557   -1586.7837     469.1122    267.34936   -18.459607    36822.805 
  581800    301.64979    -1594.724     460.4181    217.13264    2.9024709    36822.805 
  581900    293.77413   -1588.3637    459.50417     187.2949    302.87629    36822.805 
  582000    300.90292   -1604.6917    454.42745    197.82817   -237.67489    36822.805 
  582100    292.13859   -1607.2875    466.37705    167.91638   -497.56022    36822.805 
  582200    292.00443   -1593.8743    479.68181     194.0333    -791.8807    36822.805 
  582300    307.33359    -1615.116    451.72903    213.51591    21.542149    36822.805 
  582400    298.24707    -1615.574    485.84761    206.46746    6.2628737    36822.805 
  582500    300.74512   -1592.8551    449.39378    203.92414    354.98092    36822.805 
  582600    301.47969   -1573.2471    487.53706    264.96644   -6.0502486    36822.805 
  582700    297.84161   -1555.2288    465.07893     244.2275    -302.8505    36822.805 
  582800    292.60597   -1579.8689    459.29619     190.3481     12.61992    36822.805 
  582900    298.94034   -1578.5242    466.18544    226.96102   -8.7166805    36822.805 
  583000    298.37221   -1539.2293    460.43767    257.96287    259.73015    36822.805 
  583100    297.37266    -1527.277    502.70308    307.70245    399.16729    36822.805 
  583200    305.63196   -1546.2114    466.49078    289.55872    205.40312    36822.805 
  583300    296.19503   -1560.8185     486.4735    252.65541    72.085702    36822.805 
  583400    291.99355   -1560.6655     475.7721    223.28367    880.24748    36822.805 
  583500    298.14386   -1575.6886    470.32445    230.36729    57.279123    36822.805 
  583600    296.15027   -1571.9895    490.35243    245.16275    641.27826    36822.805 
  583700    297.99673   -1559.3444    478.26676    253.99463    706.39678    36822.805 
  583800    300.17391   -1584.0807    457.47263    218.21832    426.91869    36822.805 
  583900    299.00113   -1591.3154    477.61664    225.87342    443.57342    36822.805 
  584000    307.01591   -1586.7372    471.53208    260.27452      494.672    36822.805 
  584100     285.1523   -1601.3462     449.0568    125.23785   -162.78683    36822.805 
  584200    308.38882   -1549.2704    472.80293    305.16302   -83.031135    36822.805 
  584300    299.10093   -1552.2497    465.72878    253.49832    486.89897    36822.805 
  584400    308.97294   -1506.7628    494.63123    372.11585     319.4883    36822.805 
  584500    303.94131   -1553.2133    463.24983    271.74148    83.664532    36822.805 
  584600    300.23327   -1554.0116    480.41046    271.49116    -384.7788    36822.805 
  584700    295.38512   -1546.0005    476.76956    254.14099   -523.36169    36822.805 
  584800    293.47347   -1519.4392    485.73175    281.09993    371.22177    36822.805 
  584900    294.48293    -1539.229    494.90733    275.00825    573.88463    36822.805 
  585000    305.81582   -1558.7795    443.02431    254.34783    791.48921    36822.805 
  585100    290.62736   -1549.6477    508.23308    260.64175    842.96806    36822.805 
  585200    292.22666   -1567.7202     481.6143    223.11559    987.84486    36822.805 
  585300    306.50328   -1569.0434    487.70854    291.84809     780.0573    36822.805 
  585400    304.38237    -1588.053    471.64914    247.27708    445.41604    36822.805 
  585500    297.38676   -1532.6321    471.05436    270.76181    199.11009    36822.805 
  585600    298.41043   -1546.4441     474.2566    264.73824    547.96557    36822.805 
  585700    303.29824   -1557.6887    450.10365     251.2388    203.03155    36822.805 
  585800    305.93299   -1575.9345    475.77708    270.47057   -109.23164    36822.805 
  585900    298.01013   -1546.6597    478.54986    267.02252    338.89017    36822.805 
  586000    290.06894   -1554.9996    472.84324     217.3982    135.97407    36822.805 
  586100    299.71161   -1536.5355    465.51729    271.73696   -327.31081    36822.805 
  586200    297.58828   -1511.5517    476.61802    298.30872   -282.43442    36822.805 
  586300    302.69749   -1541.9575    466.07088    280.24584   -319.83378    36822.805 
  586400    302.67064   -1588.5405    499.95816    267.42985   -284.15372    36822.805 
  586500    293.58739   -1560.6949    489.55014    244.17297   -248.04232    36822.805 
  586600    301.67676   -1588.3597    464.87853    228.07823   -245.78251    36822.805 
  586700      305.322   -1574.4187    473.00232    266.47431   -63.967592    36822.805 
  586800    305.16903   -1573.0559     466.3397     260.4891   -131.66001    36822.805 
  586900    283.99861   -1583.9366    480.87704     169.2989    418.95101    36822.805 
  587000    296.31497   -1576.3923    461.27623     212.4217    381.57271    36822.805 
  587100      281.629   -1567.6209    459.52578    153.64717    212.18932    36822.805 
  587200    311.05118   -1549.0468    504.09814    348.60968     295.0068    36822.805 
  587300    301.29256    -1554.867    479.58084    274.55193    244.15903    36822.805 
  587400    298.31846   -1546.1865    469.33994    259.66719   -656.87813    36822.805 
  587500    295.61029   -1506.1532    485.53182    303.75928   -1092.4005    36822.805 
  587600    301.29554   -1552.5834    492.19259    289.46064    -850.1912    36822.805 
  587700    299.78348   -1512.2118    475.86896    306.73441    -466.2885    36822.805 
  587800    304.61483   -1584.9209    483.40518    263.20672   -206.08271    36822.805 
  587900     307.7454   -1542.4721    510.96658    347.24236    331.17578    36822.805 
  588000    297.69174   -1529.5508    511.88068    316.03578   -124.78613    36822.805 
  588100    299.89596   -1543.1729    471.17972    271.58799   -517.67589    36822.805 
  588200    303.67245   -1564.2136    471.07686    267.36363   -510.28664    36822.805 
  588300    293.81996   -1587.8487    464.69008    193.20104    55.882952    36822.805 
  588400    299.17872   -1552.2859    479.87325    267.95513    -701.0142    36822.805 
  588500    300.04749   -1570.6159    489.08695    262.73111   -204.08222    36822.805 
  588600    300.58623   -1531.3337    493.69644    309.03635   -341.52849    36822.805 
  588700    303.95591   -1556.3289    500.48567    305.92717   -22.550499    36822.805 
  588800    301.67011    -1535.172    457.90001    274.25759    -152.3129    36822.805 
  588900    302.65119   -1549.1724    482.96261    289.71519   -33.264822    36822.805 
  589000    300.21538   -1525.1299    519.46728    339.34959    95.266378    36822.805 
  589100    307.71179    -1503.431    506.22578    381.39203   -213.45314    36822.805 
  589200    307.47614   -1553.1399    487.00961    311.41126   -397.44269    36822.805 
  589300     301.9181   -1499.9628    493.19663    345.87444   -1.3686844    36822.805 
  589400    292.62151   -1564.2217    467.98263     214.7514    20.697415    36822.805 
  589500    295.82082   -1544.0967    509.33195    290.55917     413.2403    36822.805 
  589600    295.37645   -1556.5404    493.51033    260.30296     193.9451    36822.805 
  589700    303.40525    -1563.481    505.91611    301.73838   -100.47685    36822.805 
  589800    303.04044   -1512.8022    485.96387    330.83057    613.02119    36822.805 
  589900     296.6229   -1485.7595    483.85554    327.01333     -57.8882    36822.805 
  590000    300.16281   -1492.9652    496.12713    347.93862    75.959196    36822.805 
  590100    298.51212   -1543.8948     521.6094    315.09597    76.805785    36822.805 
  590200    304.49637   -1494.2049    489.23959    359.22641   -742.10219    36822.805 
  590300    304.05589   -1485.1536    485.47563    362.54026   -300.05576    36822.805 
  590400    295.67865   -1530.3583    487.66245     281.9911    251.83776    36822.805 
  590500    303.75097   -1514.8772    493.05969    339.03468    199.31997    36822.805 
  590600    295.59449   -1542.0541    496.28869    278.54443    108.55586    36822.805 
  590700    301.02026   -1538.8474     486.9978    296.76851    147.76766    36822.805 
  590800     310.9059   -1544.0504    502.44879    351.30575    692.61327    36822.805 
  590900    300.20738   -1540.7945    497.48737    301.66923     584.9369    36822.805 
  591000    294.19377   -1499.3095    490.81699    309.54189   -44.422131    36822.805 
  591100    303.62323   -1527.9086    471.76164    304.13288   -64.311683    36822.805 
  591200    303.63262   -1523.3377    489.40932    326.39361   -403.92245    36822.805 
  591300    294.13328   -1518.7234    501.98969    301.02969    -766.7155    36822.805 
  591400    298.60218   -1559.4879    485.65195    263.94883   -926.29803    36822.805 
  591500    298.14822   -1506.9787    523.90556     352.6779   -665.10855    36822.805 
  591600    296.90009   -1525.6551     486.9848    291.48888   -699.17633    36822.805 
  591700    296.23057   -1547.9221    475.82081    255.05828   -298.30246    36822.805 
  591800    296.46864   -1534.1305    483.38979    277.48547   -348.72458    36822.805 
  591900    298.16947   -1536.3471    500.57714    300.07621      86.4892    36822.805 
  592000     294.3944   -1538.7331    491.52924    271.72936    253.36304    36822.805 
  592100    300.92731   -1557.6206    489.01802    279.59913    477.99697    36822.805 
  592200    292.33183    -1511.771    509.61431    307.53591    -95.31323    36822.805 
  592300    308.97789   -1541.1368     489.4026    332.53543   -152.35863    36822.805 
  592400    306.22564   -1547.5768    483.61353    307.97579   -219.70216    36822.805 
  592500    305.18945   -1526.0734    497.48939    338.71278   -805.19826    36822.805 
  592600    299.36746   -1499.1451    471.49674    313.56504   -743.20697    36822.805 
  592700    293.37335   -1545.4136    522.02097    290.96617    254.58668    36822.805 
  592800    299.14338   -1544.9089    473.97825    269.27881    57.155685    36822.805 
  592900    300.87544   -1524.2553    490.00171    313.71575    20.650735    36822.805 
  593000    300.92462   -1550.6533    470.73759    268.27396     139.0555    36822.805 
  593100    296.87332   -1580.2016    484.06002    233.89761     188.5747    36822.805 
  593200    308.27768   -1539.9524    490.65445    331.83461   -173.24141    36822.805 
  593300    300.08062   -1573.5165    508.24179    279.13369    79.836533    36822.805 
  593400    304.29472   -1586.4236    467.24535    244.10998    184.46277    36822.805 
  593500    308.76939   -1561.9808    482.21752    303.57219   -245.85033    36822.805 
  593600    315.25321   -1533.6554    492.82107    371.54975   -554.66789    36822.805 
  593700    303.67229   -1561.4437    477.30556    276.36151   -517.32214    36822.805 
  593800    291.66631   -1560.8131    477.80181    223.69968   -170.41573    36822.805 
  593900    295.50273   -1544.3529    505.34485    284.89075   -510.49587    36822.805 
  594000    291.34069   -1520.4508    455.03584    239.83718   -29.465822    36822.805 
  594100    304.93672   -1556.0394     489.1955    299.32065    491.48756    36822.805 
  594200    299.40262   -1564.8655    520.71201    297.21737    757.44801    36822.805 
  594300    313.18156   -1584.9324    490.74202    308.91235    366.35535    36822.805 
  594400    295.89476   -1568.4519    506.38095    263.58415    436.72108    36822.805 
  594500      301.819   -1555.6284     496.5673    293.13553    674.58385    36822.805 
  594600    298.95126   -1468.3772    506.10997    377.08146    737.79722    36822.805 
  594700    308.74348   -1485.7891    525.90651    423.33678    1051.1423    36822.805 
  594800    302.05622   -1529.4717    505.21291    329.00068    433.55034    36822.805 
  594900     291.9085   -1535.3207    501.14826    273.62366    343.93086    36822.805 
  595000    299.23362   -1529.6412    497.71701    308.68962    117.07111    36822.805 
  595100    293.09545   -1539.1777    485.81815    259.75424   -271.12099    36822.805 
  595200    276.81237   -1511.2889    485.66344     214.5376    577.21944    36822.805 
  595300    306.70128   -1538.9054    503.62474     338.7894    119.38138    36822.805 
  595400    303.45874   -1576.5599    483.57373    266.55679    314.68087    36822.805 
  595500    300.40085    -1574.907     492.5917    263.52785   -189.79209    36822.805 
  595600    301.34069   -1589.2632    458.98012    219.77062   -360.20044    36822.805 
  595700    304.33159   -1570.7921    473.33119    265.99248    617.36053    36822.805 
  595800    297.15581   -1542.5668    497.24347    285.98149    630.79797    36822.805 
  595900     299.3436   -1588.6851    469.21266    221.63405    656.80591    36822.805 
  596000    303.35874   -1553.9061    490.44861    295.63746    114.23873    36822.805 
  596100     298.2487   -1588.6393    479.40042    226.96227   -281.04581    36822.805 
  596200    313.62711   -1525.6113    499.37969    378.86721    20.736625    36822.805 
  596300    302.48393   -1562.1867    477.81537    270.80431   -444.06082    36822.805 
  596400    297.62401   -1558.2461    502.39542    277.55171    1.7517534    36822.805 
  596500    298.64562   -1515.1215    471.40158    294.25954   -201.18721    36822.805 
  596600    302.34428   -1534.0896    513.95326    334.41363    18.452629    36822.805 
  596700      302.743   -1533.8208    484.73177    307.24734   -342.57142    36822.805 
  596800    296.99996   -1545.9033    485.03612     269.7394    -208.7237    36822.805 
  596900    298.76018   -1551.7025    481.98068    268.77085   -324.24659    36822.805 
  597000    300.57441   -1493.9317    500.66663    353.35562   -459.90542    36822.805 
  597100    308.84729   -1535.1131    464.93415    313.50554   -187.41026    36822.805 
  597200    301.63771   -1501.0529     505.0573    355.38885    -709.6153    36822.805 
  597300     310.8345   -1529.8281     489.9942    352.75365     -259.765    36822.805 
  597400    296.30158   -1555.7889     477.5304    249.21923    282.83069    36822.805 
  597500     300.3293   -1564.6656    511.53183    292.38883    -150.4553    36822.805 
  597600    298.38676   -1526.6539    469.40746    279.57326    8.8087486    36822.805 
  597700    296.54252   -1533.5758    527.35726    322.33871    302.25851    36822.805 
  597800    291.94448   -1579.3067    487.09801    215.74855    97.947616    36822.805 
  597900    298.00762   -1569.6344    470.78393    236.27063    20.180014    36822.805 
  598000     308.6898   -1591.5403    472.40661    263.84525   -405.92799    36822.805 
  598100    300.70458   -1544.6125    474.07787    276.66925   -424.52624    36822.805 
  598200    309.01572   -1598.1242    462.93819    249.25307   -425.82481    36822.805 
  598300    287.83232   -1575.7137    478.44429    192.26467   -336.03623    36822.805 
  598400    302.82004   -1593.0498    479.32044    242.95211    -752.8308    36822.805 
  598500    297.55961   -1615.4607    477.08412    194.73732   -651.16734    36822.805 
  598600    301.97672   -1575.1074    492.95829    270.75419   -223.71008    36822.805 
  598700    305.37101   -1584.6832    468.57363    252.00064     101.5661    36822.805 
  598800    299.74332   -1616.6468    465.52195     191.7724    273.49543    36822.805 
  598900    307.35334   -1576.4261    482.89267    283.45791    338.45803    36822.805 
  599000    296.70868   -1589.6894    468.22872    207.84092   -283.96246    36822.805 
  599100    290.03145   -1614.2691    479.25613    164.37366   -205.09313    36822.805 
  599200    292.80335    -1569.973    487.51234     229.3445   -284.61002    36822.805 
  599300    297.70424   -1559.7213    493.43613    267.47669    341.12553    36822.805 
  599400    292.46854   -1565.1766    512.46827    257.59673   -17.415963    36822.805 
  599500     293.5356    -1591.986    454.47557     177.5753    -313.5735    36822.805 
  599600    299.40379   -1590.9643    487.05598    237.46782    -158.2124    36822.805 
  599700    306.55179   -1563.8186    473.03265     282.6143   -253.39334    36822.805 
  599800    294.88852   -1558.9991    459.41829    221.56618   -1023.9574    36822.805 
  599900    295.79745   -1535.4622     476.0303    265.78723   -721.42142    36822.805 
  600000      305.339   -1563.9434    505.47697     309.5004   -824.31555    36822.805 
  600100    305.17803   -1515.0397    479.03659     331.2425   -1418.0673    36822.805 
  600200    307.41751   -1533.5984    487.21324    330.89375   -1313.1237    36822.805 
  600300    299.59103   -1527.8814    480.14477    294.47831   -792.17869    36822.805 
  600400    296.60886   -1504.7462    480.28589    304.39407   -940.63422    36822.805 
  600500    312.25093   -1508.8243    496.33453    386.44357   -621.53062    36822.805 
  600600    301.39905   -1537.7793    493.75661    306.29254    -300.0199    36822.805 
  600700    309.32618   -1549.8593    481.62212    317.59284   -16.892457    36822.805 
  600800    298.74471   -1554.6322    485.45689    269.24801    157.36385    36822.805 
  600900    302.20037   -1524.3488    489.58721    319.14362   -493.78936    36822.805 
  601000    296.37619   -1516.2403    471.74876    283.32054   -814.87696    36822.805 
  601100    305.93829   -1542.2783    464.52429    292.89772   -1070.3375    36822.805 
  601200    305.12562   -1520.5216    473.37129     319.8605   -357.74179    36822.805 
  601300    296.70705   -1529.2718     512.1385    312.16099   -291.06512    36822.805 
  601400    292.23538   -1556.7109    507.04667    259.59625    649.16292    36822.805 
  601500    304.33609   -1554.2521     487.2068    296.42827    337.09359    36822.805 
  601600      307.054   -1540.2964    456.22055    291.57447   -52.962557    36822.805 
  601700     294.9783   -1493.9748    496.67247    324.24692   -343.23192    36822.805 
  601800    307.96663   -1500.0722    477.14916    356.81591   -584.91222    36822.805 
  601900    293.57292   -1527.1044    451.99031    240.13889   -187.99587    36822.805 
  602000    292.05223   -1582.9283    494.47009    219.98183   -182.02014    36822.805 
  602100    306.96951   -1572.6312    479.33182    281.97235   -67.012568    36822.805 
  602200    292.01269   -1568.8785    481.01221    220.39658   -280.36557    36822.805 
  602300    298.33499   -1595.0659    465.33679    206.85861    -289.1021    36822.805 
  602400     300.4436   -1552.9914    485.49681    278.54001   -267.29681    36822.805 
  602500    306.84808   -1579.4167    460.39339     255.7044   -210.76278    36822.805 
  602600    309.34324   -1582.7187    461.71735    264.90511   -456.11258    36822.805 
  602700    293.59508   -1565.5529    459.21097    209.01033     23.61086    36822.805 
  602800    296.52719   -1545.5841    467.24256    250.14696   -51.395689    36822.805 
  602900    282.97813   -1487.2867    493.05702    273.55695   -299.87325    36822.805 
  603000    306.37896   -1473.0293     474.4572     374.0539   -226.42616    36822.805 
  603100    297.96226   -1479.3774    493.84451    349.38498   -767.29409    36822.805 
  603200    301.20522   -1461.8964     488.8145    376.36489   -756.50455    36822.805 
  603300    298.29126   -1439.2551    485.24265    382.37933     -1046.84    36822.805 
  603400    306.95656   -1492.9168    487.18598    369.48295   -812.91597    36822.805 
  603500    308.19763   -1467.3332     478.1763    391.61702    -371.8529    36822.805 
  603600    300.67766   -1448.1055    493.76076     392.7385   -802.13965    36822.805 
  603700     297.8154   -1440.8009    491.41275    384.87174   -154.20531    36822.805 
  603800    304.86339   -1458.7961    492.99892    400.03881   -70.389826    36822.805 
  603900    305.02485   -1473.3072     484.9091    378.16133    52.927093    36822.805 
  604000     313.4519   -1512.0328    488.97387    381.25494    194.23714    36822.805 
  604100    300.53345   -1529.5835    480.20876    297.06244    414.16905    36822.805 
  604200     306.4072   -1507.0482    475.43077    341.13507    571.47008    36822.805 
  604300    296.32054   -1493.9742    497.46374    331.05225    250.87772    36822.805 
  604400    297.84313   -1497.0721    489.25792    326.56991   -71.328627    36822.805 
  604500    297.82876   -1471.1695    498.40566    361.55596    277.25374    36822.805 
  604600    306.62795   -1480.2085    495.84312    389.37615    524.42673    36822.805 
  604700    291.10383    -1514.511    478.81428    268.49429   -48.617795    36822.805 
  604800    298.96823   -1501.1999    476.75417    314.97905   -276.51897    36822.805 
  604900    302.87158   -1584.5873    482.34691    254.67198   -269.83232    36822.805 
  605000    293.15436   -1517.9477    471.80534     267.2353     57.39515    36822.805 
  605100    290.69295   -1504.8085    513.84417    311.38592   -475.62778    36822.805 
  605200    297.53137   -1517.5195    481.69952    297.16738    -857.2647    36822.805 
  605300     301.4166   -1544.5573    472.63012    278.46667   -609.77019    36822.805 
  605400    293.62536   -1540.0888    463.77832    239.17744   -497.13405    36822.805 
  605500    305.70844   -1510.7565    491.87811    350.74357   -594.46159    36822.805 
  605600    301.35745   -1492.8708    493.41869    350.67671   -399.33158    36822.805 
  605700    296.57865    -1508.894    470.68954    290.51462   -557.94757    36822.805 
  605800    307.24152    -1515.444    493.28842    354.33478   -118.08641    36822.805 
  605900    294.90376   -1473.9268    503.66069    350.94918    242.00522    36822.805 
  606000     299.3844   -1455.4257     496.2582    382.12172   -182.98088    36822.805 
  606100    304.54013   -1514.6054    486.47835     336.2607    99.892804    36822.805 
  606200    301.39294   -1497.6826    489.70035    342.30562    338.94375    36822.805 
  606300    305.72794    -1495.564    491.43412    365.57947    879.21986    36822.805 
  606400    301.74235   -1513.8083    509.99813    348.04314    178.22332    36822.805 
  606500     304.7915   -1521.6816    485.91738    329.74972    194.80229    36822.805 
  606600    302.03821   -1492.4908    495.21727    355.90523    546.96775    36822.805 
  606700    297.57304   -1509.2018    501.15465    325.12692    335.45812    36822.805 
  606800    301.42693   -1487.1802    462.13671    325.39664    334.86835    36822.805 
  606900    303.28327   -1489.3041    480.87899    350.33177   -247.24478    36822.805 
  607000    291.17708   -1480.0852     492.1628    316.59675   -106.31823    36822.805 
  607100    302.63353   -1507.8928    491.75757     339.7106    156.13905    36822.805 
  607200    286.26012   -1499.4402    476.62259    259.67279    32.788308    36822.805 
  607300    296.27422   -1488.3919    492.86506    331.82833    807.79773    36822.805 
  607400    300.09701   -1503.2606    487.81312     329.0344     567.9951    36822.805 
  607500     307.3187   -1539.9966    474.08628    310.92589    444.30434    36822.805 
  607600    307.86241   -1537.8131    486.96581    328.42477    -362.2472    36822.805 
  607700     293.0799   -1541.5874    459.51715    230.97383   -113.52123    36822.805 
  607800     298.2654   -1508.6513    470.80116    298.42581    38.582193    36822.805 
  607900    307.57012   -1507.5859    472.93158    343.30822    129.34541    36822.805 
  608000    295.74223   -1542.9149    509.13567    291.19255    532.84042    36822.805 
  608100    300.58244   -1533.7818    463.28841    276.16327    440.32609    36822.805 
  608200    304.57778   -1540.8987    479.94447    303.60215    930.84563    36822.805 
  608300    306.69036   -1503.7643    490.10808    360.36489    169.45942    36822.805 
  608400    298.66821   -1523.0969    469.49786    284.48159    -340.2966    36822.805 
  608500    292.49025   -1497.6735    478.78246    291.51129    185.40644    36822.805 
  608600    299.72444   -1534.9447    466.06218    273.93023    660.25105    36822.805 
  608700    300.49864   -1535.9622    497.71989    308.03896    46.337375    36822.805 
  608800       307.03   -1525.3521    462.17296    312.36359   -628.68364    36822.805 
  608900    294.55758   -1511.5828    460.53419    268.61576   -246.21511    36822.805 
  609000    301.44961   -1494.5591    492.52469    348.50729    143.93596    36822.805 
  609100     301.7249   -1495.1207    493.75446     350.4088    50.926508    36822.805 
  609200    297.35775   -1509.1224    496.05335    319.14055   -3.7552365    36822.805 
  609300    296.90537   -1539.8072    463.07928    253.45488    15.332716    36822.805 
  609400    308.16134   -1570.2684    454.26349    264.60643     -297.379    36822.805 
  609500    314.88389   -1584.3981    480.96863    307.29989   -182.26725    36822.805 
  609600    299.38725   -1556.5454    490.29276    275.04941     133.3742    36822.805 
  609700    300.96389   -1514.6633    487.14631    320.84865    738.87447    36822.805 
  609800    293.39547   -1506.7385    475.22818    282.94759    299.48789    36822.805 
  609900    308.29625    -1517.766    490.75507     354.2048    1003.5508    36822.805 
  610000    299.15429   -1512.7905    460.71396    288.18176    376.88074    36822.805 
  610100     302.2478   -1569.3906    465.51902     250.2462     398.6371    36822.805 
  610200     307.0597   -1576.7807    496.22035    295.11552    -200.0168    36822.805 
  610300    297.09048    -1588.543     454.0473    196.51638   -239.58895    36822.805 
  610400    305.22343   -1596.2605    454.07102    225.25955   -418.66302    36822.805 
  610500    300.37074   -1575.0742    494.66012    265.29412     135.2184    36822.805 
  610600    302.82415    -1594.423    430.93128    193.20814   -473.10897    36822.805 
  610700     301.7512   -1585.8893     465.3465    231.35005   -392.85674    36822.805 
  610800    300.23166   -1561.9106    463.48182    246.65636   -90.345967    36822.805 
  610900    313.36841   -1547.5653    460.39234    316.76683   -97.669457    36822.805 
  611000    298.07148    -1588.834    481.12616    227.69937    292.03237    36822.805 
  611100    288.85468   -1533.8773    485.40859    245.64576   -74.028868    36822.805 
  611200    298.99209   -1539.1596    481.20208    281.57418   -301.13022    36822.805 
  611300    294.10138   -1546.7594     471.3596    242.22068     90.74875    36822.805 
  611400    294.72945   -1560.7605    454.71513    214.38896     285.1072    36822.805 
  611500    296.99422   -1594.9317    475.22268    210.87187    358.41069    36822.805 
  611600    292.57688   -1602.7634     480.2514    188.27846    1274.2251    36822.805 
  611700    307.49743   -1628.2551     469.4016    218.78337     933.9966    36822.805 
  611800    296.02048   -1602.6441    461.93971    185.51401    1217.1803    36822.805 
  611900    308.12068   -1519.2669    468.95254    330.11482    236.69334    36822.805 
  612000    295.27468   -1547.7449    464.93539    240.06758   -367.85263    36822.805 
  612100    293.04563   -1542.0848    488.45146    259.25723   -159.74421    36822.805 
  612200    306.74917   -1535.1905    463.74594    302.84008    292.75645    36822.805 
  612300    293.42459   -1553.4585    436.81479    197.94464   -429.23357    36822.805 
  612400    297.97781    -1546.143    472.37739     261.2219   -395.12586    36822.805 
  612500    292.51894   -1525.3218    479.86869    265.07777   -334.84135    36822.805 
  612600    296.79663   -1529.5559    471.44466    271.58437     203.6368    36822.805 
  612700    296.14669   -1512.8082    472.86784    286.84347    67.090541    36822.805 
  612800    294.00463   -1488.5987    515.11796    343.70628   -811.09521    36822.805 
  612900    296.64581   -1508.7099    476.70645    297.01651   -769.29057    36822.805 
  613000    294.33072   -1535.6601    484.12517     267.1131   -697.27043    36822.805 
  613100    305.82894   -1511.1997    486.61336    345.57554   -185.28492    36822.805 
  613200    310.01741    -1455.651    475.62265    408.89844   -227.29569    36822.805 
  613300    304.54267    -1483.529    491.98845    372.85855   -868.77123    36822.805 
  613400    304.59708   -1510.8928    456.91829    310.66843   -578.54886    36822.805 
  613500    294.89543   -1529.4437    500.92469    292.65896   -963.28397    36822.805 
  613600    292.64748   -1577.9304    441.23901    174.41543   -912.35955    36822.805 
  613700    301.57356    -1545.868    467.29796    272.52702   -163.04605    36822.805 
  613800    295.08562    -1521.607    468.59379    269.01684   -428.28008    36822.805 
  613900    304.09392   -1503.4368    473.68329    332.63518   -51.326512    36822.805 
  614000    302.12079   -1523.3491     477.8789    308.07852   -63.138779    36822.805 
  614100    296.09737    -1449.785    478.62235    355.40022    232.88641    36822.805 
  614200     297.3833   -1512.8696    462.94495    282.39934   -404.72491    36822.805 
  614300    308.90334    -1510.309    472.29812    345.92478   -269.61596    36822.805 
  614400    294.46999   -1522.0622    483.48452    280.69426   -502.89048    36822.805 
  614500    295.56949   -1521.8606    452.39131    254.72856   -139.56016    36822.805 
  614600    291.40968   -1561.3933    488.31967    232.48757   -274.90393    36822.805 
  614700     292.4346   -1583.8111    464.95517    191.29714   -712.34258    36822.805 
  614800    304.68309    -1537.617    472.41747    299.82874    -171.5784    36822.805 
  614900    296.61609   -1512.9185    456.32778    272.29614    527.95727    36822.805 
  615000    309.50809   -1571.4975    495.39382    310.54128    174.55648    36822.805 
  615100    309.90086   -1570.2601     464.8195    282.96404    85.456164    36822.805 
  615200    287.63303   -1600.5073    442.77362    130.90759   -165.61556    36822.805 
  615300    305.16155   -1577.9914    476.85304    266.03344    42.718172    36822.805 
  615400    293.99193   -1552.5254     479.3845    243.98927    57.805364    36822.805 
  615500    309.34033   -1597.6384    453.49244    241.74746    171.26612    36822.805 
  615600    302.06183   -1598.5126     475.8228    230.59476    588.52661    36822.805 
  615700    302.94755   -1540.7477     472.1229    288.62793    350.97737    36822.805 
  615800    297.88725   -1564.4768    494.78962    264.89467    28.623833    36822.805 
  615900    293.12112   -1545.5253    463.28551    230.98895     474.5667    36822.805 
  616000    291.96797    -1536.285    506.33652    278.11399    956.85269    36822.805 
  616100    301.89091   -1535.9824    484.47285    301.00931    574.80969    36822.805 
  616200    287.89202   -1469.6819     479.2723    299.39202    200.58371    36822.805 
  616300    295.11476   -1478.9011     473.8957    317.15524    179.79136    36822.805 
  616400    296.86643   -1518.5952    500.76863    312.18175    -139.9332    36822.805 
  616500    294.42107   -1496.6278     488.8418    311.26674   -81.732528    36822.805 
  616600    297.05516   -1507.7787    505.51428     328.5895   -275.37088    36822.805 
  616700    297.43439   -1526.6356    456.35632    262.27364   -192.99673    36822.805 
  616800    306.08692   -1519.6317    493.63907    345.32497   -690.93321    36822.805 
  616900    298.42145   -1519.8057    501.28395    318.45342   -662.82482    36822.805 
  617000    296.69844   -1536.4999    466.10339    258.85923   -488.59054    36822.805 
  617100    298.09762   -1472.3684    514.04069    377.19663   -116.24322    36822.805 
  617200    297.66038   -1502.0931    471.13309    302.60538    58.824839    36822.805 
  617300    295.66807   -1547.3534     497.5451    274.83126    -429.1942    36822.805 
  617400    292.25669   -1530.1305    493.92926    273.15481    51.843353    36822.805 
  617500     305.3488   -1577.5275    468.28572     258.7689    5.2849756    36822.805 
  617600      305.325   -1537.5364    495.70394    326.07163    342.27771    36822.805 
  617700    296.68076   -1592.8924    497.55595    233.84011    286.33689    36822.805 
  617800    299.94129   -1573.0257    482.27076    253.02932    272.02899    36822.805 
  617900    298.28533   -1534.6703    478.90806    280.60299   -85.548515    36822.805 
  618000    302.42134   -1584.5204    476.96314    247.33799    115.76999    36822.805 
  618100      307.345    -1601.503    485.18526    260.63624    910.49164    36822.805 
  618200    304.49083   -1560.0425     476.6892    280.81361    596.59726    36822.805 
  618300    286.78518    -1534.001    508.33539    259.17718    167.54469    36822.805 
  618400    292.87645   -1532.3852    489.19398    268.94138    129.82221    36822.805 
  618500    303.59552   -1566.7557    471.37568     264.7757   -199.35332    36822.805 
  618600     302.4321    -1528.299    490.64639    317.29086   -220.19877    36822.805 
  618700    300.91532   -1518.2796    496.08072    325.94917   -538.25223    36822.805 
  618800    304.19963   -1562.1138    499.02464    299.77309    181.58678    36822.805 
  618900    287.03987   -1564.0563    497.42622     219.3538   -385.16437    36822.805 
  619000    291.33279   -1547.0132    490.38802    248.59164   -528.08261    36822.805 
  619100     308.4686   -1553.8159     464.4707    292.64271    -554.0818    36822.805 
  619200    294.13623   -1582.6357    473.26211    208.40304   -326.80262    36822.805 
  619300    299.02296   -1556.3046    493.62599    276.99134   -391.69265    36822.805 
  619400    288.48448   -1545.7792    470.13539    216.81212   -575.79688    36822.805 
  619500    303.44841   -1570.7092    504.96201    293.74951   -569.67478    36822.805 
  619600    302.82821   -1529.7822    480.10083    307.03672   -445.97239    36822.805 
  619700    319.37087   -1561.9574    491.65877    360.53318   -305.10372    36822.805 
  619800    305.13282   -1602.4583    498.68384    263.26866   -478.55669    36822.805 
  619900    306.90822    -1618.945    481.86862    237.92078   -16.184369    36822.805 
  620000    303.85367    -1607.741    486.63932    240.21064    421.19188    36822.805 
  620100    290.49641   -1590.0203    487.49426    198.94362    103.60621    36822.805 
  620200    301.39797    -1623.841    451.48372    177.95308    729.49496    36822.805 
  620300    294.71528   -1651.0438    511.01614    180.34322    188.01724    36822.805 
  620400    287.62909   -1626.5529    469.98825    132.05897    486.27676    36822.805 
  620500    300.08624   -1614.5566    489.15305       219.03   -224.78364    36822.805 
  620600    297.56259   -1609.0471    481.61789    205.69806   -326.15757    36822.805 
  620700    304.66403   -1617.9609    483.76618    230.74815   -160.12958    36822.805 
  620800    299.18558   -1567.6101    473.60778    246.39621   -579.24638    36822.805 
  620900     297.3907   -1569.5458    475.87402    238.68541   -331.40748    36822.805 
  621000     304.5165   -1556.8053    508.14102    315.61759   -410.95207    36822.805 
  621100    297.56561   -1583.8522    501.18448    250.47309   -449.74024    36822.805 
  621200    292.58545   -1565.3907    490.93064    236.36889   -192.17098    36822.805 
  621300    296.77331   -1589.4678    502.05065    242.17405    59.392559    36822.805 
  621400    309.12763   -1564.9673    491.46448    311.43767   -92.423906    36822.805 
  621500    296.87802   -1545.7485    490.40612    274.71797   -211.89545    36822.805 
  621600    290.97459   -1568.4672    492.86777     228.0126    21.645783    36822.805 
  621700    291.43462   -1585.0868    495.71572    216.30191     4.068957    36822.805 
  621800    293.32135   -1622.4304    487.92874    179.62421   -74.424087    36822.805 
  621900    291.78828    -1564.272    496.60909    239.59457   -449.06456    36822.805 
  622000    313.50934   -1586.8533    508.01383    325.73172   -257.37274    36822.805 
  622100    292.33132   -1622.0607    485.76341    173.39303   -189.29043    36822.805 
  622200    288.06145   -1606.3741    484.86495    169.05154   -655.43387    36822.805 
  622300    298.77813   -1586.8306    478.29731    230.03982   -180.98542    36822.805 
  622400    305.22146    -1578.702    502.94235    291.68056   -1128.1039    36822.805 
  622500     297.7767   -1568.7687    470.80109    236.11886   -733.88492    36822.805 
  622600    293.66713   -1585.2297    475.38203    205.82732   -755.14521    36822.805 
  622700    291.45623   -1581.1624    506.92394    231.53139   -927.14972    36822.805 
  622800    303.55427   -1574.9403    474.76848    259.79912   -132.74845    36822.805 
  622900    296.47555   -1572.1022    486.48642    242.64143    2.4336098    36822.805 
  623000    301.23871    -1550.356    507.70745    306.94833   -144.97556    36822.805 
  623100    302.87128   -1596.3739     485.2804    245.81752    28.110026    36822.805 
  623200    295.51076   -1576.4826    490.38967    237.84179   -27.614807    36822.805 
  623300    296.55803   -1613.6617    487.03823     202.0032    305.62639    36822.805 
  623400    317.00031    -1635.804    483.39159    267.79896    180.00153    36822.805 
  623500    294.61028   -1580.6055    473.41483    212.70977    552.92097    36822.805 
  623600    302.85492   -1551.3852    499.86917    305.32172   -61.076893    36822.805 
  623700    299.35728    -1567.645    461.15162    234.67442    35.789736    36822.805 
  623800     288.6126   -1592.0375    494.94867    195.94105     312.3264    36822.805 
  623900    303.09359    -1553.439    480.29534    284.76337    909.99422    36822.805 
  624000    295.91979   -1605.9878    509.66204     229.4415    325.79259    36822.805 
  624100    286.75554   -1564.3251    491.94242    212.32735    926.91727    36822.805 
  624200    300.63569   -1575.5125    499.83819    271.22091    1016.0007    36822.805 
  624300    301.07143   -1563.4128    495.06796    280.50262    730.67903    36822.805 
  624400    298.57726   -1522.8418    514.88734    329.71871     171.5193    36822.805 
  624500    303.01428   -1544.6006    475.33029    288.28142   -379.20469    36822.805 
  624600    303.69671   -1566.5916    499.11541    293.13293    86.718045    36822.805 
  624700    294.42095   -1521.5215    491.03857     288.5693   -319.15629    36822.805 
  624800     302.3802   -1540.9288     490.2481    304.03025   -386.99935    36822.805 
  624900    299.72663   -1529.8014    510.49254    323.51359   -327.36199    36822.805 
  625000    299.73552   -1491.1275    476.58633    328.32117   -616.53507    36822.805 
  625100    294.94714   -1443.0632    508.82714    387.17355   -633.98675    36822.805 
  625200    291.62404   -1504.2012    492.64261    294.96306   -811.51738    36822.805 
  625300    303.93901   -1536.6654    502.22507    327.25435   -436.30349    36822.805 
  625400    302.34099   -1533.4875    469.63689    290.68469   -198.64446    36822.805 
  625500    296.00191   -1508.7527    513.06814    330.45061    -288.7884    36822.805 
  625600    308.04027    -1554.125    496.60477    322.54867   -6.0697511    36822.805 
  625700    293.13466   -1513.3764    485.95367    285.86671    70.591258    36822.805 
  625800    291.73828   -1540.7349    499.85413    266.15267    92.171102    36822.805 
  625900     307.2869   -1566.8076    488.20745    298.09353    293.39486    36822.805 
  626000    299.25996   -1529.2863    499.21367    310.65912   -151.04971    36822.805 
  626100    295.94289   -1531.8387    480.50718     274.5392   -237.60365    36822.805 
  626200     297.0067   -1567.9422    478.17864    240.87322   -695.60815    36822.805 
  626300    303.27285   -1547.2302    498.30386    309.78376    36.007288    36822.805 
  626400    295.60624   -1566.5519    492.56118    250.37177    279.82945    36822.805 
  626500    293.39193   -1562.0319    502.65385    255.06404    366.74616    36822.805 
  626600     309.6468    -1569.196    486.95668    305.02707    835.46998    36822.805 
  626700    302.47344   -1566.5574    502.66333    291.23461    573.71336    36822.805 
  626800    309.48404   -1543.8354    484.29584    326.99764    111.49158    36822.805 
  626900    295.44851   -1526.5579    487.36198    284.45993   -84.697354    36822.805 
  627000    305.90982   -1530.3295    504.22156    344.41628    11.518387    36822.805 
  627100    304.98467   -1536.6374    495.98072    325.72273    376.15618    36822.805 
  627200    296.21485   -1562.5508    487.77633    252.31472    447.66424    36822.805 
  627300    300.70317   -1558.2726    508.63492    297.55986    534.73671    36822.805 
  627400    292.61406   -1544.5159    515.96526    282.40645    557.76946    36822.805 
  627500    312.69193   -1530.5621    513.78988    384.13686    579.48116    36822.805 
  627600    292.67409   -1584.6341    472.79391    199.38585   -23.485677    36822.805 
  627700    304.81373   -1567.4657    513.25135    311.39916   -7.9763805    36822.805 
  627800    300.00653   -1575.5524    482.03428    250.55834    284.88613    36822.805 
  627900    292.68025    -1582.812    485.12916    213.57077   -108.97014    36822.805 
  628000    305.84388   -1615.8882    513.60179    267.94232   -23.068808    36822.805 
  628100    301.22216   -1600.1841    455.51195     204.8506   -205.73396    36822.805 
  628200    304.09605   -1604.5406    466.05973    223.91738    -414.8151    36822.805 
  628300    288.25686   -1611.0127    488.75008    169.17354    -314.5065    36822.805 
  628400    298.18089   -1636.8655    476.94704    175.97883   -163.37538    36822.805 
  628500    304.82794   -1614.1498    477.16411     228.6915   -37.022666    36822.805 
  628600    291.67784   -1619.0314    481.83608    169.56733   -537.13787    36822.805 
  628700    293.83726   -1537.5343    483.26515    262.16809    172.26306    36822.805 
  628800    298.91266   -1582.6718    489.73992    246.24393    126.04145    36822.805 
  628900    303.73783   -1585.7914    481.85557    256.85746     57.06308    36822.805 
  629000    291.55113   -1550.1828    486.59132    242.60349   -537.44565    36822.805 
  629100    299.24108    -1548.054    479.25511    271.84832    -356.4037    36822.805 
  629200    299.46904   -1544.7402    494.23554     291.1638    -462.6109    36822.805 
  629300    291.62555   -1616.1716    460.89881     151.2556    466.52518    36822.805 
  629400    293.42067   -1585.5634     472.7159    201.72333    310.13042    36822.805 
  629500    304.50146   -1571.0782    507.99817    301.13445    527.65793    36822.805 
  629600    294.28053   -1572.5547    495.56147    241.42994    152.53219    36822.805 
  629700    302.87838   -1563.8732    485.17298    278.24262    1.1171656    36822.805 
  629800    307.43878   -1524.6621    465.01095    317.72307    59.147656    36822.805 
  629900    308.96611   -1544.1636    505.59839    345.65167   -406.90724    36822.805 
  630000    296.81426   -1586.2758    453.94398    197.44282   -197.48043    36822.805 
  630100    287.88254   -1535.7397    480.53073    234.55013   -587.24648    36822.805 
  630200    287.09004   -1564.9033    480.99071    202.29602   -539.86668    36822.805 
  630300    298.33127   -1570.5771    494.44981    260.44382   -275.72512    36822.805 
  630400    303.12488   -1513.9561    502.05901    346.15013    147.36749    36822.805 
  630500    300.09994   -1485.1571    504.31016    363.64801    67.466411    36822.805 
  630600    292.11018   -1542.2489     504.2293    270.68001   -292.20992    36822.805 
  630700    297.33946   -1493.3194    495.83399    334.64221   -340.97979    36822.805 
  630800    300.28394   -1548.9516    478.52646    274.89424   -739.19626    36822.805 
  630900    296.59418    -1509.649    498.43923    317.57884   -207.79976    36822.805 
  631000    302.86998   -1525.9289    474.49415    305.47044   -618.28303    36822.805 
  631100    305.50245    -1527.715    480.69593    321.68003   -251.95719    36822.805 
  631200    281.52326   -1514.2935    504.38067    251.35571    49.096393    36822.805 
  631300    301.17201    -1463.797    495.27589    380.77693    173.78437    36822.805 
  631400    298.37195   -1536.3434    495.87082    296.28076  0.065069841    36822.805 
  631500    299.92806   -1540.7224    498.68109     301.6837   -175.02925    36822.805 
  631600    303.83874    -1573.934    452.45442    239.76579   -639.47468    36822.805 
  631700    300.16016    -1532.588    489.10992    301.28668   -84.928102    36822.805 
  631800    296.22415    -1518.358    453.27056    262.04341   -206.76246    36822.805 
  631900    310.74117   -1519.5864    499.63692    372.21992    112.44489    36822.805 
  632000    293.56261   -1532.6729    495.84675    278.38055     210.0457    36822.805 
  632100    298.36364   -1571.3217    467.35864    232.75306    93.017398    36822.805 
  632200    299.35248   -1539.4798    495.91728    297.58372    256.78588    36822.805 
  632300    294.93857   -1493.2724    491.51533    319.61422    292.15074    36822.805 
  632400    303.34104   -1497.6054    471.09136    332.50164    304.09786    36822.805 
  632500     304.9017   -1551.3899    479.61921    294.23699    87.486073    36822.805 
  632600    296.04571   -1524.9302     502.2827    303.68391   -195.53633    36822.805 
  632700    297.41559   -1524.2623    468.17781    276.38415   -84.033766    36822.805 
  632800    298.53221   -1500.5535    517.94804    354.86581    388.96549    36822.805 
  632900    296.03326   -1536.3682    485.43695    275.34441    270.77546    36822.805 
  633000    293.54162   -1487.0818    478.42387    306.45478    173.35653    36822.805 
  633100    299.28511   -1540.5528    495.30381     295.5954     176.7584    36822.805 
  633200    308.18417   -1538.4937    496.43792     338.6579    180.22799    36822.805 
  633300    302.80951   -1564.5825    484.43167     276.4835   -397.05229    36822.805 
  633400    303.30226   -1578.5567    484.02976    264.31498   -182.71234    36822.805 
  633500    309.12221   -1539.0159    485.49838    331.39868    4.3436993    36822.805 
  633600    292.82537   -1555.3835    476.16599    232.68623   -168.69833    36822.805 
  633700    297.66108   -1551.9249    486.05285    267.69646    68.980547    36822.805 
  633800    294.59913   -1555.4037    460.28174    224.72858     211.7442    36822.805 
  633900    298.40313   -1570.0564    496.49047    263.32704     179.4149    36822.805 
  634000    304.05346   -1558.9981    483.30633    286.51557    278.93819    36822.805 
  634100    305.49993    -1510.874    466.58728    324.40109    454.43492    36822.805 
  634200    307.62907   -1519.3276    506.07102    364.97008    14.988506    36822.805 
  634300    311.64634   -1525.3473    484.12228    354.99966     371.2765    36822.805 
  634400    300.61772   -1513.3251    478.61743    312.10705   -88.807749    36822.805 
  634500    301.26491   -1513.6852    483.53731    319.56638   -246.72519    36822.805 
  634600    295.42503   -1511.8338    480.06318    291.78004   -64.219939    36822.805 
  634700    294.75726   -1555.3531     462.4396    227.64546    108.72041    36822.805 
  634800    304.51089   -1493.6313    498.36481    368.99026    668.16167    36822.805 
  634900    302.71869   -1502.0458    490.07176    344.25337    509.54444    36822.805 
  635000    313.24619   -1469.9403    475.88491    409.33686    304.35344    36822.805 
  635100     297.5898   -1515.0471    519.55808    337.76021    215.81464    36822.805 
  635200    294.08988   -1539.3649    473.90463     252.1087    172.95434    36822.805 
  635300    293.89445   -1595.7237    472.05761     193.0273    247.72449    36822.805 
  635400    290.98816    -1545.664    491.86617    249.87496   -485.21768    36822.805 
  635500    297.01116    -1550.662    497.96828    277.96307   -751.87776    36822.805 
  635600    290.78247   -1540.0614    465.89813    228.58793   -496.25129    36822.805 
  635700    290.68067   -1597.2542    479.02021    184.06115    -194.3096    36822.805 
  635800    295.91462   -1535.8566     495.2199    285.10736   -366.53988    36822.805 
  635900    301.82005   -1522.5747    478.21639    307.84305    154.40558    36822.805 
  636000     305.8226   -1491.4592    500.20978    378.88401    101.74344    36822.805 
  636100    299.21508   -1515.5241     496.3901    321.39668    152.44103    36822.805 
  636200    301.19836   -1515.6842     499.3609    333.09283   -167.09193    36822.805 
  636300    306.43828    -1487.317    462.87653    348.45126   -410.55316    36822.805 
  636400    295.87167   -1509.2228    476.71602    293.04486    12.411927    36822.805 
  636500    305.04006   -1567.4296    489.13337    288.33124    19.733432    36822.805 
  636600    296.55807    -1509.133      471.086    290.57988      138.449    36822.805 
  636700    295.59096   -1539.1835    501.73955    286.85006   -144.77336    36822.805 
  636800    294.03633   -1547.0378     465.8019    236.09323   -662.46013    36822.805 
  636900    293.23056   -1524.3137    478.50711    267.91255   -487.80542    36822.805 
  637000    311.33465   -1515.3636    472.09431    351.55896   -458.14436    36822.805 
  637100    302.58894   -1504.9808    470.53505    321.20034   -669.41246    36822.805 
  637200    309.13922   -1531.0291    467.19367    321.15697    464.52275    36822.805 
  637300    303.10281   -1577.4523    508.01238    288.50842    1009.1363    36822.805 
  637400    302.79518   -1606.3044    482.99602    233.26176    415.32653    36822.805 
  637500    315.10348   -1633.1256    441.48132    220.06892    420.52162    36822.805 
  637600    293.62988   -1584.6876    469.51037    200.33086     237.0532    36822.805 
  637700    297.20778   -1593.7757    455.35734    193.11927    65.064401    36822.805 
  637800    300.46739   -1586.2934    472.44612    232.29395    293.49827    36822.805 
  637900    298.18211   -1600.3975    477.69454    213.19991   -53.487659    36822.805 
  638000    306.64071   -1580.9129     468.6287    261.51444   -268.05211    36822.805 
  638100    292.51622    -1583.619     494.0339    220.93362   -53.697087    36822.805 
  638200    291.06408   -1595.7624    460.82441    169.07488   -850.89442    36822.805 
  638300    304.07342   -1581.3188    459.03626    240.01425   -130.66425    36822.805 
  638400    302.86676    -1607.729    462.10283    211.26459   -32.233443    36822.805 
  638500    289.12553   -1618.3989    465.00143    141.93043   -124.84873    36822.805 
  638600    306.67504   -1570.1414    481.19357     285.0047    285.99824    36822.805 
  638700    303.05864   -1594.3977    483.30097     246.6537    57.558884    36822.805 
  638800    293.84148   -1546.9874    476.94294    246.41163   -224.97535    36822.805 
  638900    299.08517   -1529.3468    485.96057    296.56242   -549.80555    36822.805 
  639000    303.22584   -1565.1375    462.87158    256.23363    258.48136    36822.805 
  639100    290.68428   -1535.2594    484.49086    251.54281     349.7528    36822.805 
  639200    306.23038   -1537.6121    491.08265    325.43088    382.28962    36822.805 
  639300    305.81831   -1555.7849    458.47074    272.80005    112.57753    36822.805 
  639400    299.31124   -1550.6707    478.51616    268.80694    456.11841    36822.805 
  639500     303.7217   -1569.2172       463.58     255.0839    754.56665    36822.805 
  639600    297.87798   -1547.8949    455.98244     242.6278    129.28558    36822.805 
  639700    303.40466   -1574.5072    502.57175    287.36524    112.26399    36822.805 
  639800    300.63169    -1554.187    468.65456    261.34488    73.656361    36822.805 
  639900    295.79506   -1537.1905    500.88552    288.90351     62.56348    36822.805 
  640000    296.24681   -1532.8702    478.47458    272.83675    676.29849    36822.805 
  640100    296.77825   -1564.7821    509.07424    273.90548    276.69627    36822.805 
  640200    302.97724   -1515.5885    481.30299    323.10024    98.352941    36822.805 
  640300    300.21944   -1548.4648    483.00162    279.56716     487.4295    36822.805 
  640400    301.99054   -1594.8452    470.21066    228.33064    145.49672    36822.805 
  640500    295.51717   -1554.0958    489.30821    259.17586   -28.647779    36822.805 
  640600    298.65978   -1542.3231    478.20817    273.92795   -116.63035    36822.805 
  640700    307.10673   -1554.3946    473.71927    295.21123    524.24917    36822.805 
  640800    298.64626   -1569.6825    488.05945    256.35927     139.3371    36822.805 
  640900    299.52176    -1521.724    482.11605    302.29668   -291.82557    36822.805 
  641000    294.02098   -1543.4962    448.36144    222.12555   -509.90009    36822.805 
  641100    304.58977   -1515.9192    468.88495    317.57588   -398.30413    36822.805 
  641200     300.2758   -1534.2865    482.50767    293.50403   -412.88747    36822.805 
  641300    305.85061   -1491.8376    469.06822    347.48949   -622.91765    36822.805 
  641400    297.65194   -1518.8332    502.61774    317.31212   -667.27477    36822.805 
  641500    293.63039   -1479.7028    512.22158    348.02918    69.097056    36822.805 
  641600    301.58656   -1506.1067    471.45694    316.50554    461.99341    36822.805 
  641700    299.05141   -1522.6499    503.30351    320.45097    678.95161    36822.805 
  641800    300.12522   -1532.7575    497.25064    309.10142    799.90441    36822.805 
  641900    303.12638   -1512.9521    466.97725     312.0791    120.39021    36822.805 
  642000    290.80309   -1536.9441    472.50623    238.40575    381.09544    36822.805 
  642100     298.1844   -1491.1715    504.66717    349.40876    236.56985    36822.805 
  642200    310.87465   -1508.5545    474.48551    358.69841   -300.52222    36822.805 
  642300    302.42549   -1529.7223    488.10313     313.2947    363.83232    36822.805 
  642400    311.55339   -1502.6466    499.38581    392.54748   -135.53795    36822.805 
  642500    300.66411   -1464.3531    490.65959    373.32906    184.74621    36822.805 
  642600     290.2364   -1475.9049    479.53919    303.93913   -184.22771    36822.805 
  642700     301.4083   -1509.1768     485.2606    326.44046   -36.959059    36822.805 
  642800    300.20524   -1497.1012     490.4323    338.29789   -355.71255    36822.805 
  642900    305.39167   -1519.3315     495.4229    344.29424    138.55117    36822.805 
  643000    295.48116   -1511.4577    467.04865     279.3931    265.86266    36822.805 
  643100    297.91294   -1490.8665    490.92161    334.75196   -400.20006    36822.805 
  643200    288.86306   -1509.4985    471.46992    256.12337   -824.83678    36822.805 
  643300    301.70399   -1546.1426    485.09349    290.63223   -21.214719    36822.805 
  643400    304.72942    -1540.901    483.85755    308.19236    -78.14094    36822.805 
  643500    294.85541   -1567.3161    481.20736    234.88997    63.998677    36822.805 
  643600    295.77664   -1534.1822    489.46413    280.40787   -564.78371    36822.805 
  643700    298.89474   -1529.3374    502.27874    312.03684   -360.14807    36822.805 
  643800    306.35764    -1525.722    472.54697    319.35545   -300.08383    36822.805 
  643900    291.96358   -1500.7177    479.73959    287.06467   -587.23729    36822.805 
  644000    298.02071   -1490.4826    484.34579    329.04294   -324.56732    36822.805 
  644100    290.86427   -1515.2273    467.30088    255.19132   -574.05335    36822.805 
  644200    295.38152   -1530.9393    484.38943    276.80587   -703.98469    36822.805 
  644300    306.70821   -1511.7349    475.94991    338.31608   -281.41129    36822.805 
  644400    296.70488   -1542.3549    480.02244     266.9521   -753.16538    36822.805 
  644500    304.40953   -1494.7408    476.22605    345.28793   -626.66917    36822.805 
  644600    303.76528   -1520.7311    462.42816    302.61339   -1007.8188    36822.805 
  644700    300.41232   -1526.0701    475.47587    295.30025   -86.830886    36822.805 
  644800    301.54534     -1583.24    496.64103    264.37159    13.537149    36822.805 
  644900    293.38007   -1592.8313    451.02413    172.58181   -133.29512    36822.805 
  645000    306.75463   -1540.7632    495.15001    328.69585    188.96329    36822.805 
  645100    304.45302   -1521.6825    509.15599    351.47096   -106.36774    36822.805 
  645200    294.72334   -1505.2727    464.18398    279.31828    288.57874    36822.805 
  645300    286.14386   -1540.7702    514.48078    255.68014   -191.60842    36822.805 
  645400    299.18955   -1563.4466    441.28013    218.24979   -20.224528    36822.805 
  645500    305.04198   -1551.9872    473.67918    288.32808    -246.2063    36822.805 
  645600    310.22416   -1514.1499    465.38118    341.08434      -82.618    36822.805 
  645700    308.83568   -1515.5874    477.85821    345.90327    133.34951    36822.805 
  645800    307.43635   -1558.0749    464.76486    284.05318    61.926656    36822.805 
  645900    300.73901   -1540.3654    473.07692    280.06967   -589.19397    36822.805 
  646000    312.45249   -1541.8574    443.63966    301.61859   -323.69033    36822.805 
  646100    289.53202   -1581.0342    460.40429    176.51911   -113.56867    36822.805 
  646200    303.15944    -1568.946    492.24588    281.50191     215.9853    36822.805 
  646300    309.71732   -1573.4497    467.00415    281.13684    517.06546    36822.805 
  646400    297.82252   -1574.2885    449.43372    209.43698      246.015    36822.805 
  646500     309.4749    -1559.883    493.13427    319.74757    31.379293    36822.805 
  646600    303.87529   -1532.1899    434.71767    263.93691   -150.45315    36822.805 
  646700    303.30287   -1530.9319    476.73795    304.65072   -101.47378    36822.805 
  646800    291.69349   -1527.4396    482.10916    261.50228    137.84045    36822.805 
  646900    287.94181   -1533.4592    480.32973    236.89521    220.78033    36822.805 
  647000    304.82847   -1527.5589     491.4631    329.58371    355.60304    36822.805 
  647100    299.28619   -1519.4876    501.99804    323.35973     568.7393    36822.805 
  647200    299.45983   -1552.4591    497.22003    286.38818    221.21235    36822.805 
  647300    296.91888   -1535.3822    461.08537    255.94652    358.96271    36822.805 
  647400    301.34862   -1559.9661    506.77931    296.90253     338.1145    36822.805 
  647500    297.07863   -1509.4624    463.67414    285.17076    461.13943    36822.805 
  647600    299.83111   -1554.7918    488.80591    277.30466    67.253406    36822.805 
  647700    303.03314     -1534.11    476.87266    300.39886   -73.428672    36822.805 
  647800    296.96564   -1532.2574    490.20309    288.39849    83.489592    36822.805 
  647900    316.94864   -1578.5874    485.46464     326.8571    273.19188    36822.805 
  648000      301.368   -1555.8695    483.29431    277.60096   -701.57645    36822.805 
  648100    297.43326   -1563.7289    458.91658    227.73551   -591.64229    36822.805 
  648200    301.42335   -1574.2674    484.38811    260.54485   -526.78844    36822.805 
  648300    302.77569   -1608.7374    498.06253    245.80787    145.34481    36822.805 
  648400    291.89917   -1568.1938    479.36113    218.92154    59.246037    36822.805 
  648500    304.83232   -1545.9168    461.96884    281.74883   -212.76731    36822.805 
  648600    292.79795   -1569.5662    503.23682    245.45151    466.81587    36822.805 
  648700    290.92974   -1569.7927    463.84441     197.4628    163.42771    36822.805 
  648800    301.14493   -1548.9354    476.49298    276.73432    115.59857    36822.805 
  648900    301.39083   -1562.0056    484.27579    272.54861     275.9654    36822.805 
  649000    303.93119   -1508.9767    472.53419    325.21709    212.44622    36822.805 
  649100    289.42013   -1529.2837     498.7342    266.09827    259.86589    36822.805 
  649200    293.69973   -1523.1633     481.0183    273.67605    38.039754    36822.805 
  649300    304.25702   -1536.9341    494.79711    320.98237   -349.83613    36822.805 
  649400    302.43022   -1518.4125    465.56135    302.08392   -589.08679    36822.805 
  649500    294.17311   -1498.7849    476.26561    295.42258   -586.04975    36822.805 
  649600    301.50686   -1524.3124    481.16067    307.64653   -298.16119    36822.805 
  649700    291.26912   -1547.5305    471.36218    228.76317    338.63342    36822.805 
  649800    296.76683   -1532.1811    496.41177    293.79286    745.63362    36822.805 
  649900    300.67466   -1501.2675    498.52062    344.32294    1189.7248    36822.805 
  650000     301.6458   -1520.7576    487.50519    318.16832    757.67761    36822.805 
  650100    303.60014   -1521.1014    509.08367    348.15872   -23.875284    36822.805 
  650200    305.43645   -1544.5154    469.52994     293.4179   -366.44598    36822.805 
  650300    299.75513   -1577.7232    444.57066    209.79762    -1.718075    36822.805 
  650400    310.81424   -1557.8221    476.52586    311.20052    447.15414    36822.805 
  650500    307.01352   -1546.4917    478.01588    306.99314    410.13839    36822.805 
  650600     290.0468   -1561.5767     481.5104    219.38907    177.14712    36822.805 
  650700     317.4708   -1551.6978    497.97679     368.5982     596.6336    36822.805 
  650800    300.22903   -1536.0075    476.93198    285.99776    421.98805    36822.805 
  650900    297.11068   -1549.5617    487.83338     269.3743    146.24469    36822.805 
  651000    305.22203   -1527.9731     497.1988    336.66849    218.88602    36822.805 
  651100    307.23578   -1520.2075    485.36085    341.61797   -213.88022    36822.805 
  651200    295.21987   -1555.6485    482.71844    249.70148     90.23919    36822.805 
  651300    305.63303   -1537.2583     483.4938     315.5196    374.06791    36822.805 
  651400    311.49288   -1523.1873    494.73371    367.08355    500.66947    36822.805 
  651500    298.78355   -1538.6599    466.83373     266.7712    101.55964    36822.805 
  651600    289.37184   -1557.4375    467.88824     206.8822    322.32636    36822.805 
  651700    290.57357   -1548.3241    485.22378     238.7151   -195.21885    36822.805 
  651800    302.24478   -1555.3844    474.04205     272.7619   -85.828126    36822.805 
  651900    297.81217   -1534.5719    475.89362    275.56719    262.65291    36822.805 
  652000    296.25941    -1606.503    473.77215    194.55795   -90.049803    36822.805 
  652100    305.08542   -1559.5802     459.3258    266.57629    665.90723    36822.805 
  652200    296.59316     -1536.91    510.49598    302.36998    335.01659    36822.805 
  652300    296.80184   -1525.1696    471.36272    275.91207    28.422862    36822.805 
  652400    287.82448   -1541.7913    451.23077    198.93845    857.65574    36822.805 
  652500    298.02655   -1561.5199    478.74253    252.42852    100.49732    36822.805 
  652600     294.8174   -1587.8035    487.04751    220.07238      621.888    36822.805 
  652700    301.04024   -1544.3768    458.55391    262.88478    888.63899    36822.805 
  652800    302.46705   -1535.2405     501.5546    321.41414    308.95246    36822.805 
  652900    299.55593   -1559.0734    461.39131    244.37563   -35.776096    36822.805 
  653000    297.54338   -1534.8188    481.92608    280.14849   -586.24965    36822.805 
  653100    300.93088   -1520.0542    462.38638    290.54993   -217.27378    36822.805 
  653200    291.26987    -1541.459    508.48866     271.9645   -451.36242    36822.805 
  653300    304.69425   -1546.8626    486.08968    304.30531   -269.77565    36822.805 
  653400    313.72162   -1538.6828    496.21199     363.0515   -78.462444    36822.805 
  653500    299.15646   -1478.7634    454.18641    315.69105   -271.97338    36822.805 
  653600    315.06605   -1515.6844      518.479     414.3401    92.045009    36822.805 
  653700    296.24673     -1551.23    490.20321    266.20519   -161.72159    36822.805 
  653800    294.92492   -1521.7997    499.65084    299.16124   -333.16554    36822.805 
  653900    291.53282   -1483.6584    506.72681    329.18135    321.77487    36822.805 
  654000    303.19105   -1571.2672    484.32557    271.40203     174.9651    36822.805 
  654100    290.88532   -1532.8941    470.34681     240.6648    103.88833    36822.805 
  654200    302.21787   -1481.5589    511.39274    383.81749    535.45207    36822.805 
  654300    309.07059   -1499.8144    501.14683    386.01734    503.92993    36822.805 
  654400    296.27227   -1540.5489    468.83027     255.6278    236.82015    36822.805 
  654500    300.54216   -1546.9676      469.515     269.0236     140.1176    36822.805 
  654600    306.44645   -1548.3662      473.603    298.16511   -226.54575    36822.805 
  654700    306.24014   -1540.8017    476.43924    307.64159    33.304024    36822.805 
  654800    298.19554   -1509.5853    486.56539    312.94313    544.55661    36822.805 
  654900    293.38663   -1528.7238    470.10328    255.79783    783.14228    36822.805 
  655000    303.14256   -1523.2551    467.28371    302.15506     777.6549    36822.805 
  655100    307.93207   -1517.1525    512.20558    374.63722    504.88137    36822.805 
  655200     297.2994   -1499.5836    461.49106    293.85561   -163.42784    36822.805 
  655300    301.50507   -1486.5306    506.58375    370.84339   -118.16836    36822.805 
  655400    293.65944   -1466.5411      479.413    328.51249   -260.82982    36822.805 
  655500    300.70777   -1547.9609    493.36926    292.62648     289.9364    36822.805 
  655600    294.04846   -1521.2975    445.12365    241.20957    779.62898    36822.805 
  655700    296.29701   -1556.7503    473.40132    244.10835    473.79658    36822.805 
  655800    301.76306   -1559.4356     495.3447    287.85513    363.80019    36822.805 
  655900    293.45406   -1520.8319    450.85972    244.74822    -305.9301    36822.805 
  656000    303.85541   -1509.8013    476.88964    328.40846    251.05721    36822.805 
  656100    291.15723   -1530.0216    461.52899    235.93765    93.575928    36822.805 
  656200    304.36164   -1547.6906    484.77698    300.67447    6.7471899    36822.805 
  656300    303.62725   -1528.7429    480.37866     311.9337    244.70962    36822.805 
  656400    302.44955   -1527.8381    449.69821    276.88171    863.99932    36822.805 
  656500    300.94599   -1528.3527    503.02538     322.9581    896.44244    36822.805 
  656600    308.49438   -1541.5549    462.95595    303.50447    408.92079    36822.805 
  656700    299.84913    -1553.474     477.4419    267.33924    341.69224    36822.805 
  656800     303.1629   -1573.9331    463.04195    247.32636    352.04536    36822.805 
  656900    295.61175   -1574.0142     467.1771    217.55005   -42.616903    36822.805 
  657000    297.67383   -1607.7083    464.27536    190.19267   -229.49222    36822.805 
  657100    310.54197   -1553.4216    468.25182    306.10719    198.46759    36822.805 
  657200    308.77264   -1607.8488     470.9238    246.42504    701.52921    36822.805 
  657300    290.77624     -1574.68    476.48638    204.52974    220.33112    36822.805 
  657400    296.53436   -1591.0703    478.81579    216.26615    281.97595    36822.805 
  657500    307.59659   -1539.5889    453.80073    292.29294    184.14187    36822.805 
  657600    298.76734   -1538.7133    471.40154    271.21299    88.829881    36822.805 
  657700    293.27882   -1576.1231    478.68141    216.49355   -254.59368    36822.805 
  657800    299.51766   -1584.0733    483.53502    241.34806   -186.16706    36822.805 
  657900    299.22377   -1588.8206    472.77926    224.52831   -55.513532    36822.805 
  658000    304.09674   -1544.9836    438.56985    255.98751   -124.11509    36822.805 
  658100    297.64413   -1570.8049    457.73309    220.42082   -521.18843    36822.805 
  658200    307.56746   -1554.2787    468.42279    292.09472    -56.55772    36822.805 
  658300    309.98417    -1557.711    452.70203    283.76891   -264.16878    36822.805 
  658400    294.42832   -1543.7038    472.64579    248.02729   -499.73076    36822.805 
  658500    294.34662   -1503.7702    477.75279    292.70182   -959.02817    36822.805 
  658600     292.0648    -1501.609    488.84897    295.73633   -509.68084    36822.805 
  658700    298.17858   -1507.3966    466.86245    295.35287   -247.84727    36822.805 
  658800    294.87459   -1542.4989    457.94725    236.53295   -277.50736    36822.805 
  658900    301.27459   -1459.7532    496.90113    386.90548    17.972469    36822.805 
  659000    296.59727   -1480.7344    473.00537    321.07347     97.22323    36822.805 
  659100    294.14806   -1521.2284    473.59416    270.19542   -117.16735    36822.805 
  659200     297.8288   -1480.4089    489.59317    343.50419   -34.349537    36822.805 
  659300    298.49932   -1458.5388    489.26553    368.05072   0.62195692    36822.805 
  659400     305.9185   -1505.2623    483.47929    348.78011   -384.53606    36822.805 
  659500     305.5092     -1517.09    491.61931    343.25862   -32.544321    36822.805 
  659600    291.63869   -1531.8923    503.07075     277.7657   -338.44602    36822.805 
  659700     298.2838   -1520.2284    477.46572    293.59569    138.16528    36822.805 
  659800    308.72711   -1541.0692    469.47814    311.55503   -684.12701    36822.805 
  659900    295.16351   -1495.4129    488.80626     315.7724   -863.30268    36822.805 
  660000    294.82634   -1510.3847    463.43527      273.919   -609.67306    36822.805 
  660100    302.11137   -1496.8748    494.30369    350.93543    -677.1019    36822.805 
  660200    293.16463   -1494.8492    473.53806    292.11264   -483.24768    36822.805 
  660300    304.73962   -1517.6821    484.10083    331.70024   -909.88665    36822.805 
  660400    299.40786   -1519.6741    460.82384     282.5441   -1015.9407    36822.805 
  660500    300.62875   -1475.5374    501.49132    372.81807   -1018.5147    36822.805 
  660600    297.46097   -1503.0053    464.35058    294.01726   -719.57475    36822.805 
  660700    292.27961   -1548.7836    477.80165    238.47671   -151.74096    36822.805 
  660800    292.54059   -1499.9543    482.33426    293.00787   -1029.8209    36822.805 
  660900    314.77294   -1491.3883    479.14803    397.99203   -293.30555    36822.805 
  661000    304.06093   -1484.8861    510.41355    387.76829    -846.7874    36822.805 
  661100    298.18703   -1492.3837    481.71245    325.25363   -473.08515    36822.805 
  661200    304.76691   -1511.6286    495.19131    348.96645    72.729911    36822.805 
  661300    292.24941   -1528.1807     479.0436    260.18632    111.48498    36822.805 
  661400    295.23485   -1521.5717    471.48512    272.61204   -313.46133    36822.805 
  661500    302.43139   -1517.2333    467.38655    305.09349   -67.791393    36822.805 
  661600    299.79727   -1486.2817    503.13114    359.98845    15.007939    36822.805 
  661700    297.39274    -1506.321    465.58607    291.63136   -328.39336    36822.805 
  661800    295.09919   -1537.1916    475.68457    260.58382   -743.01433    36822.805 
  661900    286.18147   -1507.4471     487.0688    261.75976   -209.09399    36822.805 
  662000     297.4439   -1522.1043    480.30137    290.79256   -512.08358    36822.805 
  662100    296.80138   -1532.2562    478.28537    275.74606   -164.50868    36822.805 
  662200     301.9462   -1539.0716    472.54067    286.23558   -332.03585    36822.805 
  662300    304.66291   -1562.2855    482.80032    285.45268    3.2999752    36822.805 
  662400    294.62909   -1519.4992    476.14622    276.63178    148.71926    36822.805 
  662500    295.70612   -1517.8976    499.20646    306.11878     364.3431    36822.805 
  662600    306.58309   -1512.2018    503.19878    364.53751    79.892877    36822.805 
  662700    298.19509   -1540.4233    475.31636    270.85398    463.11302    36822.805 
  662800    295.80432   -1534.6453    508.38163    298.98623    744.77085    36822.805 
  662900    298.98451   -1509.1432    492.27069    322.62515    165.48626    36822.805 
  663000    295.47642   -1484.1867    511.44225    351.03646     230.7855    36822.805 
  663100    294.37824   -1540.0383    463.43574    242.25829   -589.87469    36822.805 
  663200    290.32083    -1522.071    484.32627    262.93832   -782.99402    36822.805 
  663300    312.14426   -1514.9568    467.39439    350.89299    278.80038    36822.805 
  663400    300.25272   -1530.5756    483.95514    298.55903   -507.47753    36822.805 
  663500    294.88871   -1569.6631    490.59743    242.08217    424.26642    36822.805 
  663600    303.15573    -1549.152    484.77503    293.80845    33.938908    36822.805 
  663700    300.62362   -1534.3048    493.74568    306.28208    136.29966    36822.805 
  663800     290.9845   -1493.7432    490.50471    300.41786   -101.84815    36822.805 
  663900    301.54064   -1567.8006    491.96292    275.11184    81.635845    36822.805 
  664000    296.49336   -1517.0904    499.60268    310.84923    310.81454    36822.805 
  664100    302.88387   -1518.7441    502.20411    340.42747   -285.62675    36822.805 
  664200    301.36377   -1532.4811    480.45891    298.13495   -184.88605    36822.805 
  664300     303.8695   -1584.9614    484.28589    260.70773    348.70308    36822.805 
  664400    293.87334   -1545.0586    488.05762    259.59785   -35.548404    36822.805 
  664500    292.16602   -1573.1034    481.34044    217.18686   -456.82381    36822.805 
  664600    310.35879   -1570.2955    474.57681    294.73763   -430.92638    36822.805 
  664700    292.37051   -1572.1992    487.60166    225.26833     -667.671    36822.805 
  664800    307.35874   -1550.1986    460.97328    287.79026   -323.95705    36822.805 
  664900    310.28038   -1513.3395    467.51448    344.27993   -164.01875    36822.805 
  665000    291.58135   -1536.4563    480.39883    250.27291   -538.07246    36822.805 
  665100     309.2164   -1543.3322    477.81526    319.82117   -268.44922    36822.805 
  665200    296.86661    -1521.385    471.18066     279.8048    -442.5566    36822.805 
  665300    312.52953   -1530.8717     476.3333    345.64311    204.37663    36822.805 
  665400    303.88688   -1529.2765    519.42295    351.60749    366.27532    36822.805 
  665500    289.70256   -1523.1769    473.33088     248.0671    148.45214    36822.805 
  665600    304.51799   -1552.8578    474.77013    286.20085    498.43836    36822.805 
  665700    295.19295   -1541.4728    479.63876    260.67684    245.27931    36822.805 
  665800    291.98091   -1517.7149    476.45897    266.86453    5.1593922    36822.805 
  665900    301.77173   -1493.4547    479.64852    338.17865    230.36947    36822.805 
  666000    309.13445   -1487.9789    477.54573    374.53788    11.274202    36822.805 
  666100    293.42254   -1537.4418    481.51027    258.64764    -35.45836    36822.805 
  666200    310.97145    -1489.803    470.56603    373.96413   -318.84363    36822.805 
  666300    307.17946   -1531.7869    473.61589    318.04138   -837.27933    36822.805 
  666400    301.74145   -1545.3215     477.8502    284.37793   -158.49423    36822.805 
  666500    303.61849   -1562.8121    468.72642    266.17294   -276.26809    36822.805 
  666600    312.25825   -1568.4693    466.07796    296.57477   -166.28321    36822.805 
  666700    303.72104   -1585.7338    462.46416    237.44842    344.45122    36822.805 
  666800    296.30481   -1588.4548    477.42216    216.45963   -63.363844    36822.805 
  666900    300.95324    -1567.003    472.81912    254.13403    152.48358    36822.805 
  667000    295.02268   -1573.7446    485.22723    233.23066    54.494062    36822.805 
  667100    299.45979   -1607.5336    463.31254    197.40595   -155.33819    36822.805 
  667200    295.42152   -1550.0089    491.18885    264.71487    121.87368    36822.805 
  667300    301.68585    -1551.014    468.61481    269.20094   -38.154734    36822.805 
  667400    289.46569   -1552.4945    494.34375    238.70112   -45.225232    36822.805 
  667500     291.4714   -1541.8713    477.80987    241.77631   -531.44576    36822.805 
  667600    296.67595   -1591.5602    478.36777    215.96261   -274.76846    36822.805 
  667700    293.55228   -1534.4942    489.11235    269.77859    374.73332    36822.805 
  667800    298.16408    -1551.369    483.34362    267.79668   -51.738206    36822.805 
  667900    301.50524   -1517.3659    482.85017    316.27524    22.662299    36822.805 
  668000    302.89164   -1507.1799    509.96833    359.79065    486.14578    36822.805 
  668100    302.35399   -1504.8452    480.08852    329.83686    346.61067    36822.805 
  668200    298.26079   -1532.2961    504.81174    308.77095   -107.77532    36822.805 
  668300    304.59737   -1544.8318    486.53176    306.34414    -287.8222    36822.805 
  668400    305.05893   -1540.1474      477.798    304.36268    102.29723    36822.805 
  668500    294.02675   -1531.7214     471.5062    257.07092   -391.13636    36822.805 
  668600    302.06285   -1540.2075      458.469    271.55065   -495.05162    36822.805 
  668700    306.77512   -1554.0446    489.28986    309.64616    91.131422    36822.805 
  668800    299.53797   -1516.2933    485.79581    311.47977    293.32664    36822.805 
  668900    306.14128   -1511.9854    497.36957    356.94533    466.79465    36822.805 
  669000    301.45649   -1508.9386    477.29546    318.92938    667.54602    36822.805 
  669100    303.76266   -1507.9629    497.10052     350.0422    511.92547    36822.805 
  669200    299.74678   -1531.0186    484.45702    296.35117    376.38469    36822.805 
  669300    298.78611   -1504.6773    481.80515    315.73669   -519.42754    36822.805 
  669400     297.3902   -1509.0171    465.92384     289.2617   -100.51145    36822.805 
  669500    295.35829   -1539.2246    491.52447    275.55155    50.426699    36822.805 
  669600     294.8293   -1526.5477    490.80081    285.13484    88.650534    36822.805 
  669700    297.28758    -1571.735     478.3808    238.54092    34.492419    36822.805 
  669800    298.80265   -1567.4242    482.73589    253.99465    91.804034    36822.805 
  669900    300.65174    -1564.903    484.85487    266.91902    163.01992    36822.805 
  670000    308.67863   -1540.6175    494.96634     337.2777    117.80692    36822.805 
  670100     289.4524   -1558.6635    482.45719    220.58604    128.50511    36822.805 
  670200    302.85922   -1556.4389    481.24653    281.66465    7.3387376    36822.805 
  670300    299.08578    -1540.669    432.80942    232.09182   -450.24809    36822.805 
  670400    296.49461   -1559.8209     469.3182    237.83988    143.95561    36822.805 
  670500    299.60818    -1548.162    467.99088    262.12068    61.724561    36822.805 
  670600     299.7539   -1548.6062    476.39756    270.73601    203.76405    36822.805 
  670700    303.52111   -1525.7084    464.77347    298.88742    486.15512    36822.805 
  670800    303.85558   -1499.7316    478.52727    340.11652    268.47358    36822.805 
  670900    302.18694   -1516.0354    475.21284    313.02254    502.06943    36822.805 
  671000    309.04384   -1508.3537    484.36113    360.57245    287.92541    36822.805 
  671100    314.60572   -1510.3683    486.49208    385.60693   -219.92762    36822.805 
  671200    287.02778   -1530.0937    505.79759    261.63357    260.97117    36822.805 
  671300     302.3777   -1484.6318    478.54147    348.60939   -613.16127    36822.805 
  671400    293.12791   -1505.2908    473.73065    281.69911    352.58674    36822.805 
  671500    304.69591   -1522.9444    472.39012    314.53134    401.60354    36822.805 
  671600     297.9081   -1589.6966    476.74236    221.72103    626.97445    36822.805 
  671700    302.42044   -1558.9228    491.15677    287.12519    994.69275    36822.805 
  671800    309.48867   -1561.4781    475.16071    300.24057    473.27403    36822.805 
  671900    297.54601    -1566.231    447.54049    214.36244    289.67691    36822.805 
  672000    305.32523   -1546.7114    500.81744    322.01119    148.76902    36822.805 
  672100    302.42505   -1576.2307    459.86083    238.54197    352.37217    36822.805 
  672200    294.00992   -1555.8967    505.89838    267.21244    28.731087    36822.805 
  672300    296.22032   -1560.7159    476.16897    242.56673    13.142904    36822.805 
  672400    312.11354    -1566.861    484.11203    315.56885    -192.2343    36822.805 
  672500    304.88173   -1487.0896    476.17828     355.0069   -543.04909    36822.805 
  672600    284.79415   -1532.8437    467.94661    211.02555   -389.40839    36822.805 
  672700    294.52173   -1568.2518    458.01191    209.26384   -190.20793    36822.805 
  672800     312.2471   -1512.9522    493.01993    378.98388   -495.95913    36822.805 
  672900    304.68741   -1461.2593    435.32694    339.11524   -123.68623    36822.805 
  673000     297.9848    -1496.404    505.35279    343.96765   -155.17771    36822.805 
  673100    311.45922   -1541.0834    496.81564    351.11862    336.27408    36822.805 
  673200    300.27504   -1535.4339    473.15685    283.00243    420.69421    36822.805 
  673300     295.8373   -1494.1465    495.33334    326.58458    242.00974    36822.805 
  673400    288.23223   -1501.0987    469.15483    259.38197    210.02067    36822.805 
  673500     299.3053   -1488.3788     473.6961    326.25219   -102.37989    36822.805 
  673600    292.28209   -1456.8989    469.21853    321.78946   -25.118041    36822.805 
  673700    306.21792   -1528.7029    467.00457    310.20616   -641.38816    36822.805 
  673800    298.38063   -1538.3821    483.66396    282.07406   -356.17781    36822.805 
  673900     311.0722   -1556.7893    472.71948    309.58265    500.15532    36822.805 
  674000    298.94324    -1565.353    490.73972    264.69952    345.96927    36822.805 
  674100    307.19394   -1533.1144    480.55222    323.71509    312.67805    36822.805 
  674200    298.00383   -1536.8467    464.23199    262.48936    601.42361    36822.805 
  674300    290.66566   -1521.3153    483.54467    264.45733     266.9366    36822.805 
  674400    306.38148   -1492.9186    455.37869    335.09734   -47.699089    36822.805 
  674500    300.89356   -1517.3877    480.25643    310.91922   -418.72222    36822.805 
  674600    306.46946    -1489.984    489.14185    372.18927   -309.97807    36822.805 
  674700    299.49136   -1543.0783     466.5628    265.25292   -351.56134    36822.805 
  674800    296.00968   -1537.8941    483.19722    271.47315   -110.31326    36822.805 
  674900    296.23884   -1529.4389    476.24676     274.0045    122.51598    36822.805 
  675000    299.22407   -1525.7758    471.57558    286.37075   -37.407251    36822.805 
  675100    289.87514   -1564.8042    471.86422    205.74634   -82.735557    36822.805 
  675200    305.88501      -1587.1    489.59006    272.90311    133.19265    36822.805 
  675300    301.83423   -1534.4276    483.22241    301.05968   0.10568175    36822.805 
  675400    303.80176    -1525.195    460.57141    296.45617     75.86638    36822.805 
  675500    295.14727   -1498.5075    485.39171    309.19049    452.19807    36822.805 
  675600    306.04139   -1499.9085    497.66845    368.87363    379.13232    36822.805 
  675700    297.01065   -1505.8729      476.681    301.46264    332.06802    36822.805 
  675800    311.88509   -1499.7076    457.06521    354.65189    69.140231    36822.805 
  675900    297.76708   -1556.3797    482.50336    260.16705   -298.98943    36822.805 
  676000    307.97034   -1521.4655    475.09534    333.38545   -269.71387    36822.805 
  676100    312.81366    -1486.171    462.38212    377.66561   -616.98524    36822.805 
  676200     297.2209   -1457.2549    496.78426    371.12579   -510.80183    36822.805 
  676300    297.49644   -1495.7092    467.00893    304.13066    -156.7315    36822.805 
  676400    300.88926   -1441.7344    479.32943    385.62626    122.16539    36822.805 
  676500    298.42606   -1478.4975    474.32367    332.82191   -302.85068    36822.805 
  676600    303.34247   -1480.8133    482.04214    360.25088    213.65637    36822.805 
  676700    307.09144   -1498.7112    470.07513    347.18197    102.57244    36822.805 
  676800    309.37291   -1516.4571    454.87758    324.45987   -202.34601    36822.805 
  676900    299.28698   -1568.7578    465.71911    237.81408    23.966193    36822.805 
  677000    303.98352   -1562.0307    485.19947     285.0628    131.64299    36822.805 
  677100    297.84852   -1507.6673    463.57644    290.31743    128.58013    36822.805 
  677200    300.08803   -1533.5092    476.21274    287.14514     -170.069    36822.805 
  677300    296.32786   -1517.3136    466.97657    277.25845    464.00331    36822.805 
  677400     299.5971   -1535.6517    477.19651      283.787   -105.92274    36822.805 
  677500    299.56082   -1525.1901    493.95049    310.84007   -122.51285    36822.805 
  677600    299.97884   -1507.5898    480.84286    317.20554   -556.32768    36822.805 
  677700    303.60445   -1523.6395    470.01754    306.57379   -113.98541    36822.805 
  677800    294.31033   -1534.0964    503.64894    288.10915    221.17152    36822.805 
  677900    301.15577   -1491.8483    484.11998    341.49699    2.4599284    36822.805 
  678000    303.49055   -1540.5049    461.33074    280.51127   -460.67497    36822.805 
  678100    308.13322   -1538.7493    508.05662    349.79275     222.1914    36822.805 
  678200     294.3939   -1512.0403    469.77726    276.66794    368.65423    36822.805 
  678300    297.58561   -1554.8411    482.32158    260.71088    236.37551    36822.805 
  678400    296.18576   -1537.1215    498.40151     288.2389    302.91999    36822.805 
  678500    289.66397   -1565.2051    459.54041    192.07556    61.857249    36822.805 
  678600    308.07397   -1499.2123    509.88503    390.89267    467.39017    36822.805 
  678700    304.70587   -1527.9097    487.65714    324.87776    368.51421    36822.805 
  678800      292.848   -1546.6805    464.24052    229.56516    244.77086    36822.805 
  678900    298.68217   -1559.9236    483.47849     261.6981    202.02555    36822.805 
  679000    301.55471   -1537.0864    464.55053     278.4767    69.952044    36822.805 
  679100    291.92046   -1512.6518    496.08686    291.28469   -264.84917    36822.805 
  679200     306.7732   -1513.2176    475.63608    336.81073    494.17416    36822.805 
  679300    295.87391   -1519.0856    486.85267     293.3288    431.03198    36822.805 
  679400    307.94459   -1516.8082    506.34297    369.17505    743.86867    36822.805 
  679500    304.47113   -1529.9794    472.97279    307.07199    921.81642    36822.805 
  679600    300.01083   -1504.4505    492.64289    332.28819    216.57764    36822.805 
  679700    303.11754    -1550.163    476.11068    283.96201    317.20453    36822.805 
  679800    308.66222   -1576.7293    472.30069    278.42679    292.88224    36822.805 
  679900    305.05739   -1537.7269    468.03378      297.012   -8.3429518    36822.805 
  680000    291.23852    -1582.523     477.2566    199.52802   -464.48623    36822.805 
  680100    296.82278   -1621.6554     465.6647    173.82208   -256.61156    36822.805 
  680200    308.05575   -1575.3643    457.52759    262.30164   -223.90828    36822.805 
  680300    299.81437   -1536.0657     476.6548    283.80469    -562.7803    36822.805 
  680400    303.41917   -1561.1906    497.87359    296.04869   -214.42661    36822.805 
  680500    289.93871   -1558.3417    473.13269     213.7621   -253.45491    36822.805 
  680600    297.34705   -1538.1471    472.69286    266.70734   -437.18393    36822.805 
  680700    298.54376   -1521.4762    470.20772    286.25454   -367.54014    36822.805 
  680800    303.53652   -1520.1972    480.35581    320.04998   -651.88888    36822.805 
  680900    303.20255   -1524.5843    479.33485    313.14572   -37.627034    36822.805 
  681000    298.92535   -1591.7927    466.24056    213.68046     166.7525    36822.805 
  681100    296.38813    -1530.533     458.7386    256.07107     69.68262    36822.805 
  681200    292.02106   -1516.0467    481.45596    273.70965   -87.715318    36822.805 
  681300    289.33571    -1586.981    478.22352    187.51214   -266.50311    36822.805 
  681400    292.63845   -1535.4877    485.11035    260.68904    47.439469    36822.805 
  681500     298.1821   -1537.3931    501.61714    300.12683    305.89701    36822.805 
  681600    304.25679   -1543.3067    470.42932    290.24101   -46.857611    36822.805 
  681700    302.27339    -1574.395    459.99149    239.82887    126.21465    36822.805 
  681800    306.87754   -1557.3827    483.96604    301.44308    328.88347    36822.805 
  681900    301.73939   -1550.1704    466.26541    267.93503   -244.31211    36822.805 
  682000    300.01709   -1518.3668    481.63267    307.38966   -52.276457    36822.805 
  682100    297.59952   -1504.8597    489.17579    317.60883   -958.12617    36822.805 
  682200    300.26511   -1534.6014    481.70809    292.34164   -791.83518    36822.805 
  682300    300.98306   -1481.8472    503.08199    369.68636   -683.70088    36822.805 
  682400     293.9555   -1528.7589     498.3892    286.59724   -1112.5231    36822.805 
  682500    295.01024   -1520.2452    485.29551     286.7426   -955.90417    36822.805 
  682600    298.07969   -1510.3257    470.52171    295.63998   -427.63799    36822.805 
  682700    300.43822   -1529.5673    474.62947    291.07273   -96.816835    36822.805 
  682800    305.92996   -1552.0025     492.2629    310.87479    247.48153    36822.805 
  682900     300.3691   -1569.2629    466.38969    242.82765    189.35662    36822.805 
  683000    307.73006   -1561.4542    456.73148    273.95641    626.85938    36822.805 
  683100    294.57047   -1600.2836    482.12073    201.55922    209.94817    36822.805 
  683200    301.57649   -1549.8118    477.34562    278.64397    378.04027    36822.805 
  683300    302.49533   -1535.8896    458.67475    278.01183    57.463088    36822.805 
  683400    300.39062   -1560.5599    473.55536    258.79276    7.9447915    36822.805 
  683500     305.3055   -1522.7395    477.35675    322.43401    530.96393    36822.805 
  683600    298.82324   -1508.1262    474.50221    305.15123    454.77307    36822.805 
  683700    303.94506   -1481.2791      496.438    376.88062    621.68162    36822.805 
  683800    299.92139   -1527.2856    503.04823    319.45765    918.13674    36822.805 
  683900    292.51032   -1527.2943    467.67694    250.87494    321.90427    36822.805 
  684000      298.611    -1522.476    490.20047    305.54878    31.277799    36822.805 
  684100    296.68546   -1526.9102    494.72801    297.01544    -127.6748    36822.805 
  684200    295.41071   -1533.7615    455.61651    245.34148   -85.057251    36822.805 
  684300    301.17794   -1588.6569     490.2064    250.87413   -463.52862    36822.805 
  684400    297.93923   -1557.8185    482.75653    259.75273    253.91609    36822.805 
  684500    311.08833   -1592.4387    442.57621    243.86225    542.96703    36822.805 
  684600    304.89965    -1573.489     509.7502    302.25966     461.5694    36822.805 
  684700    300.23782   -1520.4507    493.04707    317.70905    922.60595    36822.805 
  684800    301.25938   -1527.9478     500.2098    321.95148    274.43616    36822.805 
  684900    308.37598   -1536.6436     488.4119     333.3413    74.498291    36822.805 
  685000    308.31333   -1553.2395    498.12204    326.17482    239.79563    36822.805 
  685100    304.70292   -1494.5771    494.23683    364.77681    275.45169    36822.805 
  685200    300.63291   -1476.5437    490.75609    361.09521    1073.2507    36822.805 
  685300    303.73436   -1530.9272    473.56233    303.41294     546.7361    36822.805 
  685400    300.24001    -1526.941    483.82658    302.00812    420.17096    36822.805 
  685500     294.8672   -1541.2047    480.02999    259.87684    350.17681    36822.805 
  685600    298.31347    -1508.879    477.41573    305.02808    353.08631    36822.805 
  685700    294.62655   -1545.9022    484.11097    258.18207    356.56903    36822.805 
  685800    304.09552   -1541.4016    471.21657    292.21084   -40.843915    36822.805 
  685900    300.72176   -1505.9548    481.40301    322.72901    425.72136    36822.805 
  686000    309.29209   -1486.4273    500.95315    400.20314    75.774721    36822.805 
  686100    296.63167   -1497.2752     465.2839    296.96527    749.92073    36822.805 
  686200    305.52391   -1502.6062    522.13452    388.32363    1148.4691    36822.805 
  686300    302.75464   -1491.3115    503.73898     368.8159    1128.5149    36822.805 
  686400    289.61811    -1486.788    501.09371    311.84041    407.52069    36822.805 
  686500    297.48855   -1491.1767    472.29166    313.91058    617.76811    36822.805 
  686600    293.38203   -1538.6184    479.69172    255.47096    317.23156    36822.805 
  686700    294.78949   -1517.1588    473.54644    277.09095    101.03125    36822.805 
  686800    306.06167   -1506.9919    493.37776    357.59039    64.345406    36822.805 
  686900    297.26907   -1517.4422    491.72032    306.09038    168.47847    36822.805 
  687000    294.17847   -1532.8373    490.39587    275.52441    -101.2245    36822.805 
  687100    304.68087   -1567.9566    474.94076    272.00245    604.26642    36822.805 
  687200    297.34348   -1513.7615    492.52901    310.91312    848.29556    36822.805 
  687300    291.09547   -1497.1436    499.97715    306.98713     445.1924    36822.805 
  687400    305.69723   -1525.5951    495.14825    339.12494    664.53418    36822.805 
  687500     299.3948   -1503.4334    492.53336    330.43584    495.10698    36822.805 
  687600    297.44712   -1517.7444    477.86096    292.72647     490.1183    36822.805 
  687700    305.48745   -1502.8443    497.44638    363.23399   -355.78706    36822.805 
  687800    297.60727   -1558.5202     473.0357    247.84293   -890.53624    36822.805 
  687900     303.9521   -1532.9606     466.0638    294.85644   -68.584082    36822.805 
  688000     293.5082   -1524.1998    465.04915    255.81225   -103.20313    36822.805 
  688100    304.58442   -1565.6595    484.49746     283.4241    78.273979    36822.805 
  688200    306.78032   -1564.4584    456.32981    266.29556   -668.73466    36822.805 
  688300    303.85863   -1509.2469     472.2442    324.33186    -471.7826    36822.805 
  688400    294.10591   -1551.5539    484.23345    250.32033    -210.1973    36822.805 
  688500    298.11322    -1488.471    482.48295    329.60611    171.15801    36822.805 
  688600    304.64003    -1520.584    472.85816    317.10945   -107.32471    36822.805 
  688700    305.77021   -1550.2218    471.15744    290.83438   -617.08261    36822.805 
  688800    299.57829   -1463.8819    476.32933    354.60536   -564.26018    36822.805 
  688900    312.85771    -1518.021    500.13037    383.76117   -219.57555    36822.805 
  689000    309.53198   -1533.3487    491.97167    345.37498   -201.95611    36822.805 
  689100    303.06157   -1516.4126    488.27611    329.62711    344.73226    36822.805 
  689200     305.5663   -1515.3761     508.3172    361.92624    317.32753    36822.805 
  689300    291.56432   -1580.1387    463.21465    189.33008    221.47633    36822.805 
  689400    296.82877   -1541.2686    491.57529    280.14637   -374.59617    36822.805 
  689500     292.6762     -1539.18    468.41627    240.47176   -206.84795    36822.805 
  689600    287.44995   -1577.9485     464.9049    174.77743    305.80886    36822.805 
  689700    303.50854   -1573.5003    480.21234    266.47809    531.42607    36822.805 
  689800    299.22832   -1521.2402     463.0106    282.36046    545.45643    36822.805 
  689900    303.74922   -1524.0983    487.15328    323.89936    79.269228    36822.805 
  690000     299.9449    -1513.082    479.06794    309.78631    64.819538    36822.805 
  690100     306.0254   -1559.9946    453.33734    264.38475    434.77178    36822.805 
  690200    290.95389   -1547.0681    479.46783    235.91899   -274.57538    36822.805 
  690300    306.35034   -1514.6861    476.10779    333.91951    519.53657    36822.805 
  690400    308.03192   -1535.1461    481.40261    326.28803   -49.260231    36822.805 
  690500    296.92526   -1515.6967     493.6625    308.23771    287.02749    36822.805 
  690600    299.41114   -1501.4165    486.51431    326.50683    919.57242    36822.805 
  690700    296.82235   -1529.6169    492.35578    292.54974    721.42826    36822.805 
  690800    306.79175   -1536.3403    460.81221    298.94727    429.21839    36822.805 
  690900    291.18237   -1485.3099    478.92916     298.1621    220.13296    36822.805 
  691000    305.41129   -1499.6738    482.85789    351.47477   -173.03688    36822.805 
  691100    309.09914   -1563.1229    481.12032    302.81027    172.31769    36822.805 
  691200    304.04756    -1551.357    457.18953    268.01353    -361.7635    36822.805 
  691300     299.3622   -1532.7209    487.44813      295.917   -826.02814    36822.805 
  691400    301.49473   -1566.2094    463.78386    248.31831   -354.23023    36822.805 
  691500    311.91629    -1541.615    476.69511    332.51428    -148.4757    36822.805 
  691600    298.47934   -1559.1864    454.44264    232.49071   -630.46155    36822.805 
  691700    300.57782   -1539.8971    478.15182    284.89067   -215.44097    36822.805 
  691800    296.80344   -1527.0222    469.60947    272.31346     529.7415    36822.805 
  691900    291.22716   -1501.3898    477.90737    281.26109    306.23342    36822.805 
  692000     305.2799   -1522.3321    474.10905    319.47903    591.31875    36822.805 
  692100    296.05856   -1549.2207     471.7085    248.87681   -701.73566    36822.805 
  692200    311.26006   -1551.5505    470.37453    313.31809   -836.16795    36822.805 
  692300    301.45781   -1527.5114     472.9113    295.97836   -1224.7558    36822.805 
  692400    301.12278   -1530.5152    460.65928    279.22158   -1158.5416    36822.805 
  692500    307.52927   -1550.6031    509.40824    336.58467   -672.05217    36822.805 
  692600    293.26812   -1570.5123    461.82797    205.20305    258.87921    36822.805 
  692700    311.54327   -1549.4142     449.5628    295.91149   -146.54802    36822.805 
  692800    302.76483   -1562.1873    508.99114    303.23799    336.76473    36822.805 
  692900    291.69669     -1552.49    451.22627     205.5834    307.41078    36822.805 
  693000    309.99834   -1531.6706    469.40011     326.5709    151.80589    36822.805 
  693100    307.09332   -1550.2698     483.7334    309.29001    96.140408    36822.805 
  693200    296.83505   -1529.6122    461.55519    261.81075    262.86772    36822.805 
  693300    295.82746   -1516.0975    479.28045    288.53653    179.02871    36822.805 
  693400    299.81845   -1526.3813    478.70643    295.55901    146.78143    36822.805 
  693500     309.3849   -1493.3911    494.85014    387.55208    188.62226    36822.805 
  693600    296.44192   -1563.8121    458.03157    222.32598   -130.75993    36822.805 
  693700    296.95124   -1525.2629    459.47101    264.59645    176.58533    36822.805 
  693800    294.38727   -1528.9137    479.59768     269.5853    153.01024    36822.805 
  693900    307.86228   -1567.4462    478.36333    290.18867    615.77119    36822.805 
  694000    298.71658   -1574.5118    453.69546    217.48096     338.4564    36822.805 
  694100    296.98843   -1528.0895    472.37201     274.8375    16.455782    36822.805 
  694200    294.68972   -1567.4047     481.5285    234.38013    283.72118    36822.805 
  694300    297.96369   -1571.2929    463.82837    227.45972    40.212653    36822.805 
  694400    299.91819   -1520.7731    459.50675    282.41441     -54.7582    36822.805 
  694500    307.17934   -1547.1082    468.89285    297.99648     414.5985    36822.805 
  694600    302.88169   -1527.0193    481.57232    311.51073   -14.739192    36822.805 
  694700    305.37504   -1519.9694    483.00371    331.16256    396.02426    36822.805 
  694800    300.34614    -1553.925    473.63071    265.30373   -515.62243    36822.805 
  694900    297.04345   -1549.6604    455.18998    236.33102    311.08766    36822.805 
  695000     295.6782    -1509.568     466.7548    281.87166    442.42949    36822.805 
  695100    303.26444   -1539.7962    483.44428    302.32051    338.49237    36822.805 
  695200     307.9465   -1521.8112    478.23199    336.06964    674.29913    36822.805 
  695300    296.87949   -1544.1621    456.54032    242.44515   -184.21466    36822.805 
  695400    298.78473   -1555.8281    478.89154    261.66608   -27.560631    36822.805 
  695500    305.48258   -1498.2701    473.67078    344.01069    62.905721    36822.805 
  695600    303.14772   -1532.2837    482.57906    308.44489   -32.753898    36822.805 
  695700    308.60216   -1517.3955    437.51847    302.70921   -174.22347    36822.805 
  695800    302.44916   -1514.6373    483.84387    324.22648    62.465939    36822.805 
  695900    311.71202   -1541.8182    460.98835    315.68912     456.1295    36822.805 
  696000     294.1517   -1482.1634    486.01854    321.70111   -570.04786    36822.805 
  696100    289.86443   -1524.2172    475.46183    249.88296     132.9693    36822.805 
  696200    291.89987   -1509.0801    475.08896     273.7663    163.66413    36822.805 
  696300    294.74983   -1507.1317    480.36946    293.76341    323.38614    36822.805 
  696400    293.63334   -1503.4766    481.19171    293.23877    452.56099    36822.805 
  696500    299.70861   -1501.1973    476.19075    317.73522    112.92456    36822.805 
  696600    294.74941    -1471.685    486.82922    335.66799   -790.09409    36822.805 
  696700    297.92123   -1537.4366    457.07237    254.36981   -366.90651    36822.805 
  696800    295.95512   -1513.6685    476.37349    288.63057    154.77836    36822.805 
  696900    297.36185   -1463.0144    508.61329     377.8268    314.30911    36822.805 
  697000    305.63347   -1455.2281    483.14536    397.20331    452.85762    36822.805 
  697100     290.1381   -1492.3527    468.71354    276.22521    298.63664    36822.805 
  697200    312.34335   -1481.6841    478.13253    395.79587     439.3459    36822.805 
  697300    303.31002   -1457.2745    488.44093     390.0431    90.415324    36822.805 
  697400    293.23901   -1525.4473    490.20464    278.51424    110.83006    36822.805 
  697500    306.87363   -1521.0217    463.30563    317.12609   -16.431536    36822.805 
  697600    305.35778   -1544.0123    487.21647    311.25514   -122.57639    36822.805 
  697700    293.40064   -1508.9546    476.91406    282.44056    205.94889    36822.805 
  697800    303.22424   -1496.1285    481.98884    344.35273   -395.47968    36822.805 
  697900    293.12312   -1541.8241    475.15279    246.56637   -236.73035    36822.805 
  698000    311.66261   -1518.3114    477.71793    355.70416    58.787448    36822.805 
  698100    294.32899   -1555.1619    488.31848    251.79682     952.0414    36822.805 
  698200    307.69814   -1522.9352     483.9428    339.54374    793.25942    36822.805 
  698300    302.44116   -1503.2014    489.82284    341.60545    532.95805    36822.805 
  698400    298.23481   -1527.5367    464.11735    272.71957   -19.942719    36822.805 
  698500    294.00141   -1508.1971    472.92349    281.89903    39.203717    36822.805 
  698600    299.70843   -1490.0637    448.29994    300.97721    97.465138    36822.805 
  698700     305.1937   -1494.9464    468.86394    341.23337   -429.90567    36822.805 
  698800    292.63118   -1486.1208    472.65992    297.57289   -280.29244    36822.805 
  698900    296.87631   -1475.8592    478.69916    332.89262   -683.16067    36822.805 
  699000    294.19754   -1493.3016    464.91013     289.6599   -854.75446    36822.805 
  699100    293.54128   -1494.6853    468.47186    288.89775    -212.0354    36822.805 
  699200    306.40884    -1526.268    494.48752    340.97937    454.88402    36822.805 
  699300    317.84857   -1537.6667    461.36944     347.7144    221.17002    36822.805 
  699400    294.56584   -1556.6003    461.58641    224.68746   -69.616633    36822.805 
  699500    304.26067   -1544.7541    455.27031    273.65193    138.13083    36822.805 
  699600    314.03404   -1548.1993    480.69955    339.42218    244.15237    36822.805 
  699700    301.10229   -1520.0195    479.12223     308.0884    185.79429    36822.805 
  699800    295.01165   -1514.0208    447.92162    255.59949    238.44346    36822.805 
  699900    301.71773   -1521.1568    483.63385    314.22003   -433.04996    36822.805 
  700000    301.44769    -1525.376    461.61606    286.77319   -668.37358    36822.805 
  700100    301.27904   -1462.2953     455.3062    342.78842   -424.02827    36822.805 
  700200     299.6908   -1507.5522    485.96287    321.07264   -627.01362    36822.805 
  700300    305.65511   -1499.1732    472.08487    342.29477   -948.25605    36822.805 
  700400    295.29812    -1515.673    473.39226     280.7013   -880.90485    36822.805 
  700500    299.07916   -1494.2736    472.71477    318.36293   -156.59736    36822.805 
  700600    305.25104   -1510.2191    479.89866    337.25223   -108.49345    36822.805 
  700700    304.35989   -1529.3014    486.46357    320.74237    423.13704    36822.805 
  700800    306.46058   -1526.9998    490.41289     336.4048    414.41597    36822.805 
  700900    302.53849   -1535.2379    466.31859    286.50077    57.646747    36822.805 
  701000    299.84893   -1547.9874    483.04934    278.43237    728.68123    36822.805 
  701100    302.29784   -1559.3812    450.79033    245.75111    718.03136    36822.805 
  701200    293.41912   -1590.2599     484.6159    208.91993    347.72366    36822.805 
  701300    291.72568   -1516.5967    464.87055    255.25081    294.82565    36822.805 
  701400    303.62801   -1515.0639    476.44562    321.68306    228.67799    36822.805 
  701500    306.81307   -1529.0641    500.82287    346.32959    389.33653    36822.805 
  701600     293.3299   -1505.7706     474.3567     282.7503     110.8914    36822.805 
  701700    300.57796   -1530.8685    478.52219    294.29026    263.77044    36822.805 
  701800    296.62019   -1545.5513    470.35522    253.70908   -243.25736    36822.805 
  701900    288.57352   -1551.0145    443.81731    185.65761    435.99819    36822.805 
  702000    293.60314   -1519.9328    492.56773    288.02326    102.07061    36822.805 
  702100     305.7122   -1500.2535    458.59837    327.98374    604.33762    36822.805 
  702200    301.74936   -1540.9586    442.66384    253.58992    545.11705    36822.805 
  702300    298.00643   -1519.9344    477.32926    292.51059      432.986    36822.805 
  702400    298.44602    -1507.192    458.64781    288.54094    418.17669    36822.805 
  702500    297.51372   -1519.4138    475.76195    289.25645    40.165326    36822.805 
  702600     290.0582   -1506.6271    450.33504    243.21434    776.58689    36822.805 
  702700    289.52603   -1512.4033    474.82278    259.54171    35.281206    36822.805 
  702800    298.95385     -1466.01    496.38454    369.73491    528.62867    36822.805 
  702900    304.92821    -1485.524    477.56548    358.16783    786.08752    36822.805 
  703000    293.25009   -1471.3203    513.52673    356.01298      22.3139    36822.805 
  703100    302.39023   -1502.5124    468.08692    320.33043   -42.580959    36822.805 
  703200    299.16425   -1495.9695    459.46418    303.79765   -239.19298    36822.805 
  703300    304.19096   -1512.7466    467.00816    317.08492   -176.36846    36822.805 
  703400    303.21606   -1494.6467    471.23946    335.04846    309.63556    36822.805 
  703500    296.51431   -1472.9644    476.69705    332.16349    33.346724    36822.805 
  703600    306.26435   -1511.8248    453.99184    314.27961    508.79224    36822.805 
  703700    307.38689   -1504.8951    482.02498    354.27154    587.12545    36822.805 
  703800    301.47109   -1502.8464    483.18229     330.9738   -79.766646    36822.805 
  703900    293.65916   -1503.2081    477.84606     290.2772     45.09053    36822.805 
  704000    293.75872   -1530.7889    470.84823    256.14464    347.95808    36822.805 
  704100    298.29031   -1529.3758    475.92095    282.93275    457.69063    36822.805 
  704200    297.60731   -1539.9073    426.80758     220.2279    257.60874    36822.805 
  704300    293.74341   -1512.5039    448.26219    251.77505   -81.112474    36822.805 
  704400    314.29498    -1503.882    461.51655    365.72556     39.71188    36822.805 
  704500    282.47508   -1529.8392    481.47028    217.16392   -271.13727    36822.805 
  704600    297.14887    -1477.341    476.66168    330.59438    17.041401    36822.805 
  704700    304.61425    -1522.006    464.73738    307.45123    373.56457    36822.805 
  704800    307.57518   -1493.5546    475.94201    360.37267    37.988324    36822.805 
  704900    304.55823   -1522.1307    464.49795    306.83605   -255.38054    36822.805 
  705000    303.68822   -1488.9012    458.03719    329.70702    4.0877988    36822.805 
  705100    305.64113   -1521.3023    456.61484    304.63297    413.82086    36822.805 
  705200    298.44501   -1528.6319    451.81804    260.26676    592.62797    36822.805 
  705300    292.59338   -1536.8016    467.04444    241.10725    446.40182    36822.805 
  705400    310.26143   -1522.2771    453.22135    320.96434    539.14004    36822.805 
  705500    310.73167   -1573.5827    458.93215    277.47627   -104.44156    36822.805 
  705600    292.18427   -1536.1376    440.68191    213.57584   -411.20235    36822.805 
  705700    295.08136   -1561.8596    446.58804    206.73943   -806.92429    36822.805 
  705800    292.44933   -1560.1192    447.45773    197.55756    -3.770267    36822.805 
  705900    286.33789   -1611.0261    447.17322    118.98598   -576.92176    36822.805 
  706000    303.80908   -1589.5633    431.40436    202.95361   -210.61633    36822.805 
  706100    289.13663   -1591.9517    453.47945    156.90544   -110.72216    36822.805 
  706200    300.51296   -1573.3132    452.34463     225.3768   -189.53186    36822.805 
  706300    298.32086   -1558.0509    444.16905    222.64263   -300.26261    36822.805 
  706400     291.3821   -1543.7949    458.55622    220.19899    174.59261    36822.805 
  706500    295.11643   -1561.2591     444.8909    205.79989    191.82167    36822.805 
  706600    293.19862   -1554.9335    453.54143    212.18389    327.24898    36822.805 
  706700    299.91721   -1564.3969    440.27219    219.55165    356.35554    36822.805 
  706800    294.93581   -1551.8936    438.52107    207.98639    534.29579    36822.805 
  706900    305.18486   -1564.2156     456.2147    259.27531    314.62658    36822.805 
  707000    304.11435   -1530.4047    468.56492    300.64041    314.30566    36822.805 
  707100     301.9739   -1513.2932    444.11259    283.70998    371.70208    36822.805 
  707200    291.63173   -1530.9816     437.7952    213.36969   -50.816828    36822.805 
  707300    291.39878   -1576.4518    460.97068    190.03137    -247.0939    36822.805 
  707400    298.12846   -1576.6354    455.56183    214.58889     576.2777    36822.805 
  707500    297.58425   -1561.4993    470.35095    242.07592    837.30663    36822.805 
  707600    296.46845   -1568.3115    491.67048    251.58429    337.88814    36822.805 
  707700    306.04149   -1552.4541    475.73067    294.39066    445.95373    36822.805 
  707800    301.11617   -1517.9376    433.03187    264.14218    260.92897    36822.805 
  707900    297.47795    -1514.399    479.89333    298.24239    532.62739    36822.805 
  708000    292.65505    -1530.382    450.69857    231.45729    688.22126    36822.805 
  708100    299.95736   -1545.0545    453.52301    252.32478    688.47998    36822.805 
  708200    300.33039   -1535.1011    475.88307    286.30946    671.15015    36822.805 
  708300     305.9378   -1528.8217    456.71288    298.54072    732.11271    36822.805 
  708400    290.34353   -1544.1124      453.697    210.36933    570.26658    36822.805 
  708500     309.6426   -1528.7182     469.7889    328.31827    513.50311    36822.805 
  708600    314.13892   -1536.3254     426.1558    297.22227   -279.32813    36822.805 
  708700    301.50465   -1520.0046     449.7876    280.57133   -618.63466    36822.805 
  708800     294.2789    -1505.618    461.76141     274.5592   -535.51506    36822.805 
  708900    300.58154   -1505.7483    434.78915    275.69347   -356.20875    36822.805 
  709000    298.88134   -1514.3614    438.13007    262.80413   -506.16909    36822.805 
  709100    292.19543   -1521.7113    475.47197    262.84224   -462.71266    36822.805 
  709200    301.64899   -1479.0764    441.65571    314.01432    159.39765    36822.805 
  709300    307.84576   -1488.0817    460.72531    351.84106    257.12697    36822.805 
  709400      297.236   -1509.1711    460.59383    283.08687   -29.889108    36822.805 
  709500    296.46438   -1535.0734    471.79782    264.93148    420.76052    36822.805 
  709600    305.99817   -1473.7905    457.71674    354.84622   -275.24394    36822.805 
  709700    298.14123   -1507.7262    445.66633    273.65975   -46.416418    36822.805 
  709800    300.04845   -1518.2504    453.09119    279.10511   -61.417635    36822.805 
  709900    308.98123   -1500.5451    442.58176     326.3212    -36.96933    36822.805 
  710000    297.46743   -1481.3588    460.64406    311.98617   -108.25351    36822.805 
  710100    293.85552   -1511.3947    435.13567    240.26002   -65.836267    36822.805 
  710200    306.72277   -1492.9571    472.30816    353.51733   -369.46253    36822.805 
  710300    303.12665   -1495.5921    449.59593    312.05899   -810.24692    36822.805 
  710400    304.24618   -1510.2669    451.17854    303.98244    197.42196    36822.805 
  710500    303.06556   -1506.7852    436.15513    287.15138    160.91118    36822.805 
  710600    301.35901   -1467.1856    448.27223    331.22243    110.06319    36822.805 
  710700    301.71134    -1492.098    471.03285    330.64912    135.47855    36822.805 
  710800    304.06451   -1444.4231     480.7467    398.58055    536.35291    36822.805 
  710900    292.09883   -1457.2642    465.92428    317.30884    330.17866    36822.805 
  711000     287.1067   -1457.7229    448.40733    276.96764    37.834973    36822.805 
  711100    296.46361   -1466.0296    448.43468    310.60872   -269.42759    36822.805 
  711200    295.83409   -1481.3174    484.54379    328.60978    323.88302    36822.805 
  711300     302.4261   -1488.4709    469.78941    336.23513     589.8066    36822.805 
  711400    298.18247   -1473.2733    451.28262    313.91372    368.71785    36822.805 
  711500    294.82803   -1459.6282    428.25232    289.50016    582.16851    36822.805 
  711600    297.70622   -1502.7496    479.01909    310.04027    242.94674    36822.805 
  711700    296.98952   -1502.7828    465.65281    293.42986    975.75862    36822.805 
  711800    294.22023   -1499.6101    458.03498    276.57788    684.02764    36822.805 
  711900    300.71304   -1451.2613    486.56872    382.54917    40.263189    36822.805 
  712000    295.13765    -1483.379    438.10771    276.99185   -199.82715    36822.805 
  712100    297.52969   -1493.9076    435.98636    275.05866   -260.11638    36822.805 
  712200    300.36667    -1494.665    456.45145    307.47644   -89.067326    36822.805 
  712300    288.64235   -1506.9232    446.26352    232.50347   -466.31975    36822.805 
  712400    305.77559   -1522.3042    451.36872    298.98731     53.36062    36822.805 
  712500     290.1452   -1568.7518    452.64475    183.78909      325.446    36822.805 
  712600    299.64475   -1511.2923    459.22995    290.39331    613.65736    36822.805 
  712700    301.38038   -1535.8301    441.89988    256.30134    305.69791    36822.805 
  712800    299.04758   -1514.4053     442.8172    268.19213   -295.81966    36822.805 
  712900    293.07155   -1504.5624    439.64428     248.0886   -340.70116    36822.805 
  713000    302.11448   -1493.8084    455.09397      314.806   -113.80186    36822.805 
  713100    287.44645   -1498.6444    493.55283    282.71382    151.94214    36822.805 
  713200    300.18574   -1470.8922    465.43636    339.42358    186.50743    36822.805 
  713300    293.38325   -1492.3147    467.01173    289.10017    -398.9982    36822.805 
  713400    294.99087   -1496.5509    436.28063    261.33528   -179.70702    36822.805 
  713500    291.68297   -1485.5845    449.70172    270.90285   -344.92105    36822.805 
  713600    302.51406   -1492.6539    465.24486    327.90157    235.11857    36822.805 
  713700      302.389   -1472.4912    476.17091    358.43009    216.60983    36822.805 
  713800     305.9894   -1454.9797    462.09742     377.9984      270.474    36822.805 
  713900    294.87992    -1445.696    474.79288    350.20539   -34.778886    36822.805 
  714000    300.02163   -1483.5246    450.78348     311.4031    492.98041    36822.805 
  714100    310.59558   -1502.5491    440.76307    329.73107    606.66681    36822.805 
  714200    293.77967   -1476.8557    467.39353      306.717    108.91663    36822.805 
  714300    301.92635   -1521.9883    462.64712    293.33644   -333.22428    36822.805 
  714400    311.06604   -1548.0879    457.01659    302.55356   -140.84826    36822.805 
  714500    292.98726   -1511.7751    430.93925    231.79322   -549.48589    36822.805 
  714600    300.38125    -1511.644     438.5567      272.668   -320.54449    36822.805 
  714700    311.23771   -1548.8652    469.75019    315.27898    210.56773    36822.805 
  714800    303.73519   -1541.4407    450.19754     269.5383    419.33445    36822.805 
  714900     302.6639   -1495.5124    467.54803    328.01756    708.97534    36822.805 
  715000    289.66287   -1547.6449    430.79373    180.88407    656.27778    36822.805 
  715100    295.32955   -1546.7106    448.90701    225.31931    1007.3749    36822.805 
  715200    292.96488   -1486.6843    457.02959    282.87405    637.30158    36822.805 
  715300    304.12465   -1472.0201    454.17668    344.68286   -283.96217    36822.805 
  715400    294.10352   -1510.3089    460.93496    268.25611    680.00547    36822.805 
  715500    288.91587   -1535.9259     477.4878    235.95048    357.09493    36822.805 
  715600    303.02734    -1465.193     467.9903    360.40756    618.70269    36822.805 
  715700    301.89683    -1471.746    457.11506    337.91444    108.56045    36822.805 
  715800    300.63481   -1491.9206    464.06019    319.03088    220.74308    36822.805 
  715900    299.17952   -1511.3256    451.84357    280.88938    304.37797    36822.805 
  716000    303.94998    -1499.075      464.595    327.26378    995.05237    36822.805 
  716100    297.13605    -1524.539    474.17708    280.85439    1171.7304    36822.805 
  716200    295.86501   -1523.5477    456.96115    258.93532    233.53789    36822.805 
  716300    305.62291   -1522.2514    452.51272     299.5001    73.508663    36822.805 
  716400    300.96905   -1516.1265    441.64082    273.90307   -83.862572    36822.805 
  716500    297.39855   -1532.0522    443.44679    243.78698   -48.067525    36822.805 
  716600    298.15443   -1501.0243    480.87225    315.62672   -186.84671    36822.805 
  716700    297.30647   -1507.6739    451.76789    276.07385   -189.34901    36822.805 
  716800    293.49396   -1531.6779    469.29292    252.51414   -622.84867    36822.805 
  716900    297.92405   -1481.6329    476.35739    329.47117   -184.63552    36822.805 
  717000    294.86679   -1528.5723    465.31238    257.78975   -808.14404    36822.805 
  717100    306.96159    -1517.646    452.37502    309.96527   -517.42383    36822.805 
  717200    301.08211   -1539.9659    461.33983    270.26918   -1076.5031    36822.805 
  717300    293.53298    -1548.232     416.2903     183.1323   -508.53389    36822.805 
  717400    288.98106   -1544.6842     444.8379    194.83436   -582.47552    36822.805 
  717500    313.73809   -1545.5424    459.38005    319.43371      13.2937    36822.805 
  717600    302.57965   -1486.5996    467.93523    336.94015     140.7237    36822.805 
  717700    296.74109   -1517.0234    452.74273     265.1661    84.678526    36822.805 
  717800    302.41231   -1512.8345    464.02105    306.04137    254.26113    36822.805 
  717900      301.718   -1519.9065    491.20727     323.0449    871.41364    36822.805 
  718000    306.34127   -1523.3685    488.45779    337.54642    845.23352    36822.805 
  718100    291.59206   -1533.1279    441.09518    214.34564    567.34277    36822.805 
  718200    293.92229    -1479.167    452.14874    289.79984    720.63878    36822.805 
  718300    308.22405   -1507.5813    463.20365    336.51463    647.11966    36822.805 
  718400    305.32731   -1542.3254    464.82195    290.41099    308.45973    36822.805 
  718500    303.92112   -1534.3839     448.5765    275.80702    659.45207    36822.805 
  718600    301.42531   -1524.8318    450.07041    275.67154    323.46921    36822.805 
  718700    297.70617   -1529.8093    465.56318    269.52439    -105.6469    36822.805 
  718800    301.17859   -1514.9908    443.07394    277.41063   -71.971353    36822.805 
  718900    303.32854   -1529.9313    434.71759    263.74592    144.25524    36822.805 
  719000    299.78152   -1532.6398    445.32876    255.75743    2.0301595    36822.805 
  719100    301.27133   -1559.8437    448.62808    238.52738   -237.34741    36822.805 
  719200    299.92652   -1555.8683     468.9419    256.79164     182.9324    36822.805 
  719300     299.7775   -1510.9825    456.86718    288.93509    363.19984    36822.805 
  719400    305.46531   -1524.9151    453.93175    297.54933     591.5762    36822.805 
  719500    318.06116   -1530.4954    439.85874    334.32746    606.48055    36822.805 
  719600    299.28116   -1537.2424    467.69214    271.27647     535.0773    36822.805 
  719700    295.76039   -1536.6798    451.56802    239.94133    35.035603    36822.805 
  719800    305.14939   -1513.7592    467.36505     320.7232   -63.919853    36822.805 
  719900    294.37083     -1481.81     453.7817    290.79942    149.97326    36822.805 
  720000    300.64746   -1534.3909    426.66096    239.21805    413.05915    36822.805 
  720100    300.27821   -1525.0576    461.26646    281.50253    44.077441    36822.805 
  720200    294.55372   -1508.7418    468.13804     279.0433    329.70821    36822.805 
  720300    297.99044   -1538.5724    469.66883    266.14055   -176.42569    36822.805 
  720400    283.25721   -1470.7402    478.31687    276.61362   -114.07919    36822.805 
  720500    309.24735    -1439.898    472.90652    418.48537   -106.85067    36822.805 
  720600    297.08613   -1501.4961    451.72158    281.21812    -171.6789    36822.805 
  720700    302.48196   -1487.0556    474.69664    342.80787   -10.961684    36822.805 
  720800    298.74754    -1514.539    455.40903    279.30603    61.155933    36822.805 
  720900    298.80619   -1509.5014    457.21333    286.41075     342.3155    36822.805 
  721000    292.89529   -1502.8448    472.79672    282.16895    413.18958    36822.805 
  721100    303.66692   -1520.2581    473.04205    313.25959    518.42457    36822.805 
  721200    307.13891   -1508.6783    468.83683    336.18919    397.98435    36822.805 
  721300    303.59937   -1515.8401    474.07093    318.40384    57.583388    36822.805 
  721400    306.99319   -1579.8614    477.50153    273.01798    285.30182    36822.805 
  721500    302.59248   -1503.3179     473.5408     325.8849   -201.91779    36822.805 
  721600    299.66273   -1519.0026     446.2391    269.77272   -598.99838    36822.805 
  721700    305.57128   -1538.7862    471.85193    302.07324    -326.8942    36822.805 
  721800    305.24538   -1523.2259    452.03722    296.35875   -327.17065    36822.805 
  721900    291.90515   -1564.6054     446.6543    189.82998   -33.786129    36822.805 
  722000    298.74536   -1512.8007    454.84571    280.47125   -175.79806    36822.805 
  722100    295.61315   -1501.2556    470.88927    294.02717    95.062203    36822.805 
  722200    295.63931    -1530.568    442.95867     236.9013    -265.2633    36822.805 
  722300    311.96332   -1536.5765    457.54799    318.61632   -99.413896    36822.805 
  722400    300.85058   -1521.0784     460.8819    287.66148   -349.83822    36822.805 
  722500    308.73378   -1522.7058    464.85091    325.32108   -538.48896    36822.805 
  722600    307.82989   -1549.1378    444.71819    274.70682   -241.89792    36822.805 
  722700    308.05707   -1489.4848    485.60095    376.26038   -511.65622    36822.805 
  722800    301.44122   -1562.8817    470.00256    257.62498   -257.45229    36822.805 
  722900    293.17956   -1531.9026    422.85763    204.44559   -401.83045    36822.805 
  723000    295.65209   -1560.7655    472.90109    236.70351   -296.02859    36822.805 
  723100    297.12773   -1572.8721    423.23037    181.53726   -515.79536    36822.805 
  723200    298.95147   -1572.6102    442.11187    208.85137   -107.81947    36822.805 
  723300     297.6364   -1565.9078    456.02402    223.57416    175.77788    36822.805 
  723400    303.11943   -1558.6533      463.254    262.62349   -142.10892    36822.805 
  723500    305.69542   -1561.8052     450.1281    257.88649   -135.47475    36822.805 
  723600    295.17977   -1532.3593    464.66755    254.76015   -72.391435    36822.805 
  723700    301.03785   -1511.8136    464.46028    301.34368    160.27365    36822.805 
  723800    297.23052   -1471.9542    508.72733    368.41266   -354.47855    36822.805 
  723900    307.17137   -1495.3202    453.72867    334.58457   -48.772413    36822.805 
  724000    296.06403   -1503.3268    466.69847    289.78512   -776.88376    36822.805 
  724100    277.69843   -1520.2982    476.95418    200.78872   -652.76173    36822.805 
  724200    292.46494   -1508.1423    458.86035    261.00706     1.122348    36822.805 
  724300    304.03126   -1483.4872    450.56731    329.18807    607.66339    36822.805 
  724400    286.62855   -1488.2135    483.77994    279.70743   -296.04429    36822.805 
  724500    305.83409   -1472.2596    447.37385    345.29917    337.04714    36822.805 
  724600    301.43711   -1500.5446    461.48665    311.42777    827.88413    36822.805 
  724700    297.26567   -1465.6379    487.74617    353.90526     651.4667    36822.805 
  724800    293.30128   -1497.0287    471.69021    288.69748    372.86033    36822.805 
  724900    308.30196   -1465.1852    469.17101    385.22718    809.22096    36822.805 
  725000    317.55604   -1538.3307    476.96469    361.33504    745.94651    36822.805 
  725100    299.67576   -1576.7534    444.84694    210.68818    513.86141    36822.805 
  725200    308.54187   -1585.2534    478.01318    275.07597    691.84289    36822.805 
  725300    289.56834   -1558.1003    473.46585    212.67728    772.73013    36822.805 
  725400      283.856   -1576.6582    472.75863    167.82004    566.91465    36822.805 
  725500      291.917   -1512.8792    469.11297    264.06793    1036.6461    36822.805 
  725600    296.46012   -1526.7338    498.76534    300.21957    591.40078    36822.805 
  725700    297.30164   -1549.7114     455.7558    238.00259    528.69093    36822.805 
  725800    300.88811   -1526.7109    451.20399    272.51917    240.22441    36822.805 
  725900    309.70433   -1573.5548    469.89892    283.86828    914.01178    36822.805 
  726000    293.90324   -1576.9955    466.77029    206.50759    430.96762    36822.805 
  726100    301.08502   -1532.6416    465.93736    282.20409    1027.6963    36822.805 
  726200    297.12821   -1569.6917    473.07049    234.55998    770.98143    36822.805 
  726300    304.60001   -1542.0201    455.72133    278.35727    789.91107    36822.805 
  726400    301.84872   -1541.9478    472.12941    282.51139    836.03778    36822.805 
  726500    308.94464   -1546.6084    456.79785    294.31008    694.83079    36822.805 
  726600    297.11424   -1565.9339    467.70247    232.88714    513.32909    36822.805 
  726700    295.34054   -1482.8075    485.59376    325.95842    159.88072    36822.805 
  726800    307.03085   -1488.2295    454.66674    341.98384   -215.59924    36822.805 
  726900    308.46569   -1522.7956    462.86846    322.04776   -257.59629    36822.805 
  727000     296.4764    -1504.988    461.97098    285.24393   -798.09082    36822.805 
  727100    298.32612   -1499.6309    457.40601    294.32308   -736.57675    36822.805 
  727200    310.89904   -1510.7856    458.15839     340.2495   -92.078966    36822.805 
  727300    300.64797   -1547.9915    484.51889    283.47763   -421.11343    36822.805 
  727400     308.6043   -1503.0903    464.95648    344.46206   -399.46295    36822.805 
  727500    299.25786   -1503.9394    455.22416    292.00711   -490.14679    36822.805 
  727600    291.44204   -1514.1097    492.54596    284.14254    -581.0414    36822.805 
  727700      301.308   -1484.5501    471.19509    336.55231   -544.63897    36822.805 
  727800    293.27735   -1448.3249    432.57941    298.18327    -831.9787    36822.805 
  727900     305.0654   -1457.4339    470.21753    379.52464   -919.73005    36822.805 
  728000    298.22869   -1464.0563    456.21983    328.27506   -599.03363    36822.805 
  728100    308.56202   -1466.1744    460.75486    376.98688    78.750414    36822.805 
  728200    301.70137   -1467.0902    490.72555    375.30497     64.83249    36822.805 
  728300    293.38129   -1448.6857    443.29497    309.00364     441.0332    36822.805 
  728400    302.08471   -1510.9925    468.92582    311.32039   -377.13504    36822.805 
  728500    294.29278   -1520.9639    453.08724    250.60137   -436.84709    36822.805 
  728600     297.2913   -1523.6545    486.63171    294.88901    241.97084    36822.805 
  728700    300.06178   -1445.2198    473.92857    373.03276    285.09965    36822.805 
  728800     294.5233    -1478.714    472.19066    312.98745    516.51698    36822.805 
  728900    301.89591   -1454.8863    485.63593    383.29087     444.6771    36822.805 
  729000    306.29007   -1477.3057    458.53751    353.45958    17.132147    36822.805 
  729100    310.00311   -1478.3958    483.98364     394.4506   -86.838754    36822.805 
  729200     307.2312   -1498.6744    464.25712    342.02687    75.357292    36822.805 
  729300    304.02034   -1493.8123    506.34505    374.59178     283.6221    36822.805 
  729400    288.89427   -1469.5227    507.89609    332.66523    324.66964    36822.805 
  729500    290.48404   -1538.8948    487.20586     249.7253   -110.89933    36822.805 
  729600    299.10066   -1540.2004    486.98306    286.80071   -215.09212    36822.805 
  729700     291.1112   -1539.9202    475.81511    240.11896   -409.45935    36822.805 
  729800    306.24459   -1544.1203    473.21057    301.11424   -227.07678    36822.805 
  729900    306.74201    -1596.367    474.09186    251.97734   -174.28753    36822.805 
  730000    304.29386   -1516.9766    463.67604     309.9839    -305.7874    36822.805 
  730100    299.18617   -1483.5004    496.34314    353.24391   -475.43508    36822.805 
  730200    298.06071   -1501.4577    471.11818    305.01943   -209.30525    36822.805 
  730300    292.79041   -1509.7651    491.91601    293.89806    -14.57954    36822.805 
  730400    291.61577   -1518.2836    474.34048    262.54143    361.59744    36822.805 
  730500    299.72842   -1567.8864    468.80937     243.7535    849.68982    36822.805 
  730600    301.94034   -1567.3579    474.23905    259.62142    167.28813    36822.805 
  730700    295.05495   -1508.3141    473.16502    286.74353    628.37684    36822.805 
  730800    300.88904   -1525.1635    474.85275    297.71953    170.22907    36822.805 
  730900      301.364    -1538.856    474.13515    285.43731    158.74122    36822.805 
  731000    292.30575   -1526.3768    478.90024    262.09927   -67.351295    36822.805 
  731100    299.18595      -1555.2    469.62205    254.82222  -0.71839329    36822.805 
  731200    300.96921   -1525.0464    499.71068    323.05373     212.8299    36822.805 
  731300    301.50392   -1535.5024    437.49204    252.77474    384.67027    36822.805 
  731400    310.18923   -1495.3017     506.3743     400.7692   -67.295504    36822.805 
  731500    304.97768   -1546.4136    463.22053    283.15499   -116.42823    36822.805 
  731600    299.46639   -1477.3463    507.53958    371.84991    -224.5456    36822.805 
  731700    301.70721    -1519.672    485.96838    317.99222    115.21107    36822.805 
  731800    293.65666   -1479.6776    490.79539    326.74587    57.544087    36822.805 
  731900    310.57997   -1513.8588    481.60865    359.19697    230.28203    36822.805 
  732000    300.77426   -1505.1422    458.73319    301.10711   -398.79258    36822.805 
  732100    290.12514    -1546.213    491.16976    244.76312   -275.63773    36822.805 
  732200    295.98227   -1470.7696    468.83882     324.1164    105.58001    36822.805 
  732300    299.60571   -1513.1898    468.24117    297.33211   -425.12484    36822.805 
  732400    297.19125   -1518.5661    517.19224    330.08979   -110.02202    36822.805 
  732500    297.08741    -1573.108    493.29976    251.19011    385.52237    36822.805 
  732600    307.03311   -1570.0065    471.34513    276.89532    510.07057    36822.805 
  732700    301.82667   -1520.9941    475.28771     306.5246    10.345376    36822.805 
  732800    311.07182   -1511.1498     510.8363    393.33731    384.93938    36822.805 
  732900    309.81455   -1523.7789      486.275    350.51405    177.44969    36822.805 
  733000     299.2106   -1533.8593    482.38153    289.03283    249.04587    36822.805 
  733100    294.35908   -1521.0614    462.96896    260.68265    179.26968    36822.805 
  733200    296.02012   -1553.6305    470.47598    243.06227     541.1634    36822.805 
  733300    302.62327   -1552.1782    484.69894    288.32063    36.356168    36822.805 
  733400    310.22709   -1566.4321    475.30383    298.73792   -139.09599    36822.805 
  733500    302.72813   -1580.0095     486.3887    262.64896   -177.77495    36822.805 
  733600    314.13878   -1589.7816    451.22038    268.82996   -115.65817    36822.805 
  733700    292.91133   -1551.0424     473.5293    234.77578    39.987608    36822.805 
  733800     296.9772   -1566.5366    485.47676    249.44475    -182.7485    36822.805 
  733900    293.74902   -1580.2974    476.32265    212.06714    317.17907    36822.805 
  734000    297.78228    -1559.362    454.79178     229.5413   -56.351205    36822.805 
  734100    302.11062   -1600.7979    480.46603    233.17131    296.51713    36822.805 
  734200     295.8478   -1591.5769    463.25982    197.12763    154.95364    36822.805 
  734300    300.85669   -1571.9147    455.24296    231.21362   -74.362768    36822.805 
  734400     300.1706    -1508.881    463.98045    299.91101   -230.85997    36822.805 
  734500    301.95512   -1468.1498     488.6783    373.33506    41.275169    36822.805 
  734600    297.29159   -1506.1744    468.69014    294.42885   -205.45974    36822.805 
  734700      300.266   -1511.3338    467.52075    301.42594   -455.06183    36822.805 
  734800    291.67003   -1495.9376     477.0042    287.79425   -173.20026    36822.805 
  734900    304.90384   -1505.0685    462.51626    323.46501   -805.20399    36822.805 
  735000    305.14702   -1533.7626    463.45547    296.79956   -532.15811    36822.805 
  735100    297.29295    -1513.249    497.64096    316.31117   -567.31622    36822.805 
  735200     292.8649    -1502.237    489.03167     298.8756   -389.55122    36822.805 
  735300    295.05849   -1533.5589    479.96448    268.31403   -185.45549    36822.805 
  735400    303.31307        -1525    498.20885     332.0991    140.22944    36822.805 
  735500    297.69856   -1508.8573     509.2001     334.0792   -241.08676    36822.805 
  735600    286.96342   -1493.3872    495.36091    287.61507    179.29807    36822.805 
  735700    293.33509    -1539.634    484.40281    258.95622   -38.904425    36822.805 
  735800    295.20934   -1519.4382    479.75147    282.89767    648.11793    36822.805 
  735900    309.22661   -1553.1087    482.85395    315.12913    616.44263    36822.805 
  736000    301.33012   -1536.4334     492.3705    305.94348     887.6642    36822.805 
  736100    298.00821   -1570.1921    486.21589    251.14754    445.28273    36822.805 
  736200    300.11768    -1546.162    487.59294    286.00545    592.13639    36822.805 
  736300    298.57212   -1537.1541    484.56219    285.05819    312.02773    36822.805 
  736400    303.83416   -1520.8326    482.53309    322.92538    711.93898    36822.805 
  736500    297.33456   -1531.9335    500.40259     300.5748    525.90539    36822.805 
  736600    293.56343    -1555.003    462.80732    223.01474    63.331066    36822.805 
  736700    303.35922   -1516.6085    491.87143    334.36005    -330.6253    36822.805 
  736800    300.13254    -1504.346    475.49868    315.79371   -619.29339    36822.805 
  736900    295.12059    -1516.699    470.82878    276.31646    -449.8742    36822.805 
  737000    300.33975   -1535.1325    508.55134    318.98818   -749.09419    36822.805 
  737100    294.84409   -1544.3868    445.58338     222.1445    -687.4343    36822.805 
  737200    294.99146   -1501.6859    497.65474    317.57706    25.772687    36822.805 
  737300    295.55948   -1522.6051    455.72262     257.2706    38.983901    36822.805 
  737400    298.28087   -1497.6047    488.99285    327.73342   -176.84258    36822.805 
  737500    303.74615    -1479.329    491.72027    373.22189    343.11626    36822.805 
  737600     297.9309   -1514.7032    478.45381    298.52795   -66.356348    36822.805 
  737700    313.32268   -1527.2555    470.39217    346.87162   -108.03128    36822.805 
  737800    295.59026   -1512.9396    450.04573    261.39703   -26.197135    36822.805 
  737900    292.99513   -1562.6875    465.69251    215.66931    279.47509    36822.805 
  738000     292.0139   -1580.2882    483.73538    211.71548    83.187081    36822.805 
  738100    300.86771   -1582.4638    471.64633     237.1173    750.02249    36822.805 
  738200    299.60567   -1564.2969    458.39839    236.38205    649.89147    36822.805 
  738300    300.80239   -1547.2065     462.7025    263.13802    148.34868    36822.805 
  738400    302.38037   -1538.8134    496.61673    312.51497   -88.450392    36822.805 
  738500    312.05816   -1564.7414     442.4099    275.73817   -64.544388    36822.805 
  738600    305.91315   -1586.4255    471.60665    255.72026    -196.8326    36822.805 
  738700    299.82851    -1545.095    481.75985     279.9438    223.75543    36822.805 
  738800     302.3103   -1515.9665    475.63337    314.06459    16.900173    36822.805 
  738900    296.35681   -1560.0143     473.6547    241.36562     230.9982    36822.805 
  739000    282.69943   -1570.6144    462.57301     158.4966    401.90314    36822.805 
  739100    294.60295   -1528.3436    497.15469    288.67866    811.34197    36822.805 
  739200    299.31572   -1607.2148    478.55103    212.31776    1459.8849    36822.805 
  739300    305.93104   -1588.3706    491.55601    273.80468    1316.3683    36822.805 
  739400    310.24894   -1560.7332    473.06402    302.29496    1206.9926    36822.805 
  739500    301.37987   -1527.0091    496.64749    319.86772    608.11884    36822.805 
  739600    300.78605   -1547.5529    435.16664    235.18263    216.87514    36822.805 
  739700    307.85582    -1522.807    496.42688     352.8624    421.66759    36822.805 
  739800    307.79447   -1540.3191    461.76645    300.41507    31.070924    36822.805 
  739900    292.14286   -1514.2372    483.84181    278.45063     385.1901    36822.805 
  740000    293.54826    -1553.052    477.13798    239.22836   -400.04302    36822.805 
  740100    305.05121    -1497.995    479.39442    348.07687   -5.5793338    36822.805 
  740200    301.39988   -1520.5816    500.25704    329.99433     87.49297    36822.805 
  740300    295.65658   -1549.6369    486.35337    261.30453     22.45891    36822.805 
  740400    303.14147   -1536.4482    490.07389    311.74728   -331.76113    36822.805 
  740500     301.4179   -1542.8313    473.74987    281.31821   -326.44725    36822.805 
  740600     296.9332   -1524.9663    455.55412    260.89534   -277.79797    36822.805 
  740700      295.905   -1570.8791    472.59084     227.4127   -39.324435    36822.805 
  740800    299.29233   -1540.9619    479.75307    279.66801    579.37676    36822.805 
  740900    294.08428   -1570.4091    476.92485    224.05963    838.20955    36822.805 
  741000    301.61487   -1566.5865    460.76107    245.45666     296.6308    36822.805 
  741100    298.11702    -1560.722    456.37409    231.26328    193.12409    36822.805 
  741200    311.74769   -1529.7356    499.34628    366.28941   -253.63595    36822.805 
  741300    300.36488   -1543.5874    479.61245    281.70706    130.10825    36822.805 
  741400    298.25343   -1542.5113    477.26904     270.9801    -334.4525    36822.805 
  741500    292.79383   -1491.8516     479.9955    299.90641   -38.364395    36822.805 
  741600    300.03948   -1553.0791    461.40996    252.55501    39.494382    36822.805 
  741700    287.29542   -1544.1988    480.05185    222.98179   -190.54874    36822.805 
  741800     297.7759   -1522.4296    455.88989    267.54318    19.265326    36822.805 
  741900    315.04817   -1529.0229    507.21022    389.65278    116.08175    36822.805 
  742000    305.74965   -1499.7586     478.7316    348.77962    411.83441    36822.805 
  742100    299.97233   -1500.9643    475.42855    318.38749     80.29218    36822.805 
  742200    303.70923    -1489.044     479.3692    350.99041   -141.96141    36822.805 
  742300    299.33294   -1515.5757    480.97368    306.45674    464.27472    36822.805 
  742400    307.11678   -1508.0729    494.42717    362.28584    398.45586    36822.805 
  742500    298.49557   -1487.6993     499.8879    349.49577    100.87005    36822.805 
  742600     299.6259   -1512.8642     481.6618    311.16886   -211.62373    36822.805 
  742700    303.82216   -1515.0067    487.32577    333.49023   -165.38178    36822.805 
  742800    303.19422      -1541.6    493.29392    310.05179    -617.9194    36822.805 
  742900    303.15913   -1564.9544    465.58622    258.83246    165.60682    36822.805 
  743000    295.48503   -1586.0969    474.40874    212.13133    2.3282002    36822.805 
  743100    301.84092   -1533.2566    502.03171    321.06999   -325.76848    36822.805 
  743200    310.12629    -1514.895    487.39356    361.91318    -295.7926    36822.805 
  743300    300.94056   -1521.1635    484.80204    311.89965   -477.54136    36822.805 
  743400    293.84443   -1523.3243    485.49198    278.63705   -713.26569    36822.805 
  743500    302.26616   -1507.7101    471.23516    317.72504   -215.18105    36822.805 
  743600    308.14749   -1533.7544    461.64368     308.4386   -594.43194    36822.805 
  743700    303.79277    -1534.686    509.73465    336.08808    190.33404    36822.805 
  743800    296.56437   -1503.8055    482.93502    307.78463   -14.801846    36822.805 
  743900    304.58997   -1563.6821    486.48964    287.41855     -225.465    36822.805 
  744000    307.79539   -1549.0766    492.08756    321.98278   -441.37054    36822.805 
  744100    304.85455   -1558.5947    477.52206     284.7238    652.42423    36822.805 
  744200    300.75712   -1538.2765    490.52334    299.68606    608.21434    36822.805 
  744300    287.94065   -1521.2952    471.01211    239.73642    770.57201    36822.805 
  744400    285.50249   -1564.2276    476.31543    191.18391    943.20435    36822.805 
  744500    314.06408   -1555.2951    486.63531    338.39679     746.9729    36822.805 
  744600     298.2725   -1540.1392    485.29476    281.46338    277.92055    36822.805 
  744700    299.84169   -1581.2262    489.83633    251.94814    68.630627    36822.805 
  744800     300.0843    -1523.015    474.04704      295.457   -968.40871    36822.805 
  744900    295.02698   -1561.0696    463.41179    224.10954   -833.58465    36822.805 
  745000    300.65857   -1477.1701     473.5731    343.40069   -1019.8646    36822.805 
  745100    292.67643   -1543.0346    486.53931    254.74117   -641.07881    36822.805 
  745200    298.44144   -1569.0297    479.26786    247.30285    -513.3536    36822.805 
  745300     301.6529   -1559.1245    496.38275    288.71072   -351.55248    36822.805 
  745400    297.90421   -1514.7048    467.41327    287.36627   -666.71597    36822.805 
  745500    307.28107   -1537.2937     488.4848    327.85868    -298.1639    36822.805 
  745600    307.58644    -1549.776    466.21141    294.47108   -30.235946    36822.805 
  745700    283.80268   -1555.3486    489.45174    205.58385    15.344796    36822.805 
  745800    317.84908   -1577.1459    447.52498    294.39303    168.43043    36822.805 
  745900    307.78066   -1598.7996    464.16001    244.26628   -205.95855    36822.805 
  746000     292.6832   -1566.8355     478.8894    223.32071   -215.54063    36822.805 
  746100    309.11737   -1528.6335    479.22855    335.48952    399.51634    36822.805 
  746200    297.11468   -1551.7175    506.49669    285.89973   -76.599169    36822.805 
  746300    297.24146   -1594.3185    475.44135    212.81139    405.46871    36822.805 
  746400    303.58867    -1546.005     497.8032    311.92326    403.53543    36822.805 
  746500    295.98518   -1554.9425    490.31549    261.43322    186.78989    36822.805 
  746600    305.89963   -1520.0909    484.24709    334.63468     727.5286    36822.805 
  746700    296.14306   -1545.2812    498.60119    280.08754    101.94876    36822.805 
  746800    311.15901   -1557.2207    485.71652    322.53726    646.71858    36822.805 
  746900    297.70493   -1552.9387    471.76158    252.58787    985.08999    36822.805 
  747000    290.15439   -1550.1801    505.04383    254.80107    270.03819    36822.805 
  747100    293.86066   -1582.5887    472.42319    206.37652    412.82747    36822.805 
  747200    285.27703   -1518.8242    480.92088    240.18272    293.16712    36822.805 
  747300    301.93725   -1553.3041    508.15508    307.57743    641.96012    36822.805 
  747400    303.22694   -1572.0005    507.52361    294.02754    1718.2601    36822.805 
  747500    296.96158   -1562.1157    479.64027    247.95921    833.01294    36822.805 
  747600    292.60465   -1557.3762    491.55828    245.09694    821.05953    36822.805 
  747700    299.46628   -1493.9403     471.7925    319.50836    714.01462    36822.805 
  747800    304.36974   -1557.2657    486.07563    292.43428    485.34907    36822.805 
  747900    294.03203   -1532.5801    481.47222    266.20189    486.14442    36822.805 
  748000    297.71929    -1568.563    491.67133    256.93759    193.56786    36822.805 
  748100     290.6839    -1563.364    508.78575    247.73137    268.78552    36822.805 
  748200    299.89354   -1563.0481    479.64987    260.17207    62.238545    36822.805 
  748300    294.04251   -1556.3457    480.09254    241.10363   -349.08752    36822.805 
  748400    307.43817   -1553.8381    472.61542    296.14874   -532.55193    36822.805 
  748500    301.78513   -1571.1147    483.28231    264.21256   -19.301869    36822.805 
  748600    305.23375   -1579.5617    488.26739    276.20093   -474.35539    36822.805 
  748700    295.67453   -1576.7833     464.8793    212.76449   -367.48962    36822.805 
  748800      300.956   -1554.3836    514.56675     308.5135   -494.59837    36822.805 
  748900    308.19766    -1588.599    483.40071     275.5758   -123.24165    36822.805 
  749000    307.66552   -1582.9508     472.6282     268.0674   -391.01778    36822.805 
  749100    295.66355   -1573.4639    472.67619     223.8316   -1010.4195    36822.805 
  749200    299.29793   -1546.1225    501.27105    296.05046   -208.10099    36822.805 
  749300    296.93656   -1514.1739     504.1687    320.31741   -297.94285    36822.805 
  749400    296.43883   -1593.4926    455.01544    189.61546      26.6353    36822.805 
  749500    306.35246    -1572.265    473.88662    274.12894   -419.50168    36822.805 
  749600    303.24535   -1537.7192     488.6771    309.54485   -714.70818    36822.805 
  749700    299.61698   -1521.1767    464.86686    286.02142   -340.26735    36822.805 
  749800    302.51484   -1572.2826    472.34221    255.37374    84.617139    36822.805 
  749900    291.49737   -1554.5492    480.21969    231.62464   -386.14095    36822.805 
  750000    294.44551   -1559.7365    473.17474    232.60048   -121.15622    36822.805 
  750100    302.88871   -1558.1043    487.38792    286.27276    499.14811    36822.805 
  750200    308.12484   -1582.2779    476.03422    274.20419   -171.38092    36822.805 
  750300    294.21962   -1531.3728    474.98472    261.76213   -25.569868    36822.805 
  750400    323.36215   -1565.1766    471.40267    354.93943    519.19864    36822.805 
  750500    295.44489   -1569.9297    465.05813    218.76811    292.71097    36822.805 
  750600     294.0184   -1578.2383    469.88493    208.89536    933.72904    36822.805 
  750700    299.84198   -1519.0837    477.87165    302.12725    338.64787    36822.805 
  750800    304.62159   -1550.4636    513.67287    327.96201    82.022729    36822.805 
  750900    290.24913   -1516.6208    448.14177    231.88284   -129.76092    36822.805 
  751000    290.78778   -1539.6072    491.85419    255.02207   -403.93026    36822.805 
  751100    300.57689   -1557.0924     475.4768    265.01621   -394.93598    36822.805 
  751200    293.83905   -1532.7507    475.91824    259.61275   -1.2672185    36822.805 
  751300    302.01496   -1553.4597    507.43205    307.04692    1011.0293    36822.805 
  751400    297.86126   -1577.6267    480.43033    237.26899    650.52224    36822.805 
  751500    290.86815    -1536.597    478.49624    245.03437     221.4331    36822.805 
  751600    304.32669   -1535.3757    479.10557    307.16136    49.041076    36822.805 
  751700    309.67889   -1557.0945     476.9695    307.28526   -228.25598    36822.805 
  751800    295.92316   -1541.6571    495.98483    280.11003    -371.8375    36822.805 
  751900    294.37284   -1530.5018    495.45894     283.7938    301.49053    36822.805 
  752000    297.52092   -1538.9918    494.56438     288.5131    58.933369    36822.805 
  752100    294.78351   -1545.8972    466.01096    240.79027    182.01941    36822.805 
  752200    305.74536   -1545.0894    488.87389    313.57185    388.13846    36822.805 
  752300    294.06382   -1533.3346    480.82329    264.94094    246.71073    36822.805 
  752400    306.96863   -1574.8372    478.63238    279.06297    12.732422    36822.805 
  752500    296.50374   -1526.2788    487.28855    289.39317   -247.34711    36822.805 
  752600    294.33936   -1496.2013    493.77626    316.26162   -394.87471    36822.805 
  752700    297.92604   -1484.3717     489.8412     340.2251   -70.967451    36822.805 
  752800    300.04159   -1529.8143    514.31953    328.73883   -277.41091    36822.805 
  752900    300.99946   -1487.0393    483.20611    344.69179   -139.61654    36822.805 
  753000    307.44855   -1504.0012    504.39024    377.80698   -77.870691    36822.805 
  753100    300.45964    -1482.081    469.49839    333.52392    359.53587    36822.805 
  753200    306.32342   -1505.0674    475.78973    343.09951    693.79591    36822.805 
  753300    307.44868   -1512.8909    503.08622    367.61379    612.93628    36822.805 
  753400    304.53759   -1504.9879    491.74891    351.13742    266.22743    36822.805 
  753500    300.00844   -1507.0339    478.45773    315.50887    -345.8711    36822.805 
  753600    297.33045   -1503.2151    494.88851    323.76068   -665.14071    36822.805 
  753700    297.38175   -1516.9157    476.69703    292.09844   -1272.5361    36822.805 
  753800    305.57711   -1510.4289    490.15095    348.75559    -580.4159    36822.805 
  753900    291.72337   -1485.5817     503.4225    324.80741    -1178.947    36822.805 
  754000    303.07225    -1509.921    511.22753    359.11792   -652.42199    36822.805 
  754100    298.79013   -1479.6552    495.33636    354.30803   -901.33195    36822.805 
  754200    296.17239   -1485.8278    504.15209    345.22321   -326.68959    36822.805 
  754300     300.8238   -1506.4701    495.67967    336.94753   -27.176138    36822.805 
  754400    309.61349   -1560.0302    481.35418    308.44113    521.81411    36822.805 
  754500    288.87625   -1533.2872    484.85277    245.77665    297.38409    36822.805 
  754600    296.98001   -1521.5054    505.46325    314.47506    153.17778    36822.805 
  754700    305.03366   -1507.3143    457.12988    316.41441   -19.907102    36822.805 
  754800    296.14554   -1536.8469    502.56191    292.49368    1.3498801    36822.805 
  754900     301.1163   -1530.9393     484.2622    302.37136    635.46123    36822.805 
  755000    306.49055   -1519.1484    501.40369    355.38121     220.5644    36822.805 
  755100    305.47848   -1524.1304    459.76864    304.22991    4.3152316    36822.805 
  755200    299.00557   -1519.0086     502.4659    323.04932     467.8781    36822.805 
  755300    286.52589   -1540.4526    492.96133    236.18978   -73.485816    36822.805 
  755400    302.86125   -1553.5365    484.12189    287.45152    205.22788    36822.805 
  755500    297.82575    -1575.188     470.9769    230.09513    324.24388    36822.805 
  755600    310.67849    -1543.359    474.38029    322.90988    451.47034    36822.805 
  755700    298.47979   -1551.5985    496.08382    281.72179   -24.016098    36822.805 
  755800    299.70634   -1529.2128    464.91725    278.43604    420.95748    36822.805 
  755900    301.00099   -1551.3214    481.44035    278.65083    302.59875    36822.805 
  756000    291.91627   -1546.7673    484.10271    245.16623     -279.351    36822.805 
  756100    285.91112   -1529.3811     489.8879    241.43366    -519.8328    36822.805 
  756200    299.54342   -1522.0084    487.71977    307.71305   -256.57666    36822.805 
  756300    293.26721   -1536.4855    469.28934    246.68716   -571.65962    36822.805 
  756400    301.50672   -1471.3653    513.05399    392.48632   -1211.4373    36822.805 
  756500    301.01013   -1531.0951    458.90721    276.38486   -602.13914    36822.805 
  756600    297.85084   -1539.4519    501.70613    296.67289   -281.43284    36822.805 
  756700    296.86396   -1496.0359     496.4266    330.38801   -55.019267    36822.805 
  756800    306.17393   -1507.9215    494.33207    358.11803   -51.786166    36822.805 
  756900    298.73263   -1530.3292    469.33334    277.37337    86.683827    36822.805 
  757000    295.46921   -1558.2973    486.53279     251.9841   -79.167312    36822.805 
  757100    294.24917   -1543.6865    489.18716    263.78325   -358.45121    36822.805 
  757200    301.47949   -1547.7959    493.82387    296.70354    269.24412    36822.805 
  757300    297.40819   -1537.5426    478.57432    273.46728     623.4922    36822.805 
  757400    291.41827   -1560.4292    480.60081    225.77135    946.56831    36822.805 
  757500    304.97359    -1515.276     509.1708    360.22449    854.49049    36822.805 
  757600    292.81308   -1543.7881    471.50352    239.56409    720.70422    36822.805 
  757700    295.54135   -1548.2081    476.98346    252.84713     120.4355    36822.805 
  757800    295.75989   -1545.4806    485.34011    264.91036    225.36654    36822.805 
  757900     303.2616   -1566.5716     484.6498    276.73793    468.58489    36822.805 
  758000    298.99275   -1560.0402    455.84766    235.34214    380.75719    36822.805 
  758100    293.82326   -1547.2783    501.85577    270.95193    251.74099    36822.805 
  758200     294.8492   -1560.6084    455.91122     216.2737    197.00514    36822.805 
  758300    304.81076   -1521.8926    457.67041      301.378   -201.81089    36822.805 
  758400    310.15873   -1458.7994    462.83218    393.59273   -175.75467    36822.805 
  758500    305.65072   -1499.5517    463.12956    332.94126   -401.77627    36822.805 
  758600     305.7549   -1503.5641    470.39762    336.66367   -403.45656    36822.805 
  758700     299.6371   -1535.2338    466.69588    273.88354    -61.55408    36822.805 
  758800     299.5701   -1503.7775    506.88796     345.2317    74.438367    36822.805 
  758900     294.6654   -1495.4846     467.5088    292.17165   -417.35896    36822.805 
  759000    298.59164   -1485.1749    509.06172    361.62438    100.00368    36822.805 
  759100    301.22815   -1544.7095    485.23996    290.08002    307.12775    36822.805 
  759200    299.51181   -1508.6857    460.02357    293.19795    148.60519    36822.805 
  759300     290.5131   -1519.8502     479.2333    260.92757    78.670018    36822.805 
  759400    299.66215    -1566.563    464.57128    240.54191   -366.53123    36822.805 
  759500    295.80477   -1539.0613    475.25827    261.44897    77.243002    36822.805 
  759600    308.71212   -1504.4824     474.2318    352.82829    371.32586    36822.805 
  759700    293.48627   -1560.3685    473.67416    228.17041    63.399981    36822.805 
  759800     304.5147    -1567.021    467.58095    264.83374   -101.12818    36822.805 
  759900     308.3862    -1523.669    486.22492    344.17464   -82.778743    36822.805 
  760000    292.76306   -1524.2814    457.75022    245.09339    762.25367    36822.805 
  760100    298.21425   -1549.5046    500.83662    287.37886    733.18063    36822.805 
  760200    293.35353   -1575.9509    451.28901    189.60818    487.43112    36822.805 
  760300    308.53021   -1565.5574    467.39649    284.10302    266.88186    36822.805 
  760400    305.64461   -1483.2996    466.31079    352.34713   -22.953405    36822.805 
  760500    308.67219   -1526.6771     495.9511    352.17405   -326.70837    36822.805 
  760600    295.22127   -1520.0089    463.29063    265.91948   -638.11887    36822.805 
  760700    294.75276   -1510.7128    485.55816    295.38412   -299.88621    36822.805 
  760800    291.17899   -1484.6125    468.17997    288.09518   -495.83338    36822.805 
  760900    292.76489   -1503.7515    472.69706    280.57836    268.78777    36822.805 
  761000    296.43514   -1520.2212    468.80038    276.65533    340.32627    36822.805 
  761100    291.50249   -1522.0716    492.44208    276.34755    708.80379    36822.805 
  761200    293.70902   -1525.9889    481.68421    271.55796    866.95085    36822.805 
  761300    315.53108   -1559.1627    463.57184    318.03803     650.2584    36822.805 
  761400    298.61747   -1524.7761    467.62394    280.70111    204.92895    36822.805 
  761500     303.2235   -1515.1892    474.73622    318.03605     780.9925    36822.805 
  761600    305.75585   -1533.6915    477.17488    313.31774    472.58194    36822.805 
  761700    306.47236   -1540.9296    467.32193    299.43675    119.23909    36822.805 
  761800    295.17544   -1490.1971    469.61656    301.85192   -1178.1541    36822.805 
  761900    310.77849   -1533.9797    478.49127    336.84816   -1011.3862    36822.805 
  762000     298.4806   -1536.9932    466.10567    266.35257   -555.32405    36822.805 
  762100    300.93354   -1578.8613    469.32609    238.69439   -814.65581    36822.805 
  762200    287.97998    -1554.045    467.37963    203.53029   -368.15035    36822.805 
  762300    296.61469   -1556.0846    463.30507    236.10094   -73.048828    36822.805 
  762400    296.77176   -1568.3889     462.1358    223.33117     -548.463    36822.805 
  762500    297.31324    -1491.505    466.18508    306.69018    -148.7623    36822.805 
  762600    304.46229   -1510.6108    486.43179    339.86003    312.96953    36822.805 
  762700    300.37092   -1549.4798    459.86612    256.09538   -129.89898    36822.805 
  762800    297.62149   -1496.0758    463.97221    301.28761    46.682738    36822.805 
  762900     303.7254   -1502.7779    477.63288    335.59261    164.01275    36822.805 
  763000    286.71025   -1523.3778    474.90899    236.03828   -65.617698    36822.805 
  763100    296.77617   -1538.0791    451.45619    242.98112   -146.18869    36822.805 
  763200    290.35792   -1502.5285    527.01171    325.33238    -338.9667    36822.805 
  763300    285.58504   -1516.6371    447.46794    210.29675   -380.09124    36822.805 
  763400     298.0915   -1502.8594    476.00058    308.63806   -192.43517    36822.805 
  763500    303.74501   -1531.6361    489.44558    318.63494   -736.37527    36822.805 
  763600    305.34721   -1539.2636    473.04909    301.78911    274.97901    36822.805 
  763700    298.67431   -1490.3902    482.52645    330.24419    567.27129    36822.805 
  763800    293.59035    -1538.152     475.4277    252.60668    226.13501    36822.805 
  763900    298.41883    -1528.716    485.35858     293.6059    28.649677    36822.805 
  764000    308.75753   -1536.2186    466.64752    313.71122    72.864187    36822.805 
  764100    295.23714   -1524.5069    472.33858    270.54057    721.04696    36822.805 
  764200     301.4326   -1523.3364    476.16028     303.2894    389.42581    36822.805 
  764300      304.741   -1542.5538    474.58663    297.32049     43.76751    36822.805 
  764400    309.09837   -1517.8487    488.87035      355.831   -184.18785    36822.805 
  764500    313.68635   -1518.3599    461.48227    348.48659   -323.71145    36822.805 
  764600    303.41166   -1520.3654     483.5765    322.54318    -469.2528    36822.805 
  764700    300.69051   -1561.8505    454.04223    239.33257   -212.06695    36822.805 
  764800    310.02892   -1553.3925    445.73437    281.32025    -136.4237    36822.805 
  764900     298.1356   -1521.6325     479.5486    293.61058    101.60102    36822.805 
  765000    288.37117   -1543.9471    453.04267     201.0438    115.53866    36822.805 
  765100     292.9843   -1559.3133     468.6032     221.9057   -448.40708    36822.805 
  765200    301.43769   -1583.1288    466.47645    233.83603   -573.67614    36822.805 
  765300    303.14748    -1518.272    466.16843     306.0449   -231.64358    36822.805 
  765400     320.3077   -1565.4134    487.36475    356.98029    507.68467    36822.805 
  765500    291.18545    -1587.379    468.49801     185.6757   -58.954705    36822.805 
  765600    297.69863   -1566.1722    494.32371    261.88825    813.71728    36822.805 
  765700    291.83794   -1574.6895    480.80522    213.59566    -274.6161    36822.805 
  765800    306.43986   -1590.7459    449.51146    231.66437    203.55599    36822.805 
  765900    310.36397   -1580.3852     462.9651    273.05936    164.77993    36822.805 
  766000    301.09346   -1547.9743    473.17184    274.14366 -0.023631016    36822.805 
  766100    305.30271   -1540.3727    483.19871    310.63027    258.68326    36822.805 
  766200    294.87995   -1545.3421    473.56472    249.33127    426.19482    36822.805 
  766300    305.07798   -1547.4136    460.05927    279.44304   -64.985143    36822.805 
  766400    294.53128   -1510.7709    472.04897    280.82454   -316.05483    36822.805 
  766500    306.59372   -1505.0291    514.26335    382.82238   -815.95655    36822.805 
  766600    291.03615   -1520.8006    483.21138    266.29858   -773.34139    36822.805 
  766700    275.90437   -1574.3866    469.33425    131.04269    -479.6497    36822.805 
  766800    298.24124   -1526.9717     463.2957    272.49173   -235.68423    36822.805 
  766900    303.16163   -1552.6515    470.56953    276.12992    -17.17038    36822.805 
  767000    302.08108   -1538.0723    493.45676    308.75529     357.3858    36822.805 
  767100    290.91094   -1572.1283    477.61357    208.81205   -27.754379    36822.805 
  767200    295.20446   -1577.0793    452.47714    197.96036    146.68322    36822.805 
  767300    305.82608   -1541.2844    513.51653     342.3811    925.50286    36822.805 
  767400      302.612   -1554.7785    488.57621    289.54714    347.31642    36822.805 
  767500    299.45848   -1528.7821    496.72004    309.55916    198.58795    36822.805 
  767600    298.67603   -1536.5174    469.84696    271.44523    163.78511    36822.805 
  767700    299.38588    -1513.885    463.99515    291.40609      144.146    36822.805 
  767800    295.83141   -1504.0951    502.53877    323.81503     487.6866    36822.805 
  767900    305.27932   -1522.2099     499.7487    345.23828    202.32931    36822.805 
  768000    297.11792   -1515.7253    486.85021    302.25998    113.95904    36822.805 
  768100    312.41817   -1502.6821    488.79706    385.79757   -84.343491    36822.805 
  768200    297.09742   -1527.4903    487.88741    291.44033    17.807227    36822.805 
  768300    299.77439   -1478.2029    507.97941    372.81305    53.221785    36822.805 
  768400     284.6361   -1526.8469    491.77293    240.14061    473.67929    36822.805 
  768500    305.63481   -1548.6211    489.52198    310.19301    110.55172    36822.805 
  768600      306.226   -1567.1299    491.12247    295.93331    70.651769    36822.805 
  768700    308.11373   -1575.5971     500.7391    305.54008    29.251102    36822.805 
  768800    302.61595   -1584.2744    491.12334    262.61609    -185.7222    36822.805 
  768900    301.20831   -1546.4377    456.79292    259.81589    -135.6033    36822.805 
  769000    289.47631   -1574.4243    488.03059    210.50575   -280.99076    36822.805 
  769100     299.6403   -1553.9386    494.19218    282.68929   -183.79479    36822.805 
  769200    296.96682   -1612.0674    460.72145    179.11217   -282.12922    36822.805 
  769300    302.28422   -1568.6037    464.35856    250.03575   -178.80929    36822.805 
  769400    297.68241    -1517.738    481.59118    297.51725   -118.45676    36822.805 
  769500    297.68527   -1537.5009    495.52384    291.69982    215.16385    36822.805 
  769600    308.34475   -1605.8951    483.62058    259.15851    -186.0298    36822.805 
  769700    290.51881   -1605.3381    470.66397    166.89593    223.55085    36822.805 
  769800    309.08753   -1596.5725    449.59094    237.77927    34.039229    36822.805 
  769900    296.42143   -1568.3646    465.82641    225.47656   -301.40929    36822.805 
  770000    299.66532   -1564.8973    458.01585     235.6664    247.51436    36822.805 
  770100    313.25205   -1594.0513     472.5349    281.90212    228.22379    36822.805 
  770200    306.12293   -1592.9487    489.38886    267.91914    462.52551    36822.805 
  770300    304.21582   -1598.4491    462.12356     226.6092    288.37863    36822.805 
  770400    294.05213   -1610.6297    449.79477    156.56492    326.41346    36822.805 
  770500    291.88255   -1579.4793    486.03446    214.23493    130.67506    36822.805 
  770600    306.92674   -1586.3976    462.95077    251.63331   -7.6948039    36822.805 
  770700    286.74126   -1604.7376    463.18273    143.09109   -43.719928    36822.805 
  770800    300.64943   -1576.6028    466.45625     236.8103   -100.60057    36822.805 
  770900     299.7937   -1590.5345    481.57827    234.16673   -40.255545    36822.805 
  771000    295.07195   -1604.9344    471.20609    188.24049     2.278929    36822.805 
  771100    298.96747   -1579.4328    464.40544    224.39402   -172.75791    36822.805 
  771200    307.46128   -1565.2351    460.10497    272.34487    49.136248    36822.805 
  771300    293.14678    -1603.794    498.91802    208.46773    842.37209    36822.805 
  771400    297.35488   -1578.3098    506.83017    260.71702    588.59004    36822.805 
  771500     305.1705   -1570.4726    444.42841     241.1677    188.05988    36822.805 
  771600    297.39876   -1622.2905     455.6884    165.79114    67.018081    36822.805 
  771700    309.98009   -1540.3577    468.61184    317.01377   -68.758773    36822.805 
  771800    303.69806   -1579.3267    473.64481    254.93323    -147.0115    36822.805 
  771900    303.82934    -1589.664    476.39135    247.93061    13.809875    36822.805 
  772000    295.64238   -1624.6676    468.45208    168.30888    305.72469    36822.805 
  772100    300.02989   -1608.6829    498.02793    233.52618    655.24119    36822.805 
  772200    291.04904    -1574.573    482.70258    212.07516     662.8129    36822.805 
  772300    303.05926    -1586.923    449.97478    220.80498    397.43148    36822.805 
  772400    307.55564    -1573.138    453.56581    258.32553      75.1994    36822.805 
  772500    302.70098   -1568.1278    459.14024    247.16047    295.18171    36822.805 
  772600    298.01572   -1590.1659    456.58653    201.57802   -190.02844    36822.805 
  772700    299.73898   -1564.2244    490.40158    269.05507   -352.80458    36822.805 
  772800    301.83684   -1556.6084    468.51206    264.18021   -69.204357    36822.805 
  772900     299.5464    -1546.668    459.48199      254.829    78.575321    36822.805 
  773000    301.57467   -1547.7831    476.75441    280.07335    34.641367    36822.805 
  773100    304.57028   -1537.6051    484.82479    311.74246    357.02096    36822.805 
  773200    297.50117   -1577.5043    460.43333     215.7812    170.04624    36822.805 
  773300    293.97963   -1547.0321    489.90646    259.94944     684.2294    36822.805 
  773400    295.45375   -1595.1357    459.42625    187.96985   -183.07854    36822.805 
  773500    299.20131   -1572.7905    464.49359    232.17206    146.57382    36822.805 
  773600    306.51157   -1587.5515    478.31354    263.98221    256.87963    36822.805 
  773700    298.74644   -1619.5456    481.84657    200.73204     348.9187    36822.805 
  773800    296.77618   -1567.6544    441.16775    203.11738    323.74333    36822.805 
  773900    304.54419   -1544.8438    503.39361    322.95576    723.76633    36822.805 
  774000    296.27732   -1563.4884     455.3815    219.26214    390.38889    36822.805 
  774100    298.01281   -1545.0809    459.96775    250.03122    472.64668    36822.805 
  774200    298.76447    -1555.516    467.85745    250.85334    206.04232    36822.805 
  774300    305.30172   -1595.5271    449.63867    221.91131   -95.028057    36822.805 
  774400    306.02187   -1585.7765    463.03986    248.28958   -757.00855    36822.805 
  774500    300.26186   -1555.7559     476.2246    265.68911   -211.28845    36822.805 
  774600    296.67431   -1625.3149    454.18636    158.01909   -66.413588    36822.805 
  774700    301.70403   -1615.6566    457.13232    193.15729    485.34148    36822.805 
  774800    299.93791   -1586.6307    475.33634    232.47475    845.00263    36822.805 
  774900    307.85023   -1593.8747     462.7609    248.10371    82.366555    36822.805 
  775000    310.15927   -1562.5769    464.41253    291.39799    256.43874    36822.805 
  775100    299.91546   -1555.8665    468.02637    255.82842   -438.70585    36822.805 
  775200    297.05126   -1565.3497     468.3653    233.85197    46.307757    36822.805 
  775300    290.55731   -1563.8686    453.32735    191.20129    403.42596    36822.805 
  775400    298.98379   -1579.9773    470.93949    230.45662    553.67034    36822.805 
  775500    305.04637   -1543.9911    491.06689    313.73159     900.7138    36822.805 
  775600    303.99876   -1524.6852    480.01845    317.29555    720.19459    36822.805 
  775700    301.14436     -1547.78    491.47933    292.87348    694.67901    36822.805 
  775800    305.89486   -1565.7322     489.4251    294.15006   -272.87046    36822.805 
  775900    299.96347   -1536.6161    452.37061    259.63814   -369.10816    36822.805 
  776000    296.79758   -1568.3086    439.17574    200.56706   -681.44496    36822.805 
  776100    306.93844   -1569.2013    455.94388    261.87516   -66.198162    36822.805 
  776200    304.66945   -1565.8664     504.7854    303.88615    104.76684    36822.805 
  776300    297.94297   -1511.7418    459.16849    282.25812    213.87239    36822.805 
  776400    294.57362   -1495.5944    490.99496    315.13675    112.41694    36822.805 
  776500    298.53355   -1517.3469    498.54368     318.6741    127.19934    36822.805 
  776600    291.14247   -1523.6057    450.46087    231.21929   -37.155401    36822.805 
  776700    309.56916   -1562.7265    455.69368    279.88572   -275.19099    36822.805 
  776800    296.19091   -1514.1848    455.68194    268.47902   -775.81815    36822.805 
  776900    300.84882   -1555.4084    464.56846    257.01015     -245.817    36822.805 
  777000    295.81332   -1533.2177    462.21116    254.28376   -173.07144    36822.805 
  777100    303.26896   -1479.6718     469.0816    348.10248   -356.72591    36822.805 
  777200    306.83935   -1480.9708    473.26098    366.97879   -148.65958    36822.805 
  777300    302.45083   -1481.3275    480.46137    354.16123    132.06843    36822.805 
  777400    299.33422   -1502.9042    459.46546    297.62565    23.767244    36822.805 
  777500    302.99056   -1497.8175    482.10823    341.73615   -101.98589    36822.805 
  777600    307.38617   -1474.4636    473.77122    376.44608     16.26562    36822.805 
  777700    299.80545   -1502.0284    519.53624    360.68345   -11.040617    36822.805 
  777800    288.94952   -1495.9977    444.98843     243.5301   -73.629987    36822.805 
  777900    304.28863   -1517.0723    518.59109    364.77974    232.75969    36822.805 
  778000    296.00477   -1525.1392    474.16668    275.17547    267.65031    36822.805 
  778100    293.41689   -1515.3927    455.27226    254.43346    148.93313    36822.805 
  778200    295.80788   -1515.1556    497.44622    307.55652   -14.250096    36822.805 
  778300    297.84238   -1481.9256    491.74444    344.19964    274.83723    36822.805 
  778400    295.47339   -1526.3641    464.40589    261.80915   -93.849919    36822.805 
  778500    297.42115     -1451.97    499.85804    380.38161   -164.53046    36822.805 
  778600    297.54425   -1474.8211    461.24115    319.46514   -475.05254    36822.805 
  778700    301.79236    -1496.535    465.95146    321.49381    342.32925    36822.805 
  778800    306.54357   -1490.4893    490.66498    373.53921    248.68967    36822.805 
  778900    309.96592   -1521.7029    470.78205    337.77533    574.39928    36822.805 
  779000    307.77168   -1549.8549    462.59676    291.60749    909.13521    36822.805 
  779100    303.39263   -1524.1824     505.7318    340.79616    893.01445    36822.805 
  779200     297.2223   -1500.6191    486.15463    317.13823    137.87221    36822.805 
  779300    297.10357   -1503.8167    470.94976    298.20387   -490.96632    36822.805 
  779400    292.23198   -1514.9581    477.26583    271.55301   -10.622657    36822.805 
  779500      307.086   -1493.8125    483.53008    365.51128   -171.77573    36822.805 
  779600    304.29905   -1507.5754    466.43694    322.16919   -105.69084    36822.805 
  779700    298.28471   -1527.6586    464.39399     273.0979   -182.75946    36822.805 
  779800    298.06515   -1553.0594    466.73044    249.04987   -273.31178    36822.805 
  779900    307.85125   -1473.1891    463.05936    369.09238   -459.68226    36822.805 
  780000    305.59494   -1519.9254    465.48278    314.67082   -313.95411    36822.805 
  780100    295.89484   -1489.8691    467.22418    303.01054   -428.94628    36822.805 
  780200    310.21059    -1530.572    483.75555    342.97584   -347.46525    36822.805 
  780300    305.74266   -1536.3494    445.15086    278.57679   -406.87669    36822.805 
  780400    301.14581   -1505.7237     478.9571    322.41408   -44.884434    36822.805 
  780500    285.40251   -1437.3348    466.18343     307.4968   -49.554073    36822.805 
  780600    295.39286   -1499.0357    464.61831    288.98912    300.19541    36822.805 
  780700    305.89303   -1469.0025      463.411    364.85743    276.72131    36822.805 
  780800    306.30507   -1492.0921    478.09068    358.29352    267.14167    36822.805 
  780900    305.30197   -1496.5499    480.30866    351.55962   -71.113944    36822.805 
  781000     309.8051   -1509.6912    459.44617    337.73062    84.106658    36822.805 
  781100    297.78777   -1491.9807    490.91071    333.06609   -494.99912    36822.805 
  781200    306.98902   -1501.3067    460.58513    334.63753   -571.70157    36822.805 
  781300    307.55665   -1476.6515    445.96624    347.21703    228.88259    36822.805 
  781400    304.21525   -1499.1901    493.79162    357.53375    124.66524    36822.805 
  781500    297.48481   -1537.7916    468.97129    263.95851    68.936639    36822.805 
  781600    292.12534    -1541.272    487.87214    255.36767     925.0124    36822.805 
  781700    295.05821   -1540.7295    464.28615    245.46393    957.14474    36822.805 
  781800     300.5535   -1556.4363    484.00535    274.09603    906.83501    36822.805 
  781900     304.3979   -1562.3044    467.65125    269.09736    865.33178    36822.805 
  782000    307.36482   -1537.0475    522.26228     362.2576    704.53952    36822.805 
  782100    303.11298   -1478.0878    444.96952    324.87558    883.55603    36822.805 
  782200     299.9316   -1494.1807    499.29108    348.85125     723.7265    36822.805 
  782300    301.69576   -1498.8241     472.8699    325.69036     832.7373    36822.805 
  782400    292.08859   -1537.8299    445.14323    215.91622    1056.1992    36822.805 
  782500    306.45989   -1527.2042    499.47049    345.25491    808.68187    36822.805 
  782600    296.96957   -1516.8582     462.3975    276.00975     651.2828    36822.805 
  782700     303.5592   -1526.2435    460.35392    294.10344    502.51198    36822.805 
  782800    295.39088   -1556.4656     447.4728    214.40482   -77.095857    36822.805 
  782900    304.97845   -1526.7899    466.04927    305.61081    624.79403    36822.805 
  783000    311.29649   -1512.2186    480.41824    362.85693    611.25355    36822.805 
  783100    308.76552   -1503.9504    449.01764    328.38535    879.76665    36822.805 
  783200    297.75026   -1517.9045    475.16429    291.22785    343.75045    36822.805 
  783300     306.4833    -1526.103    474.68622    321.67673    238.52795    36822.805 
  783400    304.31464   -1489.2074    487.33767     361.5078    336.15598    36822.805 
  783500    299.58942   -1496.3959    457.54047     303.3524     261.9471    36822.805 
  783600    303.75161   -1485.4334    472.35784     347.7795    310.08405    36822.805 
  783700    301.41422   -1498.5575    443.40221    295.22787    254.86524    36822.805 
  783800    308.58605   -1506.7832    444.89296    320.62385   -213.76438    36822.805 
  783900    290.55958   -1470.3295    467.18166    298.60485    -350.0475    36822.805 
  784000     304.8597   -1448.7213    480.87505    397.97326   -384.30777    36822.805 
  784100    305.32406   -1491.2003    482.17185    358.87142    347.64346    36822.805 
  784200    299.92208   -1484.1776    503.03451    362.55506    271.49075    36822.805 
  784300    301.76841   -1515.2835    468.21653    304.90306   -349.87018    36822.805 
  784400    303.64883    -1495.906    477.50764    341.99623   -191.20611    36822.805 
  784500    302.91513   -1512.8794    452.80217    297.03025   -253.22461    36822.805 
  784600     299.6828   -1520.0377    489.81318    312.40164   -47.005594    36822.805 
  784700    296.31059   -1469.8392    490.11622     347.7951   -660.47319    36822.805 
  784800    305.52573   -1488.1081    471.50555    352.20089   -129.21076    36822.805 
  784900    296.40979   -1488.1726    484.89959    324.68958   -105.98215    36822.805 
  785000    295.76384   -1512.9282    484.23578    296.37617   -117.76351    36822.805 
  785100      310.194   -1500.5387     489.7627    378.94202    249.18034    36822.805 
  785200    291.32887   -1476.8375    489.47359    317.83534    186.22646    36822.805 
  785300    294.28089   -1528.0571    470.12818    260.49579    91.583639    36822.805 
  785400    301.87526   -1509.3144    487.83634    330.97066    501.97615    36822.805 
  785500    293.97483   -1488.4562    484.05574    312.65311    204.93146    36822.805 
  785600    304.08667   -1516.2358    457.18458    303.30494    127.92794    36822.805 
  785700    294.31358    -1519.355    460.07789    259.29406   -25.217772    36822.805 
  785800     301.0805   -1503.9319    462.28716    307.24334   -26.921258    36822.805 
  785900     308.8826    -1504.502    458.96431      338.305   -13.509061    36822.805 
  786000    300.83872   -1506.0791    486.19665     327.9224    137.66237    36822.805 
  786100    304.15541   -1503.5487    469.02083    328.13624     -315.557    36822.805 
  786200    304.64222   -1492.6986    495.85894    368.00552    159.92635    36822.805 
  786300    304.83042    -1480.105    483.89051    369.47381    81.505796    36822.805 
  786400    310.52805   -1494.1639    460.12903     357.1797    168.21503    36822.805 
  786500    305.18673   -1503.7042    483.63443    347.21485   -506.68569    36822.805 
  786600    301.16705   -1499.3099    456.19666    306.16255   -180.64773    36822.805 
  786700    307.69763   -1530.6047    472.39186    320.32098    -90.50463    36822.805 
  786800    305.47492   -1506.4185    471.88676    334.04401   -198.30428    36822.805 
  786900    300.62863   -1515.3569     461.1336    292.64027   -52.956108    36822.805 
  787000    295.53861    -1475.191    468.26764    317.13612   -564.92535    36822.805 
  787100    304.57977   -1495.2314    483.31133    352.64525   -405.85882    36822.805 
  787200    289.34328   -1535.1424    457.85696    219.01798   -309.90171    36822.805 
  787300    297.81467    -1512.097    454.49592    276.65557   -574.13872    36822.805 
  787400    297.71403   -1500.0469    468.14838    301.90726   -214.74814    36822.805 
  787500    292.79436   -1476.6223    485.41167    320.55418   -361.93499    36822.805 
  787600    298.49383   -1457.9423    481.01655    360.37363    432.21052    36822.805 
  787700    306.60713   -1480.3864     486.5078     379.7696     209.1348    36822.805 
  787800    287.08317   -1517.0789    481.93093    251.02985    260.44827    36822.805 
  787900     302.7182   -1471.6574    477.98044    362.54823    143.78249    36822.805 
  788000    303.54509   -1467.2762    479.63859    372.29223    727.71006    36822.805 
  788100    308.88711   -1486.8403      479.138    376.16062    487.22143    36822.805 
  788200    306.61492   -1473.5956    464.84218    364.92977     27.09489    36822.805 
  788300    299.84314   -1490.3031    435.37597     288.4174   -229.73338    36822.805 
  788400    307.44774   -1494.0282    431.93615    315.32224   -64.945759    36822.805 
  788500    289.96588   -1490.9412    479.27522    287.42684   -445.84799    36822.805 
  788600    300.14964   -1490.6459    474.92745    328.99921    72.469421    36822.805 
  788700    306.34887   -1497.2207    450.45131    325.72177    250.93542    36822.805 
  788800    289.48677   -1482.5831    487.04051    301.40375    31.292469    36822.805 
  788900      300.254   -1488.0846     477.1563    334.25691   -216.43628    36822.805 
  789000    305.55329   -1476.2583    452.32893    344.99751   -669.32021    36822.805 
  789100    308.75401    -1478.345    481.98254    386.90415   -457.15974    36822.805 
  789200    296.55543   -1542.9447    465.58447    251.25484   -503.59826    36822.805 
  789300    308.03171    -1483.637    488.06989    384.46343   -100.29591    36822.805 
  789400    288.31744   -1445.3199    485.86876    332.25638   -250.09288    36822.805 
  789500    311.01785   -1434.9404    462.87354     421.3421   -624.76324    36822.805 
  789600    301.37026   -1446.8812    485.78331    389.08831    -317.0854    36822.805 
  789700    303.44095   -1493.4741    451.66787    317.65701    -232.9302    36822.805 
  789800    304.66809   -1455.7039    494.27967    403.53685    620.15755    36822.805 
  789900    307.79427   -1465.6413    459.53157    372.85709    525.22257    36822.805 
  790000    295.63378   -1499.0538    473.84562    299.27773   -571.99618    36822.805 
  790100    289.27633   -1483.5696    462.76883    275.20274   -464.10369    36822.805 
  790200    291.34657   -1514.4468    453.23575    244.06742   -436.78434    36822.805 
  790300    301.84261   -1522.5104    492.36798    322.16002   -555.90801    36822.805 
  790400    310.92886   -1525.3175    460.15074    327.84347   -206.36477    36822.805 
  790500    304.46763   -1519.2236    452.01811    296.85745   -524.54741    36822.805 
  790600    304.31844   -1464.3647    465.02874    364.05862   -365.11183    36822.805 
  790700    302.55772   -1486.1063    465.98877    335.38874   -274.00815    36822.805 
  790800    301.22901   -1510.8133    457.03945    295.77958   -16.306768    36822.805 
  790900    303.53394   -1491.2168    474.16882    342.83184    40.745682    36822.805 
  791000     290.1727   -1520.6322    469.74365    249.13081     149.6918    36822.805 
  791100    304.43976   -1502.2946    464.70365    326.34714    482.78447    36822.805 
  791200    294.23615   -1484.0483    444.26514    278.44109    363.49743    36822.805 
  791300    312.69943   -1490.7087    476.67374    386.90773   -92.020106    36822.805 
  791400    312.70275   -1488.8273    466.58687    378.71715    350.87726    36822.805 
  791500    294.58821   -1475.1763    491.82672      336.452    347.84007    36822.805 
  791600    302.90745   -1489.3518    458.83866       326.56    177.13461    36822.805 
  791700    284.53819   -1495.0968    473.02827    252.70733    -516.2551    36822.805 
  791800    310.64691   -1486.8168    475.51585    380.44611   -220.53896    36822.805 
  791900    292.59374   -1442.8741    489.27047    357.26236    23.629879    36822.805 
  792000    299.60664    -1478.261    452.82298    316.84693   -97.470446    36822.805 
  792100    300.53277   -1482.8033    489.55791    353.18878   -63.855804    36822.805 
  792200    293.85806   -1513.9124    456.44265    259.06062    69.336632    36822.805 
  792300    301.81324    -1522.461    464.62895    294.33877    158.70649    36822.805 
  792400    302.64879   -1499.3338    475.54098     332.1214    627.86446    36822.805 
  792500    300.97094   -1511.0166    467.43882    304.81949    495.01344    36822.805 
  792600    308.82602   -1494.6566    445.89906    334.83168     371.8522    36822.805 
  792700     300.8553   -1505.6284    489.18245    331.43319    900.45731    36822.805 
  792800    294.12002   -1538.5862    485.47021    264.58809    125.84389    36822.805 
  792900    310.24498   -1505.0776    468.63443    353.50323    593.17991    36822.805 
  793000    306.89151   -1540.6131     456.5894    290.89862   -131.17629    36822.805 
  793100    298.62627   -1466.4804     469.1908    340.60313   -154.58337    36822.805 
  793200    302.78547   -1482.8058    486.83957    360.56042    139.80016    36822.805 
  793300    303.16342   -1477.5658    483.80762    364.46173   -252.97751    36822.805 
  793400    299.21845    -1508.601    460.96435    292.90919    68.886428    36822.805 
  793500    303.55187   -1441.2869    489.12082    407.79408    365.29156    36822.805 
  793600    313.84066   -1465.8439    456.99193    397.20361    449.70733    36822.805 
  793700    296.12496   -1443.8688    476.62101    359.43862    424.18199    36822.805 
  793800    301.45533   -1471.1399    497.12671    376.55415     571.8441    36822.805 
  793900     299.3411   -1456.1527    454.39037    339.33293    160.56191    36822.805 
  794000    302.01415   -1462.4371    470.80362     361.4375    40.754961    36822.805 
  794100    298.69425   -1500.5938     476.1712    313.77472   -396.89988    36822.805 
  794200     304.0344   -1505.9488     475.0516    331.22479    386.59726    36822.805 
  794300    297.88562   -1450.5592    470.83205    354.84736    226.36732    36822.805 
  794400    296.91822   -1487.1839     477.2595    320.31595    430.18259    36822.805 
  794500    295.36632   -1519.8663    472.57962    276.00095    130.82331    36822.805 
  794600    301.19328   -1484.9415    459.92116    324.37298     497.9479    36822.805 
  794700    301.08699   -1499.7966    466.29229     315.4128    747.89291    36822.805 
  794800    286.89739   -1554.4753    453.74492    184.61514    927.63139    36822.805 
  794900    302.67467    -1527.116    449.08138    277.99557    745.17879    36822.805 
  795000    302.92643   -1481.8318    489.56357     364.8899    724.68215    36822.805 
  795100     293.2775   -1521.3298    448.98471    241.58433     563.1191    36822.805 
  795200    298.67526   -1523.0572    475.96062    291.01561    116.82014    36822.805 
  795300    304.97416   -1467.4832    444.73471    343.58382    21.895199    36822.805 
  795400      301.806   -1505.0359    454.21144    301.31395    141.38641    36822.805 
  795500    294.99189    -1484.972    467.73145    304.36953   -393.16367    36822.805 
  795600    300.26121   -1463.9691    449.15701    330.40545   -232.42314    36822.805 
  795700    296.79236    -1460.922    466.76804    335.52254   -214.11024    36822.805 
  795800     295.1141    -1517.329    448.20479    253.03345    -105.9932    36822.805 
  795900    290.51274   -1502.2379    464.00784     263.3128   -119.07298    36822.805 
  796000    305.07124   -1438.6331    476.32604    404.46013   -208.29276    36822.805 
  796100    298.28235   -1461.3705    454.83964    329.82101   -932.87162    36822.805 
  796200    308.97085   -1504.1864    461.64194    341.69366   -966.51731    36822.805 
  796300    299.89912   -1495.2698    460.60418    308.92968   -1000.5882    36822.805 
  796400    291.49134   -1531.9478    439.38799    213.36726    -1015.398    36822.805 
  796500    298.57608   -1525.7388    448.07251    260.00157   -1047.2499    36822.805 
  796600    294.88932   -1483.2271    486.40396    324.32744   -482.35964    36822.805 
  796700    305.55063   -1509.9137    482.11516    341.11643   -462.04847    36822.805 
  796800    300.33186     -1493.73    450.27129    302.07534   -650.81963    36822.805 
  796900    306.56406   -1494.8281     478.6281    357.25527   -509.14596    36822.805 
  797000    288.15898   -1487.8644    473.45745    276.59066   -102.33638    36822.805 
  797100    305.35251   -1472.8446    460.90056    356.08336     406.2541    36822.805 
  797200    295.27487    -1521.436    488.80057    290.24249   -172.61263    36822.805 
  797300    299.28206   -1536.7495    448.53364    252.61489   -183.10938    36822.805 
  797400     313.0985   -1467.5395    472.19506     407.3862   -106.28362    36822.805 
  797500     296.7289   -1510.2934    472.19571    291.29453    105.21262    36822.805 
  797600    310.74011   -1503.7442    451.90544    340.32593    86.674839    36822.805 
  797700    301.78204   -1507.9114    441.66898    285.78863   -472.60716    36822.805 
  797800    294.42192   -1491.8631    475.74425    302.93776   -166.42846    36822.805 
  797900    312.24992   -1467.6377    478.50581    409.79689   -323.83914    36822.805 
  798000    296.92468   -1503.8991    463.62621    289.99643    176.06386    36822.805 
  798100    298.51601   -1517.8682    450.12593     269.6565     195.7591    36822.805 
  798200    297.42424    -1510.728     460.2714    282.05089    680.61209    36822.805 
  798300    312.24214   -1518.9779    465.58142    345.49753    507.02501    36822.805 
  798400    296.67336   -1481.8024    476.67563    324.01656    423.83556    36822.805 
  798500     303.8156   -1517.0845    464.24559    308.30286    152.67581    36822.805 
  798600    295.33704   -1511.3811    479.53973    291.31512     295.4266    36822.805 
  798700    299.31143   -1511.4657    472.86005    302.35667    174.74732    36822.805 
  798800    314.03805   -1487.2597    456.80942    376.48959    671.53597    36822.805 
  798900    312.48376   -1521.8502     452.5678    330.69401    145.06455    36822.805 
  799000    305.54855   -1495.1589    492.06512    365.81183   -218.71386    36822.805 
  799100    297.03182   -1539.6827    456.19388    247.26049    147.16569    36822.805 
  799200    306.18177   -1525.5621    486.59376    332.77418    932.01368    36822.805 
  799300    299.72738    -1498.993    463.08676    306.91966    844.25714    36822.805 
  799400    294.01938   -1487.9139    461.60708    290.94632    55.373871    36822.805 
  799500    307.37484    -1473.047    453.54489     357.5856     603.6736    36822.805 
  799600     290.2327    -1439.884    470.51492    330.91911    489.25247    36822.805 
  799700    300.16443   -1456.8684    456.27035    344.18585    438.37613    36822.805 
  799800    302.85011   -1456.2436     488.7145    389.28714   -91.642333    36822.805 
  799900    298.28747    -1449.108    476.86023    364.12711   -144.70487    36822.805 
  800000    304.73196   -1486.0858     451.2159    330.37726   -426.84917    36822.805 
  800100    294.88138    -1470.111     494.2168    345.22084   -736.44228    36822.805 
  800200    303.63833   -1486.9167    465.62482    339.05567   -453.96438    36822.805 
  800300    299.07307   -1497.2061    461.73862    304.42695   -954.61395    36822.805 
  800400    301.63071   -1516.6032    469.20239    303.95224   -751.14084    36822.805 
  800500    289.28565    -1490.061    455.63315    261.61738   -487.27064    36822.805 
  800600    301.39512   -1444.9183    436.26145    341.64072   -159.59411    36822.805 
  800700    305.42864   -1467.7331    472.41394    373.04926   -94.995245    36822.805 
  800800    299.56725   -1489.5109    463.18071    315.77833   -96.557033    36822.805 
  800900     302.8922   -1487.3396    475.48261    345.14775    393.44564    36822.805 
  801000    311.83205   -1474.1757    485.07934     407.9603    328.84153    36822.805 
  801100    305.40195   -1430.0969    489.99981    428.15177   -300.93516    36822.805 
  801200     305.6732   -1463.2991    465.35932    371.52433   -243.87179    36822.805 
  801300    301.65253   -1469.9124     469.9132    351.45167   -378.63021    36822.805 
  801400    300.06159   -1509.3251    463.63473     298.6328   -434.44749    36822.805 
  801500    293.39116    -1506.504    452.63651    260.57107   -217.67059    36822.805 
  801600     307.9531   -1518.6188     474.6638    335.72342   -319.47355    36822.805 
  801700     293.7877   -1510.5428    453.84049    259.51289    7.7129818    36822.805 
  801800    293.73501   -1508.7896    479.23972    286.42919    296.74819    36822.805 
  801900    298.82867    -1487.327    485.27416    336.74663    287.63314    36822.805 
  802000    304.12776   -1471.7587    479.11229    369.89388    326.05159    36822.805 
  802100    296.80749   -1518.4486    473.15613    284.45181    200.65425    36822.805 
  802200    302.71484   -1515.3428     475.9441    316.81143    414.46934    36822.805 
  802300    295.20686   -1486.1318    475.89648    312.33796    462.97668    36822.805 
  802400    310.17563   -1494.9842    485.40492    380.05638   -597.79131    36822.805 
  802500    301.05301   -1469.0927     473.7759    353.44808   -219.19855    36822.805 
  802600    294.46797   -1525.6868    505.62166    299.19777   -456.56486    36822.805 
  802700    311.06077   -1486.0896    490.01218    397.52384   -285.14727    36822.805 
  802800     307.4893     -1463.49    489.87201    403.98248   -364.17154    36822.805 
  802900    301.45962   -1498.3956    474.32863    326.51956    -480.5855    36822.805 
  803000    297.98946   -1479.8074    482.53502    337.76732     -445.503    36822.805 
  803100    300.37151   -1479.0213     476.2764    342.96675   -421.20864    36822.805 
  803200    297.82599   -1467.2993    495.71938    362.72739   -9.4810006    36822.805 
  803300    292.85788   -1507.0126    473.26092    278.29779   -88.484218    36822.805 
  803400    306.71807   -1515.5153    476.94622    335.57613    63.881996    36822.805 
  803500    303.68999   -1551.2387    451.36971    260.71004    2.6374722    36822.805 
  803600    293.31863   -1527.2135     461.8059     248.7061    83.219058    36822.805 
  803700    307.37755   -1550.2144    485.03644    311.92186    148.33125    36822.805 
  803800    300.02597   -1545.1556    462.93042    261.93841    265.92268    36822.805 
  803900     302.2546   -1540.2475    489.03285     302.9336    704.82411    36822.805 
  804000    294.95722   -1536.7798    445.04023    229.71525    254.02014    36822.805 
  804100    303.44967   -1545.1679    434.12567    248.46008   -49.979392    36822.805 
  804200     301.4287   -1507.6161    454.59224    297.42419    335.52494    36822.805 
  804300    299.01341   -1528.4565    487.02958    298.20021    251.66205    36822.805 
  804400     299.5588   -1531.9426    474.45685    284.58487    236.93041    36822.805 
  804500    297.57085    -1553.207    458.64811    238.60544   -319.68202    36822.805 
  804600    307.98872   -1517.2802    456.07202    318.62981   -153.43763    36822.805 
  804700    294.00116   -1474.9755    480.34394    322.53992   -251.22184    36822.805 
  804800    304.59474   -1516.9971    496.22908     343.8644   -77.388185    36822.805 
  804900    295.48784   -1482.2055    463.30161    304.92813   -256.66647    36822.805 
  805000    294.73294   -1482.2239    451.20746    289.43359   -311.45881    36822.805 
  805100    294.76086   -1486.4159     467.4842    301.64335   -140.03489    36822.805 
  805200    301.48969   -1500.1448    476.92551    327.50199   -441.91957    36822.805 
  805300    300.86846   -1513.4835    451.07284    285.52741   -531.34134    36822.805 
  805400    305.96029   -1527.4919    448.22786    291.48631   -493.47982    36822.805 
  805500    304.94022   -1504.4004    462.18524    323.96504    -512.5386    36822.805 
  805600    286.45736   -1495.9288    451.81906     239.2644   -197.82754    36822.805 
  805700    298.83058   -1496.3287    458.79506    301.27444   -199.30675    36822.805 
  805800     306.3172   -1506.6426    454.57211    320.27882   -139.72557    36822.805 
  805900    299.55845   -1503.9637    467.67716    305.78254    81.507513    36822.805 
  806000     290.9566   -1424.7709     456.4408    335.20128   -588.23271    36822.805 
  806100    302.67422   -1448.3108    431.54584    339.26319   -764.05673    36822.805 
  806200    316.72197   -1450.1469    493.43884    462.25622   -698.25826    36822.805 
  806300    309.50202    -1474.275    462.75772    375.10051   -221.92694    36822.805 
  806400      301.675   -1493.9467     490.1493    347.75406   -67.133679    36822.805 
  806500    295.40068    -1512.464    464.39494    275.37249   -129.35536    36822.805 
  806600    298.98407   -1461.5084     461.6348    339.62216   -250.27333    36822.805 
  806700    306.26849   -1484.2082    480.19765    368.12052   -112.70028    36822.805 
  806800    305.87089   -1490.9644    453.23596    332.62127   -49.571646    36822.805 
  806900    307.26108   -1445.9069    454.81903    385.49015   -122.65697    36822.805 
  807000    307.79945   -1511.8595    461.94407    329.07453   -405.11739    36822.805 
  807100    294.95857   -1471.0705    449.45975     299.8501   -113.83745    36822.805 
  807200     296.3898   -1530.5825    469.22904    266.51953   -138.38671    36822.805 
  807300    305.60368   -1505.2144    477.00214    340.94033   -273.36097    36822.805 
  807400    309.34508   -1535.2906    462.51984    313.14394   -55.192286    36822.805 
  807500    293.13454   -1510.3509    469.16183    272.09984   -313.79392    36822.805 
  807600    302.67255   -1539.0207    462.66344    279.66343    -200.0443    36822.805 
  807700      303.614   -1523.7137    459.83459     296.3594   -138.94853    36822.805 
  807800    294.51782   -1513.1866    481.55387    287.85351    -108.8384    36822.805 
  807900    297.22597   -1514.5588    466.96687    284.02726    28.440974    36822.805 
  808000    303.30983    -1543.108    445.83027    261.59811    329.94346    36822.805 
  808100    319.62954   -1549.1569    453.72713    336.56087    114.15174    36822.805 
  808200    306.27805   -1517.8683    444.03639    298.34195    448.32109    36822.805 
  808300     301.4515   -1541.9058    459.46165    268.10612    54.693614    36822.805 
  808400    303.01794   -1544.1097    471.40394    284.86232    568.65552    36822.805 
  808500    290.06626    -1532.797    468.06257    234.80809    321.48913    36822.805 
  808600    309.83838   -1545.9138    483.36731    325.57827    1041.2392    36822.805 
  808700    300.18553   -1543.8184    437.63324     238.6933     474.0731    36822.805 
  808800    296.62903    -1542.712    476.06194    262.29473    213.38289    36822.805 
  808900    316.48702   -1518.9719    471.85043    370.79019     -61.5608    36822.805 
  809000    306.32188   -1528.6876    471.03767    314.72036    394.30473    36822.805 
  809100     303.2971   -1519.1925    446.81056    286.43687   -217.93873    36822.805 
  809200    299.22999   -1483.6035    491.45201    348.44598   -311.14398    36822.805 
  809300    309.45983   -1493.4404    460.87298    353.86133   -40.092981    36822.805 
  809400     290.5946   -1457.0007    444.72304    289.63189   -646.91631    36822.805 
  809500    286.28496   -1475.8759     458.2462    264.97205   -840.22717    36822.805 
  809600    305.62621   -1526.3712    462.76769    305.65006   -488.40241    36822.805 
  809700    286.97301   -1489.7085     486.3186    282.29438    704.00418    36822.805 
  809800     302.7871     -1488.07    467.27122    335.73509    862.90286    36822.805 
  809900    295.13977    -1470.272    494.58477    346.58537    754.81223    36822.805 
  810000    292.74816   -1488.1827     476.4511    299.82628    624.52445    36822.805 
  810100    289.92379   -1496.8943    470.31273    272.32267   -50.630513    36822.805 
  810200    304.60733   -1534.9345    488.17148    317.92581    219.24031    36822.805 
  810300    297.43765   -1497.7653    455.91132     290.7135    24.007509    36822.805 
  810400    301.11361    -1457.438    489.89491    381.49331   -689.95598    36822.805 
  810500    307.13197   -1428.5009    470.09733    417.59599   -21.273688    36822.805 
  810600    311.28808   -1468.3639    456.00123    382.25696    158.53343    36822.805 
  810700     306.4673   -1476.9327    474.42111    370.51015    12.624826    36822.805 
  810800    295.57575   -1476.7631     458.4952    305.95806    -44.33139    36822.805 
  810900    300.53842   -1466.2429    464.50115    344.71776   -151.29008    36822.805 
  811000    305.02568   -1448.7956    471.77739     389.5449    -475.4775    36822.805 
  811100    292.77101   -1427.4034     456.5117    340.76851    -385.2014    36822.805 
  811200    293.57411   -1447.4407    458.37116    326.18873   -179.53422    36822.805 
  811300    309.01664   -1464.0745    465.49128    385.85995   -137.76506    36822.805 
  811400    304.51852   -1452.0318    472.40451    384.66363   -112.56424    36822.805 
  811500    290.51952    -1444.199    470.11479      327.489   -305.43209    36822.805 
  811600    298.34518   -1463.0564     440.8374    314.41435   -351.87656    36822.805 
  811700    300.08446    -1490.865    464.91552    318.47621   -132.74042    36822.805 
  811800    291.47124   -1464.7757    462.29043    303.35183   -317.79076    36822.805 
  811900    298.59705   -1493.8509    454.48018    298.39115    37.055605    36822.805 
  812000    308.40129   -1500.2447    471.13953    352.58112    55.682555    36822.805 
  812100     305.6759    -1515.592    465.41466    319.29887   -142.70005    36822.805 
  812200     288.7409    -1493.615    452.84207    252.83179   -467.09936    36822.805 
  812300     300.0454   -1495.3773     474.3867    323.26004    367.88933    36822.805 
  812400    302.19234   -1499.6595    441.95818    296.16793    112.43425    36822.805 
  812500    294.16075   -1518.0062    455.87467    255.75499    -81.72995    36822.805 
  812600    298.71775   -1485.1037    494.53609     347.7349   -130.63709    36822.805 
  812700    303.30124   -1481.3874    456.34571     333.7956   -576.24101    36822.805 
  812800    297.70906   -1497.9063    467.68672    303.56389   -273.65256    36822.805 
  812900    299.82415   -1474.2338    436.48273    305.50831   -345.63478    36822.805 
  813000    299.79866   -1495.1918    459.11818    307.07157   -311.15919    36822.805 
  813100    293.78064   -1483.3214    463.33314    296.19524   -1062.8606    36822.805 
  813200    303.72388   -1459.1582    441.66707    343.23965    109.00157    36822.805 
  813300     290.8305   -1442.8042    463.96475    324.12699   -171.87913    36822.805 
  813400    288.63075    -1491.312    484.44288    286.24206   -374.89986    36822.805 
  813500    299.17538   -1468.4767    459.08904     330.9652   -5.9547662    36822.805 
  813600    287.52953    -1496.885    461.83909    253.13166   -182.32216    36822.805 
  813700    300.77556   -1464.0911    478.48904    361.91987   -84.884179    36822.805 
  813800    305.34408   -1472.5021    461.56367    357.05109    438.56566    36822.805 
  813900    295.84454   -1475.8819    459.02154    308.56983    446.55673    36822.805 
  814000    308.74188   -1486.2161    462.18614    359.18233    613.03206    36822.805 
  814100    294.22078   -1465.7643    455.36662    307.75773   -314.06012    36822.805 
  814200    301.06783    -1495.879    459.51399    312.46636   -240.05349    36822.805 
  814300    293.87706   -1492.6612    497.48272      321.437   -235.75853    36822.805 
  814400    300.12191   -1486.9632    453.58734    311.21758   -113.30413    36822.805 
  814500    297.50198   -1479.8093    485.85693    338.90334   -538.51512    36822.805 
  814600    295.57156   -1482.7334    456.47289    297.94662   -570.82405    36822.805 
  814700    296.96618   -1465.6313    478.10736     342.9313   -413.14665    36822.805 
  814800    297.42372   -1503.3618    472.38204    301.52539    -273.1174    36822.805 
  814900    308.59969   -1478.8868    444.07403    347.76244   -701.73497    36822.805 
  815000    302.52938   -1434.4297    449.80782    370.75739   -291.54806    36822.805 
  815100    290.50652    -1448.407    475.28189    328.38986   -403.30245    36822.805 
  815200    306.19937   -1484.2198    429.45583    317.05744   -325.77735    36822.805 
  815300    306.27459   -1500.8675     461.0452     332.3361   -401.48084    36822.805 
  815400    305.49252   -1544.6875    423.10745    247.07454    -285.1962    36822.805 
  815500    301.36835   -1477.3548    476.91969    349.74253   -205.64795    36822.805 
  815600    297.92598   -1476.8259    479.08601    337.01544   -475.17512    36822.805 
  815700    302.54688   -1499.7284    483.22985    338.95915   -546.21847    36822.805 
  815800    305.69584   -1501.0124    458.00316    326.55626   -404.16292    36822.805 
  815900    300.41094   -1460.8736    447.50936     332.5241   -520.03698    36822.805 
  816000    303.69099   -1494.1371    487.70701     354.1534   -286.92751    36822.805 
  816100    296.01204   -1517.3188    436.80309    245.66488   -506.00355    36822.805 
  816200    295.46088   -1509.7674     462.6511    276.59497    4.0303373    36822.805 
  816300    294.81863   -1519.5028    453.64361    254.97474   -241.41891    36822.805 
  816400    312.96371   -1528.5801    440.86786     314.4145    258.18173    36822.805 
  816500    301.56669   -1482.0617    482.68628    351.69089    265.37994    36822.805 
  816600    305.86086   -1442.8719    472.87969    400.31263    238.58333    36822.805 
  816700    291.46183   -1458.1195    450.69889    298.37432    133.48719    36822.805 
  816800    298.12274   -1456.9509    493.11278    371.79874    100.75966    36822.805 
  816900    295.60234   -1454.8821    490.42806    359.89095     104.1189    36822.805 
  817000    303.17794   -1456.9534    454.62859    355.96009   -56.484545    36822.805 
  817100    303.45504    -1489.179    465.30703    335.65445    49.850274    36822.805 
  817200    298.60216   -1500.0054    452.08736    289.86665    350.13736    36822.805 
  817300    303.49359   -1486.3395    443.26988    316.62947    253.99802    36822.805 
  817400    301.89024   -1482.4608    485.75875    355.81378    547.76933    36822.805 
  817500    302.41807   -1507.3742    475.74546    323.25186    434.67856    36822.805 
  817600    288.69719   -1492.2098    438.33657    239.53565    790.28301    36822.805 
  817700    304.54847   -1474.9277    488.04724    377.54462    923.15893    36822.805 
  817800    300.48877   -1429.2273    490.17541    407.18513    98.137059    36822.805 
  817900    291.62918   -1445.1914    470.22131    331.57456    299.69803    36822.805 
  818000    301.34327   -1440.2864    470.11913    379.89804    100.86376    36822.805 
  818100    293.00863   -1477.5567    466.33238    301.50052    272.91996    36822.805 
  818200    299.40204   -1473.1955    481.06796    349.24077    94.349527    36822.805 
  818300    305.03528    -1482.908      460.337    344.03505    373.12917    36822.805 
  818400    301.36082   -1502.1074    459.91698    307.95354    109.99196    36822.805 
  818500     303.6297   -1484.8281    466.13022    341.61104    171.58068    36822.805 
  818600    305.73838   -1506.7796    450.11554    313.09208   -48.038138    36822.805 
  818700    301.61729   -1499.8865    443.01827    294.42478   -42.693479    36822.805 
  818800    299.78799   -1467.3132    468.41205    344.19629   -500.38544    36822.805 
  818900    292.63791   -1476.6378    443.60746    278.03362   -844.95053    36822.805 
  819000    295.42705    -1505.704    470.55618    288.41191   -301.53217    36822.805 
  819100    302.48382   -1486.8804    460.78323    329.07794    58.538913    36822.805 
  819200     299.9419   -1519.2272    462.38199    286.94177    523.67591    36822.805 
  819300    299.38278   -1539.5579    467.16306    268.88713    929.37415    36822.805 
  819400    293.55614   -1573.3315    445.41769    187.26398    535.72346    36822.805 
  819500    298.30061     -1545.69    446.79613    237.53986     598.9675    36822.805 
  819600    302.99299   -1518.0965    449.09437     288.4542    186.53601    36822.805 
  819700    300.07034   -1539.2712    453.44395    258.53518    142.48122    36822.805 
  819800    300.57542   -1554.7483    478.30557    270.18253    110.76079    36822.805 
  819900    295.87546   -1543.6108    448.68724    230.64515     357.5348    36822.805 
  820000     300.8988   -1527.0373    482.02572    303.06241    773.44851    36822.805 
  820100    300.14133   -1481.5346    475.55405     338.6999    1105.3742    36822.805 
  820200     299.4267    -1539.726    457.73586    259.48867    695.72899    36822.805 
  820300    304.26129   -1509.6618    432.47592    285.95264    234.06548    36822.805 
  820400    303.44143   -1514.1592    446.66253    291.96874     54.95662    36822.805 
  820500    304.53479   -1539.0818     447.0708    272.35285   -226.20042    36822.805 
  820600    301.44398   -1536.7934    454.06345    267.78658   -18.399764    36822.805 
  820700    289.83566   -1483.2876    449.18364    264.40547   -245.99417    36822.805 
  820800    302.54337    -1470.497    472.43673    357.38172   -438.44417    36822.805 
  820900     306.9999   -1508.4487    457.49287    324.45206    408.34983    36822.805 
  821000     302.4411    -1513.064    462.80357    304.72333    166.93893    36822.805 
  821100    300.53963   -1503.5409    466.31992    309.24387    -137.3029    36822.805 
  821200    297.78661   -1559.1706    436.40118    211.36146    -235.7995    36822.805 
  821300    302.39931   -1506.1255    463.33442    312.00546   -805.89202    36822.805 
  821400    288.23528   -1520.8017    455.47217    226.00988   -807.53521    36822.805 
  821500    303.13456   -1490.9109    434.24402    301.42364   -401.92012    36822.805 
  821600    307.98834   -1483.0569     450.3118    347.09116   -308.15856    36822.805 
  821700    292.92323   -1499.7713    455.92388    268.49475   -965.90104    36822.805 
  821800    298.01109   -1500.9364    453.51097    287.71117   -351.26856    36822.805 
  821900    304.17266   -1484.4699    473.64751    351.91897    22.956098    36822.805 
  822000     299.9785   -1511.9227    436.75745    268.78567    -411.3346    36822.805 
  822100    295.45867   -1524.8306    476.55381    275.42463    42.424944    36822.805 
  822200    305.74415   -1546.8087    467.63157    290.60479    707.31931    36822.805 
  822300    302.19886   -1542.9249    466.26232    277.23589    1218.1377    36822.805 
  822400    292.10505   -1562.1194    445.10872    191.66597     1148.996    36822.805 
  822500    299.49548   -1537.1646    455.36892    259.99125    350.19181    36822.805 
  822600    298.25256   -1554.1013    438.70698    220.82411    -39.73049    36822.805 
  822700    296.16111    -1488.953    436.33236    274.22781    93.906346    36822.805 
  822800    301.61279   -1536.5585    472.03355    286.74783   -443.04103    36822.805 
  822900    292.35332   -1480.5822    447.41609    276.62279   -187.61653    36822.805 
  823000    305.90503   -1503.6261    455.65175    322.52834    -336.5778    36822.805 
  823100    303.44989    -1513.212    464.19455    310.48585    235.92679    36822.805 
  823200    297.75123   -1480.1179    483.84257    337.69704   -85.000539    36822.805 
  823300    293.86982   -1517.0787     471.0793     270.5837   -360.76375    36822.805 
  823400    296.36039    -1508.203    489.27053    308.80871     410.4924    36822.805 
  823500    303.98255   -1538.2512    453.52231    277.16077    93.101626    36822.805 
  823600    283.75022   -1529.7732    457.29284    198.76538   -115.08734    36822.805 
  823700    297.01603   -1488.2797      463.134     305.5329   -403.08824    36822.805 
  823800    302.56057   -1495.1572    455.31959    315.68134   -590.57472    36822.805 
  823900    306.69126    -1480.486     469.1457    362.68488   -563.62873    36822.805 
  824000    295.49613   -1484.6645    458.85436    298.05901    -1260.209    36822.805 
  824100    293.55777   -1512.1165    443.01047    246.07901    -827.0026    36822.805 
  824200    302.95658   -1507.3512      452.899    302.84096   -184.82888    36822.805 
  824300    304.99205   -1536.5574    462.72768     292.5827      -136.94    36822.805 
  824400    294.78477   -1476.2283    447.94009    292.39395    278.52546    36822.805 
  824500    298.33102   -1491.3185    471.97438    317.22577   -350.78446    36822.805 
  824600    298.96089   -1494.5227    446.97748    291.84664   -680.90439    36822.805 
  824700     306.8288   -1476.6447     457.8835    355.88012   -467.41668    36822.805 
  824800    299.90319    -1477.519    446.08982    312.18433   -832.83611    36822.805 
  824900    295.85499   -1488.3121    479.87958    317.04441      -515.21    36822.805 
  825000    290.12591   -1486.6796    442.80429    255.93449   -10.245391    36822.805 
  825100    296.42168   -1474.1209    446.57764    300.47259   -217.48072    36822.805 
  825200    308.78428    -1487.604    479.27572    375.07394   -41.458993    36822.805 
  825300    295.23032   -1509.6528    443.50738    256.53295   -122.75887    36822.805 
  825400    305.77745   -1495.0395     463.0861    337.97774   -423.16988    36822.805 
  825500    308.06109   -1460.6042    468.31831    387.87634   -550.42285    36822.805 
  825600    295.71605   -1524.3704    463.33348     263.8175   -650.09255    36822.805 
  825700    295.17758    -1474.782    479.71275    327.37284   -328.23854    36822.805 
  825800    302.59717   -1470.5583     464.4589    349.58357   -106.67356    36822.805 
  825900    310.11972   -1484.4438    446.09086    351.03224    411.22218    36822.805 
  826000     306.3553    -1459.967    453.62126    366.17422    324.33731    36822.805 
  826100    301.19955   -1430.3289    473.35209    392.44465   -211.22275    36822.805 
  826200    293.93271   -1481.6164    432.58812    267.83655    21.188845    36822.805 
  826300    302.50775   -1474.0179    443.83192    325.09641    283.16552    36822.805 
  826400    301.46372   -1451.0436    467.72443    367.28574    40.010532    36822.805 
  826500    293.85005   -1470.8789    483.89199    329.50765   -194.30408    36822.805 
  826600    305.54633   -1451.1864    474.74258    392.45192    540.48385    36822.805 
  826700    302.77343   -1402.8241    469.15224    422.80074     -44.5444    36822.805 
  826800    302.17821   -1433.7028    475.25177    395.35493    436.64111    36822.805 
  826900    302.03307    -1474.515    431.41676    310.05744   -142.43229    36822.805 
  827000    303.17196   -1494.4454    483.33862    347.15134   -694.01982    36822.805 
  827100     299.6637   -1508.5661    450.28018    284.25465   -286.58975    36822.805 
  827200    294.43295   -1484.0269    434.72862    269.80769   -37.067904    36822.805 
  827300    297.12792   -1487.7561    464.22487    307.64866   -412.35052    36822.805 
  827400    293.57792   -1495.3818    441.03842    260.93195   -479.46323    36822.805 
  827500    305.67435   -1505.4113    429.54389     293.6018   -350.62627    36822.805 
  827600    313.75167   -1451.7997    465.45958    419.31678    -420.7104    36822.805 
  827700    299.92261    -1522.932    443.62544    264.39394   -41.308831    36822.805 
  827800    310.13798   -1495.5156    425.57042    319.52181    97.520664    36822.805 
  827900    289.59703   -1463.6029    464.53179    298.36925    77.992199    36822.805 
  828000    300.82255   -1495.1507    467.57386     320.1556    203.56336    36822.805 
  828100    311.23244   -1482.6759    458.98998    370.68441    416.85872    36822.805 
  828200    290.90545   -1537.6077    454.57644    220.27097     543.5799    36822.805 
  828300    302.16019   -1533.9117    446.03976    265.85325    60.362039    36822.805 
  828400    293.33449    -1489.112    478.27012    303.34287   -136.83373    36822.805 
  828500    303.41579   -1511.5825    456.73204    304.50001    -119.5887    36822.805 
  828600    307.69988   -1548.4115    451.07494    281.20737   -213.25865    36822.805 
  828700    293.13208   -1532.3019    445.88698    226.86303     70.43986    36822.805 
  828800    303.82915   -1499.6301    460.02689    321.59927    226.76445    36822.805 
  828900    291.42595   -1488.4969    441.15946     258.2967    520.93103    36822.805 
  829000    308.10906   -1493.4572     477.6476    364.56757    1398.6204    36822.805 
  829100    309.61517   -1488.3348    501.90213     400.6921    763.08501    36822.805 
  829200    298.07039   -1502.4777    460.29337      293.218    1073.4891    36822.805 
  829300    298.78656   -1472.7224     472.8725    338.76097    957.08073    36822.805 
  829400    303.47398   -1537.6522    460.04448    282.00351    388.79726    36822.805 
  829500     298.7916   -1484.8606    450.36531    304.13809    49.598085    36822.805 
  829600    303.07217   -1475.1309    459.54236    342.22252    150.27693    36822.805 
  829700    294.95403   -1491.5017    470.71199    300.65075    34.842748    36822.805 
  829800    309.41844    -1485.296    441.28117    342.22846    255.81748    36822.805 
  829900    301.24488   -1542.8778    457.75168    264.49842    104.96416    36822.805 
  830000    294.02526   -1500.6829    472.93283    289.52945    200.97731    36822.805 
  830100     308.3156   -1534.9788    419.43233    265.75594   -70.062053    36822.805 
  830200    286.52267    -1509.472    461.24674    235.44145    174.32029    36822.805 
  830300    301.51555   -1529.8725    479.18724     300.1519    197.84633    36822.805 
  830400    311.58718   -1506.8896    448.19298    337.26301    402.31221    36822.805 
  830500    299.30869   -1530.1961    455.17655    265.93054   -542.44071    36822.805 
  830600    296.39472   -1521.0175     461.8917     268.7692   -310.31218    36822.805 
  830700     299.6944   -1497.2713    446.05441     291.4612   -58.041249    36822.805 
  830800    307.19002   -1477.8395    459.18265    357.60288   -167.09199    36822.805 
  830900    301.33303   -1515.7337    445.44227    279.72797   -617.97313    36822.805 
  831000    288.00114    -1483.504    444.08463    250.87114   -888.42001    36822.805 
  831100    297.08259   -1491.8992    441.99982    281.07739   -158.05385    36822.805 
  831200    308.79234   -1536.2235      449.896    297.11077    154.99785    36822.805 
  831300    286.38259   -1533.3618    476.15744    225.83474   -627.71535    36822.805 
  831400    303.14419   -1480.2487    465.26253    343.14757   -356.44264    36822.805 
  831500    301.36131   -1452.7203    474.08075    371.50659   -167.54473    36822.805 
  831600    305.75616   -1448.8596    453.99535     374.9715    509.64988    36822.805 
  831700    286.60642   -1473.6566    455.62522    266.01048    737.17461    36822.805 
  831800    300.88669   -1503.8245    459.82789    304.02314    450.42773    36822.805 
  831900     301.9315   -1521.2757    447.65397    279.07888    579.18361    36822.805 
  832000    292.67177   -1466.2888    477.82424    322.75106   -93.818141    36822.805 
  832100    300.70267   -1487.5496    456.74695    316.39269   -42.151021    36822.805 
  832200    302.74132   -1489.8381    456.02542    322.51608   -118.35852    36822.805 
  832300    300.33738   -1523.1781    483.40595    305.78667    73.709579    36822.805 
  832400    298.11404   -1531.3092    477.07829    281.36699    158.68661    36822.805 
  832500    297.67176   -1507.2878    450.72262    277.05122    -172.4218    36822.805 
  832600    313.21095   -1548.3804    472.02439     326.8784    -579.7594    36822.805 
  832700    294.08428   -1491.6149    436.60146    262.53043   -658.60494    36822.805 
  832800    307.50166   -1472.3181    463.16469    368.50245   -430.65811    36822.805 
  832900    303.89089   -1508.4189    463.40975     316.4699    554.54162    36822.805 
  833000    306.79879   -1502.9776    470.06522    341.59454    398.85613    36822.805 
  833100    295.43118   -1505.0776    470.14705    288.64769    220.71455    36822.805 
  833200    305.17869   -1475.9557    466.15255    357.44547    622.10786    36822.805 
  833300    302.42259   -1512.0607    470.65014    313.49022    714.40456    36822.805 
  833400     308.5255   -1505.5356    468.94133    345.64858    500.69561    36822.805 
  833500    290.67351   -1495.8614     443.8056    250.20729    321.75456    36822.805 
  833600    308.21629   -1535.0168    450.52026    296.36096    383.59241    36822.805 
  833700    299.95526   -1526.5225    472.66056    289.98485    483.75048    36822.805 
  833800    301.36364   -1502.7033    479.45982     326.9131    172.91846    36822.805 
  833900    306.73625   -1499.7577    461.46149    335.93047    97.659606    36822.805 
  834000    306.03381   -1531.4831    463.31315    302.90977    -376.3368    36822.805 
  834100    289.64338   -1517.8117    463.93102    243.76728   -311.69489    36822.805 
  834200    302.39716    -1536.266    454.01473    272.53566    126.93831    36822.805 
  834300     301.9196   -1541.5794    449.30873    260.37664    411.04867    36822.805 
  834400    304.85603   -1501.6473    465.34578    329.50154    22.028848    36822.805 
  834500    319.00622   -1529.4276    469.89683    369.66734   -1.9259199    36822.805 
  834600    296.68119   -1495.6085    431.33848    264.90844   -245.36872    36822.805 
  834700    301.30818   -1507.4654    468.26611    310.70881    213.61746    36822.805 
  834800    293.84262   -1552.8668    463.10943    226.70391   -226.68486    36822.805 
  834900    293.04412   -1520.3563    467.60991    260.13743   -194.93283    36822.805 
  835000    303.27731   -1515.8582    464.78219    307.65413    -606.4181    36822.805 
  835100    303.83823   -1503.9024     449.8067    307.14746   -663.12292    36822.805 
  835200    292.72723   -1505.7013    455.96925    261.73206    -886.2022    36822.805 
  835300    299.47672   -1567.1784    451.27659    225.80106   -393.21383    36822.805 
  835400    291.90494   -1539.3407    465.17656      233.616    -313.3484    36822.805 
  835500    300.90262   -1551.0596     442.1781    239.20966   -324.94361    36822.805 
  835600    303.48436   -1510.9545    460.13606    308.83931    243.81269    36822.805 
  835700    306.15689   -1498.3163    469.72712    343.04192    450.03824    36822.805 
  835800    305.80973   -1505.3022    477.22454    341.99811    860.21672    36822.805 
  835900     307.1835   -1509.5115    464.40614    331.12513    618.04489    36822.805 
  836000    303.46999   -1519.0425    458.82027    299.37113   -1.9891733    36822.805 
  836100    307.56076   -1497.2126    467.28275    347.99085   -699.05634    36822.805 
  836200    292.01954   -1486.4087    455.42297    277.30779   -187.29455    36822.805 
  836300    294.91795    -1456.371    480.84439    345.75227   -677.29018    36822.805 
  836400    299.15023   -1457.3184    460.59227    343.51404   -126.34515    36822.805 
  836500     295.3051   -1469.9681     466.4539    319.49912   -21.380603    36822.805 
  836600    300.19977   -1467.1707    475.98966    353.76124   -30.486559    36822.805 
  836700    284.92078   -1470.6943    466.42997     272.2257   -324.91611    36822.805 
  836800    304.14756   -1453.8921    469.62372    378.36061   -172.39766    36822.805 
  836900    296.79643   -1498.4868     475.2485     306.4564   -85.057676    36822.805 
  837000    303.34858   -1520.3097    454.71066    293.45033   -49.940726    36822.805 
  837100    304.68611   -1473.1936    476.98403    368.83218      46.1556    36822.805 
  837200    296.25887   -1484.8878    439.65876    282.05741    4.2830568    36822.805 
  837300    294.96133   -1497.5769     466.0305    289.92681    276.70474    36822.805 
  837400    300.90659   -1483.4157    482.71107    347.40427   -204.04486    36822.805 
  837500    305.05412   -1497.8459    445.96162    314.80621   -97.731517    36822.805 
  837600    290.23631   -1498.4858    468.37358    270.19214    -221.8737    36822.805 
  837700    291.83546   -1456.2665    491.52411     342.7264    31.672381    36822.805 
  837800    309.21354   -1452.5176    477.79104    410.59882    556.76437    36822.805 
  837900    290.33526   -1467.8397    475.14864    308.05666   -102.90707    36822.805 
  838000    292.74932   -1503.0922    471.98668    280.45751   -112.73447    36822.805 
  838100    307.32899   -1516.9142    463.62599    323.59405    179.74116    36822.805 
  838200    306.09799   -1464.6998    446.52315    353.19054   -510.86028    36822.805 
  838300    301.40636   -1476.3385    472.33738    346.34691   -606.16538    36822.805 
  838400    293.68933   -1448.7941    464.06857    331.04894   -603.69324    36822.805 
  838500    300.21662   -1509.3043    454.42048    290.13397   -236.30367    36822.805 
  838600     296.2667   -1430.3288    492.13278    389.12545   -344.25951    36822.805 
  838700    313.96665   -1437.1509    455.30473    424.77388   -349.20635    36822.805 
  838800    293.27904   -1462.2443    466.04475    317.73678   -307.11584    36822.805 
  838900    292.86743   -1465.1144    483.87555    330.85333     20.87259    36822.805 
  839000    306.64027   -1469.8319    483.80885    387.77369   -163.15627    36822.805 
  839100    309.76894   -1469.4499    451.22111    369.58486    87.213734    36822.805 
  839200    299.59219   -1460.9021    477.48223    358.80032    284.12246    36822.805 
  839300    300.12126   -1449.2864    468.74837    364.05251    461.13486    36822.805 
  839400    304.52584   -1450.0475     498.9589    413.23509    718.98584    36822.805 
  839500    303.35783   -1447.1492    503.30421     415.2459    634.69664    36822.805 
  839600     293.0238   -1478.2453     477.6028    312.15031    783.95835    36822.805 
  839700    287.91249   -1443.3755    509.36242    355.88025     698.9333    36822.805 
  839800    305.24628   -1475.7747    470.89125     362.6679    308.80969    36822.805 
  839900     296.9722    -1474.713    460.33837    316.10759    40.683625    36822.805 
  840000    300.10189    -1471.348    460.36604    333.52172    376.44749    36822.805 
  840100    286.75223   -1497.7152    459.89849    246.87841    246.83438    36822.805 
  840200    296.90898   -1492.4877    483.64398    321.35527    235.32406    36822.805 
  840300    298.27752   -1481.1769    438.77928    293.93266    91.492683    36822.805 
  840400    299.63623   -1479.6551    462.94312    325.70553    105.86386    36822.805 
  840500    293.77803   -1464.7662     504.6331    356.03877   -118.11603    36822.805 
  840600    305.46496    -1541.933    439.21159     265.8097   -386.66581    36822.805 
  840700    305.09406   -1547.7476    447.33048     266.4523   -211.37581    36822.805 
  840800    300.21891   -1503.2622    451.82785    293.59367    248.19886    36822.805 
  840900    289.75256   -1521.7191    476.46869    252.88671    649.55468    36822.805 
  841000    308.28901   -1559.1918    453.06949    275.06096    967.02291    36822.805 
  841100    297.99823   -1489.3915    469.55261    315.24015    672.16365    36822.805 
  841200    300.82499   -1464.8963    477.17594    360.02302    398.29616    36822.805 
  841300    285.75431   -1487.3279    465.93242    258.82885    -393.1219    36822.805 
  841400    294.29168   -1510.4425    441.18615    249.21669     7.552742    36822.805 
  841500    301.37352   -1544.2313    469.14095    275.11052   -463.49427    36822.805 
  841600    297.61303   -1498.6718    478.75813     313.4396   -158.65652    36822.805 
  841700    305.56256   -1495.1139    443.69067    317.54519   -364.40618    36822.805 
  841800    309.08549   -1526.6247    445.25148    303.37845   -81.099136    36822.805 
  841900    309.89213   -1497.9053    445.62372    336.08395    205.04155    36822.805 
  842000    303.54206   -1543.4948    474.61983    291.04126   -58.098445    36822.805 
  842100    305.21204   -1549.2884    471.60681    289.71645   -118.94634    36822.805 
  842200    286.38056   -1540.8284    454.77977    196.98138   -52.076367    36822.805 
  842300    299.73412   -1514.3707    427.46088    255.94626   -91.168419    36822.805 
  842400    296.11411   -1447.1028    458.53444    338.06947   -145.19097    36822.805 
  842500    296.25507    -1489.484    457.38605    295.17139   -36.819388    36822.805 
  842600    289.05182   -1479.5482    481.81331    297.26276    558.56927    36822.805 
  842700    303.17874   -1462.9163    508.64852    404.02069    559.01852    36822.805 
  842800     313.1359   -1481.9717    463.79262    384.71903    664.49738    36822.805 
  842900    301.73775   -1500.1501    479.87907    331.56166    207.14915    36822.805 
  843000    305.20531    -1485.292    463.70926    345.78515   -123.49093    36822.805 
  843100    297.52126   -1507.2294    496.67843    322.39113   -437.48005    36822.805 
  843200    301.43623   -1488.5742    490.38283    352.29039    272.17962    36822.805 
  843300    299.31641   -1483.2009    467.94639    325.73018    532.46264    36822.805 
  843400     306.8656   -1479.8154    476.56048    371.55128    104.82308    36822.805 
  843500    295.69128   -1464.3646    488.12206    348.50093    120.14273    36822.805 
  843600    308.88677   -1501.7279     453.4573    335.59081    240.05022    36822.805 
  843700    304.56475   -1481.3957    490.11484     373.2172    108.69108    36822.805 
  843800    308.97105   -1516.0154    446.85526    315.07881   -47.605015    36822.805 
  843900    294.25318   -1523.2082    470.48919    265.58159   0.96429168    36822.805 
  844000    299.82107    -1535.966    490.78828    298.06788   -118.66856    36822.805 
  844100    290.77056   -1489.5666    449.67288    262.80415    -649.5485    36822.805 
  844200    299.97253   -1517.9922    443.43923    269.37121   -531.79883    36822.805 
  844300    302.91985   -1507.4873    461.54719    311.18854   -816.33727    36822.805 
  844400    302.53773    -1498.348    464.95324     322.0219   -525.40689    36822.805 
  844500    297.74704    -1560.734    465.02017    238.23983   -462.13334    36822.805 
  844600    299.24359   -1505.7218    474.00712    308.94375   -476.76363    36822.805 
  844700    301.46263   -1508.4654    476.30836    318.44297    37.873828    36822.805 
  844800    300.87559   -1522.1173    467.70994    293.56267     497.0546    36822.805 
  844900    297.35185   -1529.0388    464.56911    267.71342    262.78757    36822.805 
  845000    314.66751   -1513.9273    444.15795    339.99066    183.80469    36822.805 
  845100    301.32624   -1516.4923    475.04819    308.54494     12.98322    36822.805 
  845200    303.05057   -1489.2294    458.06909    326.55398   -220.62946    36822.805 
  845300    298.88408   -1506.5194    449.78567    282.31399    57.587638    36822.805 
  845400     301.4595   -1518.9739    455.10607    286.71817    207.04505    36822.805 
  845500    301.58321   -1515.9985    460.15093    295.29268    220.89897    36822.805 
  845600    309.81673   -1502.0148    495.03233     381.0453   -328.94379    36822.805 
  845700    294.02599   -1481.2796    469.54421    305.54739    -253.3285    36822.805 
  845800    301.88095   -1558.4789    446.89144    240.88674   -443.64051    36822.805 
  845900    301.61009   -1548.7731    472.45705    274.94463   -495.06585    36822.805 
  846000      305.825   -1546.7636    457.66554    281.04606    288.22362    36822.805 
  846100     289.7104   -1523.0327    451.33951    226.25508    547.85911    36822.805 
  846200     304.4984    -1556.786    460.44949    267.86433    184.22481    36822.805 
  846300     283.0246   -1567.1794    465.35489    166.17025    92.318365    36822.805 
  846400    309.93895   -1574.5306      472.534    286.57866    250.97204    36822.805 
  846500    302.37251   -1554.8685     463.1257    262.93371    76.367359    36822.805 
  846600    304.44822   -1541.5997    447.64357    270.01983   -189.58272    36822.805 
  846700    294.49133   -1507.2718    492.39345    304.48918   -342.11657    36822.805 
  846800    290.51575   -1548.7204    475.53707    228.37302   -357.13581    36822.805 
  846900     312.6222   -1573.2217    468.09029    295.46527   -49.611835    36822.805 
  847000    300.05561   -1567.8557    477.06497    253.50567   -382.93397    36822.805 
  847100    290.74573   -1576.1658    451.41856    177.83939   -87.671657    36822.805 
  847200    299.12419   -1565.7924     464.3369      238.668   -119.47122    36822.805 
  847300    291.64553   -1589.4553    458.49988    175.66246   -72.834142    36822.805 
  847400    294.24428   -1516.6273    486.15776    287.79117    234.55653    36822.805 
  847500    308.16965   -1587.5362    454.45924    247.57159    101.48582    36822.805 
  847600    293.25598   -1531.6326    468.01604    250.21643   -10.425497    36822.805 
  847700    283.71567   -1523.7495    471.34862    218.69002   -121.72683    36822.805 
  847800    288.78275   -1525.3838    475.01364    243.42205   -193.29366    36822.805 
  847900    300.09188   -1496.0375     481.8135     330.2349    75.750064    36822.805 
  848000    299.53259   -1507.1213    488.23053    323.06238    135.33541    36822.805 
  848100    307.76445    -1510.678      481.491     349.6462    221.80264    36822.805 
  848200    295.66209   -1510.4277    461.06012    275.24517     196.2286    36822.805 
  848300    298.88052   -1527.9681    454.27841    265.34209     233.3302    36822.805 
  848400    296.69416   -1514.9511    509.20377    323.48925    419.22953    36822.805 
  848500    295.49504   -1503.0839    476.94943    297.72981    320.66882    36822.805 
  848600    303.59768   -1478.0898    476.50659    358.58221    697.19939    36822.805 
  848700    298.65699   -1534.2312    460.06073    263.85987   -111.50109    36822.805 
  848800    293.73417    -1519.999    483.65719    279.63358     248.7459    36822.805 
  848900    303.47134   -1540.1375    490.32554     309.7874    23.378408    36822.805 
  849000    300.05216    -1486.372    476.01989    333.92883    88.568952    36822.805 
  849100    304.53752   -1486.6945    522.03946    399.72102    362.25437    36822.805 
  849200    302.02252   -1483.0191    468.80649    338.89579    -87.11958    36822.805 
  849300     306.9255   -1480.0858    492.79601     387.7848   -522.38816    36822.805 
  849400    292.07465   -1515.4985    499.01488    292.05679   -300.27041    36822.805 
  849500    299.03494   -1516.2999    487.77176    311.19549    -595.1776    36822.805 
  849600    311.45989   -1508.0326    463.83789    351.19465   -315.65537    36822.805 
  849700    300.89349   -1544.9162    459.75231     262.8863   -754.84307    36822.805 
  849800    303.55953   -1546.5763    489.83755    303.25574   -79.554111    36822.805 
  849900    299.98063   -1502.3804    467.27597    308.85607   -31.585121    36822.805 
  850000    292.72191   -1506.6458    476.13314    280.92761   -417.21878    36822.805 
  850100    296.88277   -1547.4762    482.27885    264.88425    140.34226    36822.805 
  850200    310.01299    -1507.382    462.79007    344.31509   -63.941519    36822.805 
  850300    293.07759   -1520.7966    481.48568    273.72281    -142.2479    36822.805 
  850400     295.5265   -1557.4741    482.54335    249.07448   -403.39094    36822.805 
  850500    304.51774   -1488.8674    469.88999    345.31005   -440.85437    36822.805 
  850600    296.46426   -1488.7281    472.77824    312.25675   -382.26125    36822.805 
  850700    308.05031    -1455.429    511.53614    436.22102   -132.66465    36822.805 
  850800    304.07463    -1466.235    489.85098    385.91822   -398.78012    36822.805 
  850900    300.92375   -1488.8672    490.96732     350.2859    51.548182    36822.805 
  851000    305.11886   -1501.0573    486.52304    352.44624     276.8973    36822.805 
  851100     306.1837   -1496.5439    474.55249    349.75976    -19.92248    36822.805 
  851200    292.18266   -1493.9215    515.88265    330.98544   -138.71069    36822.805 
  851300    300.98075   -1521.8935    463.95235    290.49998    223.92604    36822.805 
  851400    296.79465   -1472.0551      507.152    364.78368    629.01577    36822.805 
  851500    306.32332   -1484.5573    496.07665    383.89611   -42.877672    36822.805 
  851600    302.85775   -1477.8019    478.92639     357.9749    136.06027    36822.805 
  851700    302.33378   -1481.7097    478.90148    351.69469   -368.82339    36822.805 
  851800    294.00775   -1500.2015    452.49503    269.49451   -576.31837    36822.805 
  851900    295.13642   -1461.9885    510.53096    370.80007   -606.53137    36822.805 
  852000    294.57363   -1507.7964     462.4199    274.35973   -513.67765    36822.805 
  852100    299.74417   -1480.2808    511.21309    373.83335   -112.31939    36822.805 
  852200    298.53466   -1488.4868    463.77103    312.76654    47.139992    36822.805 
  852300     303.2874   -1476.6033    492.20288    374.37489   -617.12704    36822.805 
  852400    304.21303   -1463.0491    488.70065    388.57381   -3.8515872    36822.805 
  852500    291.44108   -1484.0744    474.36423    295.99182   -193.85099    36822.805 
  852600    307.87995   -1550.8347    456.25938    284.77532    400.88235    36822.805 
  852700    298.90206   -1511.0949    464.61164    292.64502    272.08341    36822.805 
  852800    303.33615   -1509.9856     479.9745    328.98263    410.77895    36822.805 
  852900    303.00186   -1524.8843    470.96983     303.5816     16.87801    36822.805 
  853000    301.05702   -1577.6941    471.27581    242.36459    195.41828    36822.805 
  853100    299.68763   -1537.7906    454.72777    259.58496   -110.46206    36822.805 
  853200    301.52418   -1522.4227    452.44022    280.89336   -413.69373    36822.805 
  853300    292.63414   -1518.9897    471.88497    263.94234    124.60926    36822.805 
  853400    303.50843   -1494.6545    478.76875    343.87983   -408.96881    36822.805 
  853500    306.77011   -1487.4861    483.84659    370.73889    33.468404    36822.805 
  853600    303.15441   -1492.7346    461.68479    327.12969    198.34616    36822.805 
  853700    300.26521   -1508.1311    446.57855    283.68291    1200.5152    36822.805 
  853800    295.67372   -1553.0765    476.78186    248.37016    501.54043    36822.805 
  853900    301.59771   -1507.1317    481.45289     325.5264    141.11854    36822.805 
  854000    310.18378   -1505.8756    486.25059    370.04723    145.06011    36822.805 
  854100    307.46629   -1500.5702    464.45342     341.3806    580.49132    36822.805 
  854200     297.0373   -1498.4517    460.99856    293.32071    552.76106    36822.805 
  854300    315.77407   -1473.6478    475.76004    416.82976    930.62735    36822.805 
  854400    304.38147   -1490.4825    480.75395    353.94832    513.59939    36822.805 
  854500    291.98625   -1494.4624    462.92094    276.60297    142.07978    36822.805 
  854600    301.77062   -1495.6771    446.26354    302.56635   -10.151362    36822.805 
  854700    305.97027   -1488.3196    482.66289    365.13825    416.43024    36822.805 
  854800     296.9576   -1476.5835    452.60239    306.43569    102.45323    36822.805 
  854900    299.45431   -1503.5499    491.37841    329.43097    223.11068    36822.805 
  855000     300.1509   -1533.6633    461.76979    272.82974    348.65629    36822.805 
  855100    293.92368    -1522.847    460.44145    254.41885   -65.029017    36822.805 
  855200    302.48011    -1470.849    468.78396    353.09351   -606.79659    36822.805 
  855300    308.01898   -1494.9082    449.10466    334.16997   -181.17323    36822.805 
  855400    292.08213   -1520.7573    456.38101    244.19763    256.99108    36822.805 
  855500    303.65579    -1499.541     469.8295    330.71428    331.86784    36822.805 
  855600    302.36826   -1465.5708    456.54772    345.63434    193.15441    36822.805 
  855700    293.28584   -1474.5898    467.29482    306.67182    300.57408    36822.805 
  855800    296.92679   -1475.9957    479.03378     333.3169    182.63152    36822.805 
  855900    305.81723   -1490.0172    464.38357    344.47572      101.626    36822.805 
  856000    304.89696    -1472.874    475.62232    368.73471     23.11524    36822.805 
  856100    300.74094   -1504.4805    461.59318    304.47951   -218.05322    36822.805 
  856200     297.9253   -1430.5885    496.72008    400.88388    363.97561    36822.805 
  856300    301.22913   -1464.9261    473.31416    357.94195    599.10401    36822.805 
  856400    308.00623   -1497.4007    450.06287    332.57864    130.66956    36822.805 
  856500    293.24877   -1513.2983    477.19694    277.69928    24.954609    36822.805 
  856600    291.50098    -1493.908    460.62119    272.68351    228.74689    36822.805 
  856700    302.07715   -1486.5628    457.60321    324.39361    153.92278    36822.805 
  856800    299.04329   -1487.7144     473.4372    325.48383    318.60491    36822.805 
  856900    295.15026   -1500.6075    478.74179      300.454    301.57786    36822.805 
  857000    315.23431    -1484.259    467.14658    395.18695    95.216116    36822.805 
  857100    297.78745    -1482.911    444.09185    295.31555    493.81986    36822.805 
  857200    303.92998   -1459.4292    507.55572    409.78069    530.40801    36822.805 
  857300    302.53285   -1502.3201    478.20883    331.28349    455.44816    36822.805 
  857400    309.10388    -1484.007    473.03716    373.86422    910.38722    36822.805 
  857500    303.03673   -1482.6236    484.20043     359.2291    267.73873    36822.805 
  857600    299.09652   -1470.6599    479.84363    349.18324   -461.57317    36822.805 
  857700    305.00643   -1451.0525    461.52371    376.94802   -59.749001    36822.805 
  857800    295.92033   -1445.1349    448.70852    329.34329   -247.48383    36822.805 
  857900    300.54738   -1453.0424    485.03803    378.49524   -375.97681    36822.805 
  858000    305.94996   -1457.4664     488.0293    401.26685   -684.09429    36822.805 
  858100    288.88487   -1460.7365     449.5905    283.10368   -639.09295    36822.805 
  858200    307.16543   -1460.3137    447.37635    363.21213   -543.72884    36822.805 
  858300    306.20972   -1461.1515     479.0685    389.78482   -658.78536    36822.805 
  858400    302.62476   -1475.3289    447.36161    327.83926   -466.42626    36822.805 
  858500    299.83269   -1429.6387    466.78544    380.44443   -527.89886    36822.805 
  858600    293.20504   -1435.9272    486.80484    364.48243   -163.57604    36822.805 
  858700    293.06716   -1446.1631    474.14653    340.97045    60.622243    36822.805 
  858800    299.75649   -1484.3036    475.29965    333.95233   -122.91128    36822.805 
  858900    295.66946   -1473.9435    448.00897    298.71128   -313.42137    36822.805 
  859000    298.26089   -1474.0272    436.19798    298.42655   -458.60294    36822.805 
  859100    294.74039   -1464.4328     466.4462    322.49672    348.92856    36822.805 
  859200    300.88308   -1463.7095    464.19351    348.48758    332.25659    36822.805 
  859300    303.60922    -1453.093    480.23814    387.36221    320.70903    36822.805 
  859400    293.54283   -1481.3121    482.62887    316.43485    -295.8789    36822.805 
  859500    291.91886   -1443.7017    440.72086    304.86162   -254.27315    36822.805 
  859600     303.0912   -1448.5645    463.04784    372.37968   -506.79613    36822.805 
  859700    301.90527   -1476.6574    468.41088    344.33659    -239.7471    36822.805 
  859800    296.93228    -1481.119    449.55529    298.73969    93.981336    36822.805 
  859900    305.45058     -1496.32    451.82929      323.976   -614.17213    36822.805 
  860000    298.01524   -1456.8229    478.01183    356.34414    139.42759    36822.805 
  860100    286.42162   -1481.9049    450.51305    251.82215    95.528176    36822.805 
  860200    306.12393   -1441.3024    479.62413    409.80515   -250.08857    36822.805 
  860300    292.42341   -1471.8261    461.50507    299.78187   -241.08585    36822.805 
  860400    300.89117   -1493.3133    463.21415    317.94063    320.31019    36822.805 
  860500    290.37296   -1453.7284    488.97831    336.16649    205.81552    36822.805 
  860600    301.49958   -1480.4361    458.21176    328.54129    527.62052    36822.805 
  860700    292.62648   -1484.2766    462.71965    289.45576   -856.58283    36822.805 
  860800    294.46003   -1507.9253    461.70854    273.01056   -55.727671    36822.805 
  860900     301.0991   -1494.2881    464.07022    318.75349      143.395    36822.805 
  861000    304.02168   -1500.5451    463.17577    324.69565   -334.01357    36822.805 
  861100    297.66343   -1493.6509    436.29006    276.21817   -141.84752    36822.805 
  861200    302.75551   -1511.9026    474.20491    318.69467    19.710494    36822.805 
  861300    310.33127   -1512.3726    471.10321    349.06359    177.50497    36822.805 
  861400    301.83504   -1509.6593    441.65174    284.26093   -89.535728    36822.805 
  861500    291.04601    -1512.359    449.19798    240.77097    -114.0518    36822.805 
  861600    306.83246   -1493.0181    480.71737    362.35704   -106.88514    36822.805 
  861700    300.64202   -1522.4198    440.12111    264.62493   -54.307009    36822.805 
  861800    309.45575    -1504.492    453.88195    335.80047    372.54565    36822.805 
  861900     300.1384   -1509.7768    478.74429    313.63479   -304.49936    36822.805 
  862000    290.82542   -1496.0649    476.93185    283.81062     200.8589    36822.805 
  862100    300.54801   -1509.0939    482.16574    319.57432   -119.08344    36822.805 
  862200    299.68853   -1494.3029    494.99319    343.34217     466.4563    36822.805 
  862300    301.04885   -1491.7447    463.00537    320.00692    69.530221    36822.805 
  862400     294.2981    -1488.612    454.83074    284.72058   -516.41893    36822.805 
  862500    306.57323   -1458.9531    490.30852    404.85182   -6.9518964    36822.805 
  862600    297.50171    -1482.946    468.46442     318.3729      182.001    36822.805 
  862700    309.23052   -1535.2604    443.13155    293.27256    282.28114    36822.805 
  862800    306.88404   -1510.2488    460.39496      325.035   -44.115766    36822.805 
  862900    306.75483   -1496.4486    467.13005    344.99139   -9.1352527    36822.805 
  863000    289.96312   -1514.9299    460.52521    244.67573     -351.306    36822.805 
  863100    306.25643   -1486.6898    469.84393    355.23119   -195.32404    36822.805 
  863200    296.79831   -1435.8705    461.15005    354.98273   -286.56894    36822.805 
  863300     300.5308   -1478.0081    452.33484    320.75203    -34.50144    36822.805 
  863400    293.21135   -1489.5585    453.22882    277.30334    218.71192    36822.805 
  863500    292.04556   -1501.1396     486.4519    293.72246    128.18525    36822.805 
  863600    297.66586   -1444.7763    464.08705    352.90069    197.51221    36822.805 
  863700     307.7413   -1511.5744    453.12662    320.28176   -285.97487    36822.805 
  863800    303.42551   -1470.7156    468.84723    357.52569     132.1554    36822.805 
  863900    291.68125    -1475.334    446.13566    277.57961   -578.72606    36822.805 
  864000    286.03243   -1458.3147    482.29239     305.4481   -369.73354    36822.805 
  864100    301.28107   -1453.8572    460.94033    356.86979    47.447399    36822.805 
  864200    302.91986   -1456.4729    463.05831    363.71406    387.56431    36822.805 
  864300    309.48046   -1436.7701    486.28541    436.03647    332.17459    36822.805 
  864400    287.01997   -1491.5821    467.94966    262.26226    659.34272    36822.805 
  864500    302.04582    -1522.174    449.50753    280.54636    1056.1153    36822.805 
  864600    295.93203   -1545.7385    475.00856     255.0922    549.58401    36822.805 
  864700     300.8027   -1543.8748    484.05434      287.823    365.09675    36822.805 
  864800    294.42057   -1509.3452    448.16246    257.86779     225.3023    36822.805 
  864900    304.20415   -1533.4285    445.94809    275.40212    619.79008    36822.805 
  865000    288.97567   -1512.3522    460.02206    242.32643    331.58879    36822.805 
  865100     305.4525   -1516.1179    461.99414    314.35153    551.45017    36822.805 
  865200    306.36997   -1443.1767     473.7917    403.20075    69.042892    36822.805 
  865300    294.58676   -1483.2328    473.98202    310.54431   -223.24404    36822.805 
  865400    300.39099   -1531.8667    462.27376    276.20596    -153.1237    36822.805 
  865500    298.41824   -1521.0778    455.65663    271.53953   -53.684416    36822.805 
  865600    297.98078   -1471.2693    480.50219    344.23374   -24.222941    36822.805 
  865700     293.9933   -1497.1142    493.99371     314.0158   -836.14137    36822.805 
  865800    288.09047   -1492.7491    459.25948    257.20105   -498.87049    36822.805 
  865900    308.96154   -1505.9253    466.14459    344.41565   -257.34244    36822.805 
  866000     287.3304   -1527.7319    475.80346    235.35701   -343.95855    36822.805 
  866100    304.79192   -1491.4178    462.46095      336.559   -854.40782    36822.805 
  866200    316.35252   -1476.4376    451.86608     392.7376    -460.5168    36822.805 
  866300    302.96043   -1492.3612    475.14903    340.09828   -1066.4722    36822.805 
  866400    302.74438   -1493.8052    450.99166    313.52894   -882.06355    36822.805 
  866500    300.62143   -1493.0604    467.05879    320.82972   -531.51368    36822.805 
  866600     305.1941   -1558.3217    436.95849    245.95446   -316.32813    36822.805 
  866700    291.09524    -1503.867    454.90764    255.19315    73.110581    36822.805 
  866800    315.35416   -1547.9877    465.63277    330.48133   -150.81923    36822.805 
  866900    292.07726   -1528.0883    479.93766    260.40148    168.87985    36822.805 
  867000    294.57677   -1518.1413    459.76745    261.37644   -280.97941    36822.805 
  867100    294.87809   -1581.0416    463.46563    203.52433   -89.066581    36822.805 
  867200    301.30326   -1520.6256    445.80319    275.06367     61.69181    36822.805 
  867300    297.46118   -1522.6151    484.21667     294.2745   -144.25743    36822.805 
  867400     308.0303   -1545.8369    430.28163    264.46904   -114.10172    36822.805 
  867500    305.99273   -1569.5824    439.99594    241.30921   -71.417315    36822.805 
  867600    301.48801   -1535.4924    460.29875    275.52015   -371.15412    36822.805 
  867700    300.61353   -1546.1569    443.70636     244.3454     -540.719    36822.805 
  867800    300.19037   -1583.8206    451.94055    213.02003    -100.4011    36822.805 
  867900    300.07416   -1561.0844     439.9207    223.21585   -70.040427    36822.805 
  868000    309.23156   -1530.7619    479.35253     333.9967    127.90135    36822.805 
  868100    295.16051   -1532.1721    449.18056    239.37404   -485.11638    36822.805 
  868200    291.30517   -1510.5301    450.38806    244.95102    568.20542    36822.805 
  868300    296.46699   -1552.5609    472.00507    247.66297    69.228446    36822.805 
  868400    305.37679   -1534.7515    454.94952    288.33416    467.71444    36822.805 
  868500    292.05137   -1506.0942    487.65532    289.99721    586.49636    36822.805 
  868600    299.50092   -1532.5129    435.94291    245.24126    346.44718    36822.805 
  868700    306.49527   -1529.2476    454.46317    298.36264    643.51404    36822.805 
  868800    302.11644    -1528.877    461.31892    285.97122    254.10639    36822.805 
  868900    304.74415   -1508.7421    458.04467    314.60433    390.55129    36822.805 
  869000    302.54455   -1485.0957    453.28518    323.63675    248.84997    36822.805 
  869100    294.07479   -1519.9167    479.34648    276.93115    149.28778    36822.805 
  869200    301.57854   -1529.0088    438.08802    260.19864   -415.73233    36822.805 
  869300    311.36801    -1525.907    451.14023     320.2109   -485.98387    36822.805 
  869400    299.93835   -1518.1747    467.61692    293.21326   -605.16494    36822.805 
  869500     287.4777   -1533.4739     470.6401     225.1116   -755.32353    36822.805 
  869600    291.54365   -1526.6777    472.76452     252.2483   -281.64314    36822.805 
  869700    299.83717   -1481.1291    474.77675    336.96545   -326.94727    36822.805 
  869800    307.77113   -1506.9334    470.14642    342.07619   -336.23527    36822.805 
  869900    300.73567    -1514.438     472.6876    305.59278   -218.88002    36822.805 
  870000    290.36281   -1512.4517    432.98694    221.40638   -167.15336    36822.805 
  870100    304.74574   -1509.1165    468.41752    324.60998    444.02438    36822.805 
  870200    293.42468   -1562.9877    445.73577    197.33684    485.81787    36822.805 
  870300    292.29689   -1535.2392    461.79623    236.09316    75.737549    36822.805 
  870400    301.37358   -1535.4816    455.18128    269.90078   -66.773403    36822.805 
  870500    301.72358   -1530.2427     470.0672    291.59366   -186.53714    36822.805 
  870600    305.68851   -1525.6884    468.99786    312.84217   -257.99097    36822.805 
  870700    303.44588   -1529.7566    454.59354    284.32229   -201.43795    36822.805 
  870800    296.49422   -1498.8956    455.87578    285.32098    228.03385    36822.805 
  870900    307.11175   -1527.3675    489.02175    337.56325     512.3501    36822.805 
  871000    301.82142   -1507.4415    445.67439    290.44041    541.59722    36822.805 
  871100    289.00851    -1491.912    464.08843    266.98011    548.87032    36822.805 
  871200    299.76142   -1486.7529    473.32468    329.55015    903.97966    36822.805 
  871300    300.63865    -1487.652    468.32287    327.57942    1055.3114    36822.805 
  871400    311.67611   -1584.3697    452.61816    264.60658    518.82753    36822.805 
  871500    293.85704   -1536.6519    448.04515    227.91909    360.51126    36822.805 
  871600    311.32295    -1506.974     458.5286    346.33051    -55.16242    36822.805 
  871700    295.86219   -1490.2531      473.364    308.62011    70.644492    36822.805 
  871800    292.34537    -1496.925    447.58704     260.4154   -75.606685    36822.805 
  871900    305.10654   -1506.0289    496.46517    357.36167   -389.81902    36822.805 
  872000     297.6823    -1543.767    472.11633    262.01288    8.9405658    36822.805 
  872100    296.73636   -1519.1043    477.32375    287.64514    249.35202    36822.805 
  872200    307.03743   -1505.2298    437.03454    307.38077   -394.93718    36822.805 
  872300    295.99014   -1497.5551    455.10342    283.63076    -291.3615    36822.805 
  872400    293.33977    -1487.297    479.60751    306.51891   -683.07964    36822.805 
  872500    302.74705   -1540.5359    459.72075    275.53932   -387.15825    36822.805 
  872600    297.16871   -1538.5698    463.65306    256.44592     686.6742    36822.805 
  872700    300.55134   -1502.0471    458.82114    303.29133    388.84762    36822.805 
  872800    302.16064   -1511.6903    466.95072    308.98774   -35.081985    36822.805 
  872900    300.16081   -1471.9218    465.34803    338.19394    370.44381    36822.805 
  873000    298.58904   -1479.8285    491.65969    349.55711    378.98465    36822.805 
  873100    305.39087   -1501.4425    463.42879    330.18553    33.137364    36822.805 
  873200    309.83126   -1469.3889     468.3649    387.06881    -298.9894    36822.805 
  873300    305.63181   -1439.0589    459.16286     389.3826   -523.72638    36822.805 
  873400    301.86667   -1483.8613    465.49238    334.04132   -187.35099    36822.805 
  873500    296.86785   -1452.2329    469.73035    347.51222   -806.00633    36822.805 
  873600     299.3109   -1442.9611    485.69486     383.6938   -946.22611    36822.805 
  873700    307.97286    -1471.964    467.66633    375.46919   -580.81663    36822.805 
  873800     306.1686   -1521.1041    469.41777    319.99722   -478.45828    36822.805 
  873900    298.18918    -1491.007    449.05518    293.98266   -336.30912    36822.805 
  874000     290.3791    -1486.789    450.29783    264.45291   -329.28379    36822.805 
  874100    306.41902    -1538.021    477.20826    311.99277   -460.79096    36822.805 
  874200     310.0422   -1519.7394    458.83809    328.13659    457.92708    36822.805 
  874300    300.63186   -1539.1544    451.46276    259.18646    648.52651    36822.805 
  874400     313.3915   -1519.7312    457.48392    341.79598    1116.2347    36822.805 
  874500    307.64451   -1497.8542    461.03388     341.4756    741.45878    36822.805 
  874600    288.29701   -1486.8469    488.34475    293.11389    608.73243    36822.805 
  874700    306.26795   -1481.9149    455.20528    345.41901   -110.59053    36822.805 
  874800    294.85314   -1451.9836    466.26317    335.26811   -207.95848    36822.805 
  874900    293.38259   -1457.0667    453.95986    311.29333   -155.92525    36822.805 
  875000    295.08738   -1484.3576    468.15148    305.83177   -371.73279    36822.805 
  875100     300.6903   -1450.3136    490.20818    387.03453   -1.2408065    36822.805 
  875200    289.06148   -1481.3088    464.62749    278.35963    29.213278    36822.805 
  875300    296.66198   -1508.9698    461.97526    282.09788    -117.5506    36822.805 
  875400    289.78979   -1492.1492    446.44222    252.59694    254.23607    36822.805 
  875500    299.18628   -1523.5588    459.92694    276.76983    638.51448    36822.805 
  875600    304.13428    -1508.873    459.28269    312.97918   -43.828378    36822.805 
  875700    295.70588   -1502.1551    455.43427    278.08811   -512.63657    36822.805 
  875800    306.02631   -1508.8423    486.47828    348.68201    410.90301    36822.805 
  875900    292.27765   -1531.2221    435.57108    213.79885    -283.9135    36822.805 
  876000    305.29059   -1541.5262    452.71505     278.9388     109.3099    36822.805 
  876100     302.2963   -1521.9841    458.50113    290.85208   -451.23763    36822.805 
  876200    299.98491   -1521.8533    447.24987     269.3762    36.725979    36822.805 
  876300    305.44421   -1537.3303    455.71819    286.82603   -376.83417    36822.805 
  876400    306.36647   -1530.1486    464.91722    307.33863   -80.255971    36822.805 
  876500    316.02947   -1525.8538    462.60686     352.6149   -4.2621016    36822.805 
  876600    298.40391   -1564.0548    437.98159    210.82336   -120.35182    36822.805 
  876700    303.38444   -1509.7116    448.08765     297.5861    479.55783    36822.805 
  876800    289.64402   -1521.7269    485.08173    261.00564    256.06631    36822.805 
  876900    301.21474   -1507.9484    464.30102    305.84206    665.05027    36822.805 
  877000    300.72162   -1502.6438    488.17515    332.81158    1235.1955    36822.805 
  877100    298.07749   -1468.0489    473.91589    341.30109    792.11209    36822.805 
  877200     292.6996   -1513.2353    448.28197    246.38699   -47.967746    36822.805 
  877300    296.77543    -1503.683    466.80462    292.72233    423.57058    36822.805 
  877400    297.41281   -1484.4747    484.47477    332.45629    267.18198    36822.805 
  877500    295.44174   -1530.6925    466.93652    259.86955    271.05276    36822.805 
  877600    303.80053   -1501.0636    457.54171    317.55228    173.45195    36822.805 
  877700    294.67431   -1484.5222    477.00434    312.66944    -161.9186    36822.805 
  877800     302.4011   -1483.9671    478.06084    348.89826   -406.74732    36822.805 
  877900     304.5376   -1496.6397    486.03607    353.77283   -128.31377    36822.805 
  878000    297.61565   -1484.1307    485.77324    335.00756    433.29686    36822.805 
  878100    305.85442   -1507.0372    446.46192    309.70069   -154.48931    36822.805 
  878200    295.61928   -1563.7085    458.63154    219.34403    -629.0839    36822.805 
  878300    299.90502   -1557.8948    453.16231    238.88926   -187.61355    36822.805 
  878400    302.13029   -1532.0387    466.37611    287.92874   -428.67699    36822.805 
  878500    308.79476   -1525.2638    442.12857    300.31392   -141.01964    36822.805 
  878600    300.32708   -1541.6861    452.95641    256.78289   -662.66476    36822.805 
  878700    304.00395   -1521.2533    457.99738    298.72963   -491.31448    36822.805 
  878800    307.01595   -1532.4024    430.90638    273.98382   -854.58929    36822.805 
  878900    302.98613    -1488.674    475.90997    344.66152   -823.23475    36822.805 
  879000    310.49858   -1500.3577    453.40653    344.13132   -510.02255    36822.805 
  879100    309.05943   -1516.4335    459.60336    327.80477   -338.34162    36822.805 
  879200    291.84091   -1556.9132    449.06429    199.64429    173.26027    36822.805 
  879300    319.41031   -1579.1359    473.87823    325.75082    493.84098    36822.805 
  879400     296.8269   -1532.7057    477.08927    274.21482    187.09452    36822.805 
  879500    291.39688   -1541.4183    438.57425    202.65984   -184.90159    36822.805 
  879600    302.61873   -1525.5451    474.35397    304.58845   -426.09771    36822.805 
  879700    292.22268    -1540.952    444.96902    213.22066   -742.66283    36822.805 
  879800    302.80012   -1492.1938    475.52713    339.92559   -298.83451    36822.805 
  879900    309.66911   -1528.2342    457.91421    317.04642   -241.59896    36822.805 
  880000    299.64354   -1529.3575    490.56147    303.65421   -4.2842814    36822.805 
  880100    300.40454    -1507.904    458.58935    296.54499   -635.70878    36822.805 
  880200    301.06838   -1542.5184    444.08753    250.40289   -615.86697    36822.805 
  880300    305.27625   -1551.3259    460.20376    276.56356   -861.46734    36822.805 
  880400    310.33461    -1520.337    450.80935    320.82027   -275.68611    36822.805 
  880500    301.27341   -1516.7924    455.63042    288.59033   -299.00637    36822.805 
  880600    291.38122   -1498.9215    455.13315    261.64543    -554.3388    36822.805 
  880700    299.75645   -1492.7101    464.87685    315.12286   -458.84208    36822.805 
  880800    299.34679    -1487.303    459.41534    313.23312   -384.49196    36822.805 
  880900     303.3614   -1516.3967    463.60582    306.31594   -391.49095    36822.805 
  881000    301.33343   -1526.8428    452.71154    275.88999   -359.92493    36822.805 
  881100    305.97565   -1490.2323    450.57639    331.16322   -522.40475    36822.805 
  881200    301.98707   -1527.0677    461.35624    287.23816   -83.398147    36822.805 
  881300    299.47158   -1495.1619    467.70604    314.22398   -727.87575    36822.805 
  881400    289.65625   -1493.7461    481.36509    285.32464   -54.953124    36822.805 
  881500    304.07811   -1526.7213    465.54589    301.14239     460.5039    36822.805 
  881600    297.06766   -1510.8811    437.81286    257.84163    463.09223    36822.805 
  881700    303.67565   -1469.9521    464.67763     355.2403     58.22368    36822.805 
  881800    293.17492   -1510.5217    473.79623     276.7444     393.8794    36822.805 
  881900    306.79356   -1531.3984     472.1545    315.23956   -204.10275    36822.805 
  882000    298.54273   -1513.7577    467.66917    291.42995   -289.15013    36822.805 
  882100    293.98153   -1539.2747    469.78812    247.59699   -156.42004    36822.805 
  882200    296.16333   -1517.4503    455.51807    264.92617   -517.08231    36822.805 
  882300    295.68063   -1480.4314    460.41636    304.68071   -379.96341    36822.805 
  882400    290.62613   -1516.6813    454.29618    239.66569   -1010.9302    36822.805 
  882500    297.56975    -1523.771    451.45167    260.84001   -676.11408    36822.805 
  882600    289.14253   -1496.6179    464.29996    263.08612   -656.99589    36822.805 
  882700    295.51637   -1549.5749    445.48437     219.8694   -715.28285    36822.805 
  882800    295.34328   -1562.3249    445.02209    205.88158   -677.29209    36822.805 
  882900    305.93655   -1534.0794    465.82215    302.38662    324.11738    36822.805 
  883000    295.94259   -1535.8862    452.51164    242.49485   -56.472889    36822.805 
  883100    294.21472   -1508.4143    462.88682     272.6008   -506.97446    36822.805 
  883200    304.03387   -1486.5239    468.42718    344.02292    482.43595    36822.805 
  883300    292.10581   -1542.8789    433.60728    199.40841    1005.2357    36822.805 
  883400    307.54039   -1560.0482    478.47025    296.25146    66.442763    36822.805 
  883500    289.77011   -1558.1364    463.89222    203.97153    796.32601    36822.805 
  883600    301.50246   -1529.9873    479.86618    300.65739    543.74958    36822.805 
  883700    301.71859   -1511.6353    482.86083    322.97229    63.777826    36822.805 
  883800    285.48399    -1545.862    457.44797    190.59925    -22.37962    36822.805 
  883900    305.25884   -1499.0647    422.31245    290.85541    196.18554    36822.805 
  884000    291.02354   -1553.3914    452.92834    203.36822   -196.08565    36822.805 
  884100    295.30893   -1519.4736    447.47058    251.02744   -262.12649    36822.805 
  884200    306.54686   -1517.0917    469.76849    326.05503   -313.99127    36822.805 
  884300    303.56242   -1545.2894    453.27456    267.99266    180.83374    36822.805 
  884400    304.72712   -1548.6404    460.67865    277.26371    292.99099    36822.805 
  884500    291.83145    -1503.498    459.91097    263.86379     298.2668    36822.805 
  884600     292.0263   -1507.6843    464.49034    265.12988     68.08783    36822.805 
  884700    298.08419     -1495.08    457.79584    298.17997   -533.35626    36822.805 
  884800    309.95263    -1459.011    452.16278    381.78839   -303.00279    36822.805 
  884900    297.30668   -1486.9603    462.48068    307.50108   -228.46287    36822.805 
  885000    302.72889   -1513.2932    475.23617    318.21603   -69.349501    36822.805 
  885100    299.62964   -1490.3562    465.65721      317.689     126.9607    36822.805 
  885200    304.75496   -1484.4063    482.69968    363.64364    704.77399    36822.805 
  885300    301.05107   -1524.5485    457.95103    282.15877    192.80974    36822.805 
  885400    295.64359   -1534.5438    474.09619    264.08227    153.28069    36822.805 
  885500    312.35949    -1494.758    470.69833    375.36004    301.26481    36822.805 
  885600    299.51815   -1471.9012    453.08755    323.07484    308.35966    36822.805 
  885700    296.76138   -1492.5291    478.42771    315.43629   -38.608711    36822.805 
  885800     293.7067   -1452.2327    463.33863    326.95823   -514.12801    36822.805 
  885900    311.53719   -1475.1472     492.1784    412.76687    249.64087    36822.805 
  886000    294.64199   -1483.3555    471.61942    308.30651   -739.08085    36822.805 
  886100    307.27479   -1454.9482    489.61117    411.30242   -249.68093    36822.805 
  886200    291.44704   -1459.0638    478.75895    325.42374    173.48697    36822.805 
  886300    306.97184   -1477.9372    457.61816    354.96311    523.33796    36822.805 
  886400    313.88215   -1504.2726    483.50593    385.47476    61.818895    36822.805 
  886500    294.24724   -1491.5939     460.2879    286.96798    287.96838    36822.805 
  886600    303.62936   -1515.5007    466.52743    311.33414    200.97488    36822.805 
  886700      296.518   -1519.4891     473.7004    282.65866     532.9385    36822.805 
  886800    300.12703   -1502.7265    432.29282    274.18264    11.733551    36822.805 
  886900    289.75691   -1535.0934    458.54783    221.61103   -347.48327    36822.805 
  887000    302.73038   -1535.4717    440.87336    261.68138    109.35705    36822.805 
  887100    306.92639   -1506.1224    462.70912    331.66525   -20.409395    36822.805 
  887200    290.24388   -1463.2195    475.71827    312.83706    101.47582    36822.805 
  887300    298.23883    -1472.277    451.26702    315.14702    222.88839    36822.805 
  887400    303.50617    -1485.347    449.73321    324.14166   -273.61517    36822.805 
  887500    308.74469   -1481.1598    452.63634    354.70134   -443.27262    36822.805 
  887600    303.78166   -1497.6788    475.12075     338.4317    76.606385    36822.805 
  887700    300.65752   -1509.5605    467.71318    305.14573    24.858911    36822.805 
  887800    289.54344   -1526.9769    444.27225     214.4956   -295.23484    36822.805 
  887900    298.53479   -1471.4069    461.39237    327.46834   -226.57464    36822.805 
  888000    312.63055   -1501.6832    437.91361    336.86453    71.404069    36822.805 
  888100     300.8739   -1487.0558    450.13281    311.03952    264.63855    36822.805 
  888200    298.48283   -1500.4708    474.58994    311.36926    615.26398    36822.805 
  888300    306.93848   -1535.7204    457.72173    297.13404    97.961235    36822.805 
  888400    285.67667   -1518.0201    469.09931    230.95568   -28.709862    36822.805 
  888500    302.10198   -1483.4275    475.64801    345.68494    23.250284    36822.805 
  888600    289.02309   -1489.0853    456.66062    262.44428    -189.2854    36822.805 
  888700    303.63091   -1503.5503    462.10941    318.87338   -213.28475    36822.805 
  888800    311.21346   -1494.9575    484.36729    383.69507   -171.51423    36822.805 
  888900    299.33581    -1512.934    453.43387    281.57138    60.699427    36822.805 
  889000    313.56233   -1493.7389    460.82453     371.8943     501.2719    36822.805 
  889100    295.84367   -1497.5512    473.64054    301.51559      329.999    36822.805 
  889200    290.98643   -1462.9264    493.84918    334.58777    594.28247    36822.805 
  889300    290.05549   -1487.6651    489.29396    301.12316    35.223721    36822.805 
  889400    301.27809   -1488.3875    472.96046    334.34629    589.30919    36822.805 
  889500    298.53038    -1487.209    446.22392    296.47802    656.01739    36822.805 
  889600    296.72714   -1495.2713    483.91252    318.02558    639.27809    36822.805 
  889700    290.34532   -1482.1425    473.09425    291.74453    841.92997    36822.805 
  889800    291.43299   -1460.4609    503.68306    348.88781    734.08222    36822.805 
  889900    288.16746   -1486.4471    480.04222     284.6307   -44.144936    36822.805 
  890000    303.78706   -1474.1612    483.93259    370.78521    165.29379    36822.805 
  890100    297.62182   -1470.3234    501.30177    364.37097   -667.18322    36822.805 
  890200    298.09397    -1470.542    465.03615    330.00204   -624.24897    36822.805 
  890300    307.87948   -1489.9451    465.36194    354.76536    164.84114    36822.805 
  890400    299.00903   -1518.7072    468.62042    289.52075    314.65832    36822.805 
  890500      289.631   -1476.8158    471.79675    292.57344    505.20677    36822.805 
  890600     301.3914   -1549.2425    446.96185    248.00027   -375.86048    36822.805 
  890700    300.33753   -1519.4795    465.38941    291.46937    111.72643    36822.805 
  890800    292.13331   -1544.0732    454.31695    219.04698   -253.48759    36822.805 
  890900    303.27616   -1521.0776    457.72839    295.37576   -339.52475    36822.805 
  891000    305.32258   -1490.7942    459.05733    336.15643   -311.76704    36822.805 
  891100    311.43809   -1525.1392    443.91121    314.06371     234.9214    36822.805 
  891200    298.49414   -1514.3281    481.86538    304.83805     176.2909    36822.805 
  891300    305.77489   -1484.4954     465.5237    350.94797    940.84414    36822.805 
  891400     298.9634   -1507.1289    467.75665     300.0309    1001.9685    36822.805 
  891500    301.61552   -1508.9046    468.94013    311.32055    87.309941    36822.805 
  891600    307.98565   -1506.9338    458.15563    331.04604    782.09259    36822.805 
  891700    295.62162   -1464.2997    477.66177    337.79351    409.32383    36822.805 
  891800    293.02052   -1475.6116    466.32279    303.48933    348.98959    36822.805 
  891900    294.71367    -1493.847    463.97106    290.48771    306.66937    36822.805 
  892000    300.70291   -1550.9772     474.8825    271.10165    541.18192    36822.805 
  892100    308.05668   -1538.2873    445.41816     287.2733    683.53819    36822.805 
  892200    305.94435   -1528.8479    502.55121    344.38214    589.36335    36822.805 
  892300    313.81507   -1564.7374    465.52544    306.72904    458.65628    36822.805 
  892400    297.52534    -1508.377    478.83526     303.4186    122.69386    36822.805 
  892500    304.16513   -1536.7444    462.45354     288.4168    921.68628    36822.805 
  892600    294.71827   -1510.8533    478.01757    287.54849    651.80685    36822.805 
  892700     310.3675   -1526.6081    463.44338    327.33058    628.26717    36822.805 
  892800     291.3348   -1531.8399    464.91899    238.30485    226.30408    36822.805 
  892900    291.16421   -1497.7064       464.53     271.2851    312.34679    36822.805 
  893000    310.49549   -1532.8381    476.30678    334.53735    488.79461    36822.805 
  893100     302.7954   -1472.4359    483.63111    367.76629    895.09075    36822.805 
  893200    286.36734   -1512.5766    461.99308    232.38724    296.63347    36822.805 
  893300    297.91586   -1488.5354     460.0784    306.25297    231.83403    36822.805 
  893400    307.49756   -1493.3431    467.72656    352.02098    78.676521    36822.805 
  893500    305.70881   -1505.1347    450.88323    315.37209    27.280477    36822.805 
  893600    291.58085   -1505.6056    456.11971    256.84227   -460.89564    36822.805 
  893700    299.36559   -1528.5913    466.78473    279.39845   -108.14437    36822.805 
  893800    296.56987   -1503.5028    465.74231    290.91929     237.4314    36822.805 
  893900    306.29466   -1519.0935    485.81991    338.97474    165.02679    36822.805 
  894000    303.61818   -1521.6889    450.70561      289.274   -117.18697    36822.805 
  894100    294.66806   -1490.6547    493.67146    323.17613   -27.369503    36822.805 
  894200    296.95719   -1479.1106     466.4952    317.79958   -373.23728    36822.805 
  894300    314.29098   -1495.4687    449.54532    362.14972   -228.47622    36822.805 
  894400    293.76857   -1473.4247     474.5823    317.28714   -784.20004    36822.805 
  894500    296.56387   -1436.9562    470.63145    362.32808    359.12837    36822.805 
  894600    305.56163   -1489.5592    445.66055    325.06559    219.46647    36822.805 
  894700     292.6411   -1532.3194    463.96523    242.72411    887.54701    36822.805 
  894800    293.59476   -1548.1217    455.38687    222.61596    340.47888    36822.805 
  894900    306.55159   -1511.7033    473.25574    334.95182    930.93976    36822.805 
  895000    299.28367    -1529.654     464.9894    276.17335     21.92799    36822.805 
  895100    288.97674   -1503.9425    462.04022    252.75904    487.01827    36822.805 
  895200    298.55953   -1498.0643    469.37007    308.89953    71.242026    36822.805 
  895300    305.57652   -1476.4044    465.67467    358.30125    151.51765    36822.805 
  895400     297.0304   -1459.0684    454.05032    325.72493   -80.989648    36822.805 
  895500    302.57485   -1543.0225    450.76867    263.32916   -415.01225    36822.805 
  895600    299.58339   -1488.5674    479.28378    332.89718   -206.69396    36822.805 
  895700    309.58662   -1494.3419    432.56929    325.22421   -156.70546    36822.805 
  895800    295.72431   -1496.0348    449.37466    278.23136    -135.7185    36822.805 
  895900    305.10111   -1501.6228     515.8859    381.16409    24.760417    36822.805 
  896000    300.24891   -1501.2745     456.8997    300.78767    519.02648    36822.805 
  896100    303.05446   -1512.8656    455.50032    300.36643   -149.00847    36822.805 
  896200    304.38275   -1501.2524    457.23609     319.6664    268.06436    36822.805 
  896300    308.91403   -1519.8947    459.39959    323.48843    448.96063    36822.805 
  896400    288.13599   -1498.5089    473.17107     265.5568      26.6079    36822.805 
  896500    289.55654   -1525.0486    464.57153    236.78183   -64.246314    36822.805 
  896600    304.86963   -1538.8417    437.65504    264.67732   -420.07141    36822.805 
  896700    306.96081    -1495.056    466.09948    346.27626   -154.55512    36822.805 
  896800    301.90588   -1497.9913    475.81493    330.40949   -119.01998    36822.805 
  896900    292.06519   -1498.2189    472.23974    282.51885    18.448501    36822.805 
  897000    308.03765   -1510.6898    476.92838    346.29578   -203.10821    36822.805 
  897100    303.73654   -1491.1746    472.07687    341.68983    132.06265    36822.805 
  897200    300.63081   -1484.5654    493.72659    356.03459   -215.65748    36822.805 
  897300    303.36362   -1493.7279    459.11679    324.50565    187.61117    36822.805 
  897400    306.95672   -1465.9206    480.62441    389.91821    217.80181    36822.805 
  897500     295.2474   -1517.6962    466.13094    271.18962   -397.12478    36822.805 
  897600     297.8396   -1521.7676    479.52775    292.12848   -364.32824    36822.805 
  897700    299.34142   -1494.9616    483.15348     329.2886   -678.20372    36822.805 
  897800    300.44252   -1500.2719    453.21872    298.97661   -941.83799    36822.805 
  897900    296.28178   -1536.6569    471.39657    262.12872   -707.84475    36822.805 
  898000    290.75064   -1544.2467    467.40333    225.76525   -708.73083    36822.805 
  898100    310.07587   -1549.6579    467.69259    307.22345    100.12247    36822.805 
  898200    299.72992   -1527.5898    470.87265    286.12013   -925.58249    36822.805 
  898300    294.75865   -1505.4267    443.26054    258.39895   -574.51466    36822.805 
  898400    310.17891   -1495.1574    480.47288    374.96583   -397.42859    36822.805 
  898500    299.50708   -1474.9425     457.5099    324.40633    -231.9269    36822.805 
  898600    305.68163   -1480.9056     474.7442    363.34051   -243.66746    36822.805 
  898700    303.38472   -1528.0233    473.51998    304.70799   -605.31492    36822.805 
  898800    287.84103   -1492.4099    480.18918    277.35242   -903.35457    36822.805 
  898900    298.92168   -1509.1742    471.21976    301.26176   -596.06808    36822.805 
  899000    297.24376   -1516.9803    466.39948    281.11808   -673.89518    36822.805 
  899100     296.3924   -1536.6855    476.93585    268.13493   -271.04876    36822.805 
  899200    298.94028   -1529.0228    487.48438    297.76116    259.91818    36822.805 
  899300    306.83222   -1492.7717    480.90638    362.79131    288.21639    36822.805 
  899400    304.38419   -1489.2654    492.00847    366.43219    301.40675    36822.805 
  899500    289.52411   -1497.0607    487.71233    287.76522    77.003632    36822.805 
  899600    307.88095   -1542.9474    445.21858     281.6263   -148.30124    36822.805 
  899700    309.09571   -1511.2361    487.12357    360.68493    578.19945    36822.805 
  899800    299.12555   -1517.9832    476.61455    298.76095    480.48072    36822.805 
  899900    295.16502   -1534.5149    493.87754    281.74842     307.0823    36822.805 
  900000    298.27476   -1534.9729     459.5832    260.92818   -207.66428    36822.805 
  900100    310.46002   -1504.5846    458.21111    344.53633   0.78077493    36822.805 
  900200    304.68969   -1521.7711    469.11561    312.40231   -421.40616    36822.805 
  900300    305.57385   -1506.5672    484.48025    346.93204   -594.12974    36822.805 
  900400    300.73338   -1486.5713     474.9196    335.68119   -360.29484    36822.805 
  900500     295.7618   -1524.1761    477.10972    277.99309     281.4182    36822.805 
  900600    300.28954   -1522.3039    459.84781    282.88833    432.24981    36822.805 
  900700    303.05959   -1543.6301    484.12734    298.25191    390.37394    36822.805 
  900800    303.32275   -1530.1758    444.05971    272.81759    118.47814    36822.805 
  900900    291.22496   -1514.5038     485.0127    275.24254    529.71565    36822.805 
  901000    296.61537   -1538.1887    476.28985    266.98477    173.05753    36822.805 
  901100    300.18319   -1511.7583    466.51282    299.62255    292.05852    36822.805 
  901200    309.46362   -1496.6498    490.67861    380.47453    783.45952    36822.805 
  901300    293.08877   -1502.4111    480.48884     291.1616   -224.10609    36822.805 
  901400    290.76257   -1504.7765    484.28199    282.16759   -120.98804    36822.805 
  901500    298.02269   -1497.8906    472.50933    309.80736   -414.69236    36822.805 
  901600    299.71774   -1534.2227    484.55218    293.11216   -96.021429    36822.805 
  901700    292.56313   -1560.8567    488.58656     238.4587    122.42727    36822.805 
  901800     312.8773   -1490.4448    500.01614     411.3109   -123.28491    36822.805 
  901900    309.50265    -1511.952    482.28027    356.94891   -168.70103    36822.805 
  902000    298.27832   -1524.2009    492.24229    304.37526    140.38721    36822.805 
  902100    307.06891    -1491.336    478.39276    362.77384   -110.95446    36822.805 
  902200    299.84739   -1508.7671    470.41893    305.01532   -239.89674    36822.805 
  902300    295.75383   -1522.9123     453.7234    255.83482   -63.754707    36822.805 
  902400     290.6916   -1519.9281    496.76883    279.18485    204.65233    36822.805 
  902500    292.86218   -1458.2765    469.33797    323.13023    113.38535    36822.805 
  902600    306.83989   -1533.3341    451.42136    292.77829    85.298937    36822.805 
  902700    298.08564   -1556.6567    485.40259    264.21646   -11.088479    36822.805 
  902800    304.68261   -1540.7303    466.67793    290.97368    111.28841    36822.805 
  902900    303.58318   -1566.4862    478.73006    272.34432    335.14958    36822.805 
  903000    304.28604   -1552.9574    473.25961     283.5516    19.270181    36822.805 
  903100    301.51249   -1502.4638    480.85752    329.21718   -14.477362    36822.805 
  903200    294.19959   -1502.7521    456.20163    271.50999   -321.22655    36822.805 
  903300    304.31856   -1541.0095    486.73688    309.12248   -484.78806    36822.805 
  903400    297.13143   -1528.0034    472.11724    275.30948   -752.33013    36822.805 
  903500    288.87149    -1573.544    480.26749    200.91324   -367.68117    36822.805 
  903600    312.28521   -1536.2919    457.15808    319.95311   -609.24653    36822.805 
  903700    285.49535   -1513.3921    481.58821    247.26026   -491.65434    36822.805 
  903800    296.00529     -1488.49    458.17019    295.83046    295.81101    36822.805 
  903900    304.24855   -1528.7348    457.20974    291.55637   -453.45088    36822.805 
  904000    296.82872   -1543.2319    470.14462    256.75217    200.25789    36822.805 
  904100    304.92759    -1512.975    481.07741    334.22611    211.22211    36822.805 
  904200    297.82236   -1579.0819    438.22383    193.43304    342.19289    36822.805 
  904300     306.0503   -1577.5756    468.27075    261.84869    104.66308    36822.805 
  904400    300.64006   -1570.5421    461.52345    237.89619    489.36109    36822.805 
  904500     303.0882   -1546.5692    501.30981    312.62345    781.49556    36822.805 
  904600    304.44554   -1552.9549    500.09923    311.10825    220.86158    36822.805 
  904700    291.82743   -1587.0914    436.24986    156.59135    490.67212    36822.805 
  904800    302.48482   -1579.7009    504.56771    280.04644    184.28576    36822.805 
  904900    313.01688    -1564.362    437.70442    275.70733   -222.73798    36822.805 
  905000    302.64988   -1582.2069    473.96819    247.68043   -847.62325    36822.805 
  905100    299.87339   -1557.5405    480.22228    266.16183   -757.71562    36822.805 
  905200    303.74686   -1543.7449     473.2376     290.3265   -483.02097    36822.805 
  905300    297.67286   -1530.4502    472.80425    275.97531   -265.83287    36822.805 
  905400     305.3777   -1601.0875    463.74011    230.79285   -519.40238    36822.805 
  905500    311.55014   -1553.1282    465.10695     307.7724   -253.05762    36822.805 
  905600    292.57634   -1541.1486    491.71831    261.35782   -83.845661    36822.805 
  905700    292.97485   -1580.3468    464.83812     197.0648   -82.484641    36822.805 
  905800    303.56201   -1540.7651    469.06626    288.30675    222.31219    36822.805 
  905900    301.74687   -1559.6468    456.36835    248.59501    184.77413    36822.805 
  906000    288.22228   -1566.4331    474.59593    199.44408   -499.23283    36822.805 
  906100    305.79377   -1533.2498    478.70853    315.46301   -335.82829    36822.805 
  906200    301.32604   -1557.0131    477.72152    270.69657   -43.699559    36822.805 
  906300    300.77626    -1585.941    466.00148    227.58547    542.40754    36822.805 
  906400    293.96388   -1584.7984     464.3287    196.53475    570.49196    36822.805 
  906500    300.20437   -1566.7833    470.70602    248.88555    546.16048    36822.805 
  906600    298.36661   -1589.4114    451.68191    198.99997   -50.015511    36822.805 
  906700    304.20995   -1580.8998    450.05435    232.06309    109.98523    36822.805 
  906800    302.23442   -1546.8425    453.36294    260.57827    270.10277    36822.805 
  906900     291.4704   -1522.0224    483.71034    267.52127   -88.049869    36822.805 
  907000    309.61443   -1512.1544    454.32811     329.2951   -1.4570676    36822.805 
  907100    295.47257   -1528.4909     489.4041    284.67682    227.62284    36822.805 
  907200    308.95679   -1481.5238    493.02062     395.6719    165.94391    36822.805 
  907300    308.87445   -1488.7089    455.98038    351.07768    156.86304    36822.805 
  907400    288.16818   -1522.7914    460.85644    229.10392    -203.8335    36822.805 
  907500    299.80905   -1531.7554    460.09084    271.52719   -287.24391    36822.805 
  907600    299.94361   -1527.6156    479.35676    295.53581   -473.09085    36822.805 
  907700    302.10446   -1574.6134    462.14184    241.00398   -161.63834    36822.805 
  907800     295.6041   -1572.7341    469.43593    221.05473   -379.37959    36822.805 
  907900    305.17895   -1558.0753    473.12389    282.29836    427.81018    36822.805 
  908000    299.24043   -1596.0413    483.96679    228.56977    648.11128    36822.805 
  908100    287.93785     -1551.86    471.29321     209.4401    488.74961    36822.805 
  908200    298.42283   -1500.3658    478.88693    315.50246    138.72318    36822.805 
  908300     302.5785   -1526.7946    467.32135    296.12613   -479.90115    36822.805 
  908400    306.94009   -1543.1616    471.02248    303.00078   -58.294094    36822.805 
  908500    291.98331   -1579.6811    476.96223    205.41237     186.5162    36822.805 
  908600    295.36604   -1559.9771    469.53206    232.84137    381.29642    36822.805 
  908700    301.29939   -1575.5555    478.19356     252.5068    842.87436    36822.805 
  908800    308.83317   -1558.4737    466.94858    292.09615    575.86687    36822.805 
  908900    304.42929   -1597.6451    474.97422    241.22028    313.17981    36822.805 
  909000    290.03885   -1567.7586    467.74408    199.40527     513.5227    36822.805 
  909100    280.20703   -1557.3743    446.08951    144.08682    360.43384    36822.805 
  909200    306.03904   -1568.7795    476.25482    278.57843    475.58179    36822.805 
  909300    304.44698   -1563.6838     470.2718    270.55839    315.84573    36822.805 
  909400    314.79724   -1528.9466    457.52866     338.9233    213.42389    36822.805 
  909500    303.60383   -1515.6289    450.35704    294.92116    241.18701    36822.805 
  909600    290.49452   -1531.1491    449.57559    219.88771   -460.20964    36822.805 
  909700    308.35572   -1554.7016    464.82036    291.60097   -551.46518    36822.805 
  909800    294.75037   -1521.3811    459.70939    258.85641   -301.71534    36822.805 
  909900    298.76894   -1522.6187    453.57139    269.48467    -204.2658    36822.805 
  910000    288.36308   -1521.5881    472.83448    243.15836   -164.98111    36822.805 
  910100    297.90293   -1524.8439    506.80489    316.61302    148.37587    36822.805 
  910200    292.66173   -1541.1851    440.93338    210.91894   -63.011281    36822.805 
  910300    302.31297   -1503.4821    472.42991    323.35754     10.29359    36822.805 
  910400    311.24598   -1541.0642    468.23991    321.60674   -64.828348    36822.805 
  910500    290.74575   -1547.7677    471.32878    226.14782    261.54779    36822.805 
  910600    286.52704   -1442.2432    490.74995    332.19304   -27.876583    36822.805 
  910700    294.15417   -1480.5714    466.28726    303.57287    21.984185    36822.805 
  910800    305.39372    -1484.801    485.90024    369.31121     455.9138    36822.805 
  910900    304.56526   -1479.3587    465.71408    350.85571    893.58647    36822.805 
  911000    304.99138   -1542.9125    507.56381    331.06077   -94.958719    36822.805 
  911100    292.46639   -1478.8216    470.75946    302.23335   -328.33906    36822.805 
  911200     300.4298   -1491.2889    448.09767    302.78156    205.10897    36822.805 
  911300    315.30365   -1474.5123    480.37044    418.46819    155.93483    36822.805 
  911400    311.47174   -1505.6727    468.22835    357.99812   -116.69583    36822.805 
  911500    290.66427   -1517.8996    465.44779    249.76989   -39.793569    36822.805 
  911600    309.51864    -1495.579    444.46485    335.57809    204.77753    36822.805 
  911700    304.92599   -1460.6859    494.18189    399.61246   -178.83592    36822.805 
  911800    290.85928   -1489.1287    447.29922    261.26597    221.89768    36822.805 
  911900    292.09688   -1502.4903    470.45883    276.60852    153.37388    36822.805 
  912000    302.56067   -1508.4549    480.74725    327.81183    443.74364    36822.805 
  912100    301.71878   -1493.6304    487.50369    345.62091   -38.535077    36822.805 
  912200    284.97027   -1499.3552    462.06998    239.42645   -421.71278    36822.805 
  912300    306.53411   -1475.2272    448.97308    347.06697     81.55748    36822.805 
  912400    291.79421    -1506.527    470.16816    270.92519   -48.718578    36822.805 
  912500    301.86133    -1485.241    462.08011    329.22538    323.97892    36822.805 
  912600    307.31871   -1518.4094    465.63139    324.05819   -62.344539    36822.805 
  912700    299.60654   -1576.8113    448.19935    213.67254   -461.77069    36822.805 
  912800    304.87647   -1499.2495    471.77139    338.41646   -176.58812    36822.805 
  912900    303.18451   -1543.8643    465.30528    279.75534   -15.340513    36822.805 
  913000      302.642   -1541.3185     460.2391    274.80448   -71.782114    36822.805 
  913100    298.68413   -1503.7835    424.17222    258.54064    158.47156    36822.805 
  913200    309.82502   -1539.0258    451.83053    300.86965    213.01358    36822.805 
  913300    300.98618   -1509.7486    438.77865    277.49556    88.243986    36822.805 
  913400    294.18008   -1500.4502    489.72054    307.24345    41.098579    36822.805 
  913500    290.69397   -1478.0462    452.79865    277.10723   -302.61152    36822.805 
  913600    305.08613   -1521.6991    466.30346    311.43834     352.9332    36822.805 
  913700    298.77534   -1541.0267    424.27845    221.81228   -229.05117    36822.805 
  913800     301.2616   -1554.0364    444.81261    240.47566    -268.9303    36822.805 
  913900    310.05895   -1539.2904    442.08032    291.90285   -794.21135    36822.805 
  914000    300.69678   -1572.7379    438.67634    213.10735   -789.67528    36822.805 
  914100    306.75605   -1542.2278    460.12511    292.21278   -391.14399    36822.805 
  914200    308.48495   -1567.0345    440.08047    255.10707   -128.87069    36822.805 
  914300     305.3583   -1511.2069    431.79873    288.64507   -435.37677    36822.805 
  914400    311.48159   -1522.5063    467.76035    340.74061   -951.84105    36822.805 
  914500    312.45879   -1505.9808    442.54622    336.43006   -14.646915    36822.805 
  914600    305.28742    -1500.753    453.30292    320.28566   -163.82391    36822.805 
  914700    302.08057   -1452.0535    482.92544    384.24044    102.23579    36822.805 
  914800     306.9296   -1454.4062    451.28457     371.9713   -211.91658    36822.805 
  914900    302.58013   -1479.2824    450.60625    326.93049   -416.77224    36822.805 
  915000    303.80048   -1478.1161    474.29037    357.24826   -575.86119    36822.805 
  915100    303.09695   -1513.2418     463.8895    308.56982   -202.24537    36822.805 
  915200     289.3553    -1539.989    457.70202    214.07033    -701.2241    36822.805 
  915300    292.67158   -1499.4244    492.33347    304.12384    76.096134    36822.805 
  915400    298.27612   -1535.0824    468.88679    270.12835   -89.950015    36822.805 
  915500    290.10277   -1522.4858    465.82413    243.04449     235.8533    36822.805 
  915600    309.35029   -1506.0655    472.76284    352.63539    931.30754    36822.805 
  915700    300.02705   -1504.2444    477.33296    317.25699    381.54697    36822.805 
  915800    298.66427   -1537.2718     472.2988    273.08999    472.32436    36822.805 
  915900    292.11281   -1523.1097    481.94799    267.54963   -192.87434    36822.805 
  916000    299.06952   -1524.6171    472.18925    287.45073    112.17048    36822.805 
  916100    299.28003   -1499.9426     449.9933    290.87233    94.856231    36822.805 
  916200    307.31752   -1503.0506    470.48387     344.2642    121.47965    36822.805 
  916300    295.11604   -1488.5192    453.06139    286.70858   -33.438372    36822.805 
  916400    300.63436   -1485.5639    492.10479    353.43018   -20.571377    36822.805 
  916500    303.08721   -1500.2027    464.79545    322.47117    129.05223    36822.805 
  916600    283.94969   -1506.7089    455.60183     221.0323    25.662797    36822.805 
  916700    303.68735   -1530.2833    461.38649    291.67041    3.6555777    36822.805 
  916800    288.57528   -1519.7415    469.27864     242.3998    406.15505    36822.805 
  916900    302.89532   -1512.1621    458.05356     302.9102    352.61444    36822.805 
  917000    302.26336   -1539.0257    447.26844    262.43023     311.5853    36822.805 
  917100    309.16391   -1534.0989    431.12354    282.12763     39.99769    36822.805 
  917200    297.89915   -1527.3531    488.79755    296.07955    448.03044    36822.805 
  917300     294.5446   -1543.9241    456.47533    232.15746    396.66683    36822.805 
  917400     306.3233   -1534.9598     453.0037    290.42054    767.58195    36822.805 
  917500    297.25252   -1523.3077     467.1271    275.55753    -34.74001    36822.805 
  917600    293.10182   -1501.1004     464.0352     276.0771    406.44633    36822.805 
  917700    307.80528   -1511.9416    459.34624    326.42075    459.76303    36822.805 
  917800    293.77273    -1520.673    463.39776    258.87286    256.91597    36822.805 
  917900    299.83454   -1531.9657    463.32256    274.66281    12.111763    36822.805 
  918000    290.80037   -1504.6967    472.09284    270.22757   -149.99878    36822.805 
  918100      296.191   -1471.6483    487.96427     343.2983    -194.5084    36822.805 
  918200    306.90528   -1513.4303    471.05248    332.60619   -523.86172    36822.805 
  918300    303.70491   -1547.1049    479.34643    292.88733   -445.36543    36822.805 
  918400    293.72585   -1540.8328    461.72591    236.83123   -137.05765    36822.805 
  918500    305.46687   -1509.7862    445.57532    304.32879   -382.97785    36822.805 
  918600    294.50869   -1524.7868    463.76229    258.42077   -797.62415    36822.805 
  918700    299.42436   -1529.1162    480.08023    292.43235   -865.71614    36822.805 
  918800    299.47384        -1526    466.51553    282.20547   -65.305454    36822.805 
  918900    301.84794   -1531.8233    466.02846    286.53144   -877.31568    36822.805 
  919000    301.22331    -1553.373    433.93388    230.08872   -1009.9677    36822.805 
  919100    308.55372   -1545.9241     460.0251    296.47029   -716.72684    36822.805 
  919200    293.16991   -1501.8206    476.18718    287.81397   -633.41063    36822.805 
  919300    293.68988   -1511.3634    464.28311    268.69661   -660.33249    36822.805 
  919400    296.65747   -1522.5737    493.49831    299.99675    413.74897    36822.805 
  919500    293.52328   -1530.8625    474.38568    258.55369    61.202328    36822.805 
  919600    299.98309   -1573.6618    430.08167    200.39136    264.71351    36822.805 
  919700    291.58032   -1599.3178    430.93538    137.94329   -118.36798    36822.805 
  919800    292.21514   -1544.1131    462.34855    227.40534    17.572765    36822.805 
  919900    306.99695    -1537.685    467.60757    305.31722     496.2313    36822.805 
  920000    294.99867    -1559.891    458.98227    220.73174    297.05786    36822.805 
  920100    301.84314   -1568.7136    465.88136    249.47254   -353.87873    36822.805 
  920200    302.85774   -1569.5459    445.40837    232.71287   -42.525997    36822.805 
  920300    301.41525   -1562.3303    471.75244    259.80991   -131.84349    36822.805 
  920400    300.34568   -1564.0083    462.33695    243.92458   -19.344838    36822.805 
  920500    311.90803   -1576.3489    455.26245    276.31065   -176.80095    36822.805 
  920600    300.84039   -1556.5368    459.88623    251.16178    267.58248    36822.805 
  920700    304.46264   -1549.8442    474.33828    288.53473   -99.195922    36822.805 
  920800    310.67733   -1577.5435    466.82648    281.16639     864.8841    36822.805 
  920900    310.21135   -1592.7921    472.43461     269.4382    604.45289    36822.805 
  921000    308.88334   -1527.7524    473.15206    329.24567    170.20966    36822.805 
  921100    297.60582   -1535.6802    454.21276    251.85346    328.35216    36822.805 
  921200    305.53891   -1531.9729    438.88527    275.77483    442.98592    36822.805 
  921300    295.23375   -1573.8625    457.75885    206.59001   -86.929375    36822.805 
  921400    293.13738   -1550.6706    462.09128    224.72237   -503.74698    36822.805 
  921500    300.97545   -1541.4421    451.43042    258.40571   -198.16654    36822.805 
  921600    299.21397    -1554.989    456.03943    241.57613   -378.61948    36822.805 
  921700    293.02822   -1569.0451    444.88742    188.65491    127.87878    36822.805 
  921800    303.51848    -1509.107    480.20923    330.91286    615.29805    36822.805 
  921900    310.34949   -1546.9478     452.0962    295.56302   -56.087788    36822.805 
  922000    308.48469   -1518.3924    446.81665    310.48418    -487.9564    36822.805 
  922100    291.23736   -1540.2233    474.00137     238.5673   -226.88641    36822.805 
  922200     296.8909   -1542.5502    453.90091    241.46867    358.12182    36822.805 
  922300    306.30888   -1572.8601    478.72827    278.18023    427.19596    36822.805 
  922400    295.13112   -1500.0124    448.40464    270.62612    169.50316    36822.805 
  922500    305.62317   -1550.1753    457.18412    276.24879    462.92843    36822.805 
  922600    305.86326   -1521.5468    476.85519      325.624    219.90737    36822.805 
  922700    311.66528   -1514.4538    437.52273    319.37845   -224.44593    36822.805 
  922800    290.86702   -1503.9013     483.8357    283.06448   -584.42688    36822.805 
  922900    297.63875   -1488.9831    510.25062    354.73602   -604.90583    36822.805 
  923000    306.20483    -1505.473    464.51949    330.89235   -753.08373    36822.805 
  923100    313.21126   -1508.6336    463.51721     358.1194   -465.78709    36822.805 
  923200    290.30262   -1476.6577    473.05313     296.9969   -114.51033    36822.805 
  923300    298.05631   -1531.3938    469.41099    273.35638   -90.629907    36822.805 
  923400    295.10895   -1502.1629    455.84707    275.81873   -238.38396    36822.805 
  923500    297.03517   -1514.6216    467.06792    283.21067    -737.2084    36822.805 
  923600    297.44539   -1510.5263     473.2829     295.3588   -95.645776    36822.805 
  923700    300.86207   -1522.4224    500.42707    325.91415   -243.00796    36822.805 
  923800    300.16112    -1488.244      456.246    312.77112   -734.48739    36822.805 
  923900    299.31946   -1540.9509    460.54495    260.59231   -685.14004    36822.805 
  924000    300.79373   -1538.2611    449.83962     259.1818   -415.89277    36822.805 
  924100    303.75054   -1514.7415    456.88051    302.98922   -212.79136    36822.805 
  924200    310.66228   -1493.1317    469.93917    368.62339    107.86387    36822.805 
  924300    299.63167   -1487.1929    474.11997    329.32408    77.219542    36822.805 
  924400    302.57737   -1504.8893    461.25123    311.95621   -32.952489    36822.805 
  924500    299.68228   -1502.0976    456.69849    297.22469     415.0961    36822.805 
  924600    293.58708   -1505.6943    486.34671    295.96874    875.59579    36822.805 
  924700    299.23091   -1530.9004    481.77927    291.48048    248.77323    36822.805 
  924800    296.18479   -1520.2504    481.02825    287.73229   -360.58893    36822.805 
  924900    313.81338   -1500.0899    484.54962    390.39311   -206.93626    36822.805 
  925000    297.64266   -1506.1748    474.91159     302.2228   -37.738488    36822.805 
  925100    314.32513   -1530.7392    482.03246    359.51935   -291.46161    36822.805 
  925200    306.34017    -1520.394    467.15838    319.21653    150.14836    36822.805 
  925300    297.32429   -1527.6197    460.63289     265.0728   -628.13984    36822.805 
  925400    307.28225   -1548.6067    453.74747    281.81368   -970.92678    36822.805 
  925500    306.94017   -1575.9457    442.41085    241.60547   -438.16542    36822.805 
  925600    304.75774    -1564.844    461.11032    261.62898   -1207.4424    36822.805 
  925700    294.62773   -1555.9476    477.03208    241.06309   -451.71937    36822.805 
  925800    305.35946   -1532.0204    480.77529    316.81335   -219.91592    36822.805 
  925900    286.60528   -1541.3969    475.58031     218.2202    -88.64654    36822.805 
  926000    291.45723   -1556.3759    476.11983    225.51826   -612.01942    36822.805 
  926100     309.1999   -1536.3181    453.45708    302.40328   -16.218168    36822.805 
  926200    305.77602   -1552.5266    460.89243    278.29055   -142.06825    36822.805 
  926300    288.76898   -1571.5002    480.76405    202.99434   -319.42018    36822.805 
  926400    302.49275   -1592.8673     468.8629    231.21081   -1219.1347    36822.805 
  926500    303.30505   -1550.8819    452.82745    260.79999    97.928489    36822.805 
  926600    306.07732   -1565.3589    468.44254    274.35827    357.39245    36822.805 
  926700    303.01734   -1554.9976    465.15445    267.72232    109.18882    36822.805 
  926800    302.43544    -1532.468    453.07593    275.56635    26.275225    36822.805 
  926900     296.4139   -1580.5428    449.50428    196.94244    765.90678    36822.805 
  927000    294.03456     -1557.45    470.09328    229.96443    136.27865    36822.805 
  927100    302.51918   -1525.2412    480.73123    310.82357    78.900136    36822.805 
  927200    295.82646   -1539.1658    434.80984    220.99316   -500.05011    36822.805 
  927300    304.04603    -1534.695    472.14401    299.62312    -179.9844    36822.805 
  927400    304.74159   -1534.9998    458.41245    288.70296    -57.31658    36822.805 
  927500    304.77253   -1497.7129    458.20592    325.92199   -314.23205    36822.805 
  927600     303.7713   -1510.5389    452.25976    302.66415   -307.68758    36822.805 
  927700    292.04845   -1526.8618    450.11885     231.6801   -394.64207    36822.805 
  927800    303.75221   -1553.2213    449.53021     257.1666   -217.54629    36822.805 
  927900    300.11907   -1557.3303    458.93633    246.18674   -14.525769    36822.805 
  928000    303.81222   -1527.5721     469.4614    303.01588    408.54041    36822.805 
  928100    302.58545   -1535.0641     481.2465    301.81289    927.93979    36822.805 
  928200    289.97031   -1523.0499    458.48693     234.5497    335.56651    36822.805 
  928300    313.24729   -1492.8669    464.13051    374.66074    522.75953    36822.805 
  928400     302.3428   -1508.9771    472.42355    317.98986     -152.305    36822.805 
  928500    302.78577   -1525.0508    452.37964    283.85678   -190.22433    36822.805 
  928600     301.6123   -1518.4571    476.54572    309.35924   -449.19891    36822.805 
  928700     303.9593   -1531.9058    468.76207    298.64177   -700.62056    36822.805 
  928800    308.16417   -1514.4206    453.97722    320.18059   -706.64836    36822.805 
  928900    294.51466   -1502.5021    479.09115    296.06115   -825.36171    36822.805 
  929000    297.12252    -1507.052    478.34257    302.44621   -428.09282    36822.805 
  929100    305.99206   -1525.9141    496.21764    341.19611   -332.33024    36822.805 
  929200    302.93092   -1496.8387    488.21769    348.55722   -554.05349    36822.805 
  929300    295.29844   -1502.1173    435.87407    256.74024   -666.48566    36822.805 
  929400    295.45306   -1504.9754    460.87809    279.57892   -1636.3008    36822.805 
  929500    289.57974   -1491.5263    479.99381    285.83039   -758.19779    36822.805 
  929600     295.9055   -1488.9493    466.07392    302.82787     -306.669    36822.805 
  929700    289.67428   -1511.3585    460.63352    247.06145   -539.01271    36822.805 
  929800    302.02468   -1507.8618    440.25126     285.5076    47.123963    36822.805 
  929900    292.86056   -1488.0698    468.63931    292.63095    408.62531    36822.805 
  930000    295.18857   -1461.5664    481.28285    342.20772    253.99653    36822.805 
  930100    307.04985    -1469.007     488.6898    395.31449    328.15064    36822.805 
  930200    296.86072    -1510.127    471.56421    291.41998    19.112016    36822.805 
  930300    295.07777   -1473.8913    463.92264    312.02619    229.45936    36822.805 
  930400    300.80093   -1444.8641    503.59087    406.36231    327.57025    36822.805 
  930500    296.09245   -1452.5755    480.70736    354.67266   -376.78179    36822.805 
  930600    298.01864   -1447.0576    483.56147    371.67432    331.24478    36822.805 
  930700    298.90499   -1434.9734    475.05527    379.22331    436.61417    36822.805 
  930800    306.54324   -1465.4004    485.79002    393.75168    598.50075    36822.805 
  930900    297.83336   -1500.5743    491.76751    325.53361    351.17458    36822.805 
  931000     302.5792   -1526.4609    468.45532     297.5969    51.245961    36822.805 
  931100    301.09897   -1513.4631    456.45697    291.96471    113.52022    36822.805 
  931200    300.69165   -1523.3098    462.21907    286.05521    -229.8268    36822.805 
  931300    308.20053   -1517.6818    476.42897    339.53415    163.82933    36822.805 
  931400    296.37789   -1522.7492    466.14844    271.21892   -163.44339    36822.805 
  931500    292.13222   -1478.1004    475.13405      305.832   -198.78997    36822.805 
  931600    296.71837   -1512.9541    461.37608    277.76704   -223.96375    36822.805 
  931700     290.2488   -1537.6059    476.30848    239.06293    265.95643    36822.805 
  931800    295.97277   -1489.7802      470.634     306.8584    272.24856    36822.805 
  931900    290.64769   -1521.1546    465.21293    246.20576    181.14492    36822.805 
  932000    299.33177   -1503.3698    474.94513    312.62882   -47.631892    36822.805 
  932100    287.02878   -1523.1073    504.88458    267.71146   -168.00067    36822.805 
  932200    292.53582   -1494.0826    433.87141     250.3954   -232.16557    36822.805 
  932300     296.7887   -1478.2258    481.67881    333.11319    51.863944    36822.805 
  932400    301.32212   -1490.8448    477.94118    337.06692   -281.67994    36822.805 
  932500    297.66787   -1535.9142     465.7168    263.40161   -153.53625    36822.805 
  932600    294.76212   -1554.1678    470.19637    236.60925   -325.04544    36822.805 
  932700    303.14838   -1575.7611    465.19172    247.58315   -179.45412    36822.805 
  932800    295.07977    -1531.701    452.89779    243.20069   -613.94572    36822.805 
  932900    302.66367   -1503.8679    459.28203    311.39503    -1263.226    36822.805 
  933000    297.94115   -1505.6219    465.65194     294.8533   -1080.8891    36822.805 
  933100    300.51914   -1495.8331    464.75925    315.29923   -940.99717    36822.805 
  933200    296.07958   -1484.7883    473.16523    314.86011   -1023.2528    36822.805 
  933300    294.71586    -1452.899    470.82054    338.29501   -531.26378    36822.805 
  933400     299.4317   -1483.8338     472.4909    330.15831   -675.24422    36822.805 
  933500     303.8008   -1491.6765    467.54719     336.9461   -133.30948    36822.805 
  933600    293.94912   -1496.2875    470.55911    291.20993    -302.8829    36822.805 
  933700    304.17784   -1525.5894    481.63266    318.80788   -8.2472961    36822.805 
  933800    306.74082   -1505.2965    484.52482    353.47548    364.06368    36822.805 
  933900    294.76081    -1530.511    465.34465    255.40853    434.36767    36822.805 
  934000    298.08732   -1471.5018    477.67832    341.65463    159.15518    36822.805 
  934100    304.19194   -1496.1192    476.31286    343.02146    554.23418    36822.805 
  934200    290.45127   -1529.4366    469.74014    241.57095   -105.33375    36822.805 
  934300    301.47959   -1474.1907     477.1397    353.62501    344.21351    36822.805 
  934400    287.96423    -1488.616    490.75244    292.26151   -22.797218    36822.805 
  934500    298.54409   -1431.1444    503.02982    409.41001   -510.19082    36822.805 
  934600    303.93218   -1462.7028    486.71832    385.67954   -899.99275    36822.805 
  934700    297.89764   -1439.3676    471.51157    366.77233    -30.32586    36822.805 
  934800    305.62147   -1480.5124    458.85242    347.57239   -260.60881    36822.805 
  934900    302.50248   -1470.9412    475.04255     359.3601   -12.262682    36822.805 
  935000    295.57845   -1505.4665    481.28558    300.05706     86.35468    36822.805 
  935100    298.72147   -1494.2416    481.42427    325.50191    614.02685    36822.805 
  935200    300.45828   -1460.8458    466.96597    352.22064   -65.331655    36822.805 
  935300    299.52434   -1480.8837    472.26825    333.30075   -426.04669    36822.805 
  935400     303.0458   -1471.9158    444.70205    330.47917   -701.85623    36822.805 
  935500    294.64584   -1498.6792    467.10384    288.48443   -864.25581    36822.805 
  935600    295.89402    -1507.104    458.45995    277.00777    -590.2025    36822.805 
  935700    301.32203   -1506.7034    446.15074    289.41742    -414.6325    36822.805 
  935800    299.73537   -1504.2051    462.84888    301.50548    501.48834    36822.805 
  935900    307.15212   -1526.0226    478.17742    328.24472    710.85878    36822.805 
  936000    297.13889   -1526.4119    458.76092    263.57805    526.12655    36822.805 
  936100    296.96371   -1537.8773    480.16749     272.7344    858.56344    36822.805 
  936200    299.85708   -1578.0106    469.73389    235.13027    379.18176    36822.805 
  936300    304.46741   -1544.3716    471.01512    290.70548    723.38115    36822.805 
  936400    294.38463   -1509.4433    467.81159    277.25784    279.43468    36822.805 
  936500    299.27186   -1498.9682      479.189    321.00588    345.31927    36822.805 
  936600    306.38969   -1525.1189    490.01279    337.56792    277.03121    36822.805 
  936700    313.09348   -1534.0583     458.5657     327.2155   -125.99437    36822.805 
  936800    289.88864   -1481.4596    508.48788    325.77505    549.97706    36822.805 
  936900    288.97783   -1462.5793    453.35718     285.4441    105.80356    36822.805 
  937000    303.43903   -1464.7147    481.75322    376.49321    211.74671    36822.805 
  937100    309.51019    -1466.075    478.11821    398.69759     122.3306    36822.805 
  937200    306.76419   -1492.3094    500.27281    382.31526    -203.5994    36822.805 
  937300    292.85989   -1489.7756    490.08203    312.36481   -452.05982    36822.805 
  937400    294.54395   -1496.9204    460.17621    282.85908   -317.67504    36822.805 
  937500    306.84867    -1522.146    473.17214    325.75655   -29.882037    36822.805 
  937600    297.88742   -1485.6116    475.25541    324.22635   -28.025431    36822.805 
  937700    300.61507   -1522.5115    462.91531    287.20663    -31.94936    36822.805 
  937800    295.57876   -1548.7503    465.83781    241.32687    373.61169    36822.805 
  937900    307.26606   -1576.9871    468.15882    267.77204     192.2759    36822.805 
  938000    306.25523   -1553.8622    493.19615    311.40561   -128.44506    36822.805 
  938100    303.73887   -1571.3753    469.22537    258.64802    120.79339    36822.805 
  938200     291.5382   -1527.5784    455.46333    234.02197   -117.25821    36822.805 
  938300     297.1711   -1539.6599    473.40902    265.12248     265.8678    36822.805 
  938400    305.45192   -1537.7326    465.74923     296.4893    902.17843    36822.805 
  938500    303.01114   -1494.9024    499.08143    361.71666    936.48925    36822.805 
  938600    296.11113   -1525.1236    480.10341     281.6043    401.69353    36822.805 
  938700    296.93461   -1552.2921    508.54346    286.56518    -293.0187    36822.805 
  938800    301.26887   -1597.3424    445.67363    198.06319    73.977873    36822.805 
  938900    299.67953   -1592.0346     455.7845    206.36143   -393.10529    36822.805 
  939000    300.76576   -1579.2318    467.47471    235.72082    -362.6614    36822.805 
  939100    301.54498   -1563.2783      443.506    231.19672   -145.01037    36822.805 
  939200    299.37305   -1539.9708    467.41882    268.68641    14.638401    36822.805 
  939300    305.87652   -1543.2223    478.49031    305.64294     652.6766    36822.805 
  939400    293.05459   -1554.4571    468.87289    227.34653    310.19697    36822.805 
  939500    294.92107   -1503.6372    493.55038    311.20602   -139.01563    36822.805 
  939600    287.11721   -1521.8925    473.95494    238.39282    350.29412    36822.805 
  939700    305.59489   -1517.1805    481.06426    332.99703   -404.47157    36822.805 
  939800    305.52142   -1491.8224     494.5477    371.50936   -544.88107    36822.805 
  939900    304.81851   -1533.0053    496.70636    329.33606    -741.7057    36822.805 
  940000    299.47695   -1528.2105    457.55643    271.04984    -175.9803    36822.805 
  940100    296.11084   -1485.6629    472.18988    313.15017    333.27164    36822.805 
  940200    306.61843   -1522.8746    459.62916    310.45343     182.8172    36822.805 
  940300    301.35288   -1487.1544    468.12024    331.07417    744.45739    36822.805 
  940400    290.33896   -1537.1678    500.46594    264.06239    733.88943    36822.805 
  940500    288.52562   -1542.7948    501.16901    251.01447    13.954454    36822.805 
  940600    290.11615   -1534.3451    453.98941    219.41035   -132.48336    36822.805 
  940700    311.20453   -1581.3887    466.52928    279.38591    107.36141    36822.805 
  940800    294.63113   -1497.7605    500.96355    323.19687    983.17676    36822.805 
  940900    309.37721   -1494.2148    482.63907    374.48291    52.492069    36822.805 
  941000      319.009   -1451.8596    505.32358    482.67454    34.187496    36822.805 
  941100    296.97318   -1461.3813    507.20432    376.30965    503.29857    36822.805 
  941200     302.2897    -1469.504    497.06231    381.86377    270.11723    36822.805 
  941300    302.39355    -1471.757     494.5007    377.51444    450.32225    36822.805 
  941400    298.11974   -1493.3544    476.84359    319.11258    93.492281    36822.805 
  941500    295.77523   -1467.5214    504.12066    361.71893    1347.2289    36822.805 
  941600    307.20599   -1469.9585    494.90101    401.27372    765.54807    36822.805 
  941700    301.13718   -1501.0198    473.18982    321.31206    483.53226    36822.805 
  941800      306.489   -1505.0373    492.41882    360.50052   -18.792901    36822.805 
  941900    292.60757   -1500.9106    483.48828    293.50564   -1064.9773    36822.805 
  942000    296.58917   -1570.0679    469.16411     227.8624   -562.52442    36822.805 
  942100    303.11691   -1498.3228     471.4086    331.09733   -450.91626    36822.805 
  942200    305.11714   -1552.8427     493.6515    307.78167   -565.01088    36822.805 
  942300    303.52357    -1516.058    476.66775    320.44309   -371.75713    36822.805 
  942400    308.19857    -1544.286    472.04601    308.53817   -396.70109    36822.805 
  942500    298.21499   -1548.8204    468.65714    255.88682    319.84123    36822.805 
  942600    310.96612    -1562.605    477.70651    308.27867    218.72553    36822.805 
  942700    302.99527   -1515.6477    454.33398    296.15277   -27.454646    36822.805 
  942800    300.74276   -1559.5346    447.65918    235.49946   -9.7324243    36822.805 
  942900    295.83325    -1541.776    472.01157    255.61511   -275.70955    36822.805 
  943000    298.05388   -1529.7751     472.9621    278.51538    237.81469    36822.805 
  943100    294.62428    -1555.613    472.81228    237.16247    831.58554    36822.805 
  943200     296.3387   -1546.0963    470.08793    251.63561    616.57825    36822.805 
  943300    299.95376   -1519.7492    473.86345    297.95429    287.95605    36822.805 
  943400    307.56004   -1551.0529    467.36461    294.22909    171.75511    36822.805 
  943500    291.65902    -1541.733    486.05444    250.99978   -366.09697    36822.805 
  943600    287.16881   -1544.2339    472.03003     214.3576    102.31704    36822.805 
  943700    297.29511   -1564.0028    459.36748    227.29362   -508.21636    36822.805 
  943800    295.99802   -1559.6054    464.63437    231.14677    31.676172    36822.805 
  943900    306.79942   -1568.6901    464.06185    269.88146   -295.58212    36822.805 
  944000    306.32947   -1563.6938     474.9979    283.70834    115.77066    36822.805 
  944100    295.64794   -1565.6418    464.40185     223.3094    311.29111    36822.805 
  944200    308.88696   -1566.7454    462.48817    279.60506    506.27217    36822.805 
  944300    297.49769   -1553.1696    488.77129    268.43821    256.99463    36822.805 
  944400    276.94049   -1532.3061    485.59543    194.02631   -358.55778    36822.805 
  944500    289.04881   -1544.6307    470.45334    220.80685   -372.62287    36822.805 
  944600    291.17373   -1488.9408    481.97778    297.54119   -278.84786    36822.805 
  944700    295.25023   -1490.0658    474.75889    307.46065    -607.8065    36822.805 
  944800    301.95812   -1499.5572     485.9994    339.26213   -238.97036    36822.805 
  944900    311.54514   -1506.9866    477.38211    366.16678    574.03651    36822.805 
  945000    299.88653   -1475.2275    497.79493    366.10635    257.87989    36822.805 
  945100    302.83377   -1513.9652    496.79053    339.56832     117.3046    36822.805 
  945200    307.80473   -1485.9917    441.55348    334.57542    364.80491    36822.805 
  945300    313.23235   -1496.9853    505.25676     411.6017     772.7368    36822.805 
  945400    295.03644   -1496.5815     490.4309    315.65916     897.3025    36822.805 
  945500    300.87135   -1516.2977     466.8336     298.4869    360.39468    36822.805 
  945600    310.93697    -1500.753    461.00197    353.29557   -225.89489    36822.805 
  945700    310.06437   -1501.3292    504.21073    392.01878   -199.05266    36822.805 
  945800    296.97245    -1524.164    466.71083    273.03018    2.8253755    36822.805 
  945900    311.75958   -1535.5619     496.7345    357.90466   -424.26764    36822.805 
  946000    309.45284   -1477.9643    470.41005    378.84318   -555.02953    36822.805 
  946100    296.03878    -1516.948    477.73046    287.08279    -790.8466    36822.805 
  946200    295.07507   -1504.3357    474.40491    292.05199   -451.35227    36822.805 
  946300    300.29947   -1527.6332    458.54407    276.29977    -970.7989    36822.805 
  946400    299.96276   -1515.3254    455.79043    284.34542   -17.716932    36822.805 
  946500    299.97352   -1540.3372    469.90799    273.49942    317.74682    36822.805 
  946600    301.31359   -1501.3689    492.87717    341.44063     178.5489    36822.805 
  946700    301.36791   -1515.7197    457.21878    291.67481   -110.86784    36822.805 
  946800    299.36229   -1516.2911    447.05451    271.95357   -193.97335    36822.805 
  946900    298.84427    -1498.639    472.64044    312.87084    217.59025    36822.805 
  947000    301.87858   -1527.9498    478.63346    303.14725   -261.02037    36822.805 
  947100    290.55435   -1487.2618    467.55786    282.02531   -622.69223    36822.805 
  947200    307.84351   -1487.1421    485.23091    377.27624   -291.27331    36822.805 
  947300      288.372   -1529.3768    449.39764    211.97282    55.181993    36822.805 
  947400     304.0849   -1539.6622    463.03828    285.72434   -98.440761    36822.805 
  947500    298.17212   -1512.0626    460.80256    284.59805   -560.38193    36822.805 
  947600    296.65942   -1557.3155    459.65378    231.41918   -522.31409    36822.805 
  947700    304.18156   -1545.0364    470.00991    287.75484   -387.32628    36822.805 
  947800    289.38326   -1517.9675    474.18429    252.69938    4.0466714    36822.805 
  947900    291.19952   -1546.1623    485.15146     243.6089    197.58405    36822.805 
  948000    296.75623   -1563.3596    449.93881    216.09391     131.0678    36822.805 
  948100    312.39494   -1535.9404    431.01978    294.65795     105.5776    36822.805 
  948200    295.69815   -1552.4899    462.76787    235.05225      5.52135    36822.805 
  948300    291.30992   -1553.5038    441.67766    193.28817    288.07568    36822.805 
  948400    297.59806   -1522.0619    467.83483    279.05915    328.80281    36822.805 
  948500    306.56477   -1568.3932    460.82302    265.88826    913.79151    36822.805 
  948600    310.50299   -1596.4859    454.86319    249.47963    685.72745    36822.805 
  948700    284.76817   -1563.8998    474.26139    186.16784    232.92318    36822.805 
  948800    299.66854   -1570.2709    467.04443     239.3358    55.809626    36822.805 
  948900     294.0447    -1571.562    466.02084     211.8254     392.5809    36822.805 
  949000    304.62447    -1585.093     483.9922    263.66478    646.05493    36822.805 
  949100    309.75165   -1578.7948     457.0622    266.00362    621.56455    36822.805 
  949200    300.01945   -1575.2258    479.07527    247.98382    408.07251    36822.805 
  949300    299.23747   -1554.5164    500.54966    286.66424   -270.96122    36822.805 
  949400     302.9609   -1507.9439    447.63196    297.00065   -540.80485    36822.805 
  949500    306.15923   -1502.4245     484.9053    354.12234   -532.11623    36822.805 
  949600    307.02017   -1514.2048    478.16114    339.45504   -643.78044    36822.805 
  949700    307.74517   -1492.1624    470.63752    357.22195   -586.57306    36822.805 
  949800    293.13216   -1491.1477    470.75613    292.88664   -905.41977    36822.805 
  949900     298.0809   -1515.3292      449.762    269.88222   -682.55997    36822.805 
  950000    307.90947    -1495.124    469.54785    353.90676   -438.72469    36822.805 
  950100    301.60555   -1481.9157    468.82732    338.15197   -621.76887    36822.805 
  950200    295.12681   -1472.2149    481.39309    331.39282   -896.20221    36822.805 
  950300    303.52108   -1453.5169    476.26972     382.5751   -0.4207327    36822.805 
  950400    291.16153   -1480.0375    490.60422    315.01625    374.00997    36822.805 
  950500    308.27661    -1507.721    456.43747    329.84427   -102.01736    36822.805 
  950600    290.10004    -1523.685    468.66872    244.67759   -218.75686    36822.805 
  950700    286.81636    -1548.884    495.62056    231.71906   -541.02225    36822.805 
  950800    311.07176   -1519.2281    460.46159    334.88397   -106.80679    36822.805 
  950900    301.37827   -1482.2077    479.67036     347.6848   -1.3240902    36822.805 
  951000    312.10711    -1490.785    475.09735    382.60132   -77.928393    36822.805 
  951100     306.9141   -1479.7391    485.96781    381.25227   -88.250621    36822.805 
  951200    308.55734   -1494.8029    462.80167    350.38421    143.03842    36822.805 
  951300    295.57068   -1497.0308    473.25636     300.4288    538.33416    36822.805 
  951400    292.27118   -1525.0608     478.7027    263.06275    336.95778    36822.805 
  951500    294.13202   -1504.2236    475.04178    288.57601    79.707259    36822.805 
  951600    295.05356   -1516.1666    473.06428    278.78411    25.092566    36822.805 
  951700    297.23713   -1499.5176    486.85115    319.00273    17.399063    36822.805 
  951800    298.97005   -1490.3892    464.92513    313.96886    -48.09075    36822.805 
  951900    294.37878   -1519.9627    468.70827    267.60884    399.88085    36822.805 
  952000    303.79294   -1525.4552    504.67144     340.2564    469.44318    36822.805 
  952100    295.96564      -1506.3    459.23776    278.91049    22.461106    36822.805 
  952200    302.68841   -1471.3597    489.17599    373.90808    65.886977    36822.805 
  952300    298.47151   -1497.9617    467.25419    306.49189    154.83452    36822.805 
  952400    312.36987   -1505.3061    471.09215    365.25223    -360.2947    36822.805 
  952500    313.44931   -1532.0372    476.17636    348.44147   -212.60539    36822.805 
  952600     292.7565   -1512.1675    471.48232     270.9101   -313.50209    36822.805 
  952700    290.31976   -1544.9963    448.80717    204.48913    432.43598    36822.805 
  952800      297.372   -1552.9538    455.66918    234.98878   -49.127622    36822.805 
  952900    297.12415   -1531.7035    493.74058    293.20002    40.335382    36822.805 
  953000    301.09073   -1564.6711    478.47081    262.73357     249.6797    36822.805 
  953100    298.67819   -1567.7021    477.04767    247.47093    767.93265    36822.805 
  953200    302.27306   -1522.2608    474.20755    306.17768    857.72585    36822.805 
  953300     303.2385   -1542.6849    496.17305    312.04438    475.17805    36822.805 
  953400    310.76795   -1565.2211     479.8055    306.87377   -65.260997    36822.805 
  953500      292.281   -1500.0716    478.49495    287.88829   -52.212996    36822.805 
  953600    298.21986   -1513.9019    475.72234    297.89239   -559.63945    36822.805 
  953700     291.8729    -1543.965    465.02317    228.69469   -63.692772    36822.805 
  953800    310.03713   -1557.1401    453.42708    285.30209   -435.45732    36822.805 
  953900     297.4042   -1521.5921    465.51334    276.33894   -153.29729    36822.805 
  954000    303.44826   -1523.6996    479.23992    315.03632    147.77287    36822.805 
  954100    306.77987   -1541.3096    469.44291     302.5554    46.424936    36822.805 
  954200     293.8767   -1577.2012    459.28851    198.70122    283.13707    36822.805 
  954300    302.51796   -1572.4821    458.24405    241.09008    531.93075    36822.805 
  954400    301.68514   -1573.8882    448.05146    225.76018    431.31108    36822.805 
  954500    299.77852    -1615.094    489.46939    217.43037    295.00354    36822.805 
  954600    299.50532   -1587.3046    451.98221    206.50858    524.40898    36822.805 
  954700    304.02964   -1558.7929    454.10332     257.4111    328.74387    36822.805 
  954800    301.20028   -1580.8003    460.29548    228.91989    540.25036    36822.805 
  954900    309.55574   -1579.4425    467.84503    275.26103    491.67632    36822.805 
  955000    294.73966   -1617.9041    459.74022    162.31624    174.75204    36822.805 
  955100    289.81243   -1605.6432    456.71583    149.47792    158.82493    36822.805 
  955200    300.03189   -1574.6114    443.18795    212.76665   -453.28306    36822.805 
  955300    293.31977   -1550.0108    517.20204       281.31   -334.18561    36822.805 
  955400    292.86167   -1584.0007    433.06498    161.13065   -65.028691    36822.805 
  955500    297.63847    -1562.034    468.36749     239.8007    -112.3861    36822.805 
  955600     286.7221    -1570.217    447.51318    161.85631   -179.57161    36822.805 
  955700    306.26781    -1555.432    455.34487    272.04091   -137.87406    36822.805 
  955800    287.23107   -1532.6512    503.79496    257.98423   -734.87034    36822.805 
  955900    299.78397   -1581.1726    443.81559    205.72241   -769.26217    36822.805 
  956000    300.06596   -1528.4983     482.4153    298.25973   -422.11603    36822.805 
  956100    293.54582   -1529.2059    483.77116    269.69676    139.53528    36822.805 
  956200     306.2231   -1519.5193    494.70844    347.11688    123.24152    36822.805 
  956300    292.48206   -1579.9356    457.31703    187.74718    171.48578    36822.805 
  956400    311.29054   -1505.8793    478.33443    367.08577    154.94171    36822.805 
  956500    291.85524   -1490.3595    476.90315    294.10111    578.74323    36822.805 
  956600    304.61476   -1514.2648    485.45821    335.91554    222.91864    36822.805 
  956700    304.61186   -1524.5114    467.46105    307.65879    500.07802    36822.805 
  956800    297.08989   -1583.4932    476.74829    224.26463    497.15283    36822.805 
  956900    292.27817   -1582.6343    448.76499    175.58292    670.77965    36822.805 
  957000    291.36226   -1535.6789    478.75501    248.42495   -100.63504    36822.805 
  957100     306.1561   -1492.2183     478.1046    357.51384    -320.4428    36822.805 
  957200    297.87977   -1492.2781    476.90687    319.17706    -324.9299    36822.805 
  957300    299.59496   -1475.3251    492.72694     359.6345   -498.41247    36822.805 
  957400     299.7177   -1456.4841    465.49227    351.79066   -393.28516    36822.805 
  957500     305.3298   -1501.2134    480.90703    347.61923   -279.56256    36822.805 
  957600      299.782   -1499.5653     474.9131    318.41839   -14.872466    36822.805 
  957700    297.13155   -1522.6025    472.39673    280.99037   -162.98984    36822.805 
  957800    293.75897   -1480.8951    478.28865    313.48007    291.90477    36822.805 
  957900    301.64577     -1465.57    484.91859    370.76914   -435.87526    36822.805 
  958000    290.59681    -1469.903    497.99815    330.01467   -642.46077    36822.805 
  958100    299.28658   -1492.2553    457.74713    306.34289   -318.52445    36822.805 
  958200     311.7631   -1471.6509    470.31709    395.41397   -529.69798    36822.805 
  958300    297.87609   -1476.5979    493.63846    351.57234   -189.78463    36822.805 
  958400    304.78029   -1429.5831     474.1351    410.01573   -121.94997    36822.805 
  958500     300.0802   -1469.4961     483.9539    358.86435   -208.32113    36822.805 
  958600    303.93416   -1490.4927    473.69206    344.87229   -164.09004    36822.805 
  958700    294.31284   -1516.3935    468.66187    270.83628    96.499265    36822.805 
  958800    302.92923   -1499.7493    473.21748    330.63884   -222.37763    36822.805 
  958900    292.26614   -1442.9519    483.32364    349.77006   -305.03131    36822.805 
  959000    302.14247   -1462.6219    515.12649    406.15044   -495.10762    36822.805 
  959100    307.80753    -1523.417    456.42683    312.03605    122.59051    36822.805 
  959200    299.35197   -1517.7324     468.4721    291.88364    382.60147    36822.805 
  959300    299.39363   -1516.4042    469.94995    294.87641    387.62938    36822.805 
  959400    303.10179   -1502.6716    455.01357    310.28574   -118.85264    36822.805 
  959500    300.90639   -1493.6636    490.67769    345.12208   -49.810604    36822.805 
  959600    308.18143    -1506.445    455.74628    330.00265   -165.23229    36822.805 
  959700    304.22339   -1538.8586    452.86521    276.97533    104.34417    36822.805 
  959800    285.33986   -1515.6739    481.30232    243.99594    29.086755    36822.805 
  959900    299.36325   -1471.1245    464.84619    334.91625    239.00722    36822.805 
  960000    303.80754   -1457.0068    488.47871    392.57754    557.94778    36822.805 
  960100    296.56564   -1476.0478    472.53436    325.14734    -378.4988    36822.805 
  960200    296.99967   -1459.2608    481.55357    352.89809    53.934152    36822.805 
  960300     285.7454   -1457.2697     472.0568    294.97148    47.822436    36822.805 
  960400     289.1575   -1494.0508    475.75698    277.17737   -68.124997    36822.805 
  960500    290.11505   -1462.8113    487.92075    324.87053    95.341481    36822.805 
  960600    303.72868   -1463.7544    455.47191    352.46981    641.74469    36822.805 
  960700    295.24996   -1494.1942    481.97254    310.54463    380.15365    36822.805 
  960800    306.84015   -1465.0991    491.98923    401.58231   -130.58439    36822.805 
  960900    298.38418   -1476.3562    469.61631    330.06822   -215.38634    36822.805 
  961000    303.80022   -1506.9744    478.55806    332.65647    162.44907    36822.805 
  961100    303.83792   -1488.4967    467.24099    339.98603   -500.11682    36822.805 
  961200    308.71483   -1521.0809    465.28524    327.29538   -372.46289    36822.805 
  961300    299.49034   -1548.5251    454.23074    247.46953   -898.92848    36822.805 
  961400     298.5275   -1497.5335    466.34377     306.2605   -593.06899    36822.805 
  961500    307.52697   -1498.1546    451.77722     331.3919    -513.5976    36822.805 
  961600    308.62378   -1547.9132    457.39281    292.16276   -533.26753    36822.805 
  961700    300.54386   -1501.7398    457.00903    301.75305   -342.84113    36822.805 
  961800    300.89524   -1475.2563    453.32584     326.1276   -255.34569    36822.805 
  961900    305.38104   -1526.5902    468.23921    309.80416   -53.401932    36822.805 
  962000    304.43629    -1512.273    460.09498    311.74448    201.67316    36822.805 
  962100      314.026    -1510.291    454.35336    350.94831    701.34166    36822.805 
  962200     297.2057   -1509.5962    465.31315    287.24527    1073.2777    36822.805 
  962300    300.32584   -1490.1016    464.88041    320.28585    700.81256    36822.805 
  962400    309.07086   -1505.8294     472.9958    351.85255    808.31411    36822.805 
  962500    310.25936   -1525.1295    456.64867    321.53002    429.94256    36822.805 
  962600    291.58443   -1518.7905    484.86586    272.41956    234.10504    36822.805 
  962700    306.10432   -1546.3919    474.14796    299.15165    154.99352    36822.805 
  962800    297.26425   -1536.0012    459.96161    255.75105    626.38645    36822.805 
  962900    298.38044     -1529.49    456.76607    264.06747    588.47875    36822.805 
  963000    297.04254   -1495.3306    483.66871    319.13551    594.92626    36822.805 
  963100    311.37753   -1496.8068    470.65296     368.8665    249.07167    36822.805 
  963200    300.64635    -1513.354    492.14133    325.73039    203.46657    36822.805 
  963300    291.41783   -1508.4875    445.64654    242.75683    -487.3145    36822.805 
  963400    306.78035   -1528.8066    472.16518    317.78289   -228.26034    36822.805 
  963500    292.76777   -1557.2338    448.06047    202.47243   -318.43172    36822.805 
  963600    305.46573    -1526.744    484.34331    326.13391   -390.06643    36822.805 
  963700    314.50479   -1532.4312    436.07351     312.6733   -759.80423    36822.805 
  963800    303.18848   -1509.0367    450.21581    299.51119   -14.901847    36822.805 
  963900     300.6052   -1534.5502     483.0913    295.29972     -476.678    36822.805 
  964000    293.90696   -1518.2392    471.67728    270.18759   -282.98228    36822.805 
  964100    289.20924   -1498.9597     459.7798    256.52308   -171.59034    36822.805 
  964200    304.82544   -1503.8554    492.11895    353.92956   -19.961247    36822.805 
  964300    296.62425   -1531.3095    475.57333    273.18718   -578.66163    36822.805 
  964400    298.19448    -1480.639    476.72348    332.04274    93.916027    36822.805 
  964500    294.66375   -1497.8094    490.26147    312.59212   -97.950257    36822.805 
  964600    292.45968   -1514.8282    484.08668    279.52396    36.691158    36822.805 
  964700    313.53337   -1522.5745     463.8774    345.98176   -310.04267    36822.805 
  964800     302.3973   -1519.8809    455.75586    290.66248    118.75615    36822.805 
  964900    303.43031   -1533.1051    451.86269     278.1732    367.92528    36822.805 
  965000    302.48313    -1534.188    469.86697    290.85099   -176.38828    36822.805 
  965100    302.95233   -1513.3719    461.75123    305.65353    -88.18557    36822.805 
  965200    295.72122   -1519.7241    475.45282    280.60638   -406.42983    36822.805 
  965300    308.23341   -1541.5128    468.62987     308.0513   -673.76696    36822.805 
  965400    297.43222   -1558.0697    454.58359    229.05703   -488.77025    36822.805 
  965500    292.80871   -1531.6393    469.45954    249.64938   -278.08815    36822.805 
  965600    287.85375   -1539.9854    486.12966    235.77439   -522.21556    36822.805 
  965700    276.09383   -1531.2035    496.51248    202.25281    194.98947    36822.805 
  965800    296.74449   -1546.2004    473.17592    256.43758      170.032    36822.805 
  965900    306.80578   -1520.7747    508.58998    362.35348    315.21838    36822.805 
  966000    305.87711   -1544.4722     471.8557    297.76107    440.44102    36822.805 
  966100    302.20416   -1481.5186    474.46556    346.86919    572.56925    36822.805 
  966200    291.72675   -1473.0862    503.32289    337.21847    556.29516    36822.805 
  966300    303.63303   -1496.6131    482.88437    346.59506    512.09866    36822.805 
  966400    304.28772   -1533.9971    482.51393    311.77376    643.73622    36822.805 
  966500     288.1929    -1588.793    468.71272    171.06932    573.54619    36822.805 
  966600    300.59328   -1553.6586     470.1676    263.21419     514.2027    36822.805 
  966700    301.51538   -1485.0133    496.33896    362.16205    181.40641    36822.805 
  966800    302.07862   -1517.1147    476.73923    312.98428    356.18033    36822.805 
  966900    296.42864   -1524.3912    466.65105    270.30688    758.83529    36822.805 
  967000    308.52119   -1516.1915    509.55383    375.58583    501.56135    36822.805 
  967100    300.05282   -1540.7947    480.05371    283.54284    355.40875    36822.805 
  967200    295.94217   -1554.5092    449.64513    221.00349    614.00708    36822.805 
  967300    299.37992    -1519.616    468.97818    290.63141   -133.82367    36822.805 
  967400    297.82631   -1496.4451    469.97225    307.83598    -133.1292    36822.805 
  967500    302.91262   -1507.4232    482.45237     332.1254    56.634229    36822.805 
  967600    301.46571   -1500.7194    465.36989    315.26436   -541.13325    36822.805 
  967700    304.04518   -1497.0994    506.10734    371.17829   -86.459995    36822.805 
  967800    296.84672   -1547.0606    466.90513    249.76458   -566.77891    36822.805 
  967900    300.36662   -1515.3619    483.96999    314.29787   -227.74154    36822.805 
  968000    305.11828   -1506.6511    487.34623    347.67305   -159.08229    36822.805 
  968100     292.0011   -1541.8959    481.00126    247.31633    31.258448    36822.805 
  968200    294.23929   -1522.9951    479.74505    274.98831   -490.45847    36822.805 
  968300    304.24955   -1477.9674    497.50991    382.62844   -121.82682    36822.805 
  968400    302.74233   -1448.6521    507.35824     415.0395   -660.05873    36822.805 
  968500    309.41671   -1509.0766    490.42453    367.58352    135.38206    36822.805 
  968600    292.10895   -1553.8395    469.87542    224.72998    124.46968    36822.805 
  968700    292.35106   -1508.8374    486.86003    287.80146   -160.43249    36822.805 
  968800    301.25212   -1535.6889     477.6076    291.57559   -183.85622    36822.805 
  968900    284.70298   -1513.4761    477.69025    239.72831   -493.27929    36822.805 
  969000    300.43527   -1521.7836    487.61497     311.8287    -129.5745    36822.805 
  969100    308.94773   -1555.0325    466.97637    296.07841    -174.9051    36822.805 
  969200    290.65061   -1520.8697    441.33639    222.62722   -639.93299    36822.805 
  969300    304.65599   -1488.3034    474.78964    351.39308   -387.12127    36822.805 
  969400    302.61195   -1458.0104    501.87016    399.60901   -119.65746    36822.805 
  969500    289.92864   -1536.3542    462.00667    224.57843    -237.7553    36822.805 
  969600    299.62834   -1520.4403    491.89827    313.84009   -63.319944    36822.805 
  969700    300.26024   -1504.4173    478.13798     318.9339    206.21911    36822.805 
  969800    296.90824   -1514.5903    486.50566    302.11102    192.85555    36822.805 
  969900    311.05544   -1580.3403    466.69245    279.92954    317.91999    36822.805 
  970000    303.33765   -1542.1396     497.1031    313.96399    390.07946    36822.805 
  970100    296.30082   -1534.9436    468.46219     260.9929    294.61318    36822.805 
  970200    298.02666   -1556.1014    444.63627    223.74127   -149.70859    36822.805 
  970300    306.36728   -1561.4952    473.11007    284.18854   -102.70299    36822.805 
  970400    306.77129   -1562.7226    454.73899    266.40003    21.964917    36822.805 
  970500    301.64127   -1563.6366    466.25046    254.01423    19.865736    36822.805 
  970600    301.88625   -1531.1041    474.89707    296.29091    411.67423    36822.805 
  970700    308.09197   -1516.2893    473.52414     337.5354    432.91459    36822.805 
  970800    302.06907   -1530.1661    459.18932    282.34028   -348.67852    36822.805 
  970900    298.96879   -1529.9066    484.88682    294.40752   -208.18343    36822.805 
  971000    299.37798   -1543.8175    491.08365    288.52663   -82.142564    36822.805 
  971100    304.55237   -1505.0766     458.5695    317.93547    -125.0633    36822.805 
  971200    301.86378   -1486.9074    488.17727    353.66719   -844.68676    36822.805 
  971300    289.81576   -1510.5048     503.4838    291.39925   -341.99512    36822.805 
  971400    301.82613   -1539.2255    456.00368    269.00679   -594.77545    36822.805 
  971500    303.91835   -1533.6615    478.27257     306.2131   -402.35784    36822.805 
  971600    304.31232    -1518.899    484.46396    328.93207   -967.82219    36822.805 
  971700    301.69284   -1520.5795    474.14629    305.19827   -388.76586    36822.805 
  971800    303.82532   -1469.1062     499.3484    391.42753   -933.35097    36822.805 
  971900    297.93491   -1492.2175     493.2859    335.86371   -557.27914    36822.805 
  972000    289.84225   -1512.6671    477.95578    263.82766   -384.03584    36822.805 
  972100    301.26747   -1513.2867    486.97322    323.41225    117.01894    36822.805 
  972200    303.29325   -1526.7198    474.48565    306.56737   -4.1277007    36822.805 
  972300    296.80699   -1558.6456    500.52427    271.62072    501.70044    36822.805 
  972400    292.69515   -1555.7482    500.98726    256.55946    730.32153    36822.805 
  972500    292.85293   -1567.7194    483.51316    227.82102     901.5689    36822.805 
  972600    307.69347   -1601.2781     469.6846    246.92168    446.75824    36822.805 
  972700    299.40228   -1563.1248    469.21601    247.46061   -116.28951    36822.805 
  972800    304.17114   -1585.3715    480.16111    257.52418   -380.54513    36822.805 
  972900    299.90804   -1582.2696    460.68747    222.05315   -762.13393    36822.805 
  973000    306.36418   -1605.9344    449.03283    215.65823   -380.94302    36822.805 
  973100    296.49141   -1591.3643    461.45578    198.41967   -24.335191    36822.805 
  973200    301.45437   -1537.4349    495.00227    308.13042     -3.26293    36822.805 
  973300    301.44408    -1545.946    494.36291    298.93384    5.1254022    36822.805 
  973400    300.82424   -1526.0135    467.87067    289.59711    113.99921    36822.805 
  973500    298.38902    -1551.161    456.36947    242.03828   -527.43239    36822.805 
  973600     296.9928   -1554.4775    500.96516    277.06214   -486.58158    36822.805 
  973700    297.91395   -1580.4512    488.23584    242.48606   -71.088023    36822.805 
  973800    303.20917   -1522.8963    483.15069    318.67925   -185.61229    36822.805 
  973900    304.67463   -1539.2371     487.0382    312.79147    209.84834    36822.805 
  974000    305.23126   -1562.5042    486.09653     291.0765    30.465504    36822.805 
  974100    305.50041   -1582.7189    489.02503    274.99611    30.252356    36822.805 
  974200     290.6256   -1533.0487    461.74434    230.74414    -245.1173    36822.805 
  974300    307.09915   -1555.9323    485.63844    305.55865   -139.40216    36822.805 
  974400    300.82343   -1506.3146     479.1629    320.58461   -380.91299    36822.805 
  974500      296.141   -1530.8812    476.35953    272.23663   -394.85544    36822.805 
  974600    307.14371   -1514.1508    480.97919    342.88059   -122.35219    36822.805 
  974700     299.0202   -1486.9004    499.57223    352.32946   -96.593305    36822.805 
  974800    302.82698    -1508.464      490.213    338.46151    573.93275    36822.805 
  974900    310.69838    -1510.197    500.95629    382.73694    637.80981    36822.805 
  975000     313.4472   -1530.2919    465.41349     339.4144      501.141    36822.805 
  975100    300.63674   -1545.1934    482.23612    283.94263    299.10377    36822.805 
  975200    306.29759   -1557.4783    475.26811    290.05122    55.123545    36822.805 
  975300    293.16134   -1544.0723    481.54246    250.87911   -14.341211    36822.805 
  975400    310.46073   -1529.5398    479.39708    340.77023    294.20892    36822.805 
  975500    298.96037   -1523.9065    453.71444    269.19749    61.102143    36822.805 
  975600    313.34762   -1500.7443    480.66509    383.76752    23.720809    36822.805 
  975700    311.89649   -1553.2574    471.40536    315.49341   -269.54822    36822.805 
  975800    286.91205    -1582.944    497.21737    199.68452   -297.01968    36822.805 
  975900    307.85043   -1548.7001    457.18752    287.70578   -361.41821    36822.805 
  976000    306.95674   -1534.4994    456.41927    297.13442    -170.4655    36822.805 
  976100    297.29348   -1559.7913    430.40099    202.53126    311.46109    36822.805 
  976200    306.10725   -1545.1617     480.0121     306.2591   -196.17565    36822.805 
  976300    303.85017   -1562.5189     466.1664    264.94409    347.84984    36822.805 
  976400    290.87651   -1563.3807    493.18723    232.97911    -213.9149    36822.805 
  976500    302.14998   -1598.0435    440.27927    195.91529   -139.95184    36822.805 
  976600    306.82589    -1543.771    480.70642    311.56376   -348.72466    36822.805 
  976700    307.21459   -1560.3357    472.70352    288.73756     163.9258    36822.805 
  976800    300.20672   -1563.7167    459.34755    240.60426    -535.0996    36822.805 
  976900    306.73573    -1516.852    485.91901     343.2914   -315.59127    36822.805 
  977000    304.89432   -1467.2508    517.68964    416.41346   -435.19893    36822.805 
  977100    302.42169   -1512.7815    490.02041    332.13571   -630.00933    36822.805 
  977200    307.01192   -1522.1244    461.69453    315.03186   -650.83445    36822.805 
  977300    293.66053   -1523.9527    481.85135    273.54411    -312.9903    36822.805 
  977400    303.79006    -1525.071    505.31298    341.26933    305.05447    36822.805 
  977500    298.72594   -1549.8337      477.879    266.38451   -8.1924684    36822.805 
  977600    302.83919    -1578.134    492.54928    271.18256   -295.18321    36822.805 
  977700    294.62459   -1608.6859    458.81329    170.09191   -506.87344    36822.805 
  977800    301.61172   -1560.3031    439.68598    230.65084   -958.19438    36822.805 
  977900    307.30293   -1575.2658    461.87665    263.37633   -909.78973    36822.805 
  978000    307.24624   -1557.3404    483.56397     302.7351    119.41847    36822.805 
  978100    295.11005   -1541.2385    475.01869    255.91971    70.106323    36822.805 
  978200    300.59659   -1540.3528    488.71945    295.08674    450.50502    36822.805 
  978300    307.64613   -1598.5358      457.088    236.85531    222.62651    36822.805 
  978400    303.34161   -1584.9532    487.42022    261.48525   -103.41624    36822.805 
  978500    296.84385   -1563.3634    470.43705    236.98082    290.34455    36822.805 
  978600    305.11345   -1604.9045    446.27175    208.32354    -325.6283    36822.805 
  978700     297.0801    -1558.565    461.42583    233.82648   -122.53703    36822.805 
  978800    307.78329   -1536.3116    471.97225     314.5783   -234.47651    36822.805 
  978900    303.37627   -1543.1312    469.56488    285.60717    -176.1547    36822.805 
  979000    304.09007   -1524.6163    466.18484    303.93999   -211.64784    36822.805 
  979100     296.1071    -1516.029    476.83002    287.40751   -499.04813    36822.805 
  979200    292.43438   -1570.6222    481.27826    220.80817    -1155.749    36822.805 
  979300    305.86787   -1578.8876    469.40219    260.85082   -717.56611    36822.805 
  979400     303.4093    -1585.804    470.16467    243.68208   -733.09603    36822.805 
  979500    285.82659    -1554.276    463.65818    189.93032    261.75672    36822.805 
  979600    294.76288   -1586.2736    481.98603    216.29656    497.94353    36822.805 
  979700    297.16917   -1557.0819    486.30017    260.58292    597.96213    36822.805 
  979800    306.35692   -1539.5808    483.33652    316.28303    678.40861    36822.805 
  979900    291.28938   -1578.1544    488.75879    215.62667    -32.70735    36822.805 
  980000    312.84414   -1536.4471    463.67191    328.81588    -47.19216    36822.805 
  980100    301.38683   -1559.7032    461.13328    251.69061   -474.77601    36822.805 
  980200     312.7104   -1487.0036    487.33333    401.32161   -479.92098    36822.805 
  980300    309.93254   -1537.2678     480.6059    331.88468    -736.8997    36822.805 
  980400    297.60334   -1553.9488    476.21398    255.57502   -484.42733    36822.805 
  980500    308.18848   -1566.7923    501.62355    315.56415   -7.4206586    36822.805 
  980600    301.92236   -1577.8687     470.1321    244.92317   -86.999707    36822.805 
  980700    294.75547    -1575.247    480.67783    225.98177    267.62406    36822.805 
  980800    310.69093   -1575.1483    454.90392    271.69991    446.69964    36822.805 
  980900    301.32382   -1580.6032    488.80895    258.18389    503.02438    36822.805 
  981000    312.81743   -1599.5305    475.79558    277.73649    467.75286    36822.805 
  981100    296.51909   -1561.0382    467.76058    235.17458    736.76111    36822.805 
  981200    294.37916   -1580.9417    456.22223    194.14553   -37.885552    36822.805 
  981300    303.58013   -1566.3321    480.80697    274.56168     138.4135    36822.805 
  981400     303.3996   -1566.9092    483.98989    276.35867    474.24018    36822.805 
  981500    293.32439   -1537.5237    496.48984    273.10558    252.03008    36822.805 
  981600    291.89247   -1558.8033    489.08188    238.00282    645.06641    36822.805 
  981700    303.92535   -1586.7698    520.42381    295.28746    759.08183    36822.805 
  981800    311.32658   -1540.8113    447.12805     301.1089    643.40792    36822.805 
  981900    306.90413   -1525.1244    512.18206    362.03648    210.09544    36822.805 
  982000    292.54076   -1535.6651    487.58863    262.55221    21.862581    36822.805 
  982100    304.42621   -1556.0975    456.88387    264.66372    110.24472    36822.805 
  982200     300.7864   -1555.7073     496.2205    288.08368    485.92447    36822.805 
  982300    305.22714   -1540.6536    485.31796    312.12997   -495.55938    36822.805 
  982400    297.59517   -1542.2872    454.40076    245.38682   -547.11596    36822.805 
  982500    296.56012   -1572.6014    490.58161    246.61624   -929.40881    36822.805 
  982600    285.80078   -1543.2705    509.26097    246.42294   -875.23458    36822.805 
  982700    292.03982   -1569.8936    479.10639    217.59722   -317.25509    36822.805 
  982800    303.32913      -1535.5    455.53418    278.99648    -358.5639    36822.805 
  982900      302.617    -1556.676    469.09268    268.18853    -583.2759    36822.805 
  983000    295.35042    -1579.404    480.71244    224.52482   -617.20059    36822.805 
  983100    296.00578   -1557.1967    477.76593    246.72178   -573.30128    36822.805 
  983200    300.14031   -1548.3795    484.86355    281.15985   -609.91457    36822.805 
  983300    303.37093   -1546.5233    476.04062    288.66693   -618.03081    36822.805 
  983400    304.54305   -1591.0178    484.66386    258.04689   -362.25602    36822.805 
  983500    294.73641   -1568.3128    481.19039    233.34316   -484.48924    36822.805 
  983600    311.67782   -1561.7294    474.73336    309.36967   -88.072355    36822.805 
  983700    295.46984   -1585.5533    478.23384    216.43194   -127.89753    36822.805 
  983800    304.35168   -1538.0358    507.20008    332.70775   -418.86536    36822.805 
  983900    296.93525   -1538.5363    483.42753    275.20793   -448.15243    36822.805 
  984000    296.91348    -1551.877    486.78518    265.12732    201.86662    36822.805 
  984100    294.84896   -1538.8826     477.8355     259.9227    272.04807    36822.805 
  984200    293.50748    -1525.883    488.03241     277.1091   -111.72307    36822.805 
  984300    314.17522   -1553.7931    489.24171     343.0031   -63.975142    36822.805 
  984400    296.79338   -1515.3669    484.19518    298.50934   -404.23363    36822.805 
  984500    303.58763    -1511.761    468.05645    316.41589   -585.72779    36822.805 
  984600    307.60957   -1525.6949    517.21637    369.66082   -419.06498    36822.805 
  984700    300.34041   -1530.1107    481.11905    296.58072   -616.81022    36822.805 
  984800    302.80895   -1540.5965    465.39324    281.42854    223.35021    36822.805 
  984900    293.51887   -1535.1344    499.00308    278.87941    275.89507    36822.805 
  985000    316.77849   -1530.2655    484.99486    373.94686    550.68398    36822.805 
  985100    299.53946   -1526.8757    481.53788    296.64619    706.20706    36822.805 
  985200    301.30982   -1548.7878    480.28385    281.41152    744.74042    36822.805 
  985300    298.37087   -1553.1095    486.32552    269.96454    462.89624    36822.805 
  985400    301.41173   -1569.4093    496.51236    277.47505    196.56058    36822.805 
  985500    302.07591   -1565.9503     485.6987    273.09605   -193.26124    36822.805 
  985600    311.20646   -1549.1738     499.2791    344.35922    -330.2248    36822.805 
  985700     280.8448   -1542.2303    485.01285    201.01154   -163.47575    36822.805 
  985800    293.76897    -1562.626    487.72362    241.22892    -187.0365    36822.805 
  985900    287.75328   -1527.6453    503.26438    264.79904    76.431443    36822.805 
  986000    295.79722   -1558.3782    471.08623    237.92621   -30.609009    36822.805 
  986100     300.6389   -1592.8503    495.32054    249.37985    698.35497    36822.805 
  986200    298.23933   -1550.5975    482.29679    267.85845    890.24753    36822.805 
  986300    295.90207   -1558.5762    490.43473    257.54643    1055.1655    36822.805 
  986400    285.91459   -1508.9518    498.53404     270.5247    137.26609    36822.805 
  986500    301.79276   -1538.1717    504.38561    318.29304    610.33062    36822.805 
  986600    300.27791    -1518.261    486.12557     313.1569   -41.824399    36822.805 
  986700    294.27831   -1534.9879    468.37588     251.8012   -58.590791    36822.805 
  986800    299.83274   -1556.4916    475.00038    261.80665    327.32942    36822.805 
  986900    305.86353   -1555.5105     482.4405    297.24674    749.34348    36822.805 
  987000    306.51638   -1562.0808    487.90865    299.06956     528.2909    36822.805 
  987100    296.83898   -1526.0426    464.49125     268.3341    851.04948    36822.805 
  987200    308.06495   -1519.8438    499.97164    360.30732    999.42653    36822.805 
  987300    302.98426   -1547.1032    464.41885    274.73289     -91.4072    36822.805 
  987400    293.74873   -1581.1637    451.98438     186.8613    272.06575    36822.805 
  987500     300.6335    -1578.257    498.58061    267.20906    232.40096    36822.805 
  987600    302.80609   -1554.4321    473.96911      276.156   -293.43323    36822.805 
  987700    299.03598   -1543.0066    479.89367    276.61536   -134.97623    36822.805 
  987800    288.27804   -1553.2675    484.03046    222.29401   -482.69127    36822.805 
  987900    292.92988   -1561.1507     493.9945    245.21583   -181.87796    36822.805 
  988000    294.26019   -1584.0217    501.39743    235.70771    79.040977    36822.805 
  988100    304.50876     -1542.77    506.05629    327.53347    -245.6873    36822.805 
  988200      306.211   -1518.7671    453.46304    306.56944   -183.57397    36822.805 
  988300    301.89049   -1546.4804    493.58708    299.62368    -441.9449    36822.805 
  988400    296.86682   -1531.0456    486.96919     285.9337   -102.14191    36822.805 
  988500    293.99883   -1557.0631     466.8511    226.94906   -328.52582    36822.805 
  988600    298.93301   -1578.4552     478.2873    239.09905   -681.78973    36822.805 
  988700    296.86071   -1525.9366    496.42598     300.4721   -11.657981    36822.805 
  988800    296.30121   -1554.7763    490.68663    263.38642    724.97539    36822.805 
  988900    303.43846    -1612.433    483.17415    230.19319    383.65287    36822.805 
  989000    292.74938   -1584.3438    459.83777    187.05732    316.33718    36822.805 
  989100    310.63791   -1562.3282    477.02665    306.40515    185.77548    36822.805 
  989200    301.01018   -1585.1851    482.04304    245.43099   -518.07957    36822.805 
  989300    308.73838   -1583.8215     483.6003    282.97536   -344.49424    36822.805 
  989400    293.48489    -1595.319    486.45404    205.99362   -123.37024    36822.805 
  989500    302.45697   -1539.6253    485.57212    301.00171   -36.605114    36822.805 
  989600    296.47461   -1564.1814    476.03403    240.10555   -65.906852    36822.805 
  989700    304.01196   -1567.2733    471.58866    266.33679    171.32261    36822.805 
  989800    311.04998   -1606.1233    477.88964    265.31923    38.391981    36822.805 
  989900    290.10381   -1561.7683    493.72837    231.67077   -148.58553    36822.805 
  990000    293.27738   -1553.1711    468.81687    229.57459    174.50462    36822.805 
  990100    296.83581   -1562.1461    471.33879    239.06384   -21.411035    36822.805 
  990200    296.34267   -1575.6869    456.05305    208.02801    6.5850429    36822.805 
  990300    310.72402   -1557.7589    495.00852    329.34217      395.704    36822.805 
  990400    288.73913   -1584.3648    478.60602    187.83797    70.219515    36822.805 
  990500    301.83812   -1553.1414    515.69555    314.83649    269.16088    36822.805 
  990600    305.98915   -1573.2759     472.6807    270.28436    403.36733    36822.805 
  990700    291.50404   -1601.7657    479.05939    183.27766    496.78959    36822.805 
  990800    296.28007   -1581.3125     493.5669    239.63578    50.413336    36822.805 
  990900    302.67796   -1554.0415    487.57169    289.57513    396.41066    36822.805 
  991000    295.46858   -1556.3533    485.20762    252.60011   -225.64102    36822.805 
  991100    309.44699    -1583.241     466.2203    269.35054   -248.00785    36822.805 
  991200    303.49264   -1552.6809    480.52828    287.54224   -1073.4265    36822.805 
  991300    301.06029   -1513.7348    470.31304    305.37577   -298.40273    36822.805 
  991400     291.4453   -1571.3825     491.9152    226.25351    -655.1399    36822.805 
  991500    294.01346   -1559.8289    469.64882    227.04651   -650.23854    36822.805 
  991600    291.12041   -1533.4064    468.51774    239.37667    -1075.978    36822.805 
  991700    294.11717   -1560.6332    505.09163    262.14966   -953.39404    36822.805 
  991800    303.27993   -1549.0232    474.63746    284.35616   -859.43634    36822.805 
  991900     300.8111   -1543.2653    477.45395    281.86974   -740.45365    36822.805 
  992000    302.04214   -1512.4602    498.12728    338.86344   -301.98834    36822.805 
  992100    296.99301   -1565.1038    458.00411    223.47576     -414.565    36822.805 
  992200    294.92739   -1561.7846    484.50726    244.04385   -321.77121    36822.805 
  992300    289.54366   -1524.1035    487.25435    260.35207   -142.13317    36822.805 
  992400    309.90918    -1516.164    477.61452    349.89241   -532.43457    36822.805 
  992500    291.52853   -1537.8027      486.735    255.02598    23.177683    36822.805 
  992600    299.04015   -1524.1632    489.48516    305.06896   -125.42116    36822.805 
  992700    300.70235   -1547.5979    480.30009    279.89606   -622.36937    36822.805 
  992800    294.80702   -1547.0234    466.12407    239.88255   -688.25706    36822.805 
  992900    296.07364   -1543.5728    506.51296    289.39668   -418.65524    36822.805 
  993000    296.28649   -1571.3831    485.56116    241.58818   -326.36924    36822.805 
  993100    288.54872    -1554.709    501.48498    239.51963    347.58646    36822.805 
  993200    301.58959   -1518.1231    509.58958    342.63539    39.147697    36822.805 
  993300    312.54549   -1484.0421    487.91613    404.12705       471.93    36822.805 
  993400    311.84609   -1520.6621    498.14794    374.60544     111.6053    36822.805 
  993500     292.8727   -1528.3335    482.33843    266.12074    634.56762    36822.805 
  993600    300.30974   -1537.0819     479.8336     288.1866   -384.79267    36822.805 
  993700    284.90164   -1540.0943    487.99649    224.30645    23.206245    36822.805 
  993800    296.85988    -1506.688    479.49881     302.7898    119.09622    36822.805 
  993900    296.16438   -1512.6385    464.69976    278.92434   -534.47211    36822.805 
  994000    304.10521   -1484.9902    512.44605     389.8951   -343.36977    36822.805 
  994100    298.66941   -1490.0366     472.8928    320.94217   -48.962328    36822.805 
  994200    305.20009   -1577.7291     475.8147    265.43011    -367.6339    36822.805 
  994300    295.05402   -1538.5449    472.99959    256.34319    301.69155    36822.805 
  994400    305.35534   -1532.9693    495.11814    330.18887   -273.07379    36822.805 
  994500    295.70764   -1560.2418    442.54982    207.12488   -324.53572    36822.805 
  994600    295.10281   -1523.6799    501.04787    299.47499   -472.08212    36822.805 
  994700    286.64535   -1562.5813    467.57702    189.21205    286.45291    36822.805 
  994800     301.2457   -1590.0886    468.20024    227.73979   -52.886609    36822.805 
  994900    293.83602   -1569.5586    480.94052    227.81355   -84.223582    36822.805 
  995000    297.50793   -1568.5939    455.61894    219.90745    777.02637    36822.805 
  995100    296.20315   -1578.1372    469.55348     218.4531    729.84106    36822.805 
  995200    306.77422    -1550.721    490.99896    314.67477    329.62574    36822.805 
  995300    304.24533   -1573.6347    489.97854    279.41082    225.39274    36822.805 
  995400     294.1605   -1569.1815    475.24107    223.94494    568.47782    36822.805 
  995500    303.84324   -1508.8386    475.28841    327.71537    212.25798    36822.805 
  995600    304.17487   -1545.3109    472.11689    289.55737    406.32448    36822.805 
  995700    292.95038   -1500.2512    475.60646    287.81913    450.37362    36822.805 
  995800    294.47005   -1553.1352    486.42371    252.56068   -593.69417    36822.805 
  995900    312.34728   -1566.5818    478.50706    311.29026   -753.50032    36822.805 
  996000    293.67555    -1529.891    490.46727    276.28896   -73.295238    36822.805 
  996100    300.26543   -1557.7991    476.82658     264.2639    659.92704    36822.805 
  996200    298.87449   -1592.3243    489.38047    236.06102    300.93552    36822.805 
  996300    299.23008   -1545.4544    479.28212    274.42563    565.25099    36822.805 
  996400    306.12677   -1576.9847    484.07092    278.58236    380.65303    36822.805 
  996500    304.07273   -1566.9132    500.60819    295.98868    96.946501    36822.805 
  996600    305.97376   -1549.5189    462.26365    283.55537   -709.54549    36822.805 
  996700    286.68576   -1539.8133    514.44559    259.02967   -449.18196    36822.805 
  996800    299.02329   -1560.4186    493.85197    273.10485   -291.89547    36822.805 
  996900    296.43107   -1648.7248    473.02023    152.35328   -666.26561    36822.805 
  997000    300.86115   -1588.5436    504.69005    264.05176   -350.14342    36822.805 
  997100    296.10355   -1579.8936    512.47763    259.17459    460.75334    36822.805 
  997200    295.37592   -1568.7635    488.97804    243.54521    698.54994    36822.805 
  997300    299.08216   -1546.8078    493.61539    286.74276    437.04378    36822.805 
  997400     293.7047   -1602.3086    476.37401    189.90879    372.56726    36822.805 
  997500    299.44893   -1514.6941    501.49689    328.38115    498.97469    36822.805 
  997600    288.17216   -1565.4644     497.5235     223.1158    230.43525    36822.805 
  997700     294.3389   -1557.6881    491.26774    252.26429    257.54428    36822.805 
  997800    307.24458   -1610.2045    493.83736    260.13699    118.84686    36822.805 
  997900    287.26106   -1608.3231    497.54572    176.19736    237.80035    36822.805 
  998000    314.10535   -1603.7075    496.69689     300.2308    300.87657    36822.805 
  998100    310.96824   -1545.2591    472.14882    320.07641   -85.173687    36822.805 
  998200    297.12237   -1539.6364    500.64096     292.1596    45.459657    36822.805 
  998300    300.02998   -1566.0692    484.68628    262.79867   -479.04923    36822.805 
  998400    294.82744   -1546.7722    468.22054    242.32172    75.312068    36822.805 
  998500    312.75779    -1553.454    490.03918    337.78934    438.02574    36822.805 
  998600    288.67195   -1541.4041    496.21482    248.10649    916.04016    36822.805 
  998700    303.12884   -1569.0023    510.29854    299.36124    683.32872    36822.805 
  998800    304.27827   -1545.0542    495.43247    313.59286    521.10331    36822.805 
  998900     301.2744   -1566.8469    495.50744    278.41733    192.49135    36822.805 
  999000    298.87167   -1531.2636    459.12689    266.85542   -895.33975    36822.805 
  999100    301.78972   -1540.7324    496.35557    307.68863   -697.26471    36822.805 
  999200    308.36853   -1569.5394    493.83352    305.83368    96.467154    36822.805 
  999300    298.29113   -1549.4676    465.87038    252.79404    163.27728    36822.805 
  999400    300.00682   -1597.4717    460.21982     206.8259    333.84085    36822.805 
  999500    304.49534   -1587.2347    499.76721    276.71958    397.29637    36822.805 
  999600    307.31602   -1568.3087     495.4373    303.95277    440.44408    36822.805 
  999700    311.53372   -1578.2193    480.76261     298.2635    1118.1523    36822.805 
  999800     305.4257    -1562.574    494.13514     299.9164    829.99001    36822.805 
  999900    307.02166   -1566.9757    476.72597    285.25568   -187.16757    36822.805 
 1000000    301.74033   -1582.4963    499.48589     268.8338    257.89127    36822.805 
 1000100    296.89597   -1580.4376    462.46083    212.16395   -552.10811    36822.805 
 1000200    299.23935   -1565.9869     488.7012    263.35368   -979.22291    36822.805 
 1000300    302.01546   -1570.1391     458.6963    241.63404    -374.2634    36822.805 
 1000400     307.6339    -1514.326    488.88021    352.80256    -454.5405    36822.805 
 1000500     309.4827   -1538.7877    527.51422    375.25776     111.9382    36822.805 
 1000600    309.26504   -1548.2018    456.01047    293.36478    404.80536    36822.805 
 1000700    298.69498   -1528.8921    500.25785    309.56629   -152.33053    36822.805 
 1000800    306.79375   -1568.1069    477.61161    283.98903    116.43465    36822.805 
 1000900    290.54451   -1534.8282    518.52438    285.38132    613.33834    36822.805 
 1001000    293.98151   -1563.8154    496.85634    250.12436    840.08538    36822.805 
 1001100    304.26353   -1584.2718    489.10718     267.9839    478.11208    36822.805 
 1001200    301.82766   -1536.5576    503.84102    319.51886   -47.816033    36822.805 
 1001300     298.9922   -1580.0147    474.41912    233.93662    238.38428    36822.805 
 1001400    306.86277    -1568.111    490.53851    297.22106    282.50497    36822.805 
 1001500    294.25777   -1604.6208    478.22882    191.92922   -652.14727    36822.805 
 1001600    306.67858   -1564.3486     500.7329    310.35259    102.44075    36822.805 
 1001700    305.21176   -1619.9671    484.61812    232.04776   -96.408193    36822.805 
 1001800    293.72944   -1611.3387    501.19898     205.8144   -369.42324    36822.805 
 1001900    295.95148   -1589.9531    479.64876    215.60495   -739.26215    36822.805 
 1002000     309.2341   -1605.3108    462.81392    242.92066   -183.58199    36822.805 
 1002100    304.49655   -1641.4219    478.86769    201.63832    346.28314    36822.805 
 1002200    292.74722   -1591.9518    496.04955    215.65141    276.13015    36822.805 
 1002300    292.61724   -1550.8111    498.67731    258.83754   -518.58651    36822.805 
 1002400    298.07326   -1552.1288    466.78372    250.07008   -365.02454    36822.805 
 1002500     298.3367    -1571.844    487.15276    251.90415   -442.21495    36822.805 
 1002600    310.62376   -1559.5054    483.76401    315.90203   -301.64218    36822.805 
 1002700    305.36407   -1544.4369     498.7044    322.34666   -483.46804    36822.805 
 1002800    308.98472   -1573.0361    494.53596    305.80004   -417.62579    36822.805 
 1002900    297.71073   -1609.6159    476.49047    200.66557    -137.6726    36822.805 
 1003000    297.55328    -1554.961    484.67061    262.79518    66.912229    36822.805 
 1003100    302.47814    -1563.794    484.99557    276.35127    512.16567    36822.805 
 1003200    299.44199   -1531.6522     504.3432    314.23824   -193.86555    36822.805 
 1003300    305.94395    -1554.495     480.8005    296.98262    110.30121    36822.805 
 1003400    292.87278    -1557.476    482.11888     236.7591    292.28049    36822.805 
 1003500    302.98767   -1555.6658     500.1836    301.95035   -57.128215    36822.805 
 1003600    303.01822   -1555.3677    476.27226    278.47392   -47.852771    36822.805 
 1003700    301.24605   -1541.3526    475.02229    283.29942    117.51854    36822.805 
 1003800     297.6133   -1545.2492     494.5177    282.62297    329.23348    36822.805 
 1003900    306.65785   -1554.3388    474.81091    294.34756   -362.90219    36822.805 
 1004000    298.17683    -1578.151    456.84912    214.57732   -78.157137    36822.805 
 1004100    299.17967   -1565.1312    467.82386    243.06468   -253.23317    36822.805 
 1004200    296.56469   -1567.5848    467.24105    228.31274   -221.90808    36822.805 
 1004300    298.15724   -1559.5745    473.29557    249.51251    114.23454    36822.805 
 1004400    304.74777   -1587.5978    485.99487    263.71505    77.476242    36822.805 
 1004500    307.19152   -1570.5596    485.22899    290.93575   -438.14593    36822.805 
 1004600    293.91474   -1535.0084     479.6975    261.47341   -840.08453    36822.805 
 1004700    302.69511   -1511.6235    473.81939    318.31768    -279.3465    36822.805 
 1004800    298.03773   -1540.2636    476.20726    271.19962    151.70965    36822.805 
 1004900    298.40376   -1525.4519    500.72141    312.16535    296.28742    36822.805 
 1005000    308.05171   -1518.0829    460.53941    322.57665   -4.2490594    36822.805 
 1005100    293.41967   -1550.8333    491.18656    254.91963    149.15955    36822.805 
 1005200    296.31971   -1555.1262    459.56536    231.99816    0.5662713    36822.805 
 1005223    310.87465     -1546.32    473.84105    320.28847   -34.054518    36822.805 
Loop time of 595.479 on 32 procs for 1000000 steps with 1504 atoms

Performance: 145.093 ns/day, 0.165 hours/ns, 1679.321 timesteps/s
100.0% CPU use with 32 MPI tasks x no OpenMP threads

MPI task timing breakdown:
Section |  min time  |  avg time  |  max time  |%varavg| %total
---------------------------------------------------------------
Pair    | 244.12     | 276.59     | 324.35     | 113.6 | 46.45
Bond    | 1.3538     | 1.4788     | 1.6263     |   4.8 |  0.25
Neigh   | 38.56      | 38.645     | 38.728     |   1.0 |  6.49
Comm    | 219.07     | 266.82     | 299.31     | 115.6 | 44.81
Output  | 0.38915    | 0.40553    | 0.824      |  11.8 |  0.07
Modify  | 8.2326     | 8.4401     | 8.6448     |   3.4 |  1.42
Other   |            | 3.105      |            |       |  0.52

Nlocal:        47.0000 ave          80 max          12 min
Histogram: 1 2 3 5 2 9 3 3 0 4
Nghost:        2019.84 ave        2124 max        1909 min
Histogram: 2 2 3 4 5 4 3 2 5 2
Neighs:        5449.97 ave       12347 max        1194 min
Histogram: 2 7 6 3 5 2 2 3 1 1

Total # of neighbors = 174399
Ave neighs/atom = 115.95678
Ave special neighs/atom = 2.0026596
Neighbor list builds = 49719
Dangerous builds = 0

# Output the system volume
variable v equal vol
print 'The system volume is $v'
The system volume is 36822.8053445039

# Outputs
variable A equal xhi-xlo
variable B equal yhi-ylo
variable C equal zhi-zlo
variable D equal xy
variable E equal xz
variable F equal yz
print 'Lattice vectors'
Lattice vectors
print '$A 0 0'
33.268939508738 0 0
print '$D $B 0'
0 33.268939508738 0
print '$E $F $C'
0 0 33.268939508738
Total wall time: 0:10:00
