LAMMPS (29 Sep 2021 - Update 1)
# Test LAMMPS input file for single DeFDe

# Initialize simulation

clear

units real
atom_style full
boundary p p p
dielectric 1
special_bonds dreiding

bond_style harmonic
angle_style harmonic
dihedral_style harmonic
improper_style umbrella
pair_style hybrid/overlay hbond/dreiding/lj 4 9.0 11.0 90 lj/cut 8.50000

# Read data file
read_data frag5.dat
Reading data file ...
  triclinic box = (0.0000000 0.0000000 0.0000000) to (15.000000 15.000000 15.000000) with tilt (0.0000000 0.0000000 0.0000000)
  2 by 4 by 4 MPI processor grid
  reading atoms ...
  1510 atoms
  scanning bonds ...
  3 = max bonds/atom
  scanning angles ...
  6 = max angles/atom
  scanning dihedrals ...
  10 = max dihedrals/atom
  scanning impropers ...
  1 = max impropers/atom
  reading bonds ...
  1009 bonds
  reading angles ...
  513 angles
  reading dihedrals ...
  13 dihedrals
  reading impropers ...
  2 impropers
Finding 1-2 1-3 1-4 neighbors ...
  special bond factors lj:    0        0        1       
  special bond factors coul:  0        0        1       
     4 = max # of 1-2 neighbors
     5 = max # of 1-3 neighbors
     8 = max # of special neighbors
  special bonds CPU = 0.002 seconds
  read_data CPU = 0.017 seconds

# Dreiding potential information

bond_coeff 1 700 1.22
bond_coeff 2 350 1.8
bond_coeff 3 350 1.43
bond_coeff 4 350 1.09
bond_coeff 5 700 1.275
bond_coeff 6 350 0.935
bond_coeff 7 350 1.36
bond_coeff 8 350 0.98

angle_coeff 1 50 92.1
angle_coeff 2 50 109.471
angle_coeff 3 50 120
angle_coeff 4 50 120
angle_coeff 5 50 104.51

dihedral_coeff 1 0.333333333333333 -1 3
dihedral_coeff 2 0.0833333333333333 -1 6
dihedral_coeff 3 5.625 -1 2

improper_coeff 1 40 0

pair_coeff 1 1 lj/cut 0.0957 3.4046
pair_coeff 1 2 lj/cut 0.18144089946867 3.70412445795224
pair_coeff 1 3 lj/cut 0.0953995283007206 3.64309650983885
pair_coeff 1 4 lj/cut 0.0953995283007206 3.64309650983885
pair_coeff 1 5 lj/cut 0.0860649754545948 3.53100349192691
pair_coeff 1 6 lj/cut 0.0381397430510485 3.29813538230316
pair_coeff 1 7 lj/cut 0.0030935416596516 3.29710294046152
pair_coeff 1 8 lj/cut 0.0957 3.4046
pair_coeff 2 2 lj/cut 0.344 4.03
pair_coeff 2 3 lj/cut 0.180871224908773 3.96360303259547
pair_coeff 2 4 lj/cut 0.180871224908773 3.96360303259547
pair_coeff 2 5 lj/cut 0.163173527264688 3.84164847428809
pair_coeff 2 6 lj/cut 0.0723104418462507 3.58829346625941
pair_coeff 2 7 lj/cut 0.00586515131944607 3.58717019389936
pair_coeff 2 8 lj/cut 0.18144089946867 3.70412445795224
pair_coeff 3 3 lj/cut 0.0951 3.8983
pair_coeff 3 4 lj/cut 0.0951 3.8983
pair_coeff 3 5 lj/cut 0.0857947550844456 3.77835472527395
pair_coeff 3 6 lj/cut 0.0380199947396104 3.52917391183829
pair_coeff 3 7 lj/cut 0.00308382878902186 3.52806914614779
pair_coeff 3 8 lj/cut 0.0953995283007206 3.64309650983885
pair_coeff 4 4 lj/cut 0.0951 3.8983
pair_coeff 4 5 lj/cut 0.0857947550844456 3.77835472527395
pair_coeff 4 6 lj/cut 0.0380199947396104 3.52917391183829
pair_coeff 4 7 lj/cut 0.00308382878902186 3.52806914614779
pair_coeff 4 8 lj/cut 0.0953995283007206 3.64309650983885
pair_coeff 5 5 lj/cut 0.0774 3.6621
pair_coeff 5 6 lj/cut 0.0342998542270955 3.42058613398347
pair_coeff 5 7 lj/cut 0.00278208554864871 3.41951536039831
pair_coeff 5 8 lj/cut 0.0860649754545948 3.53100349192691
pair_coeff 6 6 lj/cut 0.0152 3.195
pair_coeff 6 7 lj/cut 0.0012328828005938 3.19399984345648
pair_coeff 6 8 lj/cut 0.0381397430510485 3.29813538230316
pair_coeff 7 7 lj/cut 1e-04 3.193
pair_coeff 7 8 lj/cut 0.0030935416596516 3.29710294046152
pair_coeff 8 8 lj/cut 0.0957 3.4046
pair_coeff 1 5 hbond/dreiding/lj 7 j 9.50 2.75 4 9.0 11.0 90
pair_coeff 5 5 hbond/dreiding/lj 7 j 9.50 2.75 4 9.0 11.0 90
pair_coeff 5 8 hbond/dreiding/lj 7 i 9.50 2.75 4 9.0 11.0 90
pair_coeff 1 8 hbond/dreiding/lj 7 j 9.50 2.75 4 9.0 11.0 90
pair_coeff 5 8 hbond/dreiding/lj 7 j 9.50 2.75 4 9.0 11.0 90
pair_coeff 8 8 hbond/dreiding/lj 7 j 9.50 2.75 4 9.0 11.0 90

neighbor 2 bin
neigh_modify every 2 one 10000

# Gemoetric relaxation
fix 1 all box/relax iso 1.0 vmax 0.001
minimize 1.0e-4 1.0e-6 10000 10000
WARNING: Using 'neigh_modify every 1 delay 0 check yes' setting during minimization (../min.cpp:188)
Neighbor list info ...
  update every 1 steps, delay 0 steps, check yes
  max neighbors/atom: 10000, page size: 100000
  master list distance cutoff = 13
  ghost atom cutoff = 13
  binsize = 6.5, bins = 3 3 3
  3 neighbor lists, perpetual/occasional/extra = 3 0 0
  (1) pair hbond/dreiding/lj, perpetual, skip from (3)
      attributes: full, newton on
      pair build: skip
      stencil: none
      bin: none
  (2) pair lj/cut, perpetual, half/full from (3)
      attributes: half, newton on
      pair build: halffull/newton
      stencil: none
      bin: none
  (3) neighbor class addition, perpetual
      attributes: full, newton on
      pair build: full/bin
      stencil: full/bin/3d
      bin: standard
Per MPI rank memory allocation (min/avg/max) = 14.52 | 14.88 | 15.45 Mbytes
Step Temp E_pair E_mol TotEng Press Volume 
       0            0 4.9934301e+16    262.56988 4.9934301e+16 4.0579744e+18         3375 
    4951            0   -971.59586    20.261666    -951.3342    128.81052    38315.161 
Loop time of 4.02554 on 32 procs for 4951 steps with 1510 atoms

99.9% CPU use with 32 MPI tasks x no OpenMP threads

Minimization stats:
  Stopping criterion = energy tolerance
  Energy initial, next-to-last, final = 
    4.99343013989808e+16  -950.742242827425  -950.824631067249
  Force two-norm initial, final = 5.8794658e+18 118.14616
  Force max component initial, final = 3.4525490e+18 95.331287
  Final line search alpha, max atom move = 2.0388867e-05 0.0019436969
  Iterations, force evaluations = 4951 4953

MPI task timing breakdown:
Section |  min time  |  avg time  |  max time  |%varavg| %total
---------------------------------------------------------------
Pair    | 1.2176     | 2.4696     | 3.2346     |  33.8 | 61.35
Bond    | 0.0058497  | 0.010196   | 0.020457   |   2.5 |  0.25
Neigh   | 0.086273   | 0.086491   | 0.086788   |   0.0 |  2.15
Comm    | 0.37045    | 1.1337     | 2.3865     |  49.8 | 28.16
Output  | 0          | 0          | 0          |   0.0 |  0.00
Modify  | 0          | 0          | 0          |   0.0 |  0.00
Other   |            | 0.3256     |            |       |  8.09

Nlocal:        47.1875 ave          61 max          28 min
Histogram: 2 1 2 2 3 6 5 3 4 4
Nghost:        1905.19 ave        1965 max        1861 min
Histogram: 5 8 2 1 2 1 4 4 4 1
Neighs:        4756.53 ave        6252 max        2481 min
Histogram: 2 2 0 4 1 8 2 2 5 6

Total # of neighbors = 152209
Ave neighs/atom = 100.80066
Ave special neighs/atom = 2.0158940
Neighbor list builds = 89
Dangerous builds = 0

# MD simulation
velocity all create 300.0 12345 rot yes dist gaussian
timestep 1.0
fix 2 all nvt temp 300.0 300.0 1

# Compute interaction energy
group WAT molecule <> 2 501
1500 atoms in group WAT
group MOL molecule 1
10 atoms in group MOL

compute w WAT group/group MOL pair yes
fix 3 all ave/time 10 5 100 c_w file outa

# Outputs
thermo 100 # Output thermodynamic data every nth step
#dump mf1 all xyz 10000 mol_*.xyz

# Run
run 1000000
Neighbor list info ...
  update every 2 steps, delay 10 steps, check yes
  max neighbors/atom: 10000, page size: 100000
  master list distance cutoff = 13
  ghost atom cutoff = 13
  binsize = 6.5, bins = 6 6 6
  4 neighbor lists, perpetual/occasional/extra = 3 1 0
  (1) pair hbond/dreiding/lj, perpetual, skip from (4)
      attributes: full, newton on
      pair build: skip
      stencil: none
      bin: none
  (2) pair lj/cut, perpetual, half/full from (4)
      attributes: half, newton on
      pair build: halffull/newton
      stencil: none
      bin: none
  (3) compute group/group, occasional, copy from (2)
      attributes: half, newton on
      pair build: copy
      stencil: none
      bin: none
  (4) neighbor class addition, perpetual
      attributes: full, newton on
      pair build: full/bin
      stencil: full/bin/3d
      bin: standard
Per MPI rank memory allocation (min/avg/max) = 13.38 | 13.41 | 13.92 Mbytes
Step Temp E_pair E_mol TotEng Press Volume 
    4951          300   -971.59586    20.261666    398.07851    1738.7405    38315.161 
    5000    312.78153   -1041.0844     208.3104    574.13056    294.16201    38315.161 
    5100    291.19164   -1048.7682    207.10812     468.1323   -170.44211    38315.161 
    5200    287.01346   -1059.4699    166.00958    397.53841    280.23569    38315.161 
    5300    303.51764   -1037.5745    183.15218    510.81291    453.62316    38315.161 
    5400     302.9083   -1067.3088    184.32884    479.51441    507.50115    38315.161 
    5500     305.6587   -1092.7085     181.4276    463.58487    890.13761    38315.161 
    5600    290.64613   -1013.8112    183.55143    477.07886    804.54787    38315.161 
    5700    299.72611   -1040.3211    196.45956    504.31922    1046.4408    38315.161 
    5800    302.07705   -1110.5282    185.23477    433.46194    497.38362    38315.161 
    5900    295.27765   -1031.7799    182.86663    479.25812    563.03123    38315.161 
    6000     298.8092   -1061.7686     182.9662     465.2541    870.88958    38315.161 
    6100    300.94532   -1055.9078    173.48379    471.24083    560.02717    38315.161 
    6200    311.78102   -1096.0301    195.19604    501.57019    358.37898    38315.161 
    6300    306.66974   -1123.0936    190.19417    446.51408    66.311385    38315.161 
    6400    304.56349   -1024.6902    208.37366    553.62288    498.77217    38315.161 
    6500    302.24738   -1007.0761    205.07717    557.52252    356.03504    38315.161 
    6600     292.3607   -1066.7187    205.90888    454.24097    198.33285    38315.161 
    6700    299.41538     -1099.36     199.8741     447.2972  0.060810609    38315.161 
    6800    294.40739   -1107.7187    218.38477    434.92301    66.991038    38315.161 
    6900    298.65563   -1143.0163    196.75916     397.1085    196.36973    38315.161 
    7000    301.21031   -1120.4791    216.54494    450.92252    184.00786    38315.161 
    7100    305.31286   -1065.7297    214.49822    522.07873    956.27666    38315.161 
    7200    304.97375   -1091.1326    187.85008    468.50237    393.87569    38315.161 
    7300    312.39037   -1059.4224     216.4387    562.16146    477.64022    38315.161 
    7400    301.62024   -1098.5274    221.49863    479.67189    729.83535    38315.161 
    7500     305.6031   -1148.3344    200.75771    427.03903    453.99144    38315.161 
    7600    307.81584   -1134.0746    213.03989    463.53394    658.21294    38315.161 
    7700    295.92625   -1161.4409    219.27636    388.92429    937.86908    38315.161 
    7800    298.56718   -1128.3957    211.67774    426.24982    445.08051    38315.161 
    7900    305.67358   -1131.0537    208.54507    452.42404    345.86503    38315.161 
    8000    292.44888   -1142.4646    217.09519    390.07803      381.846    38315.161 
    8100    305.42011   -1171.9849    213.02046    414.82817    320.10683    38315.161 
    8200    292.77938   -1168.8876    216.72974    364.77615    275.04713    38315.161 
    8300    308.01785   -1147.0175    214.22588    452.68572    469.84997    38315.161 
    8400    299.64299   -1123.9386    233.80764    457.67589     659.3175    38315.161 
    8500    299.95752   -1151.0027    226.95955     425.1785    679.20318    38315.161 
    8600    307.47918   -1124.7484    217.35488    475.66088    837.99906    38315.161 
    8700    289.87881   -1150.2309    220.69277    374.34907    516.51468    38315.161 
    8800    300.57517   -1158.6759    224.55187    417.87578    426.92086    38315.161 
    8900    292.32454   -1109.4606    244.52957    449.95712    819.93309    38315.161 
    9000    293.41177   -1174.1392    215.42469    361.06405    157.50659    38315.161 
    9100    296.37295   -1128.2651    230.45768    435.29072   -44.285656    38315.161 
    9200    309.41372   -1117.9472    245.84465    519.65349    421.70549    38315.161 
    9300    301.91793   -1160.9446    235.03524     432.1303    186.38198    38315.161 
    9400    303.69818   -1128.6531    249.85072    487.24485    294.42406    38315.161 
    9500    290.42544   -1133.0799    236.80708    410.07316   -132.12364    38315.161 
    9600    306.66032   -1127.2264    248.10824    500.25296     425.2338    38315.161 
    9700    303.02901   -1154.2269    241.25441    450.06481   -234.38839    38315.161 
    9800    298.59399   -1139.1585    234.94176    438.87166    101.86568    38315.161 
    9900    298.48249   -1146.6742    240.42276    436.33545    7.7832513    38315.161 
   10000    308.33564   -1135.3585    244.05162    495.59988   -492.60736    38315.161 
   10100    306.51267   -1159.1726    243.10531    462.63972    331.69173    38315.161 
   10200    291.31589   -1131.9721    242.77153    421.15068    -503.3398    38315.161 
   10300    311.36969   -1117.7402    263.04717    545.86103    86.632695    38315.161 
   10400    298.61157   -1110.0007    224.74497    457.91171    402.15775    38315.161 
   10500    306.46954   -1073.1037    253.47931     558.8886    678.77608    38315.161 
   10600    292.96927   -1071.2678    260.17868    506.69911    786.53478    38315.161 
   10700    292.10983   -1118.2584    244.29097    439.95496    575.04023    38315.161 
   10800    300.85166   -1142.1246    253.54791    464.66675    303.53803    38315.161 
   10900    294.53959    -1141.309    258.17544    441.71797    365.87781    38315.161 
   11000     306.6406   -1132.7637    255.10493    501.62364    406.95877    38315.161 
   11100     291.1977   -1175.0106    251.33107    386.14009    472.05879    38315.161 
   11200    299.57258   -1222.1941     250.7538    376.04988    368.91502    38315.161 
   11300    301.54556   -1191.0033    256.62184    421.98325    811.35801    38315.161 
   11400    304.67771   -1189.3761     257.5602    438.63734    298.18749    38315.161 
   11500    304.66533   -1156.2791    263.92349    478.04193    350.20156    38315.161 
   11600    299.52337   -1185.6317    264.36326    426.00037    28.546447    38315.161 
   11700    302.73674   -1149.2973     247.0611    459.48653    272.89583    38315.161 
   11800    297.95642   -1154.6269    268.83155     454.4253    422.43076    38315.161 
   11900    308.80057   -1171.8087    258.10311    475.29245    103.34001    38315.161 
   12000    293.34225   -1186.4594     261.0875      394.094   -81.293108    38315.161 
   12100    292.23984   -1188.6522    267.02018    392.87518    297.71429    38315.161 
   12200    292.27832   -1172.4922    268.99155    411.17961    190.97391    38315.161 
   12300    304.37556   -1176.4483    264.31479    456.96067    319.90544    38315.161 
   12400     290.6356   -1146.9752    261.14974    421.46572     484.7141    38315.161 
   12500    307.63082   -1133.7508    272.80766    522.79336    757.32595    38315.161 
   12600    295.78826   -1103.1744    270.72265    498.01635    561.86144    38315.161 
   12700    302.88787    -1162.438    288.87135    488.83579    361.20757    38315.161 
   12800    310.42353   -1186.5371    271.83006    481.59114    400.59115    38315.161 
   12900    308.76241   -1158.2642    263.53451    494.09674    217.89931    38315.161 
   13000    298.37021   -1188.2688      292.434    446.24706   -67.686998    38315.161 
   13100     298.8037   -1191.7975     270.8116    423.04581    383.01275    38315.161 
   13200    293.57274   -1176.7411    277.21461    420.97612    62.163267    38315.161 
   13300    303.59242   -1158.8819    283.44221    490.13193     262.5892    38315.161 
   13400    308.28949   -1193.0707    272.84624    466.47474    265.97916    38315.161 
   13500    304.28961   -1171.2105    280.09478    477.59182    473.38323    38315.161 
   13600    290.81467   -1196.6186    274.48178    385.95989    360.96705    38315.161 
   13700    299.36057   -1157.9667    274.66131    463.23112    377.19603    38315.161 
   13800    287.69506   -1172.1868    284.84552    406.72324    253.36337    38315.161 
   13900    310.22314    -1166.148    283.91489    513.16369    230.51963    38315.161 
   14000    295.63897   -1174.0038    282.97703    438.76982    67.006684    38315.161 
   14100    287.92766   -1193.0895    295.76144    397.78272    84.941531    38315.161 
   14200    290.51271   -1170.3956    282.10748    418.45042   -512.99492    38315.161 
   14300    292.87188   -1146.1597    281.33825    452.52873    238.25724    38315.161 
   14400    303.37114   -1166.2179    275.55871    473.91706   -122.86135    38315.161 
   14500    306.78229   -1178.0975    277.08223    478.90449    67.610421    38315.161 
   14600    292.48866   -1192.9396    287.81815    410.50498   -255.08082    38315.161 
   14700    307.38877   -1173.8391    282.96958    491.77822    259.03786    38315.161 
   14800    291.92898   -1196.0805    285.20686    402.23526    115.30166    38315.161 
   14900    289.12596   -1149.5894    296.70559      447.617   -64.195092    38315.161 
   15000    300.07395   -1203.6511    274.94953    421.04374    -68.61684    38315.161 
   15100    297.44582   -1193.4269    296.79059    441.28764    321.83905    38315.161 
   15200    308.01404   -1206.8536    264.44734    443.05394    374.69393    38315.161 
   15300    308.79638   -1208.0682    282.00041    462.91146    506.00201    38315.161 
   15400    303.02328   -1216.1493    293.67391     440.5362    914.61227    38315.161 
   15500    298.59561   -1189.1667    288.88182    442.81087    591.15537    38315.161 
   15600    299.84019   -1202.9528     290.3533    436.09432    909.84582    38315.161 
   15700    302.53576   -1174.1489    288.76627    475.43601    324.24045    38315.161 
   15800    296.97344   -1149.4306    286.22048    472.58902    355.74272    38315.161 
   15900    300.74363   -1158.7275    286.47346    480.50352    450.65055    38315.161 
   16000    299.75307   -1194.4237    292.68319    446.56153    434.58624    38315.161 
   16100    306.21127   -1188.7268    291.17573    479.80021    465.83778    38315.161 
   16200    297.69887   -1186.8227    268.60091    420.84034    334.57404    38315.161 
   16300    300.39776   -1173.7016    294.63941    472.13959    561.92682    38315.161 
   16400    297.78019   -1167.4746    295.68338    467.63672    496.76758    38315.161 
   16500    305.76483   -1217.7629    287.73557    445.31582    1016.4044    38315.161 
   16600    297.11126   -1204.3702    300.75499    432.80383    762.23023    38315.161 
   16700    292.27915   -1207.7687     284.8713    391.78667    864.14602    38315.161 
   16800    303.44917   -1232.1943    303.48006    436.21302    776.45686    38315.161 
   16900    300.37849   -1195.4936    288.21763    443.83918    568.56932    38315.161 
   17000    310.28548   -1209.7206    276.67024    462.62686    213.24343    38315.161 
   17100    299.96468   -1168.3465    299.35388    480.26123    525.54888    38315.161 
   17200    300.70916   -1198.2088    283.73665    438.13032    289.56014    38315.161 
   17300    310.33755   -1163.1486    295.31152    528.07432    218.47956    38315.161 
   17400    300.09067   -1217.0007    295.69994    428.51983    -219.8458    38315.161 
   17500    309.70409   -1216.8185    292.25698    468.50057    606.56905    38315.161 
   17600    309.47246   -1210.5569    302.80464    484.26796    280.88358    38315.161 
   17700    299.49893    -1208.704     300.0537    438.50856   -36.091534    38315.161 
   17800    304.99109   -1203.5932    298.20101    466.47062    460.39118    38315.161 
   17900    296.24351   -1198.2776    308.39827    442.63646    146.88618    38315.161 
   18000    284.93009   -1176.6714    294.22268    399.17886     192.6465    38315.161 
   18100    299.53789   -1212.4758    309.35518    444.21344    160.83617    38315.161 
   18200    300.04133   -1197.9273    302.94432    454.61567    238.96155    38315.161 
   18300    299.70547   -1231.3628    301.68555    418.41069    779.25797    38315.161 
   18400     303.3128   -1225.5024     319.0029    457.81428    164.97109    38315.161 
   18500    299.32774   -1209.2467    288.24376    425.38587    163.90556    38315.161 
   18600    295.05559   -1237.5831     303.3558     392.9453    -53.87283    38315.161 
   18700    301.49942     -1272.77    319.84037    403.22754   -249.52574    38315.161 
   18800    289.06742   -1199.0572    304.63827    405.81856   -88.237863    38315.161 
   18900    310.59936   -1220.6941    297.03172    473.42675    89.730318    38315.161 
   19000    305.61602   -1215.6347    302.62033    461.65946   -6.6402464    38315.161 
   19100    299.22192   -1222.1597    313.43687    437.19001   -307.14277    38315.161 
   19200    287.80556    -1199.329    317.64947    412.88209    531.13589    38315.161 
   19300    301.79224   -1241.7073    306.00713    421.77405    537.95029    38315.161 
   19400    292.94583   -1232.8215    309.39076    394.25201     622.7192    38315.161 
   19500    306.50921   -1179.0115    312.05316    511.73308    231.60082    38315.161 
   19600    300.63963   -1188.9818    313.74399    477.05201    539.18943    38315.161 
   19700    299.80048    -1226.442    310.63544    432.70866    427.81816    38315.161 
   19800    309.02599   -1238.1986    331.77347    483.58682     343.8606    38315.161 
   19900    294.38463   -1266.2416     314.2045    372.11744   -79.869602    38315.161 
   20000    298.71871   -1233.8264    304.74834    414.57141   -175.22717    38315.161 
   20100    301.93366   -1198.5204     336.8479    496.43793   -3.3808652    38315.161 
   20200    304.40648   -1222.4214    335.56279    482.37464    268.10882    38315.161 
   20300    310.21406   -1268.7591     296.0294    422.62632    85.309141    38315.161 
   20400    307.72128   -1246.6796    326.19671     463.6605    186.76037    38315.161 
   20500    305.16133   -1283.2378    322.67465    412.06547    122.73769    38315.161 
   20600    299.15071   -1267.7988    315.82244    393.61618    318.50159    38315.161 
   20700    295.75422   -1294.0448     323.3618    359.63204     192.5916    38315.161 
   20800    315.82893    -1243.737     330.8689     507.7438    53.562409    38315.161 
   20900    311.88346   -1234.3114    333.53292    502.08649    74.140825    38315.161 
   21000    295.48573   -1253.7304    324.24113    399.61808    322.36883    38315.161 
   21100    298.63051   -1267.4011    334.68323    410.53484    220.04839    38315.161 
   21200    300.90063   -1284.3313    323.17465    392.30712    102.40281    38315.161 
   21300    306.86118   -1254.4994    340.71818    466.49338   -40.879303    38315.161 
   21400    300.74488   -1206.9594    352.58556    498.38931    457.06194    38315.161 
   21500     292.7118   -1223.3182     342.8345     436.1464    409.82174    38315.161 
   21600    300.16481   -1205.7352    353.33308    497.75188    256.05823    38315.161 
   21700    294.65713   -1195.0341    342.08337    472.42954     395.8088    38315.161 
   21800    294.41098   -1246.6503    321.11777    398.74049    892.46384    38315.161 
   21900    289.78139   -1248.8348    319.04504     373.6592    478.79799    38315.161 
   22000    299.53975   -1222.3548    354.91697     479.9046    368.85934    38315.161 
   22100     302.6804   -1177.7057    338.84069    522.60423    29.181862    38315.161 
   22200    298.29517   -1216.7146    350.41329    475.44298   -169.46152    38315.161 
   22300    304.43682   -1231.0364     311.3866     449.7199   -33.895607    38315.161 
   22400     296.0423   -1219.3165    330.92966    443.22395    147.24442    38315.161 
   22500     303.0275   -1223.7238    327.13409    466.44082    51.755932    38315.161 
   22600    300.27822   -1250.1669    340.02325    440.52049   -106.25859    38315.161 
   22700    302.80043   -1290.9946    330.99796    402.01254    95.227733    38315.161 
   22800    304.13605   -1296.7536    324.49995    395.76315   -85.757907    38315.161 
   22900    295.28024   -1284.5308    326.77844    370.43062   -61.781409    38315.161 
   23000    291.11005   -1291.1444    323.64837    341.92934   -15.800742    38315.161 
   23100    295.31457   -1302.7558    320.88947    346.47113    67.329786    38315.161 
   23200     302.5142   -1285.1825    336.65795    412.19714   -172.99354    38315.161 
   23300    299.03997   -1274.1183    347.66842    418.64458  -0.73799386    38315.161 
   23400    305.12187   -1285.0515     332.9824    420.38199    313.12385    38315.161 
   23500    300.31753   -1245.0026    334.92247    440.76087    194.85593    38315.161 
   23600    296.67765   -1239.3192    327.07686    422.22634    418.20929    38315.161 
   23700    303.41149   -1257.8714    320.05088    426.93721    175.42954    38315.161 
   23800    300.41048   -1273.3297     349.2503    427.17967    15.069383    38315.161 
   23900    300.11452   -1266.1764    351.84064    435.59204    351.43776    38315.161 
   24000    297.45543   -1275.4739    331.68099    394.17421    28.691671    38315.161 
   24100    302.68858   -1269.7699    332.65656    424.39276   -274.43463    38315.161 
   24200    290.40715   -1270.8993    353.81616    389.18051   -33.635437    38315.161 
   24300    309.25897   -1273.1518    336.00417    453.91231   -44.642913    38315.161 
   24400    295.04985   -1269.4353    346.20917    403.92064   -445.23881    38315.161 
   24500    293.00904    -1253.062    332.26482    397.16988   -507.03825    38315.161 
   24600    298.91535   -1242.3439    335.77317    437.96321   -181.55604    38315.161 
   24700    290.18076   -1262.0172    336.32821    379.55635    -26.02941    38315.161 
   24800    289.88067   -1241.4573     341.8788    404.31706   -249.46632    38315.161 
   24900    297.48758   -1253.4354    349.48566    434.16202    144.46303    38315.161 
   25000    305.74103   -1258.7415    326.29233    442.78697    122.29336    38315.161 
   25100    302.47897   -1244.9446    339.90342    455.52208    583.72061    38315.161 
   25200    301.78946   -1232.0835    333.90881    459.28708    109.09532    38315.161 
   25300    303.79235   -1228.2572    340.07641    478.29007    195.46225    38315.161 
   25400     290.5957   -1287.0055    333.85644    353.96271    324.53265    38315.161 
   25500    309.48419   -1275.2132    344.59987    461.45969    440.04689    38315.161 
   25600    297.36301   -1255.1049    344.79108    427.23755    35.084932    38315.161 
   25700    314.58957   -1251.1505    345.48227    509.36898    46.272197    38315.161 
   25800    296.66635   -1259.4226    344.00922    419.00446   -157.00828    38315.161 
   25900    294.64157   -1224.1205    337.21721    438.40703    69.206504    38315.161 
   26000    299.79053   -1244.7386    330.95169    434.68361   -304.08289    38315.161 
   26100    289.19521   -1282.9343    357.91659     375.7946   -224.26629    38315.161 
   26200     292.8576   -1264.1331    345.89126    399.04401    1.6570019    38315.161 
   26300    299.97847   -1301.1395    328.14763    376.32404   -47.116407    38315.161 
   26400    306.53316   -1283.0601    350.82011    446.55916   -299.64206    38315.161 
   26500    301.98449   -1310.8554    314.61803    362.10171   -78.957484    38315.161 
   26600    303.92873   -1294.0785     337.3904    410.39621     204.1995    38315.161 
   26700    301.14609   -1310.7228    353.19233    397.03737    139.33163    38315.161 
   26800    298.31924   -1254.4191    361.00181    448.43534    177.33925    38315.161 
   26900     291.6329   -1285.3279    338.10035    364.54956     258.3279    38315.161 
   27000    305.69306   -1291.6704    346.13912    429.48901   -299.17152    38315.161 
   27100    304.24195   -1276.1812    356.38567    448.69769    -339.4405    38315.161 
   27200     300.8827   -1224.0024    349.92491    479.30564    133.51278    38315.161 
   27300    296.47817   -1254.1186    353.55609     433.0089    245.50997    38315.161 
   27400    301.60772   -1261.5708    357.08336    452.15684      15.9078    38315.161 
   27500    299.83243   -1167.9965    358.66448    539.32698    392.52355    38315.161 
   27600     295.8507   -1180.1641     358.9914    509.57627    432.86778    38315.161 
   27700    295.64988   -1216.0188    357.32555    471.15244    347.16967    38315.161 
   27800    293.69348   -1200.9494    360.40955    480.50586    196.64029    38315.161 
   27900    306.65613   -1217.5997    373.11925     534.8718    619.13932    38315.161 
   28000    299.65601   -1248.3553    372.27263    471.78273    448.45855    38315.161 
   28100     299.2436   -1246.5689    345.02508    444.46653    319.14971    38315.161 
   28200    302.93822   -1244.5207    363.31468    481.42292    549.73326    38315.161 
   28300    303.55187   -1254.7398    388.83798    499.48735    5.8227795    38315.161 
   28400    296.07472   -1287.7418    375.27116      419.286    293.55654    38315.161 
   28500    307.90048   -1307.4272    366.13789    443.66006    551.01272    38315.161 
   28600    293.42915   -1340.1414    352.51726    332.23255     351.6531    38315.161 
   28700    295.31979    -1298.544     356.1045    385.92143    279.24808    38315.161 
   28800    306.13177   -1315.2852    354.86946    416.57798   -144.52663    38315.161 
   28900    295.48924   -1296.8603     373.1566    405.41948    23.825355    38315.161 
   29000    300.24288   -1288.8658    370.91972    432.55912   -65.332928    38315.161 
   29100    310.87446   -1234.8239    352.12268    515.62526    296.03179    38315.161 
   29200    303.45116   -1240.3042    379.60532     504.2373    -303.5458    38315.161 
   29300     299.8125   -1220.1522    373.51513    501.93227   -182.63524    38315.161 
   29400     311.0449   -1257.8119    371.66495    512.94613   -64.713672    38315.161 
   29500    291.81938   -1266.2917    358.55731    404.88158   -403.50625    38315.161 
   29600     291.9262   -1233.1839     365.6834    445.59586   -810.61284    38315.161 
   29700    308.55718   -1267.2999    370.61248    491.21582    -563.8062    38315.161 
   29800    300.68865   -1262.9685    364.14943    453.69119   -511.02285    38315.161 
   29900     308.2366   -1280.3708    378.49991    484.59036    315.74253    38315.161 
   30000    296.96073    -1254.219    385.58717    467.11008   -93.052544    38315.161 
   30100    289.64448   -1229.9086    370.28689    443.21139    131.21415    38315.161 
   30200    314.11678   -1217.1048    368.40362    564.20942    609.06959    38315.161 
   30300     310.4251   -1234.3761     379.2991    541.22822    768.11905    38315.161 
   30400    293.71913   -1238.9491    371.95383    454.16588    503.59109    38315.161 
   30500    310.29532   -1235.5467    372.20036    532.37514    888.38741    38315.161 
   30600    290.24729   -1198.3863    374.07006    481.22842    363.92381    38315.161 
   30700    306.56735   -1232.8903    358.20462    504.26729    185.88858    38315.161 
   30800    291.62851    -1247.095    369.70381    434.36619    -57.36191    38315.161 
   30900    308.73838   -1278.4309     357.1008    467.38824     276.6382    38315.161 
   31000    292.00116   -1292.6451    373.05115    393.83968    250.24713    38315.161 
   31100    307.81191   -1270.5936    372.67038    486.62783     332.8468    38315.161 
   31200    299.20541   -1277.4008    375.98217       444.42    184.40855    38315.161 
   31300    307.29925   -1224.4232    371.53573    529.35755    550.12375    38315.161 
   31400    302.73235   -1268.1688    373.46212    466.99627     438.5862    38315.161 
   31500    300.12767    -1270.697     369.7058    448.99578    217.81952    38315.161 
   31600    297.51708   -1264.4226    377.26673    451.08853   -152.69764    38315.161 
   31700    289.15839   -1293.8917    395.29013    402.04515   -188.07916    38315.161 
   31800    297.47704   -1299.3484    373.19846    411.91439    23.873723    38315.161 
   31900    295.04701    -1296.001    395.59748    426.73041    262.64463    38315.161 
   32000    291.96022   -1251.1453    378.91352    441.01768    688.88749    38315.161 
   32100    304.45813   -1283.6384     369.1886    455.01577    560.48921    38315.161 
   32200    293.26988   -1231.2774    357.91222    445.77516    10.570621    38315.161 
   32300    292.01731   -1258.3183    367.20249    422.39039    271.59316    38315.161 
   32400    296.89019   -1243.6271     370.6698    462.46737    344.14689    38315.161 
   32500    295.93703   -1198.7043     384.0745     516.5075    91.158279    38315.161 
   32600    300.67297   -1223.0389    386.20354    515.60438    54.711697    38315.161 
   32700    306.17799   -1219.1943    384.73599    542.74328    414.35989    38315.161 
   32800    294.47408    -1218.979    379.36538    484.94327    632.08167    38315.161 
   32900    301.14058   -1224.7214    391.14444    520.96612    311.29738    38315.161 
   33000    309.50764   -1233.3803    360.86844    519.66657    357.86897    38315.161 
   33100    304.22458   -1245.7193    371.01777    493.71357   -191.00387    38315.161 
   33200    307.01117   -1228.7723    380.08499    532.26196    -268.0005    38315.161 
   33300    306.65371   -1291.6916    365.31077    452.96059   -24.801367    38315.161 
   33400    292.92419   -1290.6461    364.80097    391.74033   -310.10049    38315.161 
   33500    310.90376   -1263.5156    364.99793    499.94066   -218.78044    38315.161 
   33600    295.80211   -1243.4521    375.40246    462.48079    595.53271    38315.161 
   33700      303.852     -1244.64    376.41781      498.517    582.58783    38315.161 
   33800    306.51091   -1262.7929    371.42387    487.33005    507.60961    38315.161 
   33900    309.31455   -1259.3054    374.24082    506.24535    1018.3966    38315.161 
   34000    300.68331   -1249.6394     382.3698    485.21665      372.356    38315.161 
   34100    310.28637   -1245.2483    379.96125    530.39422    292.70478    38315.161 
   34200     298.2234   -1260.3132    378.54345    459.65177    334.94429    38315.161 
   34300    295.81167   -1273.8293    385.64507    442.38918    224.52339    38315.161 
   34400    291.38874   -1245.7057     392.6853    457.65851    105.98943    38315.161 
   34500    303.41578    -1251.897    379.23053    492.11061    249.58272    38315.161 
   34600    310.32756   -1265.9251    367.26104     497.2024     41.77057    38315.161 
   34700    294.12523   -1299.5119    380.32217    403.79795    254.34177    38315.161 
   34800    287.95996   -1300.6401    385.01785    379.63387    112.52959    38315.161 
   34900    306.45052   -1276.0539    380.29534    482.66884    340.36488    38315.161 
   35000    307.73531   -1265.3868    385.22417    504.04377    426.39674    38315.161 
   35100    300.91737    -1255.735    377.84571    475.64975    248.54648    38315.161 
   35200      293.646     -1247.62    373.23919    446.45135    374.90678    38315.161 
   35300    303.73139   -1257.2791    342.96279    451.88033    985.40016    38315.161 
   35400    309.27527    -1304.639    351.49184    437.98614    938.71913    38315.161 
   35500    305.75621   -1235.1528    381.68067    521.83223    1023.7748    38315.161 
   35600    300.91968   -1275.9023    393.66604    471.31319     1165.424    38315.161 
   35700    293.74434   -1288.4857    365.98193    398.77067    580.62926    38315.161 
   35800    311.32871   -1289.4407     370.4945    481.42355    850.54695    38315.161 
   35900    294.06743   -1292.6494    379.55262    409.63101    193.97465    38315.161 
   36000    295.04377   -1294.4013    371.70065    404.41873   -393.40924    38315.161 
   36100    313.87014   -1306.8578    378.80435    483.74777   -96.877267    38315.161 
   36200    294.34775   -1322.4953     364.3594    365.85274   -593.02629    38315.161 
   36300    306.96564   -1321.1666    367.58031    427.15815   -411.73159    38315.161 
   36400    299.70101   -1300.8873    362.62262    409.80314   -745.51549    38315.161 
   36500    295.37128   -1266.7124    372.29552     434.1756   -44.111617    38315.161 
   36600    301.60473   -1332.1855    363.55568    388.00106    361.79293    38315.161 
   36700    301.47835   -1302.9237    379.13827    432.27691    425.03841    38315.161 
   36800    299.14498   -1329.3724    376.19987    392.39425    62.058954    38315.161 
   36900    306.42322   -1307.0648    391.33253    462.57229    452.65263    38315.161 
   37000    298.16793    -1323.882    389.94409     407.2341    575.94597    38315.161 
   37100    311.24902   -1293.1855    354.39413    461.21988    459.55239    38315.161 
   37200    291.69374   -1325.7383    362.98753    349.29998    594.43244    38315.161 
   37300    296.80283   -1340.1609    386.02916    380.89991    210.13676    38315.161 
   37400    305.10384    -1282.686    349.72513    439.40908   -571.47265    38315.161 
   37500    297.28474   -1324.5668    370.46583    383.09835   -235.69525    38315.161 
   37600    310.61237   -1313.8598    364.56498    447.85282      407.267    38315.161 
   37700    299.99862   -1368.6892    362.91698    343.63425    424.88898    38315.161 
   37800    296.23408   -1355.2579    354.24922    331.46479    304.82298    38315.161 
   37900    293.04269   -1322.0116     374.8279    370.93478    632.88906    38315.161 
   38000     296.3101   -1321.4677    362.86426    374.21199    331.46729    38315.161 
   38100    297.30111   -1287.3245    372.03259    421.98111    267.36075    38315.161 
   38200    315.61154   -1285.7043    370.99029    504.92007    413.29923    38315.161 
   38300    301.05656   -1309.0561    372.33723    417.44623   -115.73636    38315.161 
   38400    302.07675   -1295.9008    367.73646    430.58963   -3.7508333    38315.161 
   38500    305.13101   -1295.1703    370.33941    447.66138   -96.396072    38315.161 
   38600    292.26668   -1284.9423    376.02042    405.70604   -136.57724    38315.161 
   38700      303.102   -1310.1613    380.68193     433.8863     141.0083    38315.161 
   38800    287.15843   -1315.0146    381.76858    358.40474   -40.619412    38315.161 
   38900    293.35415   -1302.6416    381.20251    398.08033   -179.01068    38315.161 
   39000    298.12159   -1306.9632    391.30708    425.30744    178.97615    38315.161 
   39100    300.35383   -1283.0492    395.13755    463.09261    213.99567    38315.161 
   39200    293.74855   -1304.4991    375.10056    391.89491     444.4683    38315.161 
   39300    292.94929     -1256.47    387.89763    449.12602    427.33684    38315.161 
   39400    302.98509   -1244.1791    378.33129    496.99197    130.93313    38315.161 
   39500    290.70472   -1288.4301    391.87248    411.04452   -73.133405    38315.161 
   39600    305.96029   -1279.7382    391.35969     487.8438    25.477816    38315.161 
   39700    284.41271   -1330.9507    384.32323    332.67295    118.75881    38315.161 
   39800    300.55172   -1319.1566    386.63286    419.37064    287.81888    38315.161 
   39900    300.86521     -1366.81    369.88772    356.38216    291.13689    38315.161 
   40000    297.76959   -1359.3559    382.62615    362.65049    451.24783    38315.161 
   40100    305.29523   -1349.5954    387.02031    410.65576    126.56541    38315.161 
   40200     303.3842    -1312.337     392.4528    444.75083    196.53696    38315.161 
   40300    299.74007   -1273.8311    419.77953    494.19198   -119.40575    38315.161 
   40400    301.95281   -1273.7401    400.91976    485.37625    -116.4284    38315.161 
   40500    306.22453   -1313.1318    390.70875    454.98786    258.87754    38315.161 
   40600    301.60447    -1301.752    398.21387     453.0916   -101.16424    38315.161 
   40700    294.01642   -1338.4107    382.15691     366.2445   -221.59921    38315.161 
   40800       299.08   -1340.2004    367.87774    372.95188   -194.92481    38315.161 
   40900    295.89565   -1359.7668    377.37316    348.55753   -492.93093    38315.161 
   41000    306.89413   -1352.2514    373.15261    401.32397      156.649    38315.161 
   41100    299.63439   -1375.1865    367.50211    340.08377    89.061208    38315.161 
   41200    305.82792   -1348.9552     377.0578    403.72954    319.91207    38315.161 
   41300    311.61749   -1310.2298    374.98488     466.4237    154.61611    38315.161 
   41400    294.77496    -1298.254    393.68844    421.34467   -293.41862    38315.161 
   41500    292.17047   -1282.2679    370.34384    402.27114    214.42202    38315.161 
   41600    295.84862   -1294.3809    381.16391    417.52267   -501.26249    38315.161 
   41700    301.83811   -1268.3317    415.93403    505.28294   -538.36995    38315.161 
   41800    298.46351   -1284.8785    413.44545     471.0685   -468.39174    38315.161 
   41900    298.93368   -1255.7712    404.95702    493.80214    -287.9136    38315.161 
   42000     291.9346   -1300.5527    407.44315    420.02463   -213.31471    38315.161 
   42100    295.30544   -1294.3394     368.8449    402.80186   -196.30387    38315.161 
   42200    301.12192   -1283.5993    401.13728     471.9971     556.5569    38315.161 
   42300    298.52006   -1260.5837    400.76986    482.94199    466.53431    38315.161 
   42400     305.1432   -1257.8412    402.46731     517.1732    726.09543    38315.161 
   42500    296.62385   -1263.6648    408.35099    478.91286    162.11048    38315.161 
   42600    308.34677   -1317.7054    382.83315    452.08454    1066.8867    38315.161 
   42700    296.97229   -1324.7463    394.84414    405.89175    159.94539    38315.161 
   42800    314.02628   -1322.3262    396.56295    486.74027    655.13839    38315.161 
   42900    293.41499   -1295.8221    381.73581    405.70673   -278.67003    38315.161 
   43000     297.2789   -1331.9163    383.68781    388.94463    411.13427    38315.161 
   43100    294.97865   -1365.6011    387.49604    348.72146   -321.95563    38315.161 
   43200    307.49249   -1326.4582    389.45924    446.11532   -374.89847    38315.161 
   43300    296.44885   -1322.2053    388.90318     400.1374   -314.17651    38315.161 
   43400     291.3685   -1328.1936     394.7313    377.12551   -451.52535    38315.161 
   43500    298.99455   -1335.5722    379.47887     388.7968   -262.90291    38315.161 
   43600    295.03622   -1346.1518    375.21921     356.1528   -386.81023    38315.161 
   43700    296.99751   -1352.2814    390.09863    373.72465     -545.386    38315.161 
   43800    298.23443   -1331.8815    398.98984     408.5795   -124.91407    38315.161 
   43900    299.23211   -1373.1789    389.14275    361.92253   -321.75161    38315.161 
   44000    299.30893   -1365.3356    388.09806    369.06675   -267.92933    38315.161 
   44100    316.47974    -1307.636    386.00942    501.91268   -424.77831    38315.161 
   44200    296.94038   -1349.2207    383.44287    369.87264   -169.36284    38315.161 
   44300    301.54831   -1341.7921    400.09201    414.67697    -174.0329    38315.161 
   44400    294.40072   -1332.6795    378.46951     370.0169    293.89078    38315.161 
   44500    302.21134   -1323.0396    381.99484    418.31461    226.02637    38315.161 
   44600    296.23802   -1315.2955    391.96286    409.15856     368.5156    38315.161 
   44700    290.84497   -1335.1735     404.1708    377.23029     -138.676    38315.161 
   44800    298.18952   -1320.9795    402.31751     422.6071   -144.86298    38315.161 
   44900    301.64612   -1366.9816    391.10912     380.9445    302.49763    38315.161 
   45000    303.28674   -1321.2818    411.62546    454.54026    65.767814    38315.161 
   45100     305.7901   -1333.1372     411.2268    453.54646   -233.36658    38315.161 
   45200    300.38185   -1311.3306    402.85398    442.65365   -293.74592    38315.161 
   45300    305.67982   -1351.3121    415.06157    438.71025   -53.074513    38315.161 
   45400    294.91148   -1332.1988    411.85357    406.17907   -497.59516    38315.161 
   45500    288.97635   -1315.7489    412.48855    396.56754    311.94746    38315.161 
   45600    302.74725   -1287.2259    422.76734    497.31145     198.5217    38315.161 
   45700    300.37341   -1320.2681    390.14195    420.96621   -125.44544    38315.161 
   45800    298.54884   -1328.1483    414.39852    429.13551    34.333331    38315.161 
   45900    309.00045   -1312.9934    400.13775    477.04148    251.90911    38315.161 
   46000    299.55652   -1324.0663    384.42091    407.77254   -247.58162    38315.161 
   46100    297.95563   -1344.9262     387.3208    382.61164    53.675227    38315.161 
   46200     304.3642   -1300.0062    394.01674     463.0536      217.513    38315.161 
   46300    303.99399   -1329.5172    405.24766    443.10834    154.65731    38315.161 
   46400    283.12773   -1332.7281    385.16542    325.95788    1.3393985    38315.161 
   46500    304.50306   -1334.6869    410.79394    445.77472   -266.52454    38315.161 
   46600    305.01953   -1361.0422    412.81622     423.7648   -100.51336    38315.161 
   46700    302.82179   -1359.7625    408.52471     410.8675   -100.95578    38315.161 
   46800    305.76193   -1376.1621    419.40992    418.57795    152.42159    38315.161 
   46900    299.94613   -1400.1617      389.957    338.96569   -294.27895    38315.161 
   47000    300.53938    -1358.312    398.37625    391.90309   -129.72223    38315.161 
   47100    301.98702   -1369.7143    395.44743    384.08352   -252.38645    38315.161 
   47200    288.60516   -1355.3658    396.20731    338.99979    45.439029    38315.161 
   47300    294.21533   -1391.8981    409.68052     341.1754   -82.751265    38315.161 
   47400    298.51465   -1326.9637    426.82284    442.59072   -98.292918    38315.161 
   47500    297.77874    -1314.507    430.37409     455.2885    916.53237    38315.161 
   47600    292.83137   -1367.5349    428.82457    378.45756   -34.762298    38315.161 
   47700    309.44876   -1329.8897    420.15473    482.17873    517.71909    38315.161 
   47800    302.45853   -1350.7464    392.92721    402.65208    730.58538    38315.161 
   47900    306.96927   -1381.5602    403.99834    403.19888    774.63837    38315.161 
   48000    306.60784   -1378.7067    423.39671    423.82506    851.41831    38315.161 
   48100    300.35605   -1380.5411    430.06365    400.53681    729.95487    38315.161 
   48200    313.84657    -1346.671    406.57651    471.60064    797.44482    38315.161 
   48300    286.86602   -1267.7917    432.86653    455.41035   -217.71629    38315.161 
   48400     302.4328   -1318.6418    423.63446    465.34821   -125.92356    38315.161 
   48500    306.04621   -1344.2871     416.8472    449.16894     -487.448    38315.161 
   48600      306.166   -1362.8589    414.45089    428.73965   0.33064429    38315.161 
   48700    307.75764   -1333.6187    403.85671    454.54495   -12.963915    38315.161 
   48800    300.51866   -1345.7135    401.99509    408.02722   -143.85048    38315.161 
   48900    290.21802   -1362.1588    414.22403    357.47817   -201.46876    38315.161 
   49000    297.07832   -1352.8634    403.25131    386.65875    296.33419    38315.161 
   49100    309.74169   -1349.5945    406.13794    449.77466    279.14164    38315.161 
   49200      307.874   -1356.2775    420.50164    449.05445    597.32009    38315.161 
   49300    299.72105   -1349.5084    401.04584    399.69544    314.93656    38315.161 
   49400    301.47309    -1340.439    424.91233    440.51208    118.92208    38315.161 
   49500    308.68738   -1333.4045    429.84663    484.93101    315.05213    38315.161 
   49600    302.80147   -1363.3209    400.16314    398.85607     770.8594    38315.161 
   49700    309.11276   -1348.4162    425.68466    467.67077    678.02023    38315.161 
   49800    300.99418   -1344.9361    422.67603    431.62448   -64.527716    38315.161 
   49900    293.47009   -1382.9588    403.09404    340.17608    121.72028    38315.161 
   50000    297.23234   -1381.1296    418.66817    374.50218   -208.53047    38315.161 
   50100     304.2531   -1403.8119    411.28477    376.01622   -250.61722    38315.161 
   50200    298.04318   -1350.3232    412.85814    403.14574   -38.756916    38315.161 
   50300    299.88269   -1379.2342    399.31941    368.97029     -522.274    38315.161 
   50400    294.89727   -1368.4589    407.84307    365.84456   -175.23322    38315.161 
   50500     308.5551   -1372.0867    390.40368    406.21083   -331.76952    38315.161 
   50600    302.21214   -1336.7663    394.45305    417.04977    146.82968    38315.161 
   50700    299.49979   -1393.0565    396.41456    350.52084    100.73314    38315.161 
   50800    297.79146   -1375.2302     411.6644    375.91277    412.00484    38315.161 
   50900    292.91184   -1386.4496    404.97437    336.05461    327.37649    38315.161 
   51000    299.97078   -1379.7097    410.86135    380.43293     115.6307    38315.161 
   51100    300.67281    -1380.031    414.12492    386.53291    -59.86885    38315.161 
   51200    298.62239   -1333.4709    420.11917    429.86443   -478.17235    38315.161 
   51300    298.33586    -1305.064    413.94518    450.80852   -658.19235    38315.161 
   51400    300.29517   -1332.8212    395.21103    413.13027   -288.82589    38315.161 
   51500    303.64329   -1306.3623    420.09533    479.53346   -294.19819    38315.161 
   51600    291.94855    -1305.878    419.36241    426.68139    300.16714    38315.161 
   51700    304.78104   -1318.2041    408.83009    461.54407    220.29581    38315.161 
   51800    299.75809    -1334.294    435.71826    449.74891    349.14638    38315.161 
   51900    296.89278   -1313.9865    411.38693    432.83666    178.02087    38315.161 
   52000    308.76574    -1337.616    422.92725    474.15265   -134.94936    38315.161 
   52100    306.72232    -1314.074    406.80156    472.37757    55.438798    38315.161 
   52200    301.18862   -1339.1851    418.00586    433.57989    20.928508    38315.161 
   52300     289.9137   -1374.7922    425.58109    354.83303   -84.406945    38315.161 
   52400    296.33736   -1346.0531    406.43365     393.3186     -250.994    38315.161 
   52500    306.06655   -1322.5841    391.11171     445.2279   -316.64664    38315.161 
   52600    288.86867    -1328.871    431.61442    402.08696   -696.08775    38315.161 
   52700    301.09789     -1316.93    423.16294    460.58396    -40.15704    38315.161 
   52800    304.50153   -1368.2828    418.81518    420.19315   -394.68217    38315.161 
   52900    295.36082   -1331.2359    431.10397    428.41357   -642.02335    38315.161 
   53000    300.39186   -1373.3782    424.95301    402.75015    126.03932    38315.161 
   53100    284.77745   -1365.1977    403.11001    318.85332   -355.55888    38315.161 
   53200    300.94175   -1331.0209    436.80435    459.43218   -145.01863    38315.161 
   53300    290.60189   -1355.2229    417.45775     369.3745    -180.1084    38315.161 
   53400    292.44541   -1349.3117    406.36853    372.48867    160.72165    38315.161 
   53500    298.90556   -1338.0263    405.60096    412.06454   -363.89998    38315.161 
   53600    303.29715    -1350.039    393.47962    407.68404    27.962116    38315.161 
   53700    309.19027   -1389.2335    407.33683    408.85424    267.50033    38315.161 
   53800    292.12961   -1350.1094    421.10492    385.00685    497.26298    38315.161 
   53900    302.78497   -1321.5397    425.99725    466.39712   -6.1678031    38315.161 
   54000    305.14169   -1325.5424    419.26102    466.25891    55.872322    38315.161 
   54100    308.91828   -1335.2239    445.49299    499.79658   -496.74629    38315.161 
   54200    299.06692    -1311.999    440.45844    473.67514    335.29308    38315.161 
   54300     303.9565   -1344.9613    431.06064    453.30854   -68.285575    38315.161 
   54400    300.57292   -1406.4192    405.26926    350.83975   -111.39065    38315.161 
   54500    301.35606   -1352.7839    412.46295    415.19139    599.43503    38315.161 
   54600    314.66131   -1309.1967    431.72778    537.89103    582.41225    38315.161 
   54700    302.51589   -1342.0822    437.98582    456.63288     203.4949    38315.161 
   54800    296.52954   -1367.9358     419.4601    385.32675    405.87773    38315.161 
   54900    304.39689    -1356.296    391.18137    404.07549    253.42531    38315.161 
   55000    313.59731   -1345.6531    436.47686    501.39772    687.15392    38315.161 
   55100    297.87962   -1377.2501    392.53816    355.16327    779.85695    38315.161 
   55200    308.30672   -1380.5347    414.02799    420.27004    781.90162    38315.161 
   55300    295.09082   -1384.1516    416.83626    360.01564    627.27922    38315.161 
   55400    304.90019   -1369.1241    402.12379    404.45363    667.39919    38315.161 
   55500    304.55787    -1384.964    436.10646    421.05662    131.88275    38315.161 
   55600    290.93902   -1378.3467      425.635    355.94438   -86.816205    38315.161 
   55700    297.54689   -1390.7538    439.16059    386.78529    563.67862    38315.161 
   55800    303.60615   -1371.7414     449.9413    443.83325     570.5772    38315.161 
   55900    296.53444   -1362.0901    393.04227    364.77667    37.340475    38315.161 
   56000    288.51247   -1369.8286    436.30567    364.21837    124.24994    38315.161 
   56100    285.94923   -1357.5405    422.92196    351.59325   -245.40887    38315.161 
   56200    293.51953   -1385.6883    400.89601    335.47096   -239.72434    38315.161 
   56300    298.36115   -1388.0379    405.21154    359.21469    56.384848    38315.161 
   56400     296.2306   -1397.3241    409.87953    345.01316   -156.36142    38315.161 
   56500     297.8659   -1368.1032    435.20803    406.91831    680.42248    38315.161 
   56600    303.85506   -1317.1144    431.20134    480.83987    425.25599    38315.161 
   56700    293.52739   -1315.4155    423.65996    428.54311    675.22291    38315.161 
   56800    300.51255   -1378.1697    387.73984    361.28839    796.67423    38315.161 
   56900    291.33966   -1342.3648    411.89634    379.98968   -224.17255    38315.161 
   57000    301.48041    -1374.054    442.80336    424.82102    363.24869    38315.161 
   57100    307.55905   -1382.6774    412.42213     413.1584    395.51706    38315.161 
   57200    300.26899   -1355.0711    442.26767    437.81925   -260.25699    38315.161 
   57300    294.73086   -1340.7377    431.14948    416.12363    117.43393    38315.161 
   57400    298.77959   -1355.1943    440.00994    428.73894   -212.48557    38315.161 
   57500    305.59523   -1343.8953    453.71536    484.40028    112.54375    38315.161 
   57600    307.27803   -1379.5885    441.85711    444.41819    678.38997    38315.161 
   57700    305.93152   -1351.6564    438.94965    463.38622    270.70681    38315.161 
   57800    294.01088   -1318.7601    447.73987    451.45314    720.93705    38315.161 
   57900    302.01999    -1366.409    413.84888    405.93865    512.36302    38315.161 
   58000    298.29909    -1367.882    424.20972    398.08967    628.46874    38315.161 
   58100    294.81091   -1405.5734    419.30059    339.79916    286.36484    38315.161 
   58200     297.8945   -1378.5335    421.75908    383.16764    17.753187    38315.161 
   58300     300.7484   -1395.1163    406.82852    364.49123   -167.84354    38315.161 
   58400    305.46444   -1400.6742    413.51685    386.83458    117.63066    38315.161 
   58500    305.04292   -1385.2422    421.77138     408.6251    289.04167    38315.161 
   58600    302.51374   -1384.6228    431.42601    407.52285    643.83705    38315.161 
   58700    306.01126   -1320.6639    425.44407    481.23173    172.69367    38315.161 
   58800    301.71857   -1389.5414    423.89281     391.4943   -44.566622    38315.161 
   58900    299.56752    -1347.081    434.01049    434.39689    183.35549    38315.161 
   59000    293.09728   -1377.1704    441.40739      382.601   -365.02584    38315.161 
   59100    306.60396   -1352.9362    424.69934    450.88069    118.11389    38315.161 
   59200    316.56452   -1373.1077    441.73221    492.54511    517.13646    38315.161 
   59300    295.95793   -1342.3012    416.21657    405.14665    215.65053    38315.161 
   59400    308.14033   -1389.4174    416.46664    413.07751     1.999359    38315.161 
   59500    301.23019   -1387.0877    423.13172    390.99015   -62.662677    38315.161 
   59600    307.45911   -1411.9262    418.52839    389.56632     220.7042    38315.161 
   59700     285.9175   -1379.8594    429.01076     335.2204   -247.87765    38315.161 
   59800    295.38981   -1423.5717    409.65014    314.75435   -325.95043    38315.161 
   59900    296.48905   -1398.2391    406.50156    341.88281   -635.21235    38315.161 
   60000    301.04217   -1442.5655    405.01306    316.54801   -434.70112    38315.161 
   60100    295.78634   -1422.6127    414.80468    322.65145   -6.1714885    38315.161 
   60200    297.48507   -1395.7043    411.88093    354.27707   -188.47967    38315.161 
   60300    292.86489   -1406.8635     412.2025    322.65765    102.66649    38315.161 
   60400    292.85366   -1395.8189    402.50753    323.95681    223.01384    38315.161 
   60500    301.55094   -1395.0044    403.17676    364.56123    581.38913    38315.161 
   60600    314.31814   -1389.0106    426.63993    451.44563    -78.60222    38315.161 
   60700    299.21058   -1383.5928    428.54117    390.81026   -167.08196    38315.161 
   60800    302.34174    -1362.647    425.91943    423.21834   -448.78267    38315.161 
   60900    311.53618   -1354.7966    417.84131    464.34766   -222.87709    38315.161 
   61000     311.0847   -1352.1475    428.06821    475.19282   -220.85857    38315.161 
   61100    299.52201   -1350.1599    417.34257    414.44539   -773.80824    38315.161 
   61200    294.80676   -1438.9851    390.74988    277.81808   -819.41507    38315.161 
   61300    301.02404   -1424.5138    403.34441    332.84944   -819.48674    38315.161 
   61400    304.58277   -1350.7939    420.09877    439.33113    -472.0906    38315.161 
   61500    297.59375   -1329.7894    436.14402    444.94386   -112.04929    38315.161 
   61600    303.51889   -1326.5614    430.04628    468.72573   -25.401343    38315.161 
   61700    299.99448   -1320.3723    432.40173     461.4173    26.525425    38315.161 
   61800    305.56279   -1338.0165    429.43479    465.85264    81.432101    38315.161 
   61900    309.25662   -1341.1598     416.9637    466.85326   -127.30624    38315.161 
   62000    289.95199    -1303.861    426.61097    426.96632      -517.73    38315.161 
   62100    307.68609   -1331.6734    430.00186    482.31357   -373.90621    38315.161 
   62200    301.07185   -1279.3358    419.60777    494.50595   -493.89131    38315.161 
   62300    292.81684   -1305.3272    438.87008    450.64539    -119.4991    38315.161 
   62400    311.47379   -1301.4289    428.71019    528.30358    437.60728    38315.161 
   62500    282.76922   -1308.2373    432.86882    396.53942    516.50697    38315.161 
   62600    297.73798   -1312.7855    416.40363    442.85617    467.92485    38315.161 
   62700    302.30451    -1358.334    421.33877    422.78324    475.37931    38315.161 
   62800    289.60498   -1333.6958    437.38212    406.34183   -11.858089    38315.161 
   62900    300.46951   -1336.7511    424.57957    439.35311   -194.57686    38315.161 
   63000    290.42452   -1358.2494    428.15928    376.25168   -763.94377    38315.161 
   63100    313.64602   -1344.8498    435.33387    501.27711   -208.11006    38315.161 
   63200    305.80032   -1298.4517    444.60405    521.65511   -313.39401    38315.161 
   63300    296.07948   -1343.9734    425.26917    413.07387   -444.67558    38315.161 
   63400    297.53076   -1390.5463    391.75505     339.5147   -412.83027    38315.161 
   63500    297.79302   -1386.5118    414.99339    367.96716   -417.98192    38315.161 
   63600    300.62636   -1366.6715    412.36006    397.91862   -434.66327    38315.161 
   63700    297.04218   -1366.1041    430.78248    400.78673    69.574737    38315.161 
   63800    304.92526   -1379.7044    420.80814     412.6705   -71.087034    38315.161 
   63900    300.72186   -1355.3333    444.33158      441.658     568.3071    38315.161 
   64000    299.15908   -1389.7502    415.38842    371.26845    348.59966    38315.161 
   64100    310.63998   -1376.0268      420.199    441.44402    691.61235    38315.161 
   64200    298.96691   -1354.4109    437.42598    427.78087    281.15855    38315.161 
   64300    303.22692   -1363.6378    457.53795    457.82774    691.38751    38315.161 
   64400    293.19386   -1392.7983    417.60965    343.60978    224.35057    38315.161 
   64500    310.40331   -1353.7162     452.4823    494.97333    1066.3761    38315.161 
   64600    301.58305   -1385.7179    431.40201    402.21748    881.31872    38315.161 
   64700    305.12872   -1370.2778    422.65085      424.855    549.53912    38315.161 
   64800    303.40475   -1387.9837    419.48407    396.22779    464.21708    38315.161 
   64900    302.31185   -1408.4607    409.77211    361.12292    358.48262    38315.161 
   65000    302.48485   -1388.9166    432.96422    404.63728    392.90137    38315.161 
   65100    296.10152   -1392.4146    406.73822    346.20082    441.93698    38315.161 
   65200    306.26956   -1371.1853    427.88878    434.31692    163.17721    38315.161 
   65300    307.19665   -1379.1847    424.57972    427.17855    480.71626    38315.161 
   65400    303.18723   -1397.2454    413.53712    380.04069    12.270579    38315.161 
   65500    302.37217   -1418.3866    437.17271    378.86896    141.24275    38315.161 
   65600    306.11439   -1365.5779    427.92879     439.2664    380.71276    38315.161 
   65700    300.05225    -1378.893     429.5377    400.29241   -183.23831    38315.161 
   65800    290.87016   -1412.8883    418.74937    314.20733   -346.80371    38315.161 
   65900    291.40115   -1418.5007    438.71639    330.95035   -354.40937    38315.161 
   66000    293.05186   -1410.3056    412.16451    320.01862   -673.41783    38315.161 
   66100    292.76721   -1392.1427    426.70368    351.44035   -104.48059    38315.161 
   66200    302.55325   -1405.8222    411.68175    366.75695    -479.3551    38315.161 
   66300    310.65373   -1396.6714    426.75049    427.41279   -441.08961    38315.161 
   66400    292.96314   -1398.8602     428.1406    347.04107    43.410829    38315.161 
   66500    302.94999   -1388.4583    450.75421    424.97782    466.33499    38315.161 
   66600    294.39346   -1363.0678    433.39443    394.52087    363.23932    38315.161 
   66700    298.18464   -1384.1495    434.32937    391.42704    116.23454    38315.161 
   66800    302.12372   -1388.4303    418.34447     388.8795    74.247741    38315.161 
   66900    304.21974   -1432.7804    421.28533    356.89821    49.625223    38315.161 
   67000    292.73992   -1439.1465     425.5458    303.15584   -46.601713    38315.161 
   67100    305.00488   -1430.4774    421.50606    362.95352   -504.79675    38315.161 
   67200    298.50893   -1432.6171    407.17367     317.2624   -611.32634    38315.161 
   67300    305.64802   -1448.4108    418.19424    344.60119    522.82469    38315.161 
   67400    294.88468   -1446.7572    417.15082    296.79747    88.770796    38315.161 
   67500     297.4064   -1405.6948    445.14577    377.19755    878.87197    38315.161 
   67600    300.84842   -1405.6635    415.08974    362.65523    235.70759    38315.161 
   67700    311.85252   -1381.4703    455.20574    476.46125    345.37988    38315.161 
   67800    304.92225   -1419.1746    456.08204    408.46064   -51.953693    38315.161 
   67900    298.97631   -1505.2011    418.65426    258.26126    580.72381    38315.161 
   68000    303.83198   -1483.2236    420.25162    303.67716    233.65486    38315.161 
   68100    289.73084   -1454.1284    446.74193    295.83516   -99.637744    38315.161 
   68200    286.06898   -1446.2404    451.09717    291.60716   -499.19249    38315.161 
   68300    295.84597   -1402.8386     450.5526    378.44169   -401.64761    38315.161 
   68400    312.04081   -1390.5154    431.13656    444.19398   -85.789381    38315.161 
   68500    301.88737   -1393.1445    440.31243     405.0701    164.47814    38315.161 
   68600    308.36132   -1444.2121     424.7212    367.53136    146.82585    38315.161 
   68700    305.24426   -1445.7194    437.35267    364.63484    884.14191    38315.161 
   68800    296.05506   -1444.7093    432.25163    319.21056    127.32675    38315.161 
   68900    294.69234   -1427.1327    442.78157    341.18749    351.22229    38315.161 
   69000    289.76125   -1420.8833    452.76268    335.23775   -106.89796    38315.161 
   69100    293.50361   -1437.2672    423.78318    306.70766   -38.011775    38315.161 
   69200    305.52513   -1410.5533    431.70481    395.41646    22.184241    38315.161 
   69300    297.42694    -1378.693    457.51592    416.66188    371.14181    38315.161 
   69400    308.31092   -1423.7046    433.78325    396.87426    129.69589    38315.161 
   69500    303.04863   -1395.3817    459.15073    426.89463   -554.41061    38315.161 
   69600     311.7604   -1386.8896    439.55858    454.98046   -225.12302    38315.161 
   69700    293.93417   -1444.8503     442.2634    319.54145   -573.12698    38315.161 
   69800    302.82401   -1397.4353    454.50215    419.18209   -552.07225    38315.161 
   69900    299.75307   -1442.3291    424.12202    330.09491   -923.38555    38315.161 
   70000    297.43865   -1455.3926    424.67743    307.17649    -1009.105    38315.161 
   70100     307.3285   -1424.8419    421.07663    378.61133   -322.89758    38315.161 
   70200    302.80721   -1404.5197    443.74173    401.26165   -90.269189    38315.161 
   70300     293.1769   -1423.5882    465.86004    360.99391   -205.45538    38315.161 
   70400    302.01715   -1404.2886    448.21042    402.40771   -198.60377    38315.161 
   70500    300.67519   -1376.9695    423.44796     398.9282    191.39855    38315.161 
   70600    309.29256    -1361.512    442.06574    471.76484     94.39824    38315.161 
   70700    300.92806   -1409.6581    435.37685    379.30586    173.21083    38315.161 
   70800    302.68627   -1445.5811    417.70974    333.62431   -303.31977    38315.161 
   70900    310.40742   -1470.3396    409.47767    335.36376    136.99637    38315.161 
   71000    300.42174   -1466.6647    425.56514    310.21019   -543.94868    38315.161 
   71100    292.16057   -1439.5773    432.55004    307.12337   -595.79732    38315.161 
   71200    298.30349    -1452.094    433.27256    322.96033    -40.05213    38315.161 
   71300    295.58735   -1438.5298    423.62163    314.65623    111.30609    38315.161 
   71400    294.68524   -1432.3174    421.06504    314.25437   -67.159864    38315.161 
   71500    298.02392   -1431.8266    422.70687    331.40453    492.16401    38315.161 
   71600    287.51345   -1443.9068    429.72817    279.06906     12.60748    38315.161 
   71700    298.00288   -1444.2751    453.01371    349.16819     -386.918    38315.161 
   71800    300.27942    -1463.467     404.0918    291.29438    14.682087    38315.161 
   71900    286.74666   -1476.5881    405.98917    219.19971    46.961087    38315.161 
   72000    297.86302   -1458.7497    387.26901    268.31974   -219.79701    38315.161 
   72100    300.36501   -1436.6213     419.0525    333.48571   -139.39921    38315.161 
   72200     305.2165   -1436.4457    433.26583    369.69687    -232.9255    38315.161 
   72300    283.47995   -1487.1686    416.95176    204.88795   -422.76113    38315.161 
   72400    303.86785   -1422.5207    428.39244    372.68217   -257.33793    38315.161 
   72500    291.00433   -1429.0756    417.57695     297.4512   -646.60005    38315.161 
   72600    301.96149   -1491.3303    432.59034    299.49566   -292.30469    38315.161 
   72700    298.43965   -1471.2476    457.54774    328.69432   -6.7237821    38315.161 
   72800    303.41094   -1463.2354    437.68391    339.20374   -111.47228    38315.161 
   72900    297.74716    -1464.178    429.59085    304.69221   -100.90981    38315.161 
   73000    300.21817   -1469.3373    449.00651     330.0633    670.93221    38315.161 
   73100    305.75542   -1507.1459    452.18262    320.33751    938.90309    38315.161 
   73200    286.66554   -1444.0724    442.20887    287.57017    866.96648    38315.161 
   73300     299.7079   -1474.7747    437.06245    310.38661    1038.5331    38315.161 
   73400    303.07744   -1450.0406    437.50832    350.72293    1064.3516    38315.161 
   73500    298.37112   -1436.7482    425.35264    330.69042    577.32683    38315.161 
   73600    315.78164   -1489.2913    447.04541    378.15328    605.32439    38315.161 
   73700    305.65409   -1440.0319    447.33402    382.14719    128.73447    38315.161 
   73800    289.12256   -1464.0765     437.1847    273.59378    121.69875    38315.161 
   73900    306.89406   -1434.2186    431.75919    377.96309    480.15684    38315.161 
   74000    295.14418   -1454.3452    422.41402    295.63986    152.67833    38315.161 
   74100    296.55298   -1444.2927    452.74316     342.3583   -473.21071    38315.161 
   74200    294.92518    -1433.678    441.02223    333.93016    -633.6004    38315.161 
   74300    302.50879   -1479.9216    445.89398    326.66976    -192.0772    38315.161 
   74400    299.17127   -1450.9695    422.41582    317.13142    205.48089    38315.161 
   74500    309.44294   -1465.4963    428.47776    354.86889    87.963508    38315.161 
   74600    296.57357   -1466.3495    456.37636    324.02733   -19.489019    38315.161 
   74700    296.13699     -1464.79     442.0244    309.27116   -103.64641    38315.161 
   74800    309.15668   -1453.6645    455.35146    392.28678    37.784819    38315.161 
   74900    306.31566    -1425.283    455.39239    407.93016    97.278116    38315.161 
   75000    302.16446   -1423.9566    462.38633    397.57826    273.29751    38315.161 
   75100    300.18293     -1432.18    456.71626    374.77182   -63.784191    38315.161 
   75200    290.81459   -1499.2104    443.29466    252.18062   -400.51825    38315.161 
   75300    299.40604   -1477.9481    445.39198    314.18487   -189.67287    38315.161 
   75400    305.06012   -1465.9492     440.0517    346.27587   -719.07505    38315.161 
   75500    286.48701   -1451.3043    428.84403     266.1704   -383.21468    38315.161 
   75600    305.98509    -1459.812    455.46134    371.98327   -924.57455    38315.161 
   75700    293.69277   -1426.2731    445.57441    340.34387   -706.24441    38315.161 
   75800    297.10931   -1424.4264    455.40449    367.38839   -446.53403    38315.161 
   75900     291.6957   -1418.6052     451.0172    344.47159   -378.40969    38315.161 
   76000    296.89882   -1456.1119    433.45673    312.80835   -441.89549    38315.161 
   76100    291.01721   -1439.1991    446.23852    316.04712   -542.15773    38315.161 
   76200    308.75703   -1434.3214    443.30114     397.7819   -225.38476    38315.161 
   76300    296.59792    -1451.084    412.78505    295.81104   -828.60265    38315.161 
   76400      305.349   -1487.0332    441.15868     327.5982   -500.43717    38315.161 
   76500    315.68809   -1471.3507    466.41255    415.04025    129.81754    38315.161 
   76600    300.55501   -1462.5136    455.88901    345.28458   -350.92557    38315.161 
   76700    300.53576   -1492.1528    432.11652    291.78631     144.4254    38315.161 
   76800    299.70444   -1501.1584    429.48438    276.40929   -110.11063    38315.161 
   76900    300.44746   -1453.9852    454.19748    351.63767   -406.55113    38315.161 
   77000     297.5181   -1467.5504    445.62422    316.32281   -616.39859    38315.161 
   77100      302.955   -1485.0253    457.31982    334.99901     -365.032    38315.161 
   77200    302.96052   -1454.1288    464.99884    373.59929   -676.44309    38315.161 
   77300    296.17522   -1443.6057    456.81785    345.42081   -640.13914    38315.161 
   77400     292.3566   -1435.7662    451.61943    330.88559   -294.84935    38315.161 
   77500    302.85363   -1404.0979    479.24005     437.3906    65.042523    38315.161 
   77600    289.82893   -1419.9672    448.77835    332.47391    34.580066    38315.161 
   77700    295.75145   -1408.5424    468.66603    390.42617    434.42113    38315.161 
   77800    295.30304   -1391.9379    474.06666    410.41428    148.32189    38315.161 
   77900    296.49829   -1383.4661    449.18517    399.38097   -353.70136    38315.161 
   78000    295.58235   -1396.3431    448.37213      381.571   -618.70053    38315.161 
   78100    295.94216   -1423.3073    441.09924    348.95234   -326.82854    38315.161 
   78200    299.08441   -1428.5762    468.40171    385.11983     33.19185    38315.161 
   78300    295.99026   -1457.5416    445.66362    319.49877   -448.10212    38315.161 
   78400    301.93906   -1475.0495    431.94181    315.02703   -767.42226    38315.161 
   78500    297.92413   -1435.5541    449.67363    354.19494    -687.1726    38315.161 
   78600    306.62492   -1411.5855    472.69548    440.32188    141.48423    38315.161 
   78700    309.23369   -1421.1983    460.15876    429.90668   -304.20911    38315.161 
   78800    300.85698   -1417.6471    454.21837    389.83867   -240.55791    38315.161 
   78900    301.73516   -1400.1067    465.10089    422.21175    41.472356    38315.161 
   79000    303.79008   -1481.3416     440.7476    325.86662   -129.11233    38315.161 
   79100    287.55892   -1444.4645    430.38442    279.37213   -150.91592    38315.161 
   79200    305.30232    -1407.489    436.93646    402.71019    250.55446    38315.161 
   79300    299.13548   -1425.3747    459.22503     379.3744   -187.22183    38315.161 
   79400    308.26359   -1409.0478    483.39973    460.93457    150.46249    38315.161 
   79500    297.62218   -1393.8297     445.1139    390.00142    278.05842    38315.161 
   79600    303.04376   -1423.2552     443.0798    382.92827    204.91402    38315.161 
   79700       306.49   -1408.0338    455.03282    425.60402    344.95372    38315.161 
   79800    294.87332   -1391.5044    457.86226    392.71053    736.86683    38315.161 
   79900     291.7562   -1435.4408    464.43162    341.32254    741.51028    38315.161 
   80000     303.3749   -1401.7897    461.69067    424.49409    677.32586    38315.161 
   80100    291.34527   -1409.7823    450.83796    351.53897    997.40901    38315.161 
   80200    302.08455   -1418.6679    455.65667     395.7779    298.94624    38315.161 
   80300     294.7144   -1451.8058    426.40791       300.24   -237.92628    38315.161 
   80400    299.30991   -1426.2264    431.20275    351.28498   -253.95931    38315.161 
   80500    300.50401   -1376.8031    479.70999    454.58665   -323.00367    38315.161 
   80600    297.31993   -1393.7429    450.78499    394.39969   -514.44601    38315.161 
   80700    301.52024   -1409.9203    446.81442    393.14489    -164.9377    38315.161 
   80800    300.89475   -1434.2062    431.63505     350.8662   -461.75655    38315.161 
   80900    297.90673   -1462.6351    441.67091    319.03293   -108.79762    38315.161 
   81000    292.59607   -1442.4193     469.9403    343.63053   -81.322281    38315.161 
   81100    309.65921   -1441.5485    434.51686    385.82865    535.42351    38315.161 
   81200    301.61947   -1440.8652    467.05351    382.88541   -197.22655    38315.161 
   81300    300.56175    -1412.226    450.84895    390.56242    417.70483    38315.161 
   81400    295.47831   -1451.9765    445.30885     322.4063    388.77468    38315.161 
   81500    307.21747   -1387.3784    466.84992    461.34875    569.69076    38315.161 
   81600    296.27331   -1441.4087    461.78797    353.02922   -12.859198    38315.161 
   81700    290.55738   -1465.3325    465.59685    307.20377   -213.55462    38315.161 
   81800    293.74555   -1450.7182    432.13225    302.69398   -599.82008    38315.161 
   81900     297.3987   -1403.4515    445.09282    379.35325   -455.97466    38315.161 
   82000    286.18099   -1418.0599    449.98853     319.1828   -169.20002    38315.161 
   82100    304.77139   -1430.7279    460.88149    401.02824    -554.4511    38315.161 
   82200    302.07131   -1431.4413    447.16266     374.4509   -67.677913    38315.161 
   82300    300.46176   -1421.6242    469.74265    399.60816   -776.02194    38315.161 
   82400     304.3904   -1429.2808    459.52527    399.40539    -731.7941    38315.161 
   82500    298.55896   -1442.8957    443.78361    343.81875   -482.98957    38315.161 
   82600    308.64173   -1429.0427    442.32313    401.56402    -268.5207    38315.161 
   82700    292.09689    -1401.477    450.76248    363.14968   -72.052737    38315.161 
   82800    307.36784   -1422.8875    465.80209    425.46819   -436.51759    38315.161 
   82900    293.36292   -1411.9439    470.00824    377.62317    -450.3585    38315.161 
   83000     302.1192   -1483.2414    467.93485    343.63842   -38.458186    38315.161 
   83100    301.59409   -1471.0225    462.52133    348.08185     199.2739    38315.161 
   83200    300.02481   -1401.7312    447.01047    394.80354    -163.3489    38315.161 
   83300    301.23894   -1368.7192    477.17634    463.44263   -413.27227    38315.161 
   83400    310.00996   -1465.4983    447.40704    376.34666    50.316637    38315.161 
   83500    295.93207   -1442.2186    402.95427    291.85069   -225.27231    38315.161 
   83600     305.6745   -1401.8422    472.84049    445.93513    -79.55878    38315.161 
   83700    305.39418   -1457.7034    447.30837    363.28093    255.21939    38315.161 
   83800     301.0171   -1372.1808    459.47686    441.28369    353.59233    38315.161 
   83900    311.06995   -1402.2456    434.11459    431.07485    30.959234    38315.161 
   84000    302.30669   -1408.8865    440.48293    391.38473    282.79594    38315.161 
   84100    295.84518   -1371.7224    458.72596    417.72772    291.42918    38315.161 
   84200    301.77911   -1392.8011    461.50321    426.11729   -124.45363    38315.161 
   84300    292.00199   -1386.9807    444.99461    371.45125    400.09405    38315.161 
   84400    295.85347   -1370.9436    467.39658    427.21446    743.68679    38315.161 
   84500      295.791   -1366.0128    473.68405    438.15164     320.0378    38315.161 
   84600    295.50343   -1365.8622    440.15878    403.48356    521.94896    38315.161 
   84700     310.4771   -1400.2749    446.58355    442.84782   -186.75293    38315.161 
   84800    299.97958   -1384.8789    468.25043    432.69234   -203.52849    38315.161 
   84900     298.8724   -1394.9363    453.78708     403.1915   -630.48103    38315.161 
   85000    306.73075   -1399.9949    471.48955    451.18254   -804.55916    38315.161 
   85100    298.53233    -1412.428    456.88905    387.27213   -484.28081    38315.161 
   85200    299.80837   -1442.1465    439.35904    345.76332    -390.5095    38315.161 
   85300    302.74118   -1386.5971    461.07727    436.22285   -265.32593    38315.161 
   85400    292.26757    -1444.084    452.16605    322.71397    271.10995    38315.161 
   85500    300.38664   -1435.0586    446.38629    362.47953    106.89781    38315.161 
   85600    290.89958    -1415.231    464.44897    357.69658   -193.08062    38315.161 
   85700    308.21537   -1407.4198    459.46099    438.40702   -75.223997    38315.161 
   85800    290.94977   -1427.6096    457.89047    338.98527    -434.8909    38315.161 
   85900    297.96588   -1396.1372     472.4409    416.56685   -771.42932    38315.161 
   86000    303.52448   -1405.6815    458.46348    418.04796   -492.26713    38315.161 
   86100    302.40298   -1438.1341    447.31891    369.40624    -1.038025    38315.161 
   86200    292.55168   -1469.1672    439.79736    286.54006    197.67542    38315.161 
   86300    299.88774   -1467.9226    450.36056    331.34569    430.20847    38315.161 
   86400    302.18771   -1463.2887    470.01283    365.97722    237.77642    38315.161 
   86500     299.1588   -1488.7395    452.06488    308.95433   -527.34672    38315.161 
   86600    303.36706   -1458.8003    454.12502    359.88258    141.48232    38315.161 
   86700     307.2172   -1432.9346    472.67975    421.62111   -149.66705    38315.161 
   86800    309.61504   -1443.8202    471.25658    420.09795   -809.20677    38315.161 
   86900    287.90803   -1426.4085    472.70652    341.32051   -237.40577    38315.161 
   87000    299.31016   -1482.4051    449.26228    313.16693   -450.28857    38315.161 
   87100    307.00457   -1478.3064    470.51682    373.12995    142.25566    38315.161 
   87200    282.35097   -1511.6682     498.6931    257.05153   -2.5596453    38315.161 
   87300    304.16819   -1481.6457    457.68287    344.19851    297.29146    38315.161 
   87400    298.61529   -1478.2077    459.00326    323.97978    -314.4202    38315.161 
   87500    301.77488   -1431.8792    492.42466    417.94169    3.2637476    38315.161 
   87600    302.73172   -1479.9149    467.97119    349.75638    101.88826    38315.161 
   87700    306.30122   -1477.6306    469.91342    370.03871   -121.69619    38315.161 
   87800    297.48385   -1441.7176    481.65657    378.03395   -87.783983    38315.161 
   87900     304.1773   -1433.9087    473.18479    407.47843   -124.40429    38315.161 
   88000    291.85682    -1448.235     476.7028    341.25209    -23.05393    38315.161 
   88100    299.13994   -1457.3901     483.7309    371.88491   -166.28302    38315.161 
   88200    307.36533   -1472.5474    448.27839    358.27324    232.38621    38315.161 
   88300    295.74957   -1488.0471    454.78935    297.03629    219.01804    38315.161 
   88400    292.34525   -1443.4955    483.71466    355.20047    645.57879    38315.161 
   88500    303.13326   -1498.7268    473.41577    338.19523    692.71933    38315.161 
   88600    306.32402   -1493.7128    473.48827    357.63387    426.64356    38315.161 
   88700    295.00828   -1502.5447    454.14952    278.56451   -93.031857    38315.161 
   88800    305.46691   -1441.5994    454.15239     386.5561   -409.33608    38315.161 
   88900    303.61602   -1488.0046    440.17176    317.84486   -587.81242    38315.161 
   89000    292.05101   -1502.2503    465.77092    277.17844   -498.91556    38315.161 
   89100    302.69161   -1486.8934    465.72901    340.35524    393.33726    38315.161 
   89200    302.08902   -1485.0007     463.4006    337.20915    283.14218    38315.161 
   89300    299.44201   -1520.1012     448.0994    274.90106    390.10535    38315.161 
   89400    291.36527   -1525.9999    450.93396    235.50736    462.28268    38315.161 
   89500    296.52285   -1488.8902     464.3766    309.25875     489.7835    38315.161 
   89600    307.27759   -1476.0067    463.80009    369.94095    265.38802    38315.161 
   89700    293.04045   -1469.8495    458.83753    307.09638    318.30123    38315.161 
   89800    300.64269   -1466.7242    474.93876    360.51817    427.28387    38315.161 
   89900    301.09065   -1467.3868    450.15363    337.08534    292.01152    38315.161 
   90000    283.18591   -1470.8931    461.24951    264.13864    15.659225    38315.161 
   90100    299.10445   -1429.6192    475.78609    391.55134    -5.995308    38315.161 
   90200     297.7054   -1430.6323    470.92048    379.37974   -306.83261    38315.161 
   90300    304.19408   -1439.4131    459.81777    388.68254   -195.46894    38315.161 
   90400    304.19542   -1468.3259    463.87674    363.83475   -192.04323    38315.161 
   90500    304.84699   -1432.3508    469.84272    408.70655   -250.86919    38315.161 
   90600    304.66808   -1531.5166    453.69877    292.59214    331.54813    38315.161 
   90700     306.1928   -1545.7831    473.64994    305.13501    224.04123    38315.161 
   90800    308.68753   -1545.8214    479.14571     321.8139    541.65279    38315.161 
   90900    303.89386   -1547.6992    477.54888    296.77711    644.54266    38315.161 
   91000    293.75884   -1533.0843    471.31604    259.57146    51.288068    38315.161 
   91100    297.06419   -1533.2036    467.39154    270.39529    1144.7671    38315.161 
   91200    308.48902   -1511.0609    497.04942     373.5852    764.75467    38315.161 
   91300    293.73877   -1501.3455    464.79252    284.69645    590.06259    38315.161 
   91400    300.88899   -1478.4386    467.58263    342.55541    541.43941    38315.161 
   91500    299.68661   -1506.7424    476.91209    318.17278    216.21097    38315.161 
   91600    298.80313   -1481.8247    453.57773    315.78218   -14.421961    38315.161 
   91700     295.2825    -1521.153    442.81885    249.85903   -287.54204    38315.161 
   91800    297.72432   -1488.2431    456.76451    307.69797   -186.09388    38315.161 
   91900    306.37965   -1515.0463    465.07634     328.1387    -185.2413    38315.161 
   92000    293.65637   -1475.5434    474.41985    319.75525   -131.94118    38315.161 
   92100     310.0898   -1455.8727    463.11508    402.03944    -142.5292    38315.161 
   92200    305.97216   -1461.8029    481.12765    395.60052   -106.22079    38315.161 
   92300    305.90611   -1468.6087    473.90148    381.27143    384.33742    38315.161 
   92400    307.80949   -1468.7238    463.37428    379.19056      236.291    38315.161 
   92500    303.43077   -1471.2064     466.2901    359.92823    154.42613    38315.161 
   92600    293.25172   -1444.5194    480.91141    355.45064    -206.5459    38315.161 
   92700    292.34756   -1474.9899    481.65596    321.65777   -343.48286    38315.161 
   92800     303.1073   -1475.7987    469.26033    356.85107   -227.34322    38315.161 
   92900    287.64261   -1550.7266    456.42669    199.52868   -602.25043    38315.161 
   93000    307.03055    -1472.882    467.31228    375.46674   -433.09365    38315.161 
   93100    293.76809    -1485.323    466.07332    302.13163     4.995673    38315.161 
   93200    312.75925   -1476.8705    459.37828    389.31218   -191.59013    38315.161 
   93300    308.00182   -1499.3617    486.23043    372.27393    174.50175    38315.161 
   93400    299.98199   -1473.9256    440.43697     315.8431    42.680254    38315.161 
   93500     299.2761   -1483.4327    471.34314    334.06704   -323.12533    38315.161 
   93600    301.40881   -1503.9672    466.66142    318.44379   -65.644365    38315.161 
   93700    295.20858   -1473.1035    491.69568    346.45287   -70.242167    38315.161 
   93800    310.00925   -1511.9508    459.45107    341.93502    223.38947    38315.161 
   93900    294.49498   -1498.2931    446.64647    273.00422    242.81773    38315.161 
   94000    299.53078   -1426.7289    481.51587    402.08916    -40.85572    38315.161 
   94100    303.60718   -1493.2244     439.8702     312.2837    259.59431    38315.161 
   94200    294.52802   -1470.1647    446.62756    301.26234    439.70026    38315.161 
   94300    304.61413   -1463.9578    473.09315    379.30264    425.15513    38315.161 
   94400    300.73251   -1440.4042    482.01562    394.31895    197.62435    38315.161 
   94500    289.08757   -1436.8779    448.86779    312.31808    96.098982    38315.161 
   94600    297.64161   -1515.0777    460.94571    284.67258     192.5649    38315.161 
   94700     301.1053   -1512.2637    449.43532    291.55598    316.96494    38315.161 
   94800    297.05712   -1503.0293     473.8187    306.96497    529.31553    38315.161 
   94900    308.94632   -1506.1367    465.75285    349.26978    363.92664    38315.161 
   95000    292.53978   -1493.2879    461.19093    283.75934    435.04418    38315.161 
   95100     293.1044   -1489.5589    442.08364    270.92075    197.55893    38315.161 
   95200    307.02572   -1482.6133     446.7443    345.14569    555.99207    38315.161 
   95300    292.81969   -1489.4785    453.27582    280.91271    380.29343    38315.161 
   95400    297.00134   -1478.3803    433.15633     290.7006   -76.298544    38315.161 
   95500    294.36538   -1470.0859    466.18218    320.16426   -69.345316    38315.161 
   95600    302.09677   -1515.5579    466.72315    310.00934   -333.05187    38315.161 
   95700    304.15529   -1472.1519    447.33618    343.28769    -443.8595    38315.161 
   95800    310.24994   -1494.3346    462.51208     363.6948   -601.80268    38315.161 
   95900    312.29866   -1474.2577    441.95226    372.42718   -658.56191    38315.161 
   96000    300.79637   -1450.1845    463.26665    366.07695   -9.3047325    38315.161 
   96100    296.39851   -1453.2156    462.93948    342.93687   -192.68875    38315.161 
   96200    296.13177   -1465.0418    467.42625    334.39772   -323.26824    38315.161 
   96300    300.59889   -1456.2037    454.50904    350.41185   -492.35618    38315.161 
   96400    300.02387   -1438.5197    469.08035    380.08076   -263.92623    38315.161 
   96500    301.41762   -1490.7396    457.15861    322.20825   -256.25536    38315.161 
   96600    297.22093   -1435.9358    465.27374    366.25024   -485.70188    38315.161 
   96700    304.49387   -1485.1481    468.54114    353.01933    145.63546    38315.161 
   96800    307.45725    -1460.586    457.51253    379.88226    255.99987    38315.161 
   96900    295.72143   -1420.2078    464.22883    374.18855   -163.11448    38315.161 
   97000    299.19923   -1470.9742    443.52785    318.36452    -263.0207    38315.161 
   97100    297.31128    -1523.515    470.86775    284.67154   -199.24595    38315.161 
   97200    295.57684   -1458.8108    471.19448    341.90082   -120.34633    38315.161 
   97300    315.90443   -1447.8464    457.57993    430.68503    -165.7969    38315.161 
   97400     310.8237   -1468.7518    452.13726     381.4836    40.425948    38315.161 
   97500    292.86621   -1476.4297      456.946    297.84091    3.1836736    38315.161 
   97600    294.95699   -1435.4637    477.62358    368.88893    155.51884    38315.161 
   97700    308.96394   -1423.2521    454.59624    421.07699    146.84354    38315.161 
   97800    297.09396   -1442.1554    453.97677    348.16256    427.61893    38315.161 
   97900    293.01208   -1495.6863    451.13988    273.43432    150.27003    38315.161 
   98000    300.60933   -1423.6706    485.18529    413.66823   -81.237399    38315.161 
   98100    301.97646   -1419.4152    454.73212    393.61987   -725.53544    38315.161 
   98200    295.42924   -1403.2478    457.15118    382.75662   -169.15788    38315.161 
   98300    296.64692   -1423.3365    450.38504    361.37893    117.37701    38315.161 
   98400    302.39596   -1455.3351    478.72424    383.57902   -83.310689    38315.161 
   98500     287.8721   -1474.2138    487.45748    308.10461    10.886383    38315.161 
   98600    287.56136   -1461.7163    479.93322    311.68009   -476.25576    38315.161 
   98700    297.58061   -1465.4121     465.3086    338.42665   -632.94686    38315.161 
   98800     299.5963   -1451.5238    470.85944    366.93254   -540.65781    38315.161 
   98900    299.72235   -1456.5852    470.87768    362.45634   -155.76399    38315.161 
   99000    304.12526   -1451.1145     460.6946    377.54838    1.1985679    38315.161 
   99100     298.6605   -1420.1022    485.24371    408.52907   -247.11507    38315.161 
   99200    309.38694   -1442.0744    455.67008    405.23121    32.792459    38315.161 
   99300    301.83408   -1442.0403    443.51421    359.13644   -229.50621    38315.161 
   99400    299.34741   -1419.7507    468.61744    395.34411    954.12987    38315.161 
   99500    301.77339   -1433.5458    479.60133    403.44497     226.4361    38315.161 
   99600    304.91231   -1470.4646    479.22552    380.26937    316.85617    38315.161 
   99700    299.35556    -1417.407    445.22834    374.33531    651.84699    38315.161 
   99800    304.70827   -1400.8476     456.5141    426.25721   -144.91214    38315.161 
   99900    288.03593    -1483.062    451.53459    264.07044   -714.88194    38315.161 
  100000    305.27263   -1465.9792    464.65452    371.80456   -204.75789    38315.161 
  100100    293.90764   -1475.0255    458.43993    305.42343   -158.31258    38315.161 
  100200    310.01961   -1506.1236    438.85424    327.21199   -97.971535    38315.161 
  100300    309.62195   -1450.4673    450.28541    392.51069   -659.66163    38315.161 
  100400    312.28437   -1403.3616    440.28117    441.58792    36.478551    38315.161 
  100500    294.36479   -1461.7019    463.57087    325.93422   -51.436487    38315.161 
  100600    310.90605   -1434.2247    480.80457    445.04842    519.47918    38315.161 
  100700    287.50011   -1497.6607    457.73929    253.26627   -153.02535    38315.161 
  100800    292.92172   -1495.1577    473.44141    295.85802    110.34813    38315.161 
  100900    303.17501   -1498.3165    456.97831    322.35582   -125.92438    38315.161 
  101000    292.51423     -1464.92    454.78269    305.60413      265.821    38315.161 
  101100    293.61701   -1425.4495    475.53272      370.785   -158.26026    38315.161 
  101200    297.13073   -1445.8113    451.95432    342.64962    265.38448    38315.161 
  101300    304.62254   -1446.3835    480.48755    404.30916   -164.38156    38315.161 
  101400    298.54958    -1427.844    469.79389    384.83852   -395.01136    38315.161 
  101500    288.79969    -1448.466    446.94514    297.51232   -293.81448    38315.161 
  101600    308.45127   -1430.7436    465.52293    422.20618   -430.52886    38315.161 
  101700    314.60497   -1440.7013    454.44768    428.85283    66.217896    38315.161 
  101800    292.25587   -1445.7873     445.8783    314.67033   -407.69064    38315.161 
  101900    292.32134   -1443.2338    441.48631    313.12634    13.984485    38315.161 
  102000    296.16661   -1494.2055    471.71816     309.6826   -631.03192    38315.161 
  102100    308.57206   -1463.5357    470.68018     395.1147   -543.40099    38315.161 
  102200    296.45589   -1438.1258    464.17993    359.52532    40.937562    38315.161 
  102300    291.68255   -1413.2451    460.77927    359.53462      -356.81    38315.161 
  102400    300.00658   -1420.7978    473.95548    402.59997   -602.65252    38315.161 
  102500     316.5762   -1432.4193    466.44574    457.99954    195.64863    38315.161 
  102600    304.22373   -1486.2407    472.52726    354.69784   -10.998962    38315.161 
  102700    309.30578   -1472.7561     473.0635    391.57794    162.71711    38315.161 
  102800    294.78026   -1485.1157    441.47297    282.29138    41.698144    38315.161 
  102900    296.30527   -1485.2324    481.22641     328.7877   -294.74337    38315.161 
  103000    305.40119   -1507.4356    461.29994    327.57178   -177.83925    38315.161 
  103100    296.32697   -1484.1943    477.00797    325.70491    249.09918    38315.161 
  103200    291.86674   -1505.0573    463.89433    271.66601    399.37252    38315.161 
  103300    288.02108   -1468.7799    470.38965     297.1408    237.56426    38315.161 
  103400     300.0905   -1464.6517    470.04062    355.20871    500.15351    38315.161 
  103500    299.27895   -1474.2162    486.97507    358.92824     277.9563    38315.161 
  103600    296.28697   -1490.6202    506.44209    348.53319    351.49473    38315.161 
  103700    303.56798   -1473.1802    441.36446    333.64591    770.16038    38315.161 
  103800    301.09191   -1474.4818     454.8449    334.68727    453.99846    38315.161 
  103900    294.10101   -1477.1812     463.6124       309.31     537.4255    38315.161 
  104000    302.80236   -1455.2186    473.30779    380.10704    500.14869    38315.161 
  104100    291.45863    -1437.796    476.94856    350.14586   -112.23291    38315.161 
  104200     307.4672   -1451.7703    509.36255    440.59277    92.541504    38315.161 
  104300     306.7079   -1464.3324    494.65343     409.9062    826.30556    38315.161 
  104400    294.14475     -1455.75    466.25429    333.57985    757.22643    38315.161 
  104500    293.81449   -1474.5516    469.35016    316.38855    128.10246    38315.161 
  104600    304.57419   -1426.9663    474.40026    417.42163    151.79622    38315.161 
  104700    297.88781   -1432.0729     476.5488    384.38792    228.62652    38315.161 
  104800    286.35495   -1439.9497    493.11469    341.20166   -14.920627    38315.161 
  104900    312.00356   -1465.5375    471.97635    409.84407    560.37779    38315.161 
  105000    304.06819   -1445.5105    485.06458    407.26569    348.52701    38315.161 
  105100    299.56787   -1436.3768    494.39005    405.48219    361.56997    38315.161 
  105200     301.5162    -1468.983    460.76394     348.0136    68.734671    38315.161 
  105300     308.3287   -1456.7803    467.96633    398.06155    46.105728    38315.161 
  105400    287.42049   -1472.7513    487.02161    307.09983   -8.5809448    38315.161 
  105500    302.85996   -1447.3059    470.30752     385.2785    504.39523    38315.161 
  105600    299.59135   -1456.9678    471.95512     362.5619    122.00374    38315.161 
  105700    301.46054   -1473.2325    477.91421    360.66406    419.23651    38315.161 
  105800    304.41875   -1460.9534    462.14155    370.47662     679.8102    38315.161 
  105900    296.60501   -1436.0269    492.90575    391.02072    870.87576    38315.161 
  106000    307.29951   -1494.1914    463.30967    351.36449    475.77019    38315.161 
  106100    299.92926   -1510.4426    486.48981    325.14172    113.91863    38315.161 
  106200    313.00228   -1476.7721    485.03142    416.15689   -122.14917    38315.161 
  106300    307.77536   -1489.5533    457.25311    352.08643    400.59051    38315.161 
  106400    296.00859   -1478.9335    451.53305    304.05873    97.113887    38315.161 
  106500    304.81908   -1453.0183    468.51296    386.58378    209.48113    38315.161 
  106600    301.06169   -1459.6532    458.96813    353.50314    506.08774    38315.161 
  106700     300.2939    -1422.585    493.92051    422.07016    451.26313    38315.161 
  106800    294.36322   -1474.9831    458.19734    307.27243    898.36837    38315.161 
  106900    298.20179   -1495.0546    466.55345    312.82308    609.55594    38315.161 
  107000    300.97653   -1475.8819    453.89527    331.81849    262.57776    38315.161 
  107100    296.76499   -1484.3078    464.52556     315.0793   -436.25656    38315.161 
  107200    289.06853   -1480.5187    471.10146    290.82521    160.70287    38315.161 
  107300    309.04502    -1465.603    467.06073     391.5553    115.71222    38315.161 
  107400    302.03603   -1517.1664    463.16653    304.57096   -525.63919    38315.161 
  107500    305.12128   -1517.1564    456.16705    311.45911    134.64163    38315.161 
  107600    305.25837    -1497.213     489.2759    365.12801   -118.87202    38315.161 
  107700    319.37935   -1477.6096    455.23812    414.21039   -177.75112    38315.161 
  107800    297.34113   -1499.8321    460.25981    297.88066   -170.79034    38315.161 
  107900    304.13231   -1503.4663    493.48211    358.01577   -193.16229    38315.161 
  108000    299.89591   -1503.4788    466.22036    311.68611   -131.18936    38315.161 
  108100    287.77393   -1452.7801    487.00781    328.64703   -312.30094    38315.161 
  108200    300.33881   -1443.8164    479.15822    386.27857   -408.67908    38315.161 
  108300    289.31069   -1469.5826    471.20151    302.95064   -204.56608    38315.161 
  108400    299.79913   -1478.8484    474.33258    343.99336    768.60936    38315.161 
  108500    303.91313   -1456.6717    467.94319    378.28564    130.08338    38315.161 
  108600    292.25013   -1437.2001    468.93004    346.28345   -327.75114    38315.161 
  108700    296.90437   -1482.0111    490.05985    343.53716    448.12911    38315.161 
  108800    307.23771   -1468.7936    472.68372    385.85831   -186.26301    38315.161 
  108900    293.02586   -1467.2084    485.99119    336.82551    246.69666    38315.161 
  109000    303.07995   -1476.4419    469.76651     356.5911    388.10442    38315.161 
  109100    308.48104   -1445.2572    483.62553    425.92911    140.44312    38315.161 
  109200    304.14552   -1438.2899    493.37466    423.14425     946.1489    38315.161 
  109300    290.69855   -1491.0884    497.65482    314.14077   -168.72662    38315.161 
  109400    298.10799   -1507.6097    485.60618    318.89889    245.55726    38315.161 
  109500    291.35776   -1489.9479    473.05161    293.64325    258.02135    38315.161 
  109600    294.17562   -1486.2471    467.84443    304.81172    666.73021    38315.161 
  109700    302.05696   -1536.8716    464.03633    285.82974    383.24383    38315.161 
  109800    289.86611   -1516.9032    482.26179    269.18866    171.57333    38315.161 
  109900    300.07551   -1498.9695    450.96575    301.74861    569.12204    38315.161 
  110000    295.55544   -1489.2643     484.6953    324.85189    260.67596    38315.161 
  110100    291.94903   -1503.4619    465.79689    275.53409   -163.68153    38315.161 
  110200    306.66819   -1513.1591    458.47432    324.72177   -170.45854    38315.161 
  110300     300.3838   -1477.7749    487.07602     360.4402   -115.56544    38315.161 
  110400    308.19172   -1484.3602    461.61296     363.5122    64.112804    38315.161 
  110500    296.15892   -1498.8294    475.40798    308.71396    151.63491    38315.161 
  110600    290.91321   -1462.3105    469.08224    315.31171   -332.94623    38315.161 
  110700     307.4022   -1475.3719    458.78754    366.12374   -249.03566    38315.161 
  110800    308.59337   -1500.0211    451.61909    339.66403   -31.347295    38315.161 
  110900    293.17232   -1493.6442    474.41331    299.47068   -393.09652    38315.161 
  111000    303.69688   -1505.2078    463.06132    323.89497   -43.755349    38315.161 
  111100    296.62931   -1506.1568    505.12575    333.22011   -78.884077    38315.161 
  111200    296.65312   -1513.4745     459.0384    279.92219    75.978809    38315.161 
  111300    302.60262   -1463.0155    500.73986    398.84373     173.0149    38315.161 
  111400    291.56211    -1515.266    481.51934    277.71207   -205.62923    38315.161 
  111500    302.44374   -1519.6831    455.55992    296.28159    334.12927    38315.161 
  111600    312.02021   -1463.4198    477.32968    417.39007    343.81285    38315.161 
  111700    304.29502   -1481.4855    516.64899    403.89539    206.95415    38315.161 
  111800    307.88246    -1471.601    488.22598    401.49335    487.23132    38315.161 
  111900    311.77651    -1454.334    473.35877    421.40872    677.40106    38315.161 
  112000    286.31121   -1468.2765    471.33255    290.89597    292.05392    38315.161 
  112100    298.35747   -1459.4801    480.73883    363.28325    -204.6697    38315.161 
  112200    290.88611   -1453.4009    510.91837    365.93551   -273.77648    38315.161 
  112300    296.33845   -1447.2593    480.77201     366.4556   -832.78405    38315.161 
  112400    304.91023   -1445.9343    463.89011    389.45488    -938.7019    38315.161 
  112500    304.22861   -1434.3959    479.94802    413.98533   -800.06534    38315.161 
  112600    294.05036   -1477.0837     460.7892     306.3565   -387.64586    38315.161 
  112700    309.53786   -1462.1882    484.24417    414.37038   -318.87023    38315.161 
  112800    296.75031   -1479.0752    464.78045    320.50073   -291.21734    38315.161 
  112900     296.2493   -1498.9066    460.24028    293.87558   -147.58553    38315.161 
  113000    306.70517   -1464.6256    451.61585    366.56309   -698.95295    38315.161 
  113100     305.6897   -1475.5311    477.61058    377.08472   -805.53385    38315.161 
  113200    294.31085   -1497.5863    494.78704    321.02338   -512.91798    38315.161 
  113300    298.48069   -1506.8308    508.31296    344.06095   -394.37517    38315.161 
  113400    307.81464   -1486.1108    481.81977    380.27223   -432.59694    38315.161 
  113500    304.37052   -1493.4182    487.47338    363.12667   -498.18165    38315.161 
  113600    289.97423   -1461.8982    468.87406    311.29225    1.5539628    38315.161 
  113700     310.1699   -1500.0928     502.1491    397.21362     58.75536    38315.161 
  113800    305.33504   -1469.7435    467.00517     370.6716    439.66403    38315.161 
  113900    296.67918    -1478.884    482.27907    337.87056    326.40771    38315.161 
  114000    299.84117   -1445.9155    490.67331    393.45611    667.87452    38315.161 
  114100    305.92462    -1479.204    474.04317    370.90112    104.20955    38315.161 
  114200    297.59804   -1514.0184    464.26946     288.8596    300.26426    38315.161 
  114300    310.35346   -1488.0553     449.5512    357.47894    223.10018    38315.161 
  114400    303.87863   -1490.0586    475.47217    352.27253    308.25111    38315.161 
  114500    297.88862   -1479.3839    496.46275    356.99454    598.03981    38315.161 
  114600    306.00119    -1486.922    475.92102    365.40538    312.40806    38315.161 
  114700    305.71238   -1509.6682    483.56241    349.00146   -137.39027    38315.161 
  114800    295.56764   -1500.9323     456.3866    284.93003   -164.81116    38315.161 
  114900    295.29536   -1489.2007    485.59751    324.64782   -22.353501    38315.161 
  115000    302.29189   -1456.5403    479.04446    382.22588   -139.79508    38315.161 
  115100    293.53786   -1427.7591    489.29264    381.87933   -374.95769    38315.161 
  115200     299.1252   -1470.4605    470.66681    345.68411   -142.06088    38315.161 
  115300    298.30054   -1454.9399    489.49867    376.32723    84.205048    38315.161 
  115400    284.90631   -1494.5766    489.74041    276.68443     550.6079    38315.161 
  115500     304.1695   -1487.1708    468.20472    349.20119    -46.25084    38315.161 
  115600    296.34499   -1477.2596    483.62105    339.33375   -286.19156    38315.161 
  115700      289.681   -1465.6504    500.80406    338.15108    202.91828    38315.161 
  115800    295.72728   -1475.4414    488.32209    343.07451    206.17055    38315.161 
  115900    297.30202    -1486.155    458.07224    309.19436       88.175    38315.161 
  116000    297.12611   -1502.2748    448.02417    282.23514   -176.99317    38315.161 
  116100    307.84121   -1511.4167    460.32988    333.59599    316.94187    38315.161 
  116200    290.99284   -1534.2136    480.47247    255.15703    688.31258    38315.161 
  116300    298.46253   -1543.7806    476.07528    274.79175   -266.30609    38315.161 
  116400    303.89498   -1512.8898    460.03198    314.07467    64.833116    38315.161 
  116500    296.03313   -1507.9826    462.87416    286.46109   -28.686693    38315.161 
  116600    300.42779   -1481.7576    485.52031    355.09966    -97.27281    38315.161 
  116700    296.57668   -1529.7336    486.82168    291.10253   -110.58363    38315.161 
  116800    306.03062   -1532.2776    459.22926    303.49033    452.29565    38315.161 
  116900    288.71176   -1482.5478    482.89886    298.98879     441.2321    38315.161 
  117000    306.00267   -1483.8165     468.3758    360.97226    615.53548    38315.161 
  117100    287.78112    -1512.792    456.22206    237.88175    241.02525    38315.161 
  117200    304.59879   -1484.9374    486.11841    371.27924    879.09484    38315.161 
  117300    302.71329    -1496.361    454.34766    319.60386    419.13399    38315.161 
  117400    297.90197   -1445.2032    498.22788    393.00039    136.88779    38315.161 
  117500    295.66119   -1456.9586    490.13395    363.07196     315.9612    38315.161 
  117600    294.33747   -1451.0806    468.13479    340.99656    195.67976    38315.161 
  117700    292.60201    -1452.583    476.32428    339.87754    627.12185    38315.161 
  117800    299.80816   -1443.3576    499.05363     404.2458   -89.532506    38315.161 
  117900    296.89198   -1497.4358    478.35262    316.34958   -73.795672    38315.161 
  118000    300.68796   -1457.3936     467.2822    362.39579      4.24273    38315.161 
  118100     304.0798   -1494.4275     483.2861    356.62248   -348.31465    38315.161 
  118200    292.10958   -1504.9293    452.65923    261.65122   -151.88416    38315.161 
  118300    307.89441   -1469.5022    484.86551    400.28547   -91.478164    38315.161 
  118400    298.65257   -1501.1885    467.02255    309.18597   -679.46025    38315.161 
  118500    295.05375   -1484.8429    487.10336    329.42473   -344.67272    38315.161 
  118600    310.11999   -1451.4588    492.89694    436.37105    108.73626    38315.161 
  118700     297.2637   -1455.4808    473.77965     355.4036    236.96756    38315.161 
  118800    300.33693   -1533.6131     474.0027    291.31787    780.45212    38315.161 
  118900    304.62229   -1483.5736    457.04984    343.68023    300.29685    38315.161 
  119000    298.73925    -1493.277    440.80476    291.26952   -85.061751    38315.161 
  119100    306.02927   -1498.9282    460.83132     338.4358   -538.88461    38315.161 
  119200    309.23179     -1492.35    465.22749    363.81525   -633.43303    38315.161 
  119300    302.76843   -1478.9733    470.85576    353.74766   -819.45353    38315.161 
  119400     300.4507   -1518.5603    452.60501     285.4847   -184.33022    38315.161 
  119500    299.79322   -1553.4537    467.59515    262.62405    487.14293    38315.161 
  119600    301.65424   -1516.5137    468.19494     308.5348     664.0091    38315.161 
  119700    309.76879   -1521.8676    462.49698    333.98257     993.1331    38315.161 
  119800    291.17993   -1505.6199    469.85224    273.97203    462.64739    38315.161 
  119900    303.52663   -1501.7072    457.53401    321.10247    567.14812    38315.161 
  120000    302.89272   -1521.0703    474.61137    315.96536   -44.771496    38315.161 
  120100     298.5938   -1514.5062    473.57922    302.16054    408.92512    38315.161 
  120200    298.29101    -1537.032     471.6146    276.30817    630.16095    38315.161 
  120300    309.89823   -1479.0463    486.82479    401.71384    769.08892    38315.161 
  120400     289.8164   -1445.3079    477.93346    336.23198    196.79213    38315.161 
  120500    290.56543   -1497.8867    478.88226    287.97117   -60.072742    38315.161 
  120600    298.44337   -1473.0548    472.67486    342.03101    114.91449    38315.161 
  120700     300.2347   -1498.5301    462.09814    314.03647    498.13083    38315.161 
  120800    304.16021   -1495.2322    481.42878    354.32208    1039.8979    38315.161 
  120900    290.33755   -1487.8836    469.07477    287.14178    534.82992    38315.161 
  121000     292.4024   -1477.5162    485.65789     323.3801   -393.49941    38315.161 
  121100    299.67954   -1471.7697    476.81841       353.02   -271.70255    38315.161 
  121200    298.54193   -1486.7806    464.51555    320.58923   -222.40775    38315.161 
  121300    297.55683   -1466.3651    490.93522    362.99339   -529.02138    38315.161 
  121400    306.34653   -1437.8374     481.5031    421.62539   -707.46565    38315.161 
  121500    297.89361    -1490.746    461.09449    310.28654   -717.51388    38315.161 
  121600    302.48946   -1446.6657    475.02662    388.97136    -585.2922    38315.161 
  121700    307.14355   -1464.7832    477.90031     394.6618   -362.97214    38315.161 
  121800    299.95983   -1431.6528    494.77491    412.35415   -88.823878    38315.161 
  121900    289.74287   -1454.7281    496.52086    345.06848   -69.449417    38315.161 
  122000    297.50901   -1437.6867    479.19136    379.71273    79.821811    38315.161 
  122100    304.08799   -1459.6748     484.4575    392.58342    69.827856    38315.161 
  122200    308.33168   -1509.1882    480.05296     357.7537    554.65272    38315.161 
  122300      306.552   -1484.0133     488.6236     383.4942    444.64702    38315.161 
  122400    310.04991   -1483.9437    499.03741    409.71136     242.9029    38315.161 
  122500     302.3189   -1446.7698    485.62168    398.69509    360.05845    38315.161 
  122600    289.54838    -1469.965    490.49464    322.93055    350.74901    38315.161 
  122700    292.72002   -1496.6799    478.15615    298.14329    445.68845    38315.161 
  122800     304.0148   -1452.8553    487.37031    401.98647    435.30566    38315.161 
  122900    307.46053   -1454.5809    467.44816    395.83775    178.49285    38315.161 
  123000    303.21335   -1496.6576    465.65639    332.86525    296.90717    38315.161 
  123100    294.46548   -1502.7812    467.13616    288.87322    19.249376    38315.161 
  123200    306.37479   -1506.5228    509.16404    380.72806    517.61388    38315.161 
  123300    292.94912    -1512.294    470.01281    275.41638   -51.411928    38315.161 
  123400    292.89643   -1463.1426    488.76433    343.08231   -213.62656    38315.161 
  123500    310.95795   -1466.8034    487.82242    419.72103     650.6186    38315.161 
  123600    304.48117   -1490.0381    466.43656    345.96767     616.4544    38315.161 
  123700    293.88848   -1468.7722    498.32235    351.47298    258.91696    38315.161 
  123800    305.58273   -1492.5584    473.10051    355.06619    80.804861    38315.161 
  123900    300.81328   -1476.2796    459.13051    335.92183    17.511305    38315.161 
  124000    290.56165   -1501.0831    472.95263    278.82809     309.2689    38315.161 
  124100    290.18579   -1491.0431     484.7183     298.9432    822.44036    38315.161 
  124200    296.99925    -1488.451    471.55986    319.02408    507.01825    38315.161 
  124300    300.06931   -1470.1301    488.83542     368.4298    275.12171    38315.161 
  124400    299.07829   -1448.6434    468.30819    364.93167   -528.01317    38315.161 
  124500    299.01934   -1477.7457    475.18843    342.44437   -498.39392    38315.161 
  124600    300.25306   -1467.8193     489.5238    372.25546   -413.18165    38315.161 
  124700    297.65719   -1508.8408    468.66148    298.69539   -355.62118    38315.161 
  124800    306.45843   -1477.1632     491.0502    392.35002   -453.24169    38315.161 
  124900    293.51944   -1490.6216    479.97366    309.61495   -538.45543    38315.161 
  125000    311.28763   -1484.1599    465.58505    381.61012   -148.53108    38315.161 
  125100    300.12325   -1437.0685    495.04748    407.94606   -138.65962    38315.161 
  125200     304.6485   -1484.1808    485.24725    371.38833   -168.62566    38315.161 
  125300    300.36673   -1483.8192     504.2098    371.45292   -20.467358    38315.161 
  125400    308.91575     -1473.35     463.9204    380.08656   -223.34442    38315.161 
  125500    296.88735    -1479.803    494.06227    349.67114      179.862    38315.161 
  125600    301.98609   -1536.3442    452.57765     274.5797   -42.975052    38315.161 
  125700    301.76954   -1529.7336     470.8233    298.46182   -338.26112    38315.161 
  125800    300.34586   -1565.3744    472.35277    257.94677   -265.65788    38315.161 
  125900    293.04576   -1546.0603    480.74364    252.81562    159.61479    38315.161 
  126000    314.23691   -1524.4255    503.35455    392.38001     242.2874    38315.161 
  126100    300.10053   -1554.3828    503.93827    299.42031    174.91065    38315.161 
  126200    291.40883   -1527.8006    490.11029    273.07899   -231.41548    38315.161 
  126300    301.86313   -1514.5241    485.42994    328.69902   -274.04862    38315.161 
  126400    288.30595   -1503.7015    490.87654    283.98738   -367.31073    38315.161 
  126500    303.05003   -1506.5777    513.91008    370.46425    519.88267    38315.161 
  126600    312.41389   -1530.7243    469.25894    343.78558    345.22051    38315.161 
  126700    303.92039   -1504.5883    466.72328    329.18179     479.7956    38315.161 
  126800    296.70198   -1520.7965    495.66217    309.44377    217.24531    38315.161 
  126900    293.00849   -1531.4899    502.02058    288.49527    822.66594    38315.161 
  127000    303.99066   -1544.1235    488.61546    311.85486    565.30961    38315.161 
  127100    295.37663    -1568.289    468.95964    229.28722    284.31563    38315.161 
  127200    301.09213   -1524.7518    475.27355    304.84689   -228.16353    38315.161 
  127300    305.81579   -1531.0672     471.1497    315.65488    227.73396    38315.161 
  127400    295.70939   -1506.3812    449.72218    273.45433   -93.807492    38315.161 
  127500    297.87001   -1499.8337    473.42191    313.42018   -111.90341    38315.161 
  127600    295.48231   -1492.7883    485.51435    321.81799     582.1042    38315.161 
  127700    297.87584   -1531.9226    485.46326    293.39882    337.81614    38315.161 
  127800    308.24974   -1508.7638    462.49141    340.24799    461.45687    38315.161 
  127900    301.54194   -1509.3249    504.03178    351.05532   -15.718634    38315.161 
  128000    298.30879   -1482.0602    478.33274    338.07817    233.55761    38315.161 
  128100    308.35343   -1481.0831    465.20054    371.10427    120.05273    38315.161 
  128200    293.38852    -1492.325    464.25215    291.60116    311.63308    38315.161 
  128300    301.39645   -1503.4164    497.09031    349.36792    151.34693    38315.161 
  128400    285.10459   -1498.7435    486.09035    269.75936    511.02563    38315.161 
  128500    313.51157   -1483.3017    450.09836    376.98504    502.69531    38315.161 
  128600    301.26257   -1495.3668     488.7629    348.48794    344.80563    38315.161 
  128700    296.85329   -1524.7561    482.00776    292.51034    271.38542    38315.161 
  128800    294.92835    -1510.484    453.05619    269.17236   -127.13494    38315.161 
  128900     306.7131   -1541.7191    492.09939    329.98878     61.58838    38315.161 
  129000    301.59735    -1517.099    454.94242    294.44106    508.26206    38315.161 
  129100    306.02169   -1461.3413    490.40025    405.55752    257.62533    38315.161 
  129200    302.94604    -1506.331    500.45687    356.78996    11.765721    38315.161 
  129300    297.77787   -1499.6877    504.81719    344.54695    398.94308    38315.161 
  129400    294.95357    -1495.929    481.72114    312.50578   -76.909527    38315.161 
  129500    302.67451   -1470.3834    477.23171    368.29107   -361.78365    38315.161 
  129600    306.50751   -1506.4656    460.66902    332.88719   -529.84522    38315.161 
  129700     302.3276   -1534.5158    471.59755     296.9641   -445.94453    38315.161 
  129800    314.35635   -1493.7468     488.9387    409.18007   -137.38806    38315.161 
  129900    302.28132   -1473.8664    483.41778     369.2255    236.52012    38315.161 
  130000    299.30359   -1542.6307    472.43713    276.08664   -97.758855    38315.161 
  130100    286.88663    -1468.012    471.22534    293.64151   -74.578274    38315.161 
  130200    300.10061   -1526.3905    458.00538    281.48018    99.278372    38315.161 
  130300    301.39095   -1484.6072    494.68375    365.74588    485.57643    38315.161 
  130400    306.31712   -1498.3597    479.95603    359.42372    451.23315    38315.161 
  130500    302.62837   -1545.5239    459.70722    275.41855     258.9417    38315.161 
  130600    303.24112   -1518.4848    462.93172     308.4383    577.43201    38315.161 
  130700    301.59848   -1564.5146    485.90241    277.99054    843.27664    38315.161 
  130800    289.66128   -1524.3782    471.18818    249.71871     412.8979    38315.161 
  130900    300.08854   -1534.3788    454.75759    270.18981    1085.9657    38315.161 
  131000    299.20251   -1508.6326    497.14113    334.33415    960.90255    38315.161 
  131100    297.35993   -1491.1092    456.78078    303.20913    512.15611    38315.161 
  131200    302.36525   -1528.7653    467.18303    298.46947    563.08015    38315.161 
  131300    303.78713   -1534.6038    483.35235    315.19592    358.05461    38315.161 
  131400    305.04362    -1534.853    465.17862    302.42472    -376.0395    38315.161 
  131500    299.79428   -1511.6061    434.71228    271.59356   -465.53859    38315.161 
  131600    299.07619    -1506.357    487.66253    326.56294   -1045.1984    38315.161 
  131700    283.88272    -1493.318    451.81691    235.41543   -925.80508    38315.161 
  131800     299.4895   -1527.4108    471.94822    291.65387   -880.99523    38315.161 
  131900    296.97418   -1561.3215    452.65243    227.13332   -357.41031    38315.161 
  132000     294.1975    -1546.281    468.74006    245.77185   -484.03054    38315.161 
  132100    308.06899   -1525.6529    456.87629     316.9308    -222.0731    38315.161 
  132200    302.93141   -1495.5621     475.5716    342.60777   -65.760715    38315.161 
  132300    304.03278   -1527.8772     484.9336    324.60876    79.457017    38315.161 
  132400    303.01067   -1485.3392    475.86599    353.48161   -178.86546    38315.161 
  132500     307.3533   -1453.6011    495.30042    424.18745   -31.007457    38315.161 
  132600    304.49844   -1474.7784    477.85331    372.72176   -74.229702    38315.161 
  132700    289.88232   -1468.6549    462.38698    297.63499    52.776457    38315.161 
  132800    311.34004   -1489.9739    453.29312    363.73985   -530.74202    38315.161 
  132900    306.71496   -1502.1629    485.28768    362.74165   -306.37876    38315.161 
  133000    298.87962   -1474.9374    476.08214    345.51798     -508.676    38315.161 
  133100    300.47957   -1440.0961    474.49073    385.96449    167.85881    38315.161 
  133200    308.83702   -1470.4527    498.34409    417.05339   0.84353892    38315.161 
  133300    298.52428   -1430.5297    457.12083    369.36604   -313.87193    38315.161 
  133400    297.85746   -1467.8403    491.96174    363.89692    135.74262    38315.161 
  133500    313.60353   -1463.0984    478.37892    425.88249    257.82559    38315.161 
  133600    303.30228   -1444.0047    489.40767     409.6695    107.21284    38315.161 
  133700    296.49776   -1471.9052    456.56195    318.31618    125.74409    38315.161 
  133800    305.70903   -1466.3185    483.62564    392.39936    458.21537    38315.161 
  133900    295.03367   -1505.3371    469.97613    291.71295    493.95514    38315.161 
  134000    300.33546   -1479.3413    468.15642    339.73676    725.39705    38315.161 
  134100    290.56775    -1478.526    506.38927    334.84927    484.55491    38315.161 
  134200     294.9687   -1447.9769    488.25127    367.05605    500.29916    38315.161 
  134300    306.60378   -1449.0892    447.98222     378.0098    102.81466    38315.161 
  134400     292.0946   -1422.6266    473.27169    364.49901   -58.750354    38315.161 
  134500    305.33191   -1471.2746    461.11511    363.23643   -926.91405    38315.161 
  134600    306.94663    -1488.085    456.77199    349.34593   -1284.7106    38315.161 
  134700    301.52502    -1485.038    465.60754    336.84184   -949.20138    38315.161 
  134800    305.08352   -1497.8868    451.47434     325.8662    -433.9913    38315.161 
  134900    295.43516   -1496.1652    466.07409    298.78876   -196.04408    38315.161 
  135000    292.74489   -1441.0818    474.25141    349.94855   -444.77922    38315.161 
  135100    309.18754   -1479.1004    471.88213    383.52039    512.43645    38315.161 
  135200    303.26736   -1491.3855    461.73392    334.45789    283.32001    38315.161 
  135300    296.04957   -1499.5475    501.71676    333.81276    281.61784    38315.161 
  135400    315.38358   -1439.4341    435.11366    414.28828    -434.8362    38315.161 
  135500    313.11837   -1437.3576    477.36284    448.42489   -455.36671    38315.161 
  135600    305.83503   -1461.3556    496.39497    410.69831   -300.82883    38315.161 
  135700    303.05561   -1492.6977    473.09038    343.54968    402.91715    38315.161 
  135800    306.83421   -1499.2415    480.29464     361.2064    183.80328    38315.161 
  135900    312.27104   -1509.8101     472.2286    367.02689    1.3531295    38315.161 
  136000    289.80283   -1519.4025     460.8373    244.98023    603.00646    38315.161 
  136100    300.09295   -1495.6357    493.02101    347.21614   -349.76899    38315.161 
  136200    306.98941   -1507.6282    486.82162    360.04482   -89.979549    38315.161 
  136300    292.51188   -1494.2793    427.06695    248.51845    12.258016    38315.161 
  136400    302.68351   -1534.5656    467.99926     294.9169   -37.984234    38315.161 
  136500    309.76577   -1524.2609    463.67405    332.75267    305.81948    38315.161 
  136600    302.11702   -1503.3231    462.71056    318.32263    397.17832    38315.161 
  136700    302.87376   -1494.6618    465.36204    333.03922    247.93839    38315.161 
  136800    300.69602   -1500.7167    482.55302     334.3797    214.59168    38315.161 
  136900    298.86059   -1514.3062    478.89764    308.87898    312.89031    38315.161 
  137000    302.25756   -1484.9641    442.05005    316.65323   -114.31772    38315.161 
  137100    302.15524   -1456.2913    491.34281    394.15858   -125.96519    38315.161 
  137200    304.50193   -1461.2142    449.98939    358.43779    114.94671    38315.161 
  137300     288.4069   -1445.4101    475.53567    327.39205   -369.33986    38315.161 
  137400    300.94115   -1461.6192     491.8385    383.86529   -431.81021    38315.161 
  137500    300.62806   -1426.9503    465.60338    390.89079    174.28497    38315.161 
  137600    305.17499   -1471.9687    479.32717    380.04848    47.324243    38315.161 
  137700    286.91939   -1476.4801     470.2846     284.3801    516.66613    38315.161 
  137800    318.65683    -1463.802    467.98464    437.51455    798.55012    38315.161 
  137900    297.68132   -1479.4981    456.01389    315.49897    369.06594    38315.161 
  138000    303.38344   -1450.1834     475.6304    390.07855    419.11219    38315.161 
  138100    302.95669   -1446.2838    478.21955    394.64779    193.84854    38315.161 
  138200    288.70004   -1467.9818    491.40849    322.01173   -91.879894    38315.161 
  138300    299.36426   -1477.3548    454.40394     323.6023   -612.23692    38315.161 
  138400    303.21996   -1464.2334    465.67204    365.33484   -731.33005    38315.161 
  138500     293.8556   -1458.4668    460.03536    323.34346   -934.22032    38315.161 
  138600    293.73962   -1439.8264    448.07667    329.50352    -572.5517    38315.161 
  138700    303.10649   -1443.6231    480.87904    400.64182   -838.45115    38315.161 
  138800    302.65317   -1427.0486    458.19588    392.49405   -659.53956    38315.161 
  138900    298.74253   -1486.9502    467.80696     324.6133    -582.8652    38315.161 
  139000    304.32167   -1499.7858     496.1415    365.20749   -338.86674    38315.161 
  139100    298.15097   -1461.3742    490.39622    370.11774   -86.138324    38315.161 
  139200    298.28901   -1497.3378    473.05225    317.43108   -444.65352    38315.161 
  139300    301.37775    -1452.103    488.96182    392.46867   -429.69969    38315.161 
  139400    309.61176   -1480.2249    489.79137     402.2133   -44.793103    38315.161 
  139500    314.06204    -1446.745    471.93378     437.8531    175.67959    38315.161 
  139600    311.00169   -1458.4163    473.04891    413.53141   -216.34176    38315.161 
  139700    305.89819   -1438.2255     476.1009    413.81838   -304.36648    38315.161 
  139800    304.20979   -1481.2431    453.83261    340.93801   -391.48664    38315.161 
  139900    299.91123     -1474.97    465.15572    339.19912   -211.99342    38315.161 
  140000    305.78879   -1465.7462    492.94716    402.65192    437.05969    38315.161 
  140100    313.05943    -1459.381    472.20468    420.97828    74.828516    38315.161 
  140200    306.31976   -1486.9559    481.42237    372.30575    494.30838    38315.161 
  140300    295.74691   -1515.9775    450.80284    265.10748   -80.908089    38315.161 
  140400    298.15898   -1487.0089    471.40503    325.52783   -110.51696    38315.161 
  140500    308.12356   -1479.1209    470.15489    376.98681   -121.14156    38315.161 
  140600      301.983   -1497.2069    481.66506    342.79046   -57.159055    38315.161 
  140700    292.30403    -1417.696    472.29101    369.39087    -108.4299    38315.161 
  140800    309.68831   -1434.7074    488.19294    446.47668   -262.74594    38315.161 
  140900    297.69619   -1476.3135    479.38041    342.11696     201.0999    38315.161 
  141000    294.73065   -1472.5703    500.46067    353.60134    668.52407    38315.161 
  141100    301.27904   -1479.8955    502.97282    378.24323   -163.45157    38315.161 
  141200    298.12299    -1478.635      456.471    318.80578   -223.95207    38315.161 
  141300     308.8426   -1461.3642    494.11241     421.9353    144.45683    38315.161 
  141400    296.99765   -1464.3865    467.08414    338.60562   -715.57141    38315.161 
  141500    297.06093   -1413.8548     522.7557    445.09351   -374.82724    38315.161 
  141600    310.37955   -1443.9804     475.1708    427.29074   -492.95617    38315.161 
  141700    312.98652   -1447.4635    485.27561    445.63877   -6.4785521    38315.161 
  141800    300.85068   -1442.8051    478.68955    389.12352   -950.68775    38315.161 
  141900    289.80917   -1438.6863    497.82388    362.71152   -137.93544    38315.161 
  142000    301.66299   -1442.4308    491.63125    406.09338   -202.66698    38315.161 
  142100    303.12805   -1443.6661    470.33554    390.15226   -524.57768    38315.161 
  142200     294.9617   -1499.1788    486.54103    314.11241   -117.71196    38315.161 
  142300     294.8045    -1490.694    469.36937    304.71843   -588.62839    38315.161 
  142400    292.90333    -1443.152    482.91966    357.25922    8.4424729    38315.161 
  142500    293.46961   -1419.0278    497.18022    398.19118    451.50752    38315.161 
  142600    309.69784   -1496.9984    466.22118    362.25678    337.90912    38315.161 
  142700    304.41073   -1439.6329    491.15081    420.77025    169.86045    38315.161 
  142800    307.40408   -1483.2912    481.13699     380.5624    375.62363    38315.161 
  142900    300.06753   -1476.0825    477.92283    351.55682   -335.03513    38315.161 
  143000    305.60442   -1472.7298    462.98799    364.87977   -434.09089    38315.161 
  143100    303.13882   -1464.2711    504.00019    403.26038   -487.91944    38315.161 
  143200    298.30464   -1460.5672    488.27613    369.49583   -452.16485    38315.161 
  143300    294.29467   -1450.0705    477.99009    351.66953   -273.52741    38315.161 
  143400    301.89209   -1509.8786    472.14918    320.19402    204.58439    38315.161 
  143500    306.55767   -1490.2747     464.9539    353.58852     96.96165    38315.161 
  143600    302.88934   -1490.1309    487.61591    359.89412    367.26778    38315.161 
  143700    301.70669    -1504.304    479.41558    332.20106   -71.077217    38315.161 
  143800    298.67431   -1486.2761    471.29902     328.4726   -80.594787    38315.161 
  143900    298.33218    -1463.735    467.10014    345.27596   -689.60717    38315.161 
  144000    308.54296   -1478.3968    465.87129    375.31374   -167.32397    38315.161 
  144100    296.43451   -1507.3479    460.03006    286.05717   -147.54549    38315.161 
  144200    293.97706   -1492.1546    480.58695    310.75358   -363.25629    38315.161 
  144300    295.84597   -1482.6474    477.18193    325.26222   -455.56624    38315.161 
  144400    296.84655   -1477.2779    474.80675    332.75723   -594.30362    38315.161 
  144500     306.6058   -1463.2709    474.31838     390.1733    8.0862079    38315.161 
  144600     309.0192   -1449.4523    483.09028    423.61945    112.70247    38315.161 
  144700    288.87469   -1448.7575    500.06987    350.68293   -114.38769    38315.161 
  144800    302.62906   -1452.3095    490.72871    399.65759    358.95116    38315.161 
  144900    303.85567   -1414.9238    468.91168    420.74357   -99.621816    38315.161 
  145000    298.31107   -1433.3534    471.55324     380.0157   -8.9616589    38315.161 
  145100    303.24674   -1446.9773    503.30383    420.34322    18.478299    38315.161 
  145200    308.14896    -1440.112    486.65813    432.61319     165.7717    38315.161 
  145300    298.49946   -1440.2577    501.17131    403.57684    683.99274    38315.161 
  145400    302.15186   -1423.0236    496.54707     432.6153     271.7725    38315.161 
  145500    310.96374   -1430.0545    500.69602    469.36957     901.9488    38315.161 
  145600    305.92938   -1457.3153    491.53413     410.3022    135.83873    38315.161 
  145700    290.59652   -1474.0582     502.2147    335.27194   -381.80393    38315.161 
  145800    305.87197   -1473.0864    468.84269    371.58133   -387.17881    38315.161 
  145900    290.82019   -1505.4163     461.0113    263.71654   -871.52707    38315.161 
  146000    302.23263   -1485.6048    478.88194    352.73233   -578.12075    38315.161 
  146100    299.63319    -1459.108    477.44288    366.09768   -413.77072    38315.161 
  146200    303.04194   -1482.4534      446.459    327.10106   -107.61705    38315.161 
  146300    303.06628   -1526.6136    481.11862    317.70999    289.71567    38315.161 
  146400    309.80277   -1484.4579    487.17768    396.22574   -278.05332    38315.161 
  146500    304.25877   -1473.7735    499.80975    394.60509    252.42286    38315.161 
  146600    292.81706    -1478.832    478.14729    316.41877   -273.67489    38315.161 
  146700    302.96834   -1458.3585    471.09913    375.50507    94.799464    38315.161 
  146800      304.181   -1456.8628    471.65247    383.00874   -498.37816    38315.161 
  146900    294.22464   -1480.1509    473.90411    317.18814    -802.0449    38315.161 
  147000    309.77214   -1448.8847     460.1807     404.6642    -417.6515    38315.161 
  147100    293.90193   -1465.7522    472.31576    328.54686   -1254.3941    38315.161 
  147200    310.21574   -1442.1468    450.35023    403.56692    -435.1783    38315.161 
  147300    302.52564    -1465.996    476.22233     370.9995   -867.30899    38315.161 
  147400    301.07539   -1412.6536    486.16131    427.75752   -329.47316    38315.161 
  147500    303.63905   -1417.2686    485.83967    434.35233    401.74894    38315.161 
  147600    283.65619   -1455.9928    491.47026    311.37506    401.21321    38315.161 
  147700    307.98624   -1405.1791    512.07544    492.23151    114.44602    38315.161 
  147800     301.4392   -1400.9659    459.24448    414.16491    174.84617    38315.161 
  147900    298.95964   -1433.5856    487.83682    398.98437    498.17317    38315.161 
  148000    306.19155   -1459.9755    492.94578    410.23289    812.14472    38315.161 
  148100    301.73147   -1446.9087    466.09887    376.39111    928.17131    38315.161 
  148200    302.44755   -1487.2835    466.36019    339.49862    503.84905    38315.161 
  148300    295.63377   -1487.9505    486.04457    327.86735    639.47291    38315.161 
  148400    290.96876   -1453.2081    492.00092    347.58268    485.61025    38315.161 
  148500    301.95216   -1424.0015    472.15595      406.348     621.4536    38315.161 
  148600    296.51161   -1457.5071    485.78156    361.99621    432.81907    38315.161 
  148700    303.99038   -1463.9521    466.09273    369.50224    443.40569    38315.161 
  148800    292.77466   -1481.6504    485.70375    320.96618    62.219757    38315.161 
  148900    294.35881   -1475.0383    468.79381    317.79394   -376.99555    38315.161 
  149000    293.17291   -1428.5851     459.5553    349.67433   -782.06889    38315.161 
  149100    307.31828   -1505.8954     460.3209    336.75613    131.75097    38315.161 
  149200    302.50876   -1481.4068    451.46995     330.7603    450.21477    38315.161 
  149300    290.03508   -1452.9637    461.48334    313.10976    37.899825    38315.161 
  149400    300.31471   -1423.6772    459.82426    386.97537    466.45662    38315.161 
  149500     307.9147   -1436.5469    502.17653    450.64296    335.38451    38315.161 
  149600    306.92484   -1466.1205    470.54608    384.98649   -175.55028    38315.161 
  149700    302.19435   -1463.4255    454.35075    350.20821   -347.11337    38315.161 
  149800    301.43933   -1467.7401    456.00391    344.15073   -547.97185    38315.161 
  149900    295.67694   -1455.8119    463.44577    337.60124   -655.06731    38315.161 
  150000    292.37327   -1476.0353    455.89588    294.96797   -430.27993    38315.161 
  150100    295.67134   -1428.8882    488.50761    389.56165   -238.89372    38315.161 
  150200    297.63162    -1495.855    475.88968    318.79432    335.95047    38315.161 
  150300    303.54049   -1497.0971    440.22772    308.46861   -279.51175    38315.161 
  150400    298.64677   -1508.0755    439.31429    274.56461   -650.44134    38315.161 
  150500    293.18336   -1498.8559    466.41176    286.30707   -688.31108    38315.161 
  150600    298.65268   -1460.0714    450.47553    333.75649   -60.889394    38315.161 
  150700    296.30744   -1490.6086    470.69599    312.89084   -349.30988    38315.161 
  150800    300.06796   -1498.4706    457.98764    309.23545    78.185828    38315.161 
  150900    316.27693   -1485.9976    460.93669    397.56614    712.09928    38315.161 
  151000    290.26104   -1517.8721    471.85572    259.59007    464.77896    38315.161 
  151100    306.00178   -1484.9057    457.68766    349.19094   -6.9205095    38315.161 
  151200    300.85462   -1456.7412    468.04715    364.56274   -80.466346    38315.161 
  151300    295.11545   -1443.6963    472.46199    356.20751    189.33489    38315.161 
  151400    285.23714   -1453.5884     472.5286    301.94895   -354.03445    38315.161 
  151500    293.38939   -1453.2533    434.90295    301.32756     190.3894    38315.161 
  151600    306.72069   -1439.5145    469.81727    409.94545    191.40122    38315.161 
  151700    303.70599   -1465.0304    466.87253     367.9246    249.32862    38315.161 
  151800    300.16287    -1472.251     469.7456    347.63985    954.85342    38315.161 
  151900    296.64802   -1461.1498    455.71495    328.90054    867.24267    38315.161 
  152000    307.38788   -1450.3572      499.388    431.67454    1007.2311    38315.161 
  152100    300.43877   -1469.6743    472.80715    354.51922    910.77875    38315.161 
  152200    312.41665   -1438.6721    462.10166    428.69294   -41.049349    38315.161 
  152300    296.70265   -1428.3966    463.84161    370.02604   -29.832897    38315.161 
  152400    302.10316   -1452.4462    460.03148    366.45809   -383.20752    38315.161 
  152500     295.5972   -1411.3741     460.1623    378.39693   -92.186847    38315.161 
  152600    302.66979   -1462.5152    468.94003    367.84637     273.7306    38315.161 
  152700    304.02505    -1471.464    491.28139    387.33488    630.96117    38315.161 
  152800    295.72298   -1473.6395    459.47017    316.00517     77.28663    38315.161 
  152900    300.79782   -1452.8771    449.81574    349.93998    160.18424    38315.161 
  153000    301.83742   -1431.3277    493.07025    419.42007       65.855    38315.161 
  153100    302.17851   -1464.7906    469.17806    363.59923    304.40578    38315.161 
  153200    309.68702   -1436.7724    477.03761    433.25056    201.90683    38315.161 
  153300    292.79031   -1404.8184    462.56312    374.72792   -198.78199    38315.161 
  153400     300.4125   -1451.1518    493.64379    393.76013   -685.79423    38315.161 
  153500    295.59711   -1426.4253    463.05321    366.23625    260.33456    38315.161 
  153600    294.28693    -1468.375    488.17066    343.51078   -275.04748    38315.161 
  153700    302.67196   -1437.7056     464.7127    388.43841    269.38877    38315.161 
  153800    307.83607   -1454.3813    470.37901    400.65738    104.66523    38315.161 
  153900     292.5245   -1464.3326    480.01104    331.46601   -199.37322    38315.161 
  154000    300.67198   -1473.4982    470.37599    349.31309    173.73863    38315.161 
  154100    301.46579   -1478.8456    486.35069    363.51098    176.59299    38315.161 
  154200    283.63254   -1484.1971    471.31097    262.90511    10.650777    38315.161 
  154300    293.23306   -1461.9319    445.82337    302.86623   -404.29122    38315.161 
  154400    297.12213   -1462.4484    478.54135    352.56091   -675.53203    38315.161 
  154500    306.29519   -1452.5233    445.85581    371.06125   -310.00133    38315.161 
  154600     298.9411   -1454.3096    453.39023    343.73032   -220.00886    38315.161 
  154700    302.74739   -1448.8928    496.35055    409.22833   -153.59792    38315.161 
  154800    301.45374   -1440.1329    497.25174    413.07057    114.20822    38315.161 
  154900    309.02142   -1400.7784    489.11778    478.33083    448.02591    38315.161 
  155000    299.03341   -1411.9856    468.99055    402.06995     529.1988    38315.161 
  155100    311.39081   -1418.7531    464.49432    446.39031    330.98684    38315.161 
  155200    299.49677   -1451.6286    475.01672    370.53724    341.19028    38315.161 
  155300     290.5906   -1407.9916    486.87288    385.97017    173.31683    38315.161 
  155400    301.69466   -1427.0066    484.68825    414.71696    983.36797    38315.161 
  155500    297.16461   -1466.0724    463.51501    334.10161    768.80126    38315.161 
  155600    312.45584   -1443.2356    483.75635    445.96032    1062.6226    38315.161 
  155700    297.06271   -1467.4777    471.67639    340.39932    569.88174    38315.161 
  155800    307.93028   -1458.0419    482.45383    409.49533    743.77541    38315.161 
  155900    311.22602   -1433.7212    468.37912    434.56574    672.64167    38315.161 
  156000    310.97957   -1407.3616    501.76791    493.20561    85.039354    38315.161 
  156100    306.93558   -1436.6438    457.71279    401.67818    67.280327    38315.161 
  156200    306.94661   -1443.9294    430.12578    366.85518   -175.72344    38315.161 
  156300    291.71119   -1392.7195    476.81432    396.22412   -89.068494    38315.161 
  156400    298.93174    -1426.065    508.17026     426.7129   -416.98652    38315.161 
  156500    305.69071   -1443.9499     467.7768    398.83668    -75.62139    38315.161 
  156600    304.65953   -1429.9828     476.9375    417.32613   -329.04882    38315.161 
  156700    296.44614   -1442.0589    465.11667    356.48503   -864.22716    38315.161 
  156800    299.46675   -1496.7299    454.08438    304.36862   -108.65585    38315.161 
  156900    300.52773   -1468.2185    470.07284    353.64077   -309.26268    38315.161 
  157000    309.59323   -1461.7181    478.08093    408.92632    593.96203    38315.161 
  157100     294.6112   -1490.6676    459.27471    293.78076    895.36593    38315.161 
  157200     299.9648   -1495.6783    439.79611    293.37221    507.47171    38315.161 
  157300    296.38059   -1478.7871    465.09652     319.4419    607.48165    38315.161 
  157400    288.85036    -1463.019    458.20663    294.44876    376.58934    38315.161 
  157500    297.28304    -1500.311    457.39974    294.28042    167.69659    38315.161 
  157600    299.95873   -1499.9859     451.9591    301.20025    336.96565    38315.161 
  157700    304.07463   -1509.6263    448.70369    306.81796    91.505319    38315.161 
  157800    302.96052   -1524.9449    454.88537     292.6697   -53.339197    38315.161 
  157900    293.03138   -1522.5593    449.95537    245.46365   -679.32227    38315.161 
  158000    302.35869   -1488.0098    431.83815    303.85057   -164.09942    38315.161 
  158100    300.98595   -1456.0459     467.4486    365.25026   -147.42176    38315.161 
  158200    304.28575   -1471.4727    454.97319    352.19065   -104.34358    38315.161 
  158300    289.74549   -1416.6461    477.44786    364.08927    4.2352833    38315.161 
  158400    298.18565   -1459.6165    467.67825     349.3134   -174.22607    38315.161 
  158500    302.29003   -1444.3108    463.90285    379.30537    361.79123    38315.161 
  158600    298.43641   -1457.6361    469.30218    354.04567     90.64781    38315.161 
  158700    295.95401   -1443.6701    468.16513    355.70873    240.13581    38315.161 
  158800    303.27174   -1487.5705    472.49116    349.04982    229.57149    38315.161 
  158900    308.38424   -1470.7237     483.1605    399.56221    185.80074    38315.161 
  159000    310.28094   -1447.3496    485.10415    433.41131    389.76283    38315.161 
  159100    294.19361   -1474.8284    478.20108    326.66801    244.18409    38315.161 
  159200     291.8129   -1450.4288     471.0508    333.20873    372.28784    38315.161 
  159300    301.07382   -1428.4439      471.157    396.95589    86.236627    38315.161 
  159400    289.45052   -1457.3983     472.3822    316.94459    -130.6373    38315.161 
  159500    293.85224   -1467.9789    466.22029    320.00124   -551.62519    38315.161 
  159600    302.15983   -1454.5086    466.65592    371.27508   -175.13126    38315.161 
  159700    300.51539   -1437.2789    489.60029    404.05236   -551.02656    38315.161 
  159800    301.22517   -1410.7066    466.91499    411.13198   -404.78355    38315.161 
  159900    297.84761   -1438.2575    448.92897    350.40268   -306.62935    38315.161 
  160000    295.48602   -1447.6534     470.6359    352.09112   -653.08528    38315.161 
  160100    296.98651   -1470.8948    461.93529    326.89835   -918.14529    38315.161 
  160200    305.94793   -1478.7418    466.99746    364.42244   -433.59265    38315.161 
  160300     291.4277   -1496.4699     456.8023    271.18657   -190.65709    38315.161 
  160400    309.28244   -1466.6144    474.48559    399.03668   -21.406446    38315.161 
  160500    292.91714   -1484.1276    466.82385    300.24995   -482.70303    38315.161 
  160600    305.66115   -1509.3584    449.44692    314.96533   -338.53068    38315.161 
  160700     291.8504   -1493.0684    468.14728    287.83432   -60.107323    38315.161 
  160800    295.15748   -1464.4033    466.79084    330.01836   -185.87194    38315.161 
  160900    301.50541   -1434.6218    455.14623    376.70857    116.21435    38315.161 
  161000      297.641   -1502.2809    490.73761    327.25852    70.695048    38315.161 
  161100    289.70217   -1482.8998    468.46287    288.65571    81.390628    38315.161 
  161200    309.17229   -1465.2466    439.81265    365.23607    13.851436    38315.161 
  161300    299.72663    -1434.737    449.63339    363.07945   -82.745134    38315.161 
  161400    297.91496   -1455.1861    475.91467    360.76269   -1.7801556    38315.161 
  161500    289.84536    -1488.912    458.93674    273.76149    270.14812    38315.161 
  161600    283.17785   -1483.9307    463.26029    253.07551    45.151424    38315.161 
  161700    302.09246   -1454.4076    484.54167    388.95878    366.96335    38315.161 
  161800    309.39029   -1478.6276    447.45147     360.4745     555.3854    38315.161 
  161900    295.81703   -1503.5324    455.56764    282.63279    196.69305    38315.161 
  162000    296.77553   -1444.3098     476.7785    367.37758   -109.70905    38315.161 
  162100    298.07289   -1461.4087    443.51979    322.85562   -402.91709    38315.161 
  162200    305.60859   -1433.4322    453.68325    394.89145   -323.20613    38315.161 
  162300    294.30763   -1444.3896    477.46671    356.88527   -1125.8969    38315.161 
  162400    298.78762   -1462.2767    453.49994    335.18264   -1031.1899    38315.161 
  162500    294.60577   -1499.4702    446.63086    272.30992   -707.04052    38315.161 
  162600    302.53537   -1458.2339     473.5177    376.10074   -265.15544    38315.161 
  162700    302.82588   -1433.0552    459.01021    388.07864    115.01551    38315.161 
  162800    305.96275    -1419.618     501.0974    457.71277   -207.86463    38315.161 
  162900    300.62692   -1421.8975    451.89739    382.23247    120.90596    38315.161 
  163000    312.95663   -1433.8228    462.72806    436.59748    22.499382    38315.161 
  163100    286.61236   -1408.3505    473.06255    353.90652    227.47973    38315.161 
  163200    296.57498   -1408.9091    495.31107    420.40874   -337.50328    38315.161 
  163300    301.67456   -1400.0105    466.41857    423.35304    214.49311    38315.161 
  163400    298.81488   -1412.6467    464.82829    396.26357   -89.231252    38315.161 
  163500    298.98746   -1418.5663    475.87038    402.16229   -277.36912    38315.161 
  163600    300.48911   -1437.5689    504.89409    418.93795    143.81378    38315.161 
  163700    297.94655   -1443.5362    476.58916    373.22919    51.277504    38315.161 
  163800     305.0619   -1402.3985    448.41114    418.19394     -147.571    38315.161 
  163900    296.68793   -1496.3852     443.8653    281.99499   -92.509107    38315.161 
  164000    299.44425    -1440.753    486.09211    392.25208    -79.99649    38315.161 
  164100    307.30853   -1447.7678    459.25638    393.77534   -74.934195    38315.161 
  164200     301.0634   -1469.7922    493.54081    377.94451   -374.22754    38315.161 
  164300    299.24307   -1437.1116    471.17906    380.07547   -349.58645    38315.161 
  164400    309.44109   -1461.5783    447.08632    377.38714   -756.52565    38315.161 
  164500    300.64179   -1421.6516    497.71886     428.3668      -985.92    38315.161 
  164600    306.15012   -1436.2901    478.70411    419.49025   -319.88532    38315.161 
  164700    289.47279   -1439.5224    470.60506    333.14351   -388.33169    38315.161 
  164800    307.63274   -1471.5754    475.61311    387.78284    590.72806    38315.161 
  164900    296.46549   -1500.3668    461.85324    295.00078    89.979719    38315.161 
  165000    296.33594   -1500.8747    465.75581    297.81267   -162.03613    38315.161 
  165100    310.22441   -1462.3028    453.23685    386.33663    246.10411    38315.161 
  165200    313.03519   -1428.0712    466.93817    446.91247    50.692732    38315.161 
  165300    298.73391   -1445.2106    466.52917    365.03631    259.23496    38315.161 
  165400    292.11542   -1437.7241    464.78869    341.01212   -162.69593    38315.161 
  165500    291.79294   -1460.0564    472.00671    324.44733    109.82653    38315.161 
  165600    296.50403   -1475.1119    466.01781    324.59358    170.04898    38315.161 
  165700    292.92861   -1442.3876    461.79805    337.01573   -201.05945    38315.161 
  165800    287.94145   -1504.7652    440.29814    230.70582    219.02356    38315.161 
  165900    298.98014   -1474.8603    454.25931    324.22436    83.345836    38315.161 
  166000     302.6073   -1437.5214    460.33647    383.95555    442.28719    38315.161 
  166100    300.95923    -1414.809    502.37743    441.29582    415.85726    38315.161 
  166200    307.25866   -1408.9545    472.02088    445.12887   -268.95463    38315.161 
  166300    285.70447   -1432.7108    441.01934     293.4193   -725.13162    38315.161 
  166400    289.13677     -1457.42    473.17893     316.3084    -743.3597    38315.161 
  166500    308.29381   -1426.7308    476.98279    436.97063   -653.48607    38315.161 
  166600    302.77634   -1433.3861    462.42511    390.93978   -590.95407    38315.161 
  166700    285.02513   -1455.4231    471.03898    297.67097   -73.762042    38315.161 
  166800    314.68894   -1496.8267    441.47698    360.13448    214.08142    38315.161 
  166900    301.61159   -1447.7865    478.89873    387.77392   -343.85651    38315.161 
  167000    293.66085   -1453.3547    462.90371    330.44792    40.925877    38315.161 
  167100    297.33368    -1435.247    442.38249    344.55496    301.71438    38315.161 
  167200    299.06612   -1408.9633    474.21876    410.46751    43.908367    38315.161 
  167300    312.27107   -1491.0616    468.98226     382.5291     112.1003    38315.161 
  167400    304.64927    -1447.917    454.75488    377.16319    286.35604    38315.161 
  167500    274.10112   -1438.0219    464.24382    259.14036   -61.900548    38315.161 
  167600    295.13804   -1468.7873    471.74063     330.4967   -234.38974    38315.161 
  167700    308.52807   -1398.6896    490.41432    479.49704   -179.52793    38315.161 
  167800    299.95507   -1444.8667    444.86243    349.20631   -186.53089    38315.161 
  167900    305.15743   -1417.6673    464.74595    419.68972   -154.41137    38315.161 
  168000     294.5248   -1419.1295    456.35536     362.0109   -430.47559    38315.161 
  168100     303.4274   -1458.6977    453.11552    359.24705    265.09387    38315.161 
  168200     295.3516   -1433.2681    470.17184    365.40774    416.41027    38315.161 
  168300    292.57392   -1443.5385    474.72031    347.19175    179.73702    38315.161 
  168400    303.20794   -1428.3963    484.84596    420.29184    356.32933    38315.161 
  168500    301.72877   -1410.9235    492.95902    439.22434    462.59291    38315.161 
  168600    299.75457     -1422.38    473.35532    399.28404    578.44888    38315.161 
  168700    298.13434   -1431.1741    470.12292     379.9697    352.07013    38315.161 
  168800    300.95055   -1466.8416    490.93971    377.78644    825.35516    38315.161 
  168900    306.75804    -1467.973    481.21935    393.05701    793.42753    38315.161 
  169000    310.96107   -1425.9947    490.66338    463.38476    1449.9649    38315.161 
  169100    306.26576   -1474.6279    470.66397    373.63244    1416.6265    38315.161 
  169200    308.97299   -1461.0916     444.3133    372.99527    958.31855    38315.161 
  169300    296.63263    -1463.168    462.54012    333.63832    616.57042    38315.161 
  169400    292.74813   -1469.1285    481.45741    329.12245    714.74202    38315.161 
  169500    295.60351   -1425.4985     471.4038    375.54241    431.83781    38315.161 
  169600     302.4223   -1430.5682    443.66823    373.40836   -490.47025    38315.161 
  169700    303.95316   -1426.9324    485.93181    426.19361   -742.09776    38315.161 
  169800     287.9165   -1425.3628    447.45256    317.15036   -691.88677    38315.161 
  169900    307.66897   -1421.0046    481.97328    444.87673   -102.24684    38315.161 
  170000    305.95192   -1450.7126    451.87251    377.34456   -512.99833    38315.161 
  170100    308.18392   -1425.8041    480.00733    440.42759   -375.53832    38315.161 
  170200    296.94049   -1422.6566     477.8683     390.8626   -146.85925    38315.161 
  170300    306.38059   -1448.5846    461.72027    391.24856   -34.213401    38315.161 
  170400    305.36451    -1418.533    470.06828    425.07777   -249.52641    38315.161 
  170500    301.22181   -1456.5169    448.84901    347.24061   -182.57771    38315.161 
  170600    290.45618   -1433.4401    462.04359    335.08767   -138.07762    38315.161 
  170700    305.22631   -1442.5457    503.57197    433.94712   -117.83927    38315.161 
  170800    303.89229   -1473.0765     471.9326    365.77652    58.128691    38315.161 
  170900    296.87646   -1454.3369    463.11311    344.13906    63.163945    38315.161 
  171000    308.53788     -1424.64     494.1184    457.29486   -109.50393    38315.161 
  171100    309.53596   -1465.2171    465.42562    392.51439   -535.23112    38315.161 
  171200    295.30743    -1421.731    492.49563    399.06995   -630.17945    38315.161 
  171300    307.29073   -1423.2947    471.14795    430.05992    157.51544    38315.161 
  171400     296.8249   -1421.6461    475.34179    388.82668   -200.99676    38315.161 
  171500    302.97081   -1446.9581    469.81255    385.62996    49.191051    38315.161 
  171600    297.86718   -1418.4355    499.23607    420.61977    390.22974    38315.161 
  171700    305.71948   -1437.7872    472.84876    410.20078    20.851213    38315.161 
  171800    303.61867   -1512.8133    460.20374    313.08012   -51.559691    38315.161 
  171900    299.87439   -1510.0629    443.66403    282.44884   -296.47163    38315.161 
  172000    291.71562   -1498.6634    451.49959    264.98546   -253.30059    38315.161 
  172100    296.97156   -1466.8975    502.36707    371.26023    397.04949    38315.161 
  172200    303.39518   -1489.2025    469.23829    344.72016    174.60749    38315.161 
  172300     301.4416   -1462.7194    491.05615    384.23381    335.89155    38315.161 
  172400    302.43222   -1484.7751    417.91606    293.49388   -194.63512    38315.161 
  172500    300.03018   -1513.0017    477.21084    313.75759   -33.823976    38315.161 
  172600    302.50533   -1527.2288    446.63065    280.08365    137.82833    38315.161 
  172700    303.84398   -1454.9023    454.33815    366.13889   -359.75916    38315.161 
  172800    294.82442    -1475.677    462.06976    312.52545   -715.20342    38315.161 
  172900    301.58065   -1494.7099    454.87977    316.69242    257.87964    38315.161 
  173000    299.87523   -1473.7306    480.78568    355.90659   -191.72198    38315.161 
  173100    302.87315   -1471.7689    479.01899    369.58629    123.94098    38315.161 
  173200        292.7   -1494.2077    477.10272    299.47198    172.46982    38315.161 
  173300    301.40489    -1451.585    452.78264    356.92967    325.32058    38315.161 
  173400    299.65341   -1437.0992    473.23426    383.98881    795.37744    38315.161 
  173500    311.04809   -1464.2621    457.52442    392.36983    334.26309    38315.161 
  173600    298.14882   -1471.2783    486.97255    356.78027    222.22212    38315.161 
  173700    300.65022   -1455.9118    466.64345    363.06907   -4.5322542    38315.161 
  173800    294.79799   -1466.4573    447.53423    307.09081   -144.08282    38315.161 
  173900    309.05425   -1471.1095    476.98638    396.01598   -320.37263    38315.161 
  174000     306.1269   -1442.3265    485.25783    419.90313   -432.02644    38315.161 
  174100    298.71097   -1474.5505    453.11223    322.17633   -694.48994    38315.161 
  174200    295.10839   -1487.3479    469.67953    309.74169   -699.51931    38315.161 
  174300    292.03016   -1484.8494    481.39329    310.10789   -453.31864    38315.161 
  174400      300.017   -1473.1651    469.29705    345.62111   -228.78898    38315.161 
  174500    299.13536   -1483.9893    474.50076      336.035   -628.68966    38315.161 
  174600    293.06906   -1474.9603    447.30618    290.58291   -435.61447    38315.161 
  174700     293.4231   -1508.9119    472.00776    282.92539   -1037.0505    38315.161 
  174800    296.51006   -1540.2253    457.25969    250.74916   -438.24454    38315.161 
  174900    295.99193   -1475.8551    458.61473    314.14388   -536.36411    38315.161 
  175000    309.16955   -1441.2641    482.71735    432.11098     -650.556    38315.161 
  175100    295.17473   -1426.3373    477.61512     378.9862    244.31466    38315.161 
  175200    295.56652   -1465.3979    484.12472    348.19754    225.35249    38315.161 
  175300    295.85866   -1467.5582    465.21595    328.44253   -91.801319    38315.161 
  175400    298.50744   -1438.2438    495.88969    400.34503   -464.78129    38315.161 
  175500    310.30024   -1447.5166    452.79725    401.02423   -71.421168    38315.161 
  175600    309.73938   -1492.9126    469.29983    369.60805    424.05472    38315.161 
  175700    296.78018   -1450.2098    489.57455     374.2946      444.047    38315.161 
  175800    294.29583   -1468.7586    482.19103    337.18753    896.25273    38315.161 
  175900    303.17477   -1473.0969    488.89754     379.4936    190.41562    38315.161 
  176000    296.65015   -1478.6441    466.25136    321.95216   -186.47593    38315.161 
  176100    311.22699   -1469.9168    493.97664    423.97202   -180.04018    38315.161 
  176200    300.49269   -1466.9314    479.44115    364.13857    96.116399    38315.161 
  176300    301.82183   -1485.0983    483.07086     355.5799    498.21079    38315.161 
  176400    300.37126   -1495.3528    465.86925    321.59908    675.77386    38315.161 
  176500     290.5729   -1455.7966     477.6873    328.89987    653.61004    38315.161 
  176600    293.81641   -1424.5546    483.77719    380.82125    748.61943    38315.161 
  176700    302.04255   -1471.5289    477.83386    364.90514    450.30062    38315.161 
  176800    298.73396   -1484.4783    481.79745    341.03718    553.72894    38315.161 
  176900    294.79623   -1510.1637    455.87093    271.71317   -82.172351    38315.161 
  177000    295.66345    -1450.479    455.95721    335.38496   0.98902925    38315.161 
  177100    289.73505   -1471.2919    497.10678    329.05541   -459.45698    38315.161 
  177200    306.20958    -1463.326    467.85183    381.86954   -404.92931    38315.161 
  177300    299.42784   -1426.4421    483.18662    403.58362   -804.16324    38315.161 
  177400    295.01474   -1432.1253    476.25676    371.12022   -914.45433    38315.161 
  177500    298.50254   -1469.3443    471.65206    344.98486   -677.15852    38315.161 
  177600     303.0093   -1531.5388    480.59854    312.00839   -222.70791    38315.161 
  177700    304.57258   -1520.8459    468.65799    317.79251     148.7474    38315.161 
  177800    297.51022   -1474.3704    469.14493    332.98806   -53.351573    38315.161 
  177900    309.29285   -1456.6809    496.54527    431.07674   -164.47889    38315.161 
  178000     296.6993   -1447.1989    488.40176    375.76893    425.28307    38315.161 
  178100    291.85999   -1449.7484    520.66014    383.71034    150.86076    38315.161 
  178200    300.35103    -1445.562    478.68293    384.11259    378.26364    38315.161 
  178300    304.13778   -1472.6226    489.86412    385.26612    507.71193    38315.161 
  178400    294.56506   -1463.6071    475.25075    336.60978    90.621384    38315.161 
  178500    296.39824   -1479.9031    481.20936    334.51809   -375.22279    38315.161 
  178600    293.95727    -1498.513    462.70748    286.42671   -712.15303    38315.161 
  178700    302.84336   -1470.1528    493.14456    385.19404   -593.19103    38315.161 
  178800    291.96194   -1501.6022    469.21004    280.86501   -724.52975    38315.161 
  178900    303.48388   -1478.2585    484.93683    371.76167   -892.22467    38315.161 
  179000    296.07314   -1486.0284    478.99399     324.7151   -973.19859    38315.161 
  179100    299.65488    -1503.421    461.04778    305.48715   -728.82887    38315.161 
  179200    304.18053   -1447.1635    494.55444    415.60784   -544.01955    38315.161 
  179300    292.42305   -1506.8733    470.11604    278.57396   -306.19441    38315.161 
  179400      299.474   -1476.0369    466.73615    337.74596   -327.96384    38315.161 
  179500     303.3903    -1491.875     473.3648    346.15225    -103.7897    38315.161 
  179600    300.82161   -1473.2034    473.93963    353.84451   -376.21344    38315.161 
  179700    300.00763   -1483.2316    472.77186    338.98728   -509.38174    38315.161 
  179800    299.91994   -1484.7714    502.75208    367.03328    -513.3299    38315.161 
  179900    299.75255   -1462.1599    487.04788     373.1877   -235.50824    38315.161 
  180000    301.62149   -1434.1817    491.10675    413.63127   -277.59909    38315.161 
  180100    294.69713    -1428.962    467.46121    364.05936   -499.23055    38315.161 
  180200    289.62819   -1427.7326    469.92117    344.94841   -174.79511    38315.161 
  180300    306.71352   -1488.3873    476.78502     368.0081    478.12132    38315.161 
  180400    297.97952   -1508.1139    455.09419    287.30479    336.40083    38315.161 
  180500    298.43237   -1484.8882    489.40815    346.88139    863.70166    38315.161 
  180600    300.24366   -1464.5944    476.52607    362.44041    240.13962    38315.161 
  180700    303.98674   -1483.6787    468.47085    352.13737    629.23224    38315.161 
  180800    298.41423   -1470.0051    455.88529    328.16004    624.14405    38315.161 
  180900    312.47469   -1468.0447    497.16934    434.64905    323.86342    38315.161 
  181000    315.07835   -1446.3506    462.53998     433.4252   -13.143039    38315.161 
  181100    301.82207   -1482.0068    483.16336    358.76499   -172.00299    38315.161 
  181200    292.54205   -1437.8715    476.99371    354.98876    0.5109326    38315.161 
  181300    303.77963   -1494.2701    508.27534    380.41887    -393.8802    38315.161 
  181400      302.582   -1480.7815    448.15447    328.39966   -46.731217    38315.161 
  181500    302.87966   -1429.9801    494.22967     426.6151   -3.6492393    38315.161 
  181600    294.86794   -1473.6678    493.88679    346.54745    270.85746    38315.161 
  181700    313.72566   -1515.1713    459.84494      355.825    218.71924    38315.161 
  181800    302.20056    -1481.798    501.03135    378.54431    7.8259641    38315.161 
  181900    308.36076   -1476.6251    491.32001    401.71463    63.796592    38315.161 
  182000    303.96244   -1515.0408    462.96508    315.16015   -150.54315    38315.161 
  182100    307.23087   -1504.0731    469.34524    347.20957    200.74809    38315.161 
  182200     300.4296    -1495.064    460.41682    316.69788    995.73649    38315.161 
  182300    298.86622   -1504.3865    487.51276    327.43919    938.06319    38315.161 
  182400    302.37135   -1431.3847    491.65248    420.34691    531.00321    38315.161 
  182500    294.72613   -1451.0689    496.15778     370.7795    48.727259    38315.161 
  182600    306.03901   -1430.2238    493.83549    440.18815    13.843297    38315.161 
  182700    306.42626   -1435.4914    477.45071    420.27757   -465.68837    38315.161 
  182800    300.77656    -1419.023    507.29286    441.17561   -371.96368    38315.161 
  182900    294.70727   -1447.0017    489.04839    367.65253   -885.90542    38315.161 
  183000     291.2491   -1440.2118    483.43845    353.27748   -323.69935    38315.161 
  183100    295.19244   -1452.1281    478.54868    354.20869   -688.78372    38315.161 
  183200    309.48845   -1487.1979    473.13012    378.02439    -121.5255    38315.161 
  183300    286.57161   -1464.9568    509.32611    333.38056   -720.84702    38315.161 
  183400    304.83873   -1492.2722    482.71083    361.61615    54.286913    38315.161 
  183500    305.27012    -1481.955    502.32035    393.48333   -128.59872    38315.161 
  183600      300.265   -1491.5931    457.80322    316.81481   -583.97488    38315.161 
  183700    302.63494   -1488.0358    501.70278    374.93177    471.43047    38315.161 
  183800    290.33402   -1486.7199    477.24698    296.46182    611.28738    38315.161 
  183900    301.97707   -1516.2944    468.43363    310.44485      780.895    38315.161 
  184000     303.3921   -1472.5832     478.3842    370.47158    642.27504    38315.161 
  184100    307.96096    -1505.789    473.33912    352.77158    635.68449    38315.161 
  184200    292.54809   -1514.8302    474.75647    275.82002    557.71685    38315.161 
  184300    308.84164   -1501.2968    492.46956    380.35558    319.26374    38315.161 
  184400    307.44197   -1477.5554    462.03774    367.36936    -102.3715    38315.161 
  184500    293.70445   -1499.5914    460.11407     281.6177   -8.8676469    38315.161 
  184600     304.3009   -1460.8282    484.83899    392.76909     -296.621    38315.161 
  184700    301.36106   -1462.6621    469.59763    362.47037     275.9076    38315.161 
  184800    297.26588   -1492.2776    479.05946    323.89637   -176.31819    38315.161 
  184900    291.77005   -1503.1921    490.68202    299.88396   -526.85294    38315.161 
  185000    308.55201   -1487.6278    482.85808    383.11027    105.11697    38315.161 
  185100    292.54651   -1425.9197    497.65674    387.62364   -256.68464    38315.161 
  185200      304.351   -1450.3143    487.23519    405.90459    273.90407    38315.161 
  185300    304.77433   -1463.8834      494.494    401.49843    406.04651    38315.161 
  185400    289.09278   -1477.5564    491.31384      314.109    48.498316    38315.161 
  185500    298.16316   -1476.5838    472.55175    337.11848   -247.14227    38315.161 
  185600    305.39717   -1450.3458    513.48543    436.82903    107.54852    38315.161 
  185700    295.73268   -1458.6641    467.33603       338.89    11.059422    38315.161 
  185800     288.8283   -1418.3754    481.45867    362.24513    59.283445    38315.161 
  185900    294.72614   -1504.7266    510.33725    331.30136    432.80211    38315.161 
  186000    305.69995   -1512.7163    482.52602    344.86101    756.84767    38315.161 
  186100    294.59932   -1518.0024    468.96014    276.07795    656.05115    38315.161 
  186200    295.22694   -1491.9173     528.8167    364.84263    368.85666    38315.161 
  186300    296.11246   -1482.5075    484.14316    333.56209    270.15894    38315.161 
  186400    292.01688   -1532.2098    488.56112    269.85565    500.33797    38315.161 
  186500    295.37337   -1490.5127    472.05165    310.14091    381.43588    38315.161 
  186600    292.58698    -1490.805    500.72028    325.98388    634.70013    38315.161 
  186700    298.48817   -1497.8701    498.61436     343.3567    206.11163    38315.161 
  186800    293.51963   -1506.1513    483.74567    297.85816    3.2728969    38315.161 
  186900    298.89346   -1496.5208    453.48038    301.39499    204.50263    38315.161 
  187000    299.61773   -1489.1441     478.2917    336.84087   -605.86662    38315.161 
  187100    299.64298   -1479.3921    476.13931      344.554   -384.87383    38315.161 
  187200    299.02969   -1505.1517    455.43999    295.33656    81.645257    38315.161 
  187300    310.26103   -1563.1293    461.07331    293.51128    526.07171    38315.161 
  187400    295.80503   -1515.8701    469.47761    284.15105    -254.4601    38315.161 
  187500    308.80864   -1505.9202    465.97049     349.0846   -179.61394    38315.161 
  187600     300.6043   -1502.7315    470.66314    320.06247    81.873759    38315.161 
  187700    290.07661   -1500.0967    471.86444    276.54464   -435.43411    38315.161 
  187800    311.82356   -1541.1159    471.68831    333.16799    259.93854    38315.161 
  187900    307.83566   -1520.8476    469.65906    333.46928    317.27714    38315.161 
  188000    303.70692   -1543.9351    466.93341    289.08494    326.76961    38315.161 
  188100    293.73837   -1526.7059     455.5522    250.09395    331.29814    38315.161 
  188200    304.70194   -1504.9084    482.11179    347.76561    650.84349    38315.161 
  188300    312.12943   -1515.5854    473.46752    361.85347    759.55409    38315.161 
  188400    292.74912   -1529.4044    464.58426    251.97782    418.29643    38315.161 
  188500    286.01483    -1530.918    461.45376     217.0426    593.36645    38315.161 
  188600    297.42007   -1503.7072    468.98405    303.08494    14.674461    38315.161 
  188700    302.10525   -1499.4029     468.6816    328.16096   -118.55131    38315.161 
  188800    300.13901   -1468.6441    466.03596    347.42979    538.11549    38315.161 
  188900    304.54714   -1497.6192    462.41034    334.65712    373.63385    38315.161 
  189000    296.10673   -1537.8423    490.34561    284.40391    402.62197    38315.161 
  189100     289.9812   -1526.2623    472.88497    250.97038    119.51072    38315.161 
  189200    301.60883   -1497.7476    459.80229    318.70397    49.220199    38315.161 
  189300    306.38875   -1500.1458    479.48751    357.49124      413.773    38315.161 
  189400    295.63969   -1496.2322    478.35813    311.92578     572.3277    38315.161 
  189500    308.36655   -1471.7641    478.69631    393.97806    404.61698    38315.161 
  189600    299.46956   -1439.9062    485.66567    392.78623    199.78838    38315.161 
  189700    302.04877   -1500.8586    480.95843    338.72803    609.18205    38315.161 
  189800    297.23054   -1492.6084    468.18006    312.52725    482.19677    38315.161 
  189900    300.73228   -1477.0855    499.28738    374.90839    -208.5823    38315.161 
  190000     299.5305   -1481.0318    455.06119    321.33028   -105.35268    38315.161 
  190100    305.14819   -1485.8798    465.76405    352.45378   -698.98648    38315.161 
  190200    306.84731   -1500.4487    458.80843    338.57192   -38.997851    38315.161 
  190300    297.30277   -1482.7821    485.74529    340.24365    160.98424    38315.161 
  190400    290.62173   -1483.6335     493.2974    316.89277   -110.65422    38315.161 
  190500    300.86323   -1469.5801    478.19302    361.90845    271.75201    38315.161 
  190600    303.05041   -1495.4358     491.3729    359.07072   -285.84974    38315.161 
  190700    289.60076   -1497.9928    487.88459    292.52828   -309.77798    38315.161 
  190800     296.2194   -1492.2079    468.20648    308.40603   -732.35522    38315.161 
  190900     305.0055   -1522.0868    481.55189    331.39272    109.04602    38315.161 
  191000    298.09869   -1529.6307    485.65581    296.88565    94.414441    38315.161 
  191100    304.44308   -1503.2865    457.48693    323.59826   -44.395066    38315.161 
  191200    294.18131   -1516.7026    480.28402    286.82142   -53.648619    38315.161 
  191300     298.1048   -1533.4955    474.26337    281.65589    185.63792    38315.161 
  191400    315.42227   -1539.9104    475.59826    354.47055   -20.493932    38315.161 
  191500    303.66452   -1522.5874    488.42175    331.73023   -287.22226    38315.161 
  191600    301.87674   -1530.0795    461.81646    289.59131    118.03904    38315.161 
  191700    298.57756   -1516.4619    465.65843      292.211   -592.31502    38315.161 
  191800    308.15414   -1512.7792    464.69805    338.00926    93.741359    38315.161 
  191900    303.50477   -1496.5312    460.25609    328.90219   -299.13847    38315.161 
  192000    295.11563   -1515.5391    461.52922    273.43268   -669.89987    38315.161 
  192100    291.66839   -1506.2685    479.06845    284.73674   -259.14914    38315.161 
  192200    302.15367   -1522.6626    473.44597    309.88341    212.97166    38315.161 
  192300    292.84726   -1529.5126    484.98207    272.70887   -38.678396    38315.161 
  192400    297.25391   -1528.6563    469.10384    277.50819    117.00695    38315.161 
  192500    299.56885   -1547.0639    490.07851    290.48805   -300.58245    38315.161 
  192600    303.37888   -1537.0114    470.85673    298.45633   -18.500094    38315.161 
  192700    293.46104   -1506.4451     493.4359      306.991   -349.80403    38315.161 
  192800    291.70099   -1518.6438    485.57073    279.01034    9.8331249    38315.161 
  192900     295.4773   -1506.6228    483.79267    306.23927   -24.728873    38315.161 
  193000    301.02005   -1530.6221    462.44456    285.82342    212.71652    38315.161 
  193100    303.95164   -1527.9229    473.63925    312.90375    -359.4909    38315.161 
  193200    281.59711   -1511.4097    491.20161    246.42765   -633.77763    38315.161 
  193300    292.63075   -1537.6741    483.69857    262.28997   -262.51925    38315.161 
  193400    304.18759   -1506.0873    465.36466      327.526   -49.449793    38315.161 
  193500     294.8019   -1505.6202    457.42179    277.83308   -475.39186    38315.161 
  193600    292.69949   -1510.5269    466.12457    272.17234   -297.60246    38315.161 
  193700    300.86567    -1532.566    458.98847    279.72902    313.98455    38315.161 
  193800    310.07205   -1509.7691     477.6257    362.57377    273.30678    38315.161 
  193900    302.07128   -1531.4699    463.13158     290.3911   -679.99037    38315.161 
  194000    299.87645   -1527.6431    477.79968    299.01357   -554.44942    38315.161 
  194100    303.08156   -1519.2723    471.60005    315.60142    -900.4985    38315.161 
  194200    304.40453    -1503.945    464.91585    330.19536   -175.54136    38315.161 
  194300    298.75556   -1521.1175    468.14291    290.84055    366.30848    38315.161 
  194400    294.13954   -1515.1541    449.26774    257.16575   -358.87776    38315.161 
  194500    292.89945   -1460.0729    466.96885     324.3701   -199.21243    38315.161 
  194600    297.82508   -1446.7319    463.69699    356.59498     49.58587    38315.161 
  194700    301.89932   -1426.7826    490.75576    421.92911   -348.60678    38315.161 
  194800    298.95095   -1426.8251    483.67592    401.54485   -549.98209    38315.161 
  194900    284.75569   -1461.7066    498.26662    317.40311   -461.47382    38315.161 
  195000    297.23919   -1480.3381    457.11763    313.77403    125.36483    38315.161 
  195100    308.61398   -1522.6714    474.10178    339.58917    262.34559    38315.161 
  195200    308.50619   -1506.4777    458.15639    339.35256    453.11546    38315.161 
  195300    294.81554   -1502.8994    480.47433    303.66769    254.83804    38315.161 
  195400    303.08387   -1498.8077     456.5323    321.00867   -79.077484    38315.161 
  195500    297.91429   -1549.5432    445.47133     235.9592   -261.27828    38315.161 
  195600    283.98633    -1524.165    468.42746    221.64495   -133.15355    38315.161 
  195700    309.41683   -1522.9777     460.1236    328.91592     21.01004    38315.161 
  195800     294.6535   -1492.9611    462.66666    295.06948   -344.58881    38315.161 
  195900    309.45916   -1497.6148     447.6029    341.94848   -419.98159    38315.161 
  196000    301.27635   -1498.1198    469.13814    326.17216       -302.2    38315.161 
  196100    294.23541   -1459.9949    473.34092    336.82938     179.6992    38315.161 
  196200    297.85744    -1493.885    457.97666    303.86705   -80.828912    38315.161 
  196300    303.87543   -1469.7904     475.1178     372.1719   -4.3676021    38315.161 
  196400     302.1892   -1459.4732    492.22858    392.01519   -72.548323    38315.161 
  196500    307.94771   -1459.7883    465.33768    390.71123   -96.616101    38315.161 
  196600    306.51253   -1463.7562    470.04131    384.99144   -149.84481    38315.161 
  196700    293.89844   -1464.5863    448.92511    306.30647    85.574599    38315.161 
  196800    298.22469   -1499.6413    461.54885    303.33483     -422.235    38315.161 
  196900    300.35017   -1485.7485    477.93083    343.17009   -744.50658    38315.161 
  197000     308.7131    -1483.471    461.60015    366.73376   -663.50597    38315.161 
  197100    303.30675   -1428.7309    466.82389     402.3796   -607.33321    38315.161 
  197200    296.99469   -1444.0549    461.71254    353.55235   -279.80958    38315.161 
  197300    294.60241   -1453.3106    483.52775    355.35129   -841.48515    38315.161 
  197400    300.18847   -1431.0325    474.35328    393.58121    -310.1907    38315.161 
  197500    302.62051   -1425.6366    478.48683    414.05015   -119.48657    38315.161 
  197600    289.03839   -1396.4071    483.54094    387.24078   -84.209117    38315.161 
  197700    291.41454   -1419.1376    483.32995    374.98724    214.83289    38315.161 
  197800    294.20103    -1433.083    456.10693    346.35262     158.6084    38315.161 
  197900    307.10269   -1429.5669    473.82538    425.61943   -127.78261    38315.161 
  198000    309.31436    -1410.551    507.00594    487.76405     218.1171    38315.161 
  198100    311.62922   -1449.3203    467.37507     419.7762     60.03249    38315.161 
  198200    298.22276   -1432.2194     469.3233    378.52254   -384.97287    38315.161 
  198300    289.69263   -1482.7469    474.29473    294.59752   -20.553986    38315.161 
  198400    296.64442   -1492.8433    454.57789    296.05376   -181.12011    38315.161 
  198500    297.24409     -1484.08    449.84383    302.78037    195.29792    38315.161 
  198600    299.92104   -1437.2693    496.73773    408.52594    147.03198    38315.161 
  198700    298.44589   -1469.9141    472.34669    344.85485   -347.17248    38315.161 
  198800    300.92011   -1475.6967    471.65497    349.50971   -224.43252    38315.161 
  198900    299.44608   -1513.1119    454.68634    288.49558    -58.78151    38315.161 
  199000    310.04868    -1505.827     451.4288    340.21388   -57.200787    38315.161 
  199100    302.71969    -1454.604    473.86212    380.90411   -457.52188    38315.161 
  199200    293.67059   -1471.9749    483.71588    332.68378    289.71967    38315.161 
  199300    307.24762   -1477.3809    479.11816    383.75005    325.94656    38315.161 
  199400    306.39645    -1462.148    487.60002     403.6362   -34.655348    38315.161 
  199500    296.31176   -1431.1666    490.08927    391.74552    368.41888    38315.161 
  199600    304.60335   -1426.5935    504.23334     447.7586    464.40391    38315.161 
  199700    293.77028   -1397.1247    488.48208    412.74858     7.021653    38315.161 
  199800    295.36403    -1427.653    499.06627    399.97321   -391.94818    38315.161 
  199900    293.93883    -1411.138    494.20853    405.21978   -304.91692    38315.161 
  200000    301.84426   -1415.6533     476.4355    418.49052   -283.77276    38315.161 
  200100    299.58194   -1447.9414    461.06543    360.65634   -126.33942    38315.161 
  200200     306.2297    -1469.547    491.08053    398.96767   -344.59205    38315.161 
  200300    303.94325   -1435.4901    478.11279    409.77228   -64.328673    38315.161 
  200400    298.48811    -1430.311    461.02765    373.32878      233.629    38315.161 
  200500    296.69034   -1453.4094    488.82804    369.94436    635.30354    38315.161 
  200600    311.05016   -1446.5335    502.40949    454.99282    165.35209    38315.161 
  200700    295.54865   -1436.9496    470.55065    362.99142    370.66231    38315.161 
  200800    302.27807   -1424.2585    480.21463    415.61572    461.18548    38315.161 
  200900     307.3238   -1453.9897    500.57259    428.93834    663.11789    38315.161 
  201000     299.2369   -1467.9739    471.60181    349.60818    478.87255    38315.161 
  201100    302.02403   -1471.3426    484.95579    372.13009     600.6099    38315.161 
  201200    291.80686   -1441.8084    499.10918    369.86037     898.1424    38315.161 
  201300    304.02989    -1463.397    486.64626    390.78864    780.81437    38315.161 
  201400    292.93078   -1472.2888    485.71739    331.04363    537.11045    38315.161 
  201500    295.50887   -1439.7287    468.90534    358.38809    402.56941    38315.161 
  201600     305.1284   -1494.2196    500.28155    378.54238    347.15281    38315.161 
  201700    291.27026   -1498.4682    456.04768    267.72551   -7.4774253    38315.161 
  201800    295.76461   -1451.3253    503.05709    382.09356    136.87778    38315.161 
  201900    298.36057   -1508.7526    466.73606    300.02192   -181.35459    38315.161 
  202000      300.346   -1474.4837    492.35104    368.83634    35.916539    38315.161 
  202100    303.57643   -1458.0581    489.02216    396.46376   -134.19087    38315.161 
  202200    302.36168   -1470.8957    481.72757    370.86745   -211.14369    38315.161 
  202300    303.02639   -1471.2882    450.28298    342.02032 -0.033244208    38315.161 
  202400    302.36145   -1471.6822    478.30027    366.65272   -258.04316    38315.161 
  202500    304.64603   -1434.6256     465.7809    401.46605   -126.34416    38315.161 
  202600    298.46974   -1437.4773    460.30719    365.35938   -418.70401    38315.161 
  202700    290.68145   -1471.6657    465.57123      301.403    489.33696    38315.161 
  202800    293.17712   -1526.6889    453.21877    245.25302    291.45268    38315.161 
  202900    304.27655    -1496.779    493.38517    365.25503      147.601    38315.161 
  203000    297.47131   -1456.2251    452.94265    334.75612    518.93861    38315.161 
  203100     301.0907   -1464.6265    478.74644    368.43863    592.08703    38315.161 
  203200    305.23224      -1499.8    476.02929    349.17677    314.57117    38315.161 
  203300    298.10372    -1520.226    446.48023    267.13739    835.67951    38315.161 
  203400    309.83042   -1509.9028    491.63079    375.35832    350.05414    38315.161 
  203500     301.4664   -1471.6989    492.51441    376.82419    522.23258    38315.161 
  203600    296.13739   -1478.7502    467.76318    321.05151   -216.88006    38315.161 
  203700    301.32731   -1485.0356    509.39054    379.73798    226.42899    38315.161 
  203800    298.43096   -1448.6127    458.02709    351.76953    424.99285    38315.161 
  203900    301.07261    -1483.974    488.66681     358.9302    299.70404    38315.161 
  204000     299.7212   -1418.6887    475.89563    405.36561    468.25703    38315.161 
  204100    307.87515   -1469.2227    497.94364    413.55642    366.57101    38315.161 
  204200    307.13634   -1449.2657    507.68742    439.93397    167.91923    38315.161 
  204300    310.20859    -1437.194    465.69034    423.82765    173.50661    38315.161 
  204400    293.30343   -1455.4282    480.08762    343.95071   -370.32927    38315.161 
  204500    301.78881   -1434.5529    496.94574    419.85171   -678.22967    38315.161 
  204600    303.80439    -1453.228    486.43996    399.73699   -276.25846    38315.161 
  204700    308.75096   -1486.0281    474.33733    377.08408   -178.10949    38315.161 
  204800    300.24989   -1470.5199    486.12319       366.14    -112.4944    38315.161 
  204900    298.72205   -1432.5732    482.76343    393.85474    23.695741    38315.161 
  205000    310.74556   -1475.0661    490.69807    413.37863   -220.39918    38315.161 
  205100    292.93998   -1466.9126    513.86397    364.60777   -419.23823    38315.161 
  205200    290.20669   -1470.1272    473.30563    308.54041    596.53343    38315.161 
  205300    297.12163   -1496.5811    456.36554    296.25016   -105.59646    38315.161 
  205400    290.36471    -1461.818    471.76865    316.02336   -839.76756    38315.161 
  205500    295.65651   -1462.2621    492.52356    360.13698    288.50702    38315.161 
  205600    297.38759    -1485.441    492.91395    345.13496    278.17776    38315.161 
  205700    297.37459    -1454.278    495.80566    379.13115    152.97277    38315.161 
  205800    295.35273   -1448.0921    470.47465    350.89171   -635.26478    38315.161 
  205900    305.70051   -1424.0431    456.57339     407.5841   -853.09163    38315.161 
  206000    294.51601   -1438.2801    476.42666    362.89202   -462.51684    38315.161 
  206100    307.04215   -1456.3471    487.52916    412.27063   -932.82461    38315.161 
  206200    301.32031   -1497.5683    465.01222    322.79547   -26.115661    38315.161 
  206300    299.63634   -1510.3511    488.97755    326.40335   -417.56871    38315.161 
  206400    304.60465   -1456.9635    476.16127    389.32245   -82.011809    38315.161 
  206500    294.01125   -1435.7978    491.10738     377.7847   -160.54008    38315.161 
  206600    310.18103   -1457.3873    464.39175    402.21187   -624.58759    38315.161 
  206700    297.40849   -1464.0579    489.67773    363.37587   -231.93891    38315.161 
  206800    293.63292   -1434.0778    537.16357    423.85908   -333.72443    38315.161 
  206900    308.78323   -1437.6896    475.35132    426.58176   -126.84158    38315.161 
  207000    303.18378   -1429.5082    480.67959    414.90491   -538.60042    38315.161 
  207100    302.42091   -1411.8127    519.10993     467.5993   -211.49361    38315.161 
  207200    291.74061   -1438.8408    494.92746    368.34826   -333.94912    38315.161 
  207300    309.77304   -1451.2364    469.62795    411.76387   -511.76626    38315.161 
  207400    295.85871   -1422.7071    482.71108    390.78903   -220.95896    38315.161 
  207500    295.25193   -1451.1052    500.64833    377.59879    287.22168    38315.161 
  207600     292.6711    -1488.551    499.00753    326.90358    334.08555    38315.161 
  207700    307.64103   -1463.8495    482.66507    402.59799    544.32677    38315.161 
  207800    293.62633   -1474.6894    486.79709    332.85135    420.75714    38315.161 
  207900    294.68792   -1439.1541    505.16673    391.53144    440.54122    38315.161 
  208000    296.49041    -1450.533    514.24559    397.33899   -21.819671    38315.161 
  208100    290.53218   -1455.2407     488.2431    339.82847   -247.58736    38315.161 
  208200    301.24947     -1428.64    475.88477    402.27761    260.79886    38315.161 
  208300    301.65019   -1479.6575    496.96787    374.14569    156.98691    38315.161 
  208400    297.42125   -1455.4538    484.32927     366.6888   -391.57401    38315.161 
  208500    298.01985   -1483.5636     479.8702    336.81255    555.62427    38315.161 
  208600    305.03177   -1508.0128    473.29638    337.32946    281.45023    38315.161 
  208700    300.52637   -1487.7822    473.24929    337.24744   -355.54488    38315.161 
  208800    301.16532   -1504.0134    488.56587    339.20685   -261.32559    38315.161 
  208900     287.4797   -1499.7283    480.16913    273.53671   -35.600651    38315.161 
  209000    295.22351   -1519.7518    479.39709    287.57313   -150.38927    38315.161 
  209100    298.63109    -1511.937    482.59752    313.91575   -76.178808    38315.161 
  209200    305.29855    -1484.712    465.14219    353.67602    567.78417    38315.161 
  209300    298.59885   -1502.1998    464.10208     305.0126     755.3448    38315.161 
  209400    297.45502   -1504.0826    509.09715    342.97983    868.46415    38315.161 
  209500    296.49796   -1500.6668    485.02064    318.01424    319.01428    38315.161 
  209600    297.14517    -1531.479    471.61095    276.70354    250.82984    38315.161 
  209700    306.50948   -1507.8029    465.09705    335.98682   -32.400379    38315.161 
  209800    303.05636   -1522.8317    475.10583    315.43451    300.07554    38315.161 
  209900    306.18199   -1513.5929    489.66467    353.29129   -279.34214    38315.161 
  210000    290.81984   -1504.8626    458.38771    261.64509   -288.07313    38315.161 
  210100    296.68253   -1489.0946    491.16928    336.56531    516.04511    38315.161 
  210200    302.94989   -1495.8875    484.16746    350.96139    426.41435    38315.161 
  210300     304.0921   -1458.7079    459.99821    369.10945     10.01296    38315.161 
  210400    295.64395   -1502.5409    506.18991    333.46802   -125.37187    38315.161 
  210500    288.54214   -1497.2375    475.58993    276.22715   -322.78967    38315.161 
  210600    297.34878   -1487.7537    470.38982    320.12354    -176.6701    38315.161 
  210700      298.199   -1519.9098    468.30797     289.7099   -434.56929    38315.161 
  210800    311.45316   -1475.3278    483.31448    408.91618   -534.86533    38315.161 
  210900    289.43583   -1503.2663    507.04781    305.67614   -318.37244    38315.161 
  211000    308.11105    -1495.301    489.18418    379.77974    130.24685    38315.161 
  211100    295.30354   -1490.0719    486.52119    324.73711    211.34122    38315.161 
  211200    291.50505   -1490.7118    463.61795    284.10817    403.90516    38315.161 
  211300    300.14811   -1524.3823     485.3128    311.00939    688.68366    38315.161 
  211400    307.39998   -1548.2674    455.98425    290.41501    445.98153    38315.161 
  211500    295.68144   -1550.9657    466.45468     245.4766    771.68945    38315.161 
  211600    313.38387   -1521.4976    477.90076    366.01708    545.11893    38315.161 
  211700    295.72345   -1540.8237    476.95399     266.3069    10.779294    38315.161 
  211800    305.29238   -1553.8956    475.69106    295.01356    155.37576    38315.161 
  211900    299.33348   -1575.5233    457.72923    228.62057   -528.90672    38315.161 
  212000    296.68237   -1589.5767    443.00119    187.91437   -34.701681    38315.161 
  212100    304.38836   -1535.8723    512.93649    346.21595   -361.10448    38315.161 
  212200    294.47534   -1498.3791    463.85369    290.03721    348.45077    38315.161 
  212300    305.42754   -1551.1377    478.61215    301.30039    867.49048    38315.161 
  212400      307.392   -1550.1565     489.2678    321.77353    143.11737    38315.161 
  212500    297.88519    -1569.974    431.85477    201.78101   -513.88841    38315.161 
  212600    294.80959     -1543.62    463.29212    245.73814   -70.874236    38315.161 
  212700    304.90304    -1529.846    480.31009    321.93092   -618.63885    38315.161 
  212800    291.34332   -1528.9626    475.36885    256.88085   -946.15669    38315.161 
  212900     313.0226   -1512.1739    468.54022    364.35528   -389.41031    38315.161 
  213000    300.36935   -1500.9073    480.96639     331.1332   -211.97828    38315.161 
  213100    308.92861   -1529.1882    474.09926      334.485    255.86128    38315.161 
  213200    302.46034   -1571.6346    460.80816    249.65295    288.28724    38315.161 
  213300     298.4901   -1560.3017    476.02629    258.34572    120.63447    38315.161 
  213400     305.8278   -1562.4858    443.65704    256.79767    267.69375    38315.161 
  213500    304.29467    -1556.457    483.79907     296.0724    112.68985    38315.161 
  213600    303.38622   -1529.4975     457.0324    292.17898   -220.22304    38315.161 
  213700    295.97156   -1552.2788    461.71353    240.72738   -470.72789    38315.161 
  213800    295.34043   -1534.8082    456.05405    249.69957   -121.93647    38315.161 
  213900    312.00292   -1511.2399    459.78658    351.94905    438.49294    38315.161 
  214000    292.68667   -1534.7693    488.92454    270.67231     -102.157    38315.161 
  214100    290.31482   -1521.5828    449.89019     234.1558     437.2194    38315.161 
  214200    304.01934   -1565.6582    469.53666    271.37033    218.17765    38315.161 
  214300    303.78322   -1533.7578    479.77684    312.44884    189.67005    38315.161 
  214400     297.7979   -1535.5411    468.59004    272.55654    50.984295    38315.161 
  214500    301.04668   -1554.0076    464.19499    264.30816    321.03104    38315.161 
  214600    299.85573   -1530.0286    484.60428    303.33949    117.57596    38315.161 
  214700    296.63877   -1567.8536    477.05489      243.495    385.84653    38315.161 
  214800     299.4871   -1557.1453    462.34792    252.30825    97.078634    38315.161 
  214900    307.73199   -1551.0643    469.32956    302.45675   0.54502006    38315.161 
  215000    291.19262   -1502.6257    471.28332    278.45441    467.66192    38315.161 
  215100    285.42209   -1500.2292    463.42554    247.03698    152.61176    38315.161 
  215200    304.32326   -1502.1104    462.17632    328.92481    129.15808    38315.161 
  215300     303.2496   -1513.4697    471.47952    322.03938   -200.51563    38315.161 
  215400     304.4949    -1506.162    482.31812     345.7871   -104.74082    38315.161 
  215500    298.50761   -1486.9671    494.37735    350.11016    200.48085    38315.161 
  215600     307.0873   -1499.1163    487.70559    369.88098   -382.90031    38315.161 
  215700    287.15873    -1514.432    482.76079    259.98098    -213.1717    38315.161 
  215800    307.89951     -1528.05    461.42393    318.31894    -84.99156    38315.161 
  215900    300.24999   -1511.9751    452.05612    290.61815   -23.656449    38315.161 
  216000    294.65624   -1526.8283    454.03574    252.58366   -105.37102    38315.161 
  216100    299.82651   -1532.7746    474.78057    290.63832    188.10672    38315.161 
  216200    304.65333   -1474.1893    504.81969    400.97398     699.6365    38315.161 
  216300    303.01063   -1516.3829     470.5502    317.12189    290.25045    38315.161 
  216400    295.86275   -1510.2429    489.56059    310.12084     305.9999    38315.161 
  216500    292.54572   -1518.0686     490.6456    288.45998   -82.550682    38315.161 
  216600    292.75782   -1511.0562    468.24096    274.02178    162.23665    38315.161 
  216700    296.43941   -1470.3714    500.53685    363.56246     476.5551    38315.161 
  216800    302.14755   -1513.5498    485.26672    330.78934    582.31949    38315.161 
  216900     309.7623   -1519.3376    459.06179    333.04818    273.27563    38315.161 
  217000    309.29383   -1534.0912    504.38477    361.51032   -232.39352    38315.161 
  217100    296.88458   -1511.2662    462.60726    286.74043   -490.91558    38315.161 
  217200    302.27944   -1520.1659    464.84496    304.34479   -115.91108    38315.161 
  217300    311.08049   -1535.1898    483.92235    347.98576   -416.18984    38315.161 
  217400    314.11435   -1543.7974    470.69523    339.79744   -215.60282    38315.161 
  217500    299.83077   -1564.8904    490.45046    274.21163    456.46848    38315.161 
  217600    297.95391   -1557.4901    476.06209    258.78127    204.13477    38315.161 
  217700    293.31926    -1536.275    472.16887     255.2563   -154.13133    38315.161 
  217800    288.17812   -1555.4815    467.66101    208.41695   -1.7847796    38315.161 
  217900    301.32443   -1546.5345    483.88316    292.71867   -172.68049    38315.161 
  218000    287.46278   -1530.2015    488.27852    251.09678    71.062929    38315.161 
  218100    292.42354   -1569.0306    467.82729    214.13017   -14.214769    38315.161 
  218200     305.7409   -1583.8366    500.14879    291.54769    58.123555    38315.161 
  218300    292.29121   -1590.7159    479.06876    203.09109    -331.1558    38315.161 
  218400    303.03606   -1523.0769    499.07266    339.06482   -624.68802    38315.161 
  218500     299.9703   -1529.3989    476.79162     296.6718   -971.13339    38315.161 
  218600    297.86243   -1527.6772    444.28329    256.40391   -691.82503    38315.161 
  218700    297.36666   -1564.0702    475.74932    249.24692   -254.65831    38315.161 
  218800    292.05871   -1551.6552    454.45135    216.48865    295.08812    38315.161 
  218900    302.99574   -1487.6383    479.25732    354.50666    941.77364    38315.161 
  219000    300.55116   -1540.0969    508.08762    319.88251    221.08735    38315.161 
  219100    302.55825   -1539.3001    485.31033    306.93007    114.76374    38315.161 
  219200    299.97189   -1526.0937    490.23816    313.43079   -10.035142    38315.161 
  219300     306.4614   -1522.4666    479.27271    335.28243   -171.36184    38315.161 
  219400     309.8647   -1537.9278     503.6368    359.49356    275.46849    38315.161 
  219500    296.44121   -1473.9069    475.28487    334.78311    483.74821    38315.161 
  219600    299.13214   -1535.1429    496.88287    307.24895   -112.99427    38315.161 
  219700    287.80704   -1483.6196    487.17365     298.1223    -483.0769    38315.161 
  219800    305.69918    -1483.774    502.03041    393.30426   -498.01185    38315.161 
  219900    295.29704   -1507.8159    473.93272    294.37543   -258.79268    38315.161 
  220000    315.33345   -1522.7736     488.3102    383.91987   -229.65746    38315.161 
  220100    300.25573   -1527.1582    509.29394    332.69873     90.79852    38315.161 
  220200    295.45888    -1514.485    480.70805     295.2096    1034.7827    38315.161 
  220300    297.22454   -1522.3696      492.666    307.22501    432.11307    38315.161 
  220400    291.96293   -1475.5827     513.5807    351.25966   -84.620457    38315.161 
  220500    291.13121   -1488.8728    482.32528      302.973   -551.73591    38315.161 
  220600    287.76115   -1468.0902    511.49543    337.76711   -236.04653    38315.161 
  220700    300.63208   -1473.9019    492.59213    370.94605    236.68555    38315.161 
  220800    293.36306   -1490.0438    483.99786     313.5135   -436.14457    38315.161 
  220900    300.80454   -1503.5169     483.0134    332.52806    657.96608    38315.161 
  221000    306.56795   -1479.4386    491.25751    390.77448    482.89375    38315.161 
  221100    293.58461   -1498.5806    498.72963    320.70508    223.80498    38315.161 
  221200     291.7653   -1525.1703    485.97782    273.18022   -212.45938    38315.161 
  221300    290.70098   -1535.3102    485.94341    258.21859   -273.22175    38315.161 
  221400     300.2736   -1568.7087    478.01796    259.95262    449.72564    38315.161 
  221500    293.83159   -1474.0219    515.17842    362.82341    507.21696    38315.161 
  221600    292.35372   -1517.3085    507.97716    305.68812   -5.8368579    38315.161 
  221700    298.79523   -1528.7798    490.69883    305.91261    195.65093    38315.161 
  221800    311.46589   -1531.9809    472.28811      341.294    254.50916    38315.161 
  221900    293.39077   -1505.6755    485.44215    299.45076   -65.203678    38315.161 
  222000    300.73351   -1521.8554    497.48147    328.33811    441.63719    38315.161 
  222100    289.76521   -1573.9072    469.48827    198.95729    -448.7293    38315.161 
  222200    304.00883   -1551.0897    466.81986    283.17478   -337.23423    38315.161 
  222300    297.77219   -1545.4991    463.68336    257.57615   -990.40617    38315.161 
  222400    303.41219   -1548.2241    475.39455    291.93128   -846.06689    38315.161 
  222500    292.96283    -1530.106    447.31855    234.97178   -553.40162    38315.161 
  222600    293.28024   -1541.0269    481.50668    259.66676   -542.79285    38315.161 
  222700    298.08012   -1557.9301    486.68966    269.53654     156.6555    38315.161 
  222800    304.53018   -1558.1656    505.66819    317.29219    386.38076    38315.161 
  222900    296.85971   -1548.8967    483.78804    270.17888    794.54639    38315.161 
  223000    299.59643   -1563.7917    485.47274    269.27848    537.71614    38315.161 
  223100    293.83933   -1584.2292    477.07134    214.54391    1105.0106    38315.161 
  223200    288.21957   -1565.2516    499.89451    231.06677    78.999274    38315.161 
  223300     294.8808   -1564.4172     503.3778     265.3469   -375.99919    38315.161 
  223400    294.71591   -1518.1082    475.90792    283.44432    7.9901631    38315.161 
  223500    309.79818   -1528.9242    461.18805    325.74923   -602.27659    38315.161 
  223600    301.19143   -1543.8202    481.79321     292.7448    160.75366    38315.161 
  223700    290.92886   -1548.3268    469.00783    229.29137   0.70001835    38315.161 
  223800    292.59338   -1549.5056    479.42994    246.02179    300.85457    38315.161 
  223900    299.31192   -1524.2525    494.27665    316.34188    79.041946    38315.161 
  224000    314.81863   -1499.8678    465.49488    381.69456     468.0143    38315.161 
  224100    302.33004   -1539.5676    467.44197    287.76771    535.69639    38315.161 
  224200    303.92501   -1498.5014    474.93286      343.499    417.68136    38315.161 
  224300    307.53021   -1526.3328    453.99907     310.9502      462.738    38315.161 
  224400    294.52065   -1485.1316    473.47997    313.11473    310.09374    38315.161 
  224500    290.27779   -1501.9191    469.00639     272.7691   -386.76898    38315.161 
  224600    297.21497   -1484.6959    476.67633    328.86599    -413.4716    38315.161 
  224700    312.32272   -1483.1292    485.39133    407.10293   -616.33513    38315.161 
  224800     287.6517   -1453.2704     491.6739    332.27305   -498.74423    38315.161 
  224900    308.50714   -1462.5882    470.84845    395.93847    138.19776    38315.161 
  225000    295.93884   -1481.2487    464.04203    313.93882   -128.13657    38315.161 
  225100    299.12217   -1541.7355    511.62792    315.35659   -9.3387476    38315.161 
  225200    298.01615   -1491.7331    489.76795    338.52414    340.73664    38315.161 
  225300    297.11644   -1463.3576    485.07125    358.15598   -109.23188    38315.161 
  225400    301.35294    -1478.408    480.69394     357.7842   -172.72121    38315.161 
  225500    294.41446   -1508.6435    492.33706    307.98225   -632.75648    38315.161 
  225600    301.67966   -1553.7887    491.06489    294.24411   -542.70281    38315.161 
  225700    311.58415   -1543.8627    484.15215    341.80817    8.2684178    38315.161 
  225800    304.37216   -1554.9946     472.0813    286.16551   -128.45534    38315.161 
  225900    305.27329   -1523.5294    473.13721    322.74003   -97.025291    38315.161 
  226000    300.67114   -1573.9772    481.38679    259.84105   -233.54372    38315.161 
  226100    299.72468    -1536.786    491.48616    302.87443    865.84819    38315.161 
  226200    301.75501   -1545.1375    516.44918    328.61843    427.59606    38315.161 
  226300     303.1527   -1541.2604    463.34509    285.67835    156.41035    38315.161 
  226400    298.38617   -1519.0867    488.66165    311.72858   -22.639167    38315.161 
  226500     291.2119   -1509.3183    476.18018    276.74529   -647.12048    38315.161 
  226600    295.35422   -1488.9471     492.5263    332.09505   -208.54995    38315.161 
  226700    306.75617   -1480.4567     507.1472    406.49271   -163.93161    38315.161 
  226800    301.46819   -1492.7492    495.06421    358.33174   -530.32973    38315.161 
  226900    296.31428   -1471.9257     487.8616    348.77004   -344.08516    38315.161 
  227000    305.17314   -1469.1853    480.86722    384.36367   -542.34861    38315.161 
  227100    291.84586   -1504.6628     483.1587    291.23096   -1034.5503    38315.161 
  227200    290.07405   -1468.8811    496.61086     332.4951   -19.022272    38315.161 
  227300     307.3808   -1491.3525    493.55087    384.81023    629.83515    38315.161 
  227400    303.49108   -1467.9561    523.82587    420.98553    153.10974    38315.161 
  227500    293.00402   -1498.3693    530.74653    350.32167    436.81739    38315.161 
  227600    302.60167   -1513.2333    491.47698    339.35887    79.580873    38315.161 
  227700    298.85555   -1534.4872    478.33094    288.10866   -128.40332    38315.161 
  227800    298.84559   -1574.7883    498.10222    267.53406    222.12862    38315.161 
  227900     303.6801   -1555.3732    478.64459    289.23739    234.05099    38315.161 
  228000    301.87224   -1539.0838    477.99207    296.74239   -76.737937    38315.161 
  228100    305.31395   -1585.3261    445.57385    233.56285    242.66633    38315.161 
  228200    300.11004   -1542.8207    463.92184    271.00883     428.8627    38315.161 
  228300    289.73342   -1567.6701    485.04486    220.60796   -679.48235    38315.161 
  228400    312.79288   -1515.9191    485.63177    376.66831   -66.878672    38315.161 
  228500    287.65398   -1485.9508      472.096    280.02497   -274.82907    38315.161 
  228600    302.82491   -1561.8952    475.05565    275.27974   -564.99096    38315.161 
  228700    292.21368   -1524.5959    506.13149    295.92512   -371.63124    38315.161 
  228800    304.56958   -1524.8494    466.54977    311.66725     103.4884    38315.161 
  228900     291.7194   -1542.1566     466.5715    236.58117   -347.98002    38315.161 
  229000     302.8691   -1519.5931    469.00452    311.72941    191.57192    38315.161 
  229100    294.60368   -1504.7575    486.99087    307.37319    419.47377    38315.161 
  229200    295.71776   -1493.5359    490.13206    326.74716   -303.01143    38315.161 
  229300    305.75402   -1504.1524    475.56907    346.71126    352.94343    38315.161 
  229400    291.84183    -1481.122    501.97869    333.57363     961.5855    38315.161 
  229500    294.13139   -1451.7978    477.26011    348.47775    694.38465    38315.161 
  229600    307.87468   -1442.3502    509.71326    452.19643    581.14687    38315.161 
  229700    300.96807   -1455.0819    480.33154    379.01679    561.65587    38315.161 
  229800    300.21009   -1457.1621    481.90844    375.10401    269.31626    38315.161 
  229900    306.62687   -1452.6084    500.83313    427.44541    223.42889    38315.161 
  230000    295.21975   -1461.3764    510.06089    376.59538    72.619267    38315.161 
  230100    302.80892   -1466.3343    491.46051    387.17352    49.692903    38315.161 
  230200    303.20821   -1450.8245    495.78691    408.80576   -323.75708    38315.161 
  230300    300.55829   -1473.0919    497.60991    376.44191   -351.65845    38315.161 
  230400    291.97895   -1467.0193     479.0719    325.38626    376.42533    38315.161 
  230500    305.21501   -1443.3291    497.32525    426.86619    441.48337    38315.161 
  230600    303.46194   -1426.3161    507.55667    446.22523   -211.66741    38315.161 
  230700     296.3506   -1447.3843    479.37228    364.98559   -744.09721    38315.161 
  230800    303.18578   -1501.9396    498.80622     360.6091   -358.54141    38315.161 
  230900    296.90626   -1494.6616    500.51019    341.34553   -372.35233    38315.161 
  231000     297.7931   -1478.3034    472.18568    333.36828    293.00298    38315.161 
  231100    303.88264    -1522.172    488.32786    333.03281    38.622561    38315.161 
  231200    293.40353   -1495.9422    457.29042    281.08969    84.632974    38315.161 
  231300    313.45568   -1494.2007    485.42339    401.15961    408.04351    38315.161 
  231400    307.85197   -1523.2773    504.27589    365.72979   -19.916666    38315.161 
  231500     295.6765   -1555.7602    474.01808    248.22326    470.36393    38315.161 
  231600    314.03261     -1547.43    468.41941    333.52141    194.19767    38315.161 
  231700    304.93338   -1525.9073    480.64399    326.33993    408.91383    38315.161 
  231800     289.4132   -1525.9436    500.89939    276.74863    641.40109    38315.161 
  231900    301.90616   -1493.8033    480.09586    344.27927    671.25927    38315.161 
  232000    302.22744   -1480.7963    481.92967     360.5652    348.98642    38315.161 
  232100    296.50502   -1494.6128    514.92111    354.00045     437.9987    38315.161 
  232200    307.74401   -1490.1313    489.19593    383.31024   -261.64888    38315.161 
  232300    296.39798    -1456.453    510.00711    386.76483    -232.3943    38315.161 
  232400    297.26343   -1435.3555    487.73489    389.48292    168.45302    38315.161 
  232500    298.16843   -1469.5363    505.03131    376.66926    191.45979    38315.161 
  232600      300.075   -1490.4891    489.65458    348.91557    403.12525    38315.161 
  232700    290.66812   -1541.5625    469.06584    234.94087    108.54959    38315.161 
  232800    290.15236   -1519.0413    477.95882    264.03512    15.848206    38315.161 
  232900    307.36762    -1528.127    471.55669    325.98223    483.20701    38315.161 
  233000     302.4151   -1498.0204     496.5938    358.84936    368.43489    38315.161 
  233100    302.58865    -1533.281    471.06704    298.84255    296.02658    38315.161 
  233200    301.05086   -1535.8404    479.16303    297.46221   -64.571522    38315.161 
  233300    283.95852   -1563.0165      433.893    148.13391    60.593965    38315.161 
  233400    299.77751   -1515.9686    490.75322    323.19654    124.63611    38315.161 
  233500    305.05114   -1526.6278    459.14338    304.64854   -250.80806    38315.161 
  233600    302.63117   -1497.8096    492.59618    356.03446   -67.205942    38315.161 
  233700    299.30656    -1511.966    466.67827    301.00581    276.44279    38315.161 
  233800    307.43917   -1512.3087    494.58655    365.15228    -287.6586    38315.161 
  233900    306.37881   -1454.0159     467.4086    391.49759    333.63677    38315.161 
  234000    292.62794   -1468.9082    502.50771    349.85237   -378.21403    38315.161 
  234100    292.15678   -1506.4191    510.17631     317.8908    203.04608    38315.161 
  234200    299.18239   -1504.9021    477.01529    317.84826    545.25515    38315.161 
  234300    293.81631   -1500.3327    498.07883    319.34432   -53.103725    38315.161 
  234400    300.96888   -1530.4894    498.27879    321.56015    529.41545    38315.161 
  234500    291.78023   -1528.6695     474.7467    258.51707    102.60897    38315.161 
  234600    299.31674   -1484.1759    517.65868    379.82216   -26.481763    38315.161 
  234700    297.34736   -1479.0069    478.12789    336.60199   -24.945797    38315.161 
  234800     299.7518   -1450.1431    487.22573    385.37893     -472.221    38315.161 
  234900    301.59332   -1455.0294    489.25102    390.80114   -980.60355    38315.161 
  235000    307.74339   -1489.5656    496.74969     391.4269   -914.91689    38315.161 
  235100    298.54266   -1517.8512    505.76569    330.77205   -423.76375    38315.161 
  235200    290.62377   -1511.6204    496.01023    291.62782   -1119.9459    38315.161 
  235300    294.21494   -1466.4259    474.98703    331.95236    -521.3644    38315.161 
  235400    304.07778   -1452.0272    489.21676     404.9443   -421.47061    38315.161 
  235500    286.95013   -1491.7062    501.35077    300.35843   -465.02683    38315.161 
  235600    297.34971    -1471.412    504.43593    370.51553   -372.84567    38315.161 
  235700    296.82328   -1469.7044    475.30492    340.72419   -740.91932    38315.161 
  235800    296.39097   -1468.1742     477.2724    342.27731   0.78998697    38315.161 
  235900    304.10404   -1466.3086    489.26857    390.83275   -470.79606    38315.161 
  236000    309.61908   -1495.1625    481.00033    378.51754   -300.14675    38315.161 
  236100    319.51953   -1482.1206    507.42099    462.51273    201.69587    38315.161 
  236200    293.94721   -1431.3432    478.73097     369.5748    -62.97183    38315.161 
  236300     307.8747   -1480.5772    475.65199    379.90826    338.34504    38315.161 
  236400    293.64831   -1481.9783    500.82996    339.69421    289.33829    38315.161 
  236500    304.40226   -1503.3298    464.11014    329.99464    489.29139    38315.161 
  236600    297.25019   -1497.9886    464.61619    303.67153    557.85077    38315.161 
  236700    292.76782   -1515.9843    457.84336    258.74117   -121.95961    38315.161 
  236800    306.32786   -1470.9052     466.4662    373.43668    405.06057    38315.161 
  236900    297.21414   -1430.9705    493.46834    399.37968    467.84635    38315.161 
  237000    296.18433   -1454.4241    477.09579    354.92138    235.27815    38315.161 
  237100    313.56209   -1476.3005    489.60845    423.72355    161.71176    38315.161 
  237200    301.81822   -1475.7762    470.61334    352.42824    25.139476    38315.161 
  237300    307.46336   -1493.5318    452.65736    342.10877    114.46233    38315.161 
  237400    305.19792   -1478.2851    469.69918    364.20721   -90.677421    38315.161 
  237500    311.77007    -1502.486    457.88048    357.74949    228.46592    38315.161 
  237600    305.21765   -1458.6563    458.14585    372.37153     443.0828    38315.161 
  237700    295.01783   -1431.5235    464.58015    360.05937    33.919173    38315.161 
  237800    307.89291   -1463.2981    461.74135     383.3586    192.34047    38315.161 
  237900     299.1312   -1447.5462    491.36763    389.32628    366.64034    38315.161 
  238000    296.25512   -1449.7508    484.73084    367.54813    149.94485    38315.161 
  238100    304.93404   -1420.8737    469.55518    420.28771    619.53214    38315.161 
  238200    298.26564   -1485.9673    487.54929    343.19353    369.95688    38315.161 
  238300    296.05181   -1462.4263    455.37998    324.60726   -266.99882    38315.161 
  238400    299.17676   -1461.2163    478.96541    363.45881   -275.52661    38315.161 
  238500    302.84336   -1448.9121    448.19315    361.48327   -630.87046    38315.161 
  238600    291.09014     -1497.58    500.32431    312.08004   -411.77062    38315.161 
  238700    301.48852   -1517.9894    480.18663    318.30536      540.244    38315.161 
  238800    298.03834   -1483.6346    507.66495    364.61948    677.19289    38315.161 
  238900    296.42681      -1499.9    459.35128    292.79168    750.67911    38315.161 
  239000    297.32888   -1507.4477    476.93565    306.88588    615.93101    38315.161 
  239100    299.88188   -1510.5939    479.29092    317.57846    341.66759    38315.161 
  239200    302.67923   -1530.2513    473.58402     304.7967   -29.258848    38315.161 
  239300     302.2747   -1517.0323    450.62068    293.23278   -10.220322    38315.161 
  239400    310.68172   -1488.6655    499.46072    408.25477    54.991321    38315.161 
  239500    306.63616   -1513.0158    458.03022    324.27679    191.83029    38315.161 
  239600    305.41982   -1535.5753    458.36955    296.58556   -191.61999    38315.161 
  239700    299.92935    -1469.578    459.63791     339.1548    46.612179    38315.161 
  239800    293.73307   -1465.9603    468.03765    323.30113   -530.88115    38315.161 
  239900     304.2374    -1537.518    461.98732      292.942    -470.2734    38315.161 
  240000    289.02654   -1540.1547    480.75629    240.65516    356.40297    38315.161 
  240100    310.02835   -1494.6547    480.52081     380.3867    181.63578    38315.161 
  240200    296.82501   -1520.7448     485.2959     299.6826   -206.21792    38315.161 
  240300    307.46917   -1434.6226    477.18199     425.5687   -50.233607    38315.161 
  240400     287.7547   -1434.6386    473.77682    333.47103   -625.33259    38315.161 
  240500      303.093   -1490.0935    463.68742    336.91909   -295.01347    38315.161 
  240600    312.84499   -1468.1859    492.56847    431.57262   -599.86582    38315.161 
  240700    298.12055   -1460.3305    454.72159    335.34992   -682.95888    38315.161 
  240800    298.71629   -1474.1719    462.89451    332.36117   -664.11583    38315.161 
  240900    297.85454   -1452.1577    471.55696    359.16158    -409.9408    38315.161 
  241000    301.48655   -1492.2968    471.51067     335.3132   -336.38607    38315.161 
  241100    303.59296    -1506.565     484.3689    343.37791    216.71502    38315.161 
  241200    307.43678    -1467.627    481.44626    396.68292    222.34167    38315.161 
  241300    295.68715   -1488.7122    460.11017    301.41133    45.397934    38315.161 
  241400    313.84935   -1459.1519    481.93641    434.49215    103.35983    38315.161 
  241500    286.55782   -1479.9812    484.20547    293.17349   -104.84755    38315.161 
  241600    296.89382   -1470.0464    469.35063    334.74523   -233.94488    38315.161 
  241700    297.73087   -1449.6042    477.98535    367.58717    -214.6273    38315.161 
  241800    306.67062   -1434.9073    488.27112    432.78122   -380.32785    38315.161 
  241900     296.1894   -1455.2563    466.35698    343.37312   -152.47832    38315.161 
  242000    305.64875    -1440.753    477.79478    411.86275   -138.59918    38315.161 
  242100    291.97449   -1457.2883     485.4405    341.46577   -79.599045    38315.161 
  242200    310.77849   -1465.4142    478.57562    411.05623   -213.13524    38315.161 
  242300    305.06625    -1526.134     478.0209    324.08789    389.79249    38315.161 
  242400     286.3572   -1488.0233    485.87428    285.89778   -484.87494    38315.161 
  242500    304.61475    -1503.335    480.69774    347.53281    80.265754    38315.161 
  242600    312.05469   -1473.6035    483.15507    413.18681    707.86774    38315.161 
  242700    298.00246   -1473.8487    479.11755    345.69654    290.18775    38315.161 
  242800    301.91179    -1461.574    472.52872    368.96672    481.77449    38315.161 
  242900     298.4787   -1473.4544    498.20701    367.32248   -10.105476    38315.161 
  243000    309.24695   -1469.9459    489.77262     410.8326    36.727889    38315.161 
  243100    303.45809   -1469.2683    512.36184    408.06091   -7.9445907    38315.161 
  243200    292.63917    -1495.399    484.01266    304.91702    485.36987    38315.161 
  243300    313.66441   -1489.5004    490.34061    411.71608   -27.617475    38315.161 
  243400    301.30364   -1462.1911    482.21725    375.30266     440.1684    38315.161 
  243500    294.07094   -1463.6802      485.889    344.95235   -265.71199    38315.161 
  243600    300.09744   -1453.7989    496.27887    392.33095    -198.4853    38315.161 
  243700    308.66166   -1471.5435    461.72587    378.55557    184.86754    38315.161 
  243800    297.82643   -1494.1165    479.00697    324.52636   -335.52449    38315.161 
  243900    311.37537   -1481.1184    439.51062    358.97183    64.920104    38315.161 
  244000    301.99632   -1454.6995    498.74503    402.43779     156.5785    38315.161 
  244100    299.06791   -1462.3112    446.11876    329.02767    326.33764    38315.161 
  244200    296.33111   -1480.3492    497.08047    349.64109    358.95748    38315.161 
  244300    306.62224   -1504.3271    484.87435    359.74708   -22.280992    38315.161 
  244400    295.22992   -1523.8498     471.0885    275.19537    85.444033    38315.161 
  244500    282.55677   -1567.7492    459.23246    162.43556   -213.85598    38315.161 
  244600    301.06316   -1556.8363    464.96211    262.32071     208.6137    38315.161 
  244700      304.564   -1558.5905    458.51385    269.86511    104.03573    38315.161 
  244800    305.50325   -1552.6935    432.58295    254.05603    571.37588    38315.161 
  244900    299.74432   -1481.1855    477.84625     344.9234    51.300436    38315.161 
  245000    304.32903   -1506.2424    488.71399    351.35644    -187.7159    38315.161 
  245100    308.61056   -1505.2589     469.4569    352.34136    467.23576    38315.161 
  245200    301.92813   -1501.5326    461.61286    318.16582    544.99415    38315.161 
  245300      303.919   -1496.3899    472.85257    343.50327    574.46687    38315.161 
  245400    300.79525   -1527.3456    480.59118    306.23532    423.07968    38315.161 
  245500    295.06907   -1506.3318    462.06629    282.96763    238.93977    38315.161 
  245600    299.20547   -1515.4047    473.25465    303.68886   -79.008371    38315.161 
  245700    311.46625   -1497.7994      470.635      373.824   -40.249081    38315.161 
  245800    294.08362   -1480.3428    452.54386     295.0017   -785.85066    38315.161 
  245900     307.8654   -1477.2884    458.54915    366.05237   -259.51047    38315.161 
  246000    298.65719   -1480.8456    466.10567    328.63281   -706.37344    38315.161 
  246100    308.06104   -1487.4066    439.26024    337.52525   -574.53329    38315.161 
  246200    301.65815   -1442.3622    495.07055    409.57948   -373.09472    38315.161 
  246300    296.13047   -1472.0983    482.94639    342.85554   -244.71848    38315.161 
  246400    311.27129   -1442.0406    494.59253    452.66339   -219.89327    38315.161 
  246500    298.73329   -1464.8945    472.28914    351.10961   -234.90363    38315.161 
  246600     305.0025   -1506.0595     460.4753    326.32999   -248.85754    38315.161 
  246700     290.2462   -1496.1639     456.3695     265.7453   -62.720776    38315.161 
  246800    302.42066   -1497.9731    457.79148    320.11931     193.7267    38315.161 
  246900     294.2027   -1489.8678    470.25621    303.72463   -303.93393    38315.161 
  247000    306.10804   -1445.1519    498.19567    429.93073    160.37599    38315.161 
  247100    300.22592   -1453.6636    464.20502     360.9703    213.53738    38315.161 
  247200    300.80575   -1480.5716    489.17867    361.64412    283.61638    38315.161 
  247300    298.64984   -1530.8927    461.85154     274.2985   -172.16189    38315.161 
  247400    306.51105   -1491.0653    475.96446    363.59884    265.91358    38315.161 
  247500    299.45537   -1452.9851    486.08531    380.06311   -68.359763    38315.161 
  247600    299.84405   -1477.3907    460.17167    331.49223    364.80718    38315.161 
  247700     299.0391   -1484.9385     471.2451    331.39712    324.56554    38315.161 
  247800    297.88441   -1471.0793    507.78558    376.60303   -9.3651509    38315.161 
  247900    307.12699   -1499.9537    502.25365    383.77017    455.44939    38315.161 
  248000     293.7457   -1486.4592     487.4996    322.32098    487.78444    38315.161 
  248100    293.97418   -1467.0014     496.4395    351.74642   -105.70276    38315.161 
  248200    310.24076   -1440.1935    464.01462    419.29725    129.61791    38315.161 
  248300    299.01155   -1445.2375    482.56396    382.29305    164.70034    38315.161 
  248400    302.11792   -1461.9272    482.57987     379.5919    235.90354    38315.161 
  248500     299.5121   -1479.5295    476.05058     343.7392    240.07149    38315.161 
  248600    305.08989   -1449.0709    473.61296    396.84927    -45.09202    38315.161 
  248700    293.55972   -1448.2884    465.13988    337.29553    150.14787    38315.161 
  248800    297.73124    -1443.577    491.28874     386.9195   -66.276318    38315.161 
  248900    300.24906   -1458.7609    464.91935    356.69145   -171.50566    38315.161 
  249000    304.29078   -1470.5674    503.12544    401.27082   -377.14261    38315.161 
  249100    298.51353   -1455.7955    496.03374    382.96474   -181.95242    38315.161 
  249200    296.39267   -1430.2674    491.56793    394.48728    207.42316    38315.161 
  249300    299.49113   -1417.8918    474.80534    404.03729    499.38656    38315.161 
  249400    303.72758   -1467.9405     474.7533    372.99228    632.61583    38315.161 
  249500    299.15483   -1474.0759    483.28168    354.81684    691.26257    38315.161 
  249600    298.65485   -1473.0362    479.74745    350.07347    587.00957    38315.161 
  249700    298.51609   -1465.0993    482.59099    360.22975    764.88687    38315.161 
  249800    306.81972    -1478.696    505.31957    406.71166    722.97749    38315.161 
  249900    308.08394    -1491.362    438.65751    333.07008    372.67249    38315.161 
  250000    339.95849     -1482.09    476.76638    523.82409    656.74232    38315.161 
  250100    292.78151   -1502.0825    469.13874    283.99993    382.48679    38315.161 
  250200    292.97025    -1510.382    508.83712    316.24774    390.49272    38315.161 
  250300    307.58918   -1498.7918    468.53492    353.29229    416.06089    38315.161 
  250400     303.7421   -1481.5287    480.87243    365.58857   -175.15791    38315.161 
  250500    303.60719   -1470.9118    499.47172    394.19797   -457.17919    38315.161 
  250600    296.29261   -1462.1303    484.68152    355.28791    -217.2201    38315.161 
  250700     311.6144   -1500.0332    474.07389    375.69545   -466.65617    38315.161 
  250800    309.42016   -1495.9015    473.42664    369.31013     161.9346    38315.161 
  250900    297.50759   -1502.1239    507.15421    343.23203   -285.17236    38315.161 
  251000    306.66326   -1555.0248    507.55546      331.915    326.66024    38315.161 
  251100    293.04897   -1546.9896     465.6907    236.84777   -125.85596    38315.161 
  251200    300.24528   -1544.7754    485.06255    290.80318    -238.6602    38315.161 
  251300    296.16549   -1495.3443    472.97666    309.79722    25.493449    38315.161 
  251400    294.83263    -1523.825    514.35857     316.7032    116.11907    38315.161 
  251500    301.23917   -1507.9938    491.00709    337.99978    68.981954    38315.161 
  251600    294.71126    -1526.876    473.80935     272.5571    -554.9302    38315.161 
  251700    300.27694   -1513.4246    485.46696    322.70073    193.30744    38315.161 
  251800    302.80924   -1496.2966    519.49748    385.24963    282.43519    38315.161 
  251900    295.42999   -1502.4281    473.20533    299.63388   -55.800464    38315.161 
  252000    303.73539   -1515.0586    476.83836    327.99444    230.12046    38315.161 
  252100    297.12368   -1505.9254    481.35255    311.90203   -77.763604    38315.161 
  252200    293.48901   -1486.3484    496.46302    330.24064    209.25262    38315.161 
  252300    310.07809   -1450.3886    495.32776    439.68354    44.724574    38315.161 
  252400    295.73602   -1495.5996    486.37341    321.00699    -88.37723    38315.161 
  252500    291.75266   -1494.7138    487.99092    305.59299    130.32167    38315.161 
  252600    302.30523   -1507.9175    501.10046    352.96467    50.433142    38315.161 
  252700    302.05222   -1512.6834    477.66115    323.62147    -221.9232    38315.161 
  252800    302.18101   -1522.3522    511.04079    347.91152    568.72953    38315.161 
  252900    296.92717   -1559.3539    493.67385    269.91091    559.71467    38315.161 
  253000    305.18107   -1559.1197    489.52735    303.12502    1200.1989    38315.161 
  253100     298.4304   -1555.5118    478.77806    265.61884    591.35498    38315.161 
  253200    299.22346   -1562.0878     505.3271    289.15906     545.0867    38315.161 
  253300    302.57219   -1557.2764    485.11007    288.81625    171.20722    38315.161 
  253400    302.75775   -1566.4412    475.55408    270.93003    -67.46249    38315.161 
  253500    303.29032   -1547.5091    480.90016    297.60379   -131.39961    38315.161 
  253600    306.34298   -1548.2231    474.02766    303.74826    216.96786    38315.161 
  253700    292.88638   -1537.9231    489.14174    268.63401    352.58085    38315.161 
  253800    301.44234   -1535.2886    506.51798    327.12977    37.293817    38315.161 
  253900    297.35115   -1488.5536    478.97746    327.92198    -223.2249    38315.161 
  254000    303.10117   -1493.9705    499.63907    369.03053    157.80556    38315.161 
  254100    308.32725   -1503.1762    464.55899    348.25182    666.74468    38315.161 
  254200    313.80598   -1543.6557    518.14601    386.00287    610.73253    38315.161 
  254300    291.22473   -1507.3977    496.37632    298.91977    309.17439    38315.161 
  254400    297.87149   -1552.0192    460.27567    248.09508    72.122304    38315.161 
  254500    313.47912   -1507.2918    478.26333    381.01392   -156.18895    38315.161 
  254600    308.70129   -1487.8588     458.8211    359.51382    172.05195    38315.161 
  254700    301.16383   -1484.4514    514.34555    384.54184    420.23016    38315.161 
  254800    303.52462   -1500.9118    480.30805    344.66282    214.73976    38315.161 
  254900    300.82421   -1527.1184    491.93706    317.93877    123.37691    38315.161 
  255000    289.63946   -1520.6254    484.34076    266.52595     462.2442    38315.161 
  255100    299.51504   -1532.0731    488.42988    303.58811   -312.30646    38315.161 
  255200    299.62316   -1518.5105     480.2295    309.43668   -722.24315    38315.161 
  255300    295.80697   -1494.1987    498.52058    334.87413   -390.59621    38315.161 
  255400    309.43582   -1564.1116    478.57255    306.31641   -689.45667    38315.161 
  255500    295.97599   -1506.9659    478.67545    303.02208    233.33329    38315.161 
  255600    308.97293   -1539.1179    461.96124    312.61664    -340.8383    38315.161 
  255700     305.1806   -1573.5937    473.52403    272.64556    7.1426733    38315.161 
  255800    305.56502   -1506.8858    497.82474    365.38333   -693.64215    38315.161 
  255900    294.60028   -1508.6195    483.28685    299.79194   -699.49812    38315.161 
  256000    288.90825   -1536.7989    499.69438    262.41703   -247.16747    38315.161 
  256100    298.25049   -1534.1075     490.2535    297.68938    221.22926    38315.161 
  256200    301.81129   -1511.3628    491.49714    337.69435   -220.71601    38315.161 
  256300    299.82684   -1530.2185    473.47872     291.8941    165.81943    38315.161 
  256400    303.67243   -1553.0832     493.3866    306.23489    100.07591    38315.161 
  256500    300.14471   -1549.3039    460.99416    261.75384     224.0939    38315.161 
  256600    305.61281   -1524.8369    487.24168    337.06412     42.86327    38315.161 
  256700    299.68012   -1543.9613    486.19508     290.2077   -156.16069    38315.161 
  256800    308.05064   -1526.5958    483.32809    342.35709    505.49746    38315.161 
  256900    298.36699   -1492.5407    489.58505    339.11169    110.24082    38315.161 
  257000    303.27549   -1499.7789    502.20454    366.57159   -172.44801    38315.161 
  257100    305.69098   -1501.2438     478.5733    352.34047   -185.20842    38315.161 
  257200    307.08876   -1532.2195    490.62079     339.6995    61.892185    38315.161 
  257300    301.87195   -1523.2925    460.89194    295.43226    -388.3188    38315.161 
  257400    293.32472    -1518.117    481.75635    283.02639   -771.08608    38315.161 
  257500    298.32374   -1498.8735    473.97796    316.97732   -832.84458    38315.161 
  257600    297.62105    -1521.614     473.9266    291.02464   -612.01444    38315.161 
  257700    293.80756   -1520.8114    490.04527    290.79269    93.532708    38315.161 
  257800    306.19089   -1492.3989      480.792    365.65273    513.22926    38315.161 
  257900    303.56719   -1517.4803    459.30813    307.28595    235.20049    38315.161 
  258000    311.86919   -1508.4303    473.58089    367.95144    34.956812    38315.161 
  258100    306.11407   -1499.9222    500.98704    377.97887    73.096932    38315.161 
  258200    303.96951   -1524.0943    462.80999    305.98348    340.90622    38315.161 
  258300     304.5065   -1531.2681    495.69218    334.10717    1043.5476    38315.161 
  258400     301.1344   -1527.1689    505.24797    332.59433    590.71911    38315.161 
  258500    297.91647   -1489.8919    482.67685    332.82584   -79.290818    38315.161 
  258600    304.13696   -1519.0357    490.92803    339.91324   -322.18866    38315.161 
  258700    302.90941   -1556.6452    474.10362    279.95777    94.804493    38315.161 
  258800    304.26901   -1569.2934    460.47964    259.80111    329.07943    38315.161 
  258900    295.96048    -1531.468    471.48579    271.26058    317.04872    38315.161 
  259000    292.80034   -1546.1487     500.7895    271.66909     28.18899    38315.161 
  259100    294.09045   -1544.4106    477.22264    255.64336   -143.30094    38315.161 
  259200    285.52381   -1561.5666    470.61834    193.34993   -324.25099    38315.161 
  259300    300.17644   -1551.1035    476.30382    275.40666    514.93695    38315.161 
  259400     301.9969   -1562.5778     457.9529    253.76997   -77.281052    38315.161 
  259500    298.51236   -1548.8264    495.88047    289.77527   -321.17163    38315.161 
  259600    290.18035   -1521.9316    463.97983    247.29171    41.813222    38315.161 
  259700    300.05302   -1560.1806    523.19703    312.66762    219.05407    38315.161 
  259800    291.39205   -1531.5993    465.02755      244.122    279.42733    38315.161 
  259900    292.67516    -1526.192    496.03764    286.31088     285.9767    38315.161 
  260000    299.10078   -1530.6911    485.14186    299.81872    231.43823    38315.161 
  260100    295.58554   -1546.0899     472.6301    256.09649    304.79726    38315.161 
  260200    293.65617   -1506.9067    497.55293     311.5241    168.35394    38315.161 
  260300    308.93211   -1497.5069    471.63791    363.72075    34.991822    38315.161 
  260400    295.88307   -1505.5847    482.04479    307.35469   -155.29425    38315.161 
  260500    296.65389   -1483.9477    493.29409    343.70819     93.54016    38315.161 
  260600    303.27196   -1551.7899    483.98054    296.32072    231.98115    38315.161 
  260700    306.44846   -1565.8803    478.65741     291.1953    410.93308    38315.161 
  260800    300.27009   -1507.7475     479.7678    322.64786     219.1977    38315.161 
  260900    291.90689   -1519.5656    519.71288    313.15689   -66.483629    38315.161 
  261000    292.12889   -1574.4168    462.67469      202.266    735.47198    38315.161 
  261100    296.47037   -1562.5337    486.24406    257.24666    539.20055    38315.161 
  261200    293.39268   -1528.0536    500.88687    292.52592    825.18005    38315.161 
  261300    282.86646   -1537.7575    472.50331    207.09112    431.90486    38315.161 
  261400    296.26417   -1542.7672    473.33075    263.17232     203.4588    38315.161 
  261500    292.53662   -1526.7937    476.22892    265.27736    35.885306    38315.161 
  261600    303.11356    -1526.522     489.8999     326.7955   -290.06791    38315.161 
  261700    297.39403   -1502.5829    474.87571    309.98376   -296.36731    38315.161 
  261800    302.99536   -1544.2945    488.89393    307.48541   -142.72051    38315.161 
  261900    299.62075   -1499.0165    457.13644    305.82678   -298.25609    38315.161 
  262000    310.77404   -1518.0931    496.16627    375.94794    -118.2565    38315.161 
  262100    304.08592   -1533.8603    492.72271    326.65376    67.828987    38315.161 
  262200    302.36614   -1490.2424      494.174    363.98731   -270.28199    38315.161 
  262300    306.71941   -1496.7075    492.27627    375.20569   -43.977006    38315.161 
  262400    304.40922   -1547.5245    473.05136    294.77243    127.72122    38315.161 
  262500    306.76342    -1572.487    463.83462    271.18244   -394.41533    38315.161 
  262600    305.35505   -1580.9511     474.1269    266.67579   -214.13322    38315.161 
  262700    293.31974   -1535.9334    491.61089     275.0421   -542.09902    38315.161 
  262800    305.26631   -1577.0043     485.4094    281.50591   -246.33078    38315.161 
  262900    303.71668   -1544.9806     487.5588    308.70869   -361.42831    38315.161 
  263000    296.21572   -1510.9526    464.32601    285.76422   -113.56561    38315.161 
  263100    301.20116   -1533.8462    460.79404    281.76342    332.73581    38315.161 
  263200    300.08448   -1559.9911    489.20876    279.01033    628.66097    38315.161 
  263300    311.30149   -1539.4878    463.85796    324.61748   -142.40337    38315.161 
  263400    293.88803   -1496.4396    499.84803    325.32927     374.9015    38315.161 
  263500    301.33539   -1507.2464    495.63471    343.80765   -53.697126    38315.161 
  263600    298.60105   -1494.5567    492.03716     340.6006   -259.92548    38315.161 
  263700    296.65901   -1506.0788    479.95038    308.25641   -257.04586    38315.161 
  263800    302.44182   -1502.4366     492.2239    350.18341   -353.32614    38315.161 
  263900    295.66597    -1528.825    481.48843    282.58146   -646.06954    38315.161 
  264000    311.12378   -1550.2769    482.05217     331.2232   -876.88442    38315.161 
  264100    294.67644   -1513.1876    495.54819    307.82771   -304.79143    38315.161 
  264200    307.18525    -1500.306    487.54633    368.97257    174.02452    38315.161 
  264300    307.97929   -1525.4187    480.06678    339.95194    -68.27011    38315.161 
  264400    304.33426   -1514.9301    477.73229    331.71063   -309.74567    38315.161 
  264500    293.14725   -1465.8747     492.7156    345.42967   -531.82611    38315.161 
  264600    295.51993   -1455.0366    481.79616    356.02068    52.468165    38315.161 
  264700    300.33144   -1459.8305    484.81705    375.89011    168.45777    38315.161 
  264800    294.54454   -1424.4237    503.88062    404.33076     619.5785    38315.161 
  264900    293.71521   -1489.4722    526.60504    358.27634    395.32362    38315.161 
  265000    307.98982   -1502.5447     482.4567     365.2633   -44.022552    38315.161 
  265100    293.52665   -1503.5279    469.63704    286.40447    364.47421    38315.161 
  265200    292.87309    -1451.496    486.08012    351.93972   -219.38096    38315.161 
  265300    296.96672   -1472.9609    481.04017    343.84812   -441.19761    38315.161 
  265400    306.04842   -1514.7893    475.66524    337.49473    125.80056    38315.161 
  265500    303.43145    -1542.283    469.31183    291.87638   -69.221188    38315.161 
  265600     293.0622   -1510.4676    490.94817    298.68671   -322.91348    38315.161 
  265700    297.65217   -1471.4895    458.02167    325.38425   -32.511003    38315.161 
  265800    299.91708   -1515.9558    486.25777    319.34175   -601.90257    38315.161 
  265900    306.20358   -1502.4927    457.08506    331.90902   -159.33079    38315.161 
  266000    293.70822   -1471.5613    491.40774    340.95846   -256.58157    38315.161 
  266100    292.52597   -1500.1661    474.36647    289.99463   -402.17786    38315.161 
  266200    298.51722   -1510.9572    475.94244    307.72835     90.21115    38315.161 
  266300    296.94523    -1504.129    459.08017    290.62343   -138.57187    38315.161 
  266400    303.00438   -1509.4973    486.39386    339.82314    51.748981    38315.161 
  266500    301.29815   -1495.3252    512.00351    371.93012    434.72997    38315.161 
  266600    296.74443   -1505.9346    476.98287    305.81731    207.47365    38315.161 
  266700    291.89091   -1516.7158    483.73795    279.95983   -154.92803    38315.161 
  266800    302.25199   -1484.0366     478.9487    354.45439    -547.8486    38315.161 
  266900     294.6596   -1462.7728     478.7862    341.40481   -299.87032    38315.161 
  267000    303.56646   -1457.2841    499.15393    407.32467   -874.02816    38315.161 
  267100    299.95407   -1430.9863    481.46749    399.68729   -331.80322    38315.161 
  267200    301.69194   -1480.0638    488.19882    365.15816   -641.22812    38315.161 
  267300    305.00978   -1498.4079    527.11492     400.6539   -13.700237    38315.161 
  267400    301.30031   -1494.8763    484.17581     344.5611   -234.65551    38315.161 
  267500     302.3397   -1499.7249    497.95413    358.16603   -175.31734    38315.161 
  267600    288.26272    -1489.148    485.51704      292.987   -227.21046    38315.161 
  267700    295.40629   -1502.5619    485.61948    311.80761    289.65679    38315.161 
  267800    292.16293   -1519.1772    461.35293    256.33693   -281.62231    38315.161 
  267900    294.71161   -1498.8557     486.6125    313.38215    188.47418    38315.161 
  268000    306.26897   -1502.4356    473.83587    349.01112   -130.17927    38315.161 
  268100    295.54226   -1479.3675    482.43846    332.43263   -691.01296    38315.161 
  268200    307.74665   -1460.6033    488.98055    412.63469   -407.87918    38315.161 
  268300    303.09723   -1474.8319    476.76389    365.27614   -715.01554    38315.161 
  268400    295.37123   -1432.5808    484.02385    380.03529   -168.66428    38315.161 
  268500    296.31713    -1498.935    477.62736    311.53933   -451.58141    38315.161 
  268600    290.60434   -1436.3908     495.5764    366.33622    182.37866    38315.161 
  268700    300.78692   -1484.9828    469.53322    337.50269    -97.00611    38315.161 
  268800    303.60452   -1465.9459    505.78115    405.46122   -525.37578    38315.161 
  268900     298.1192   -1466.0616    473.67134     348.5625   -326.30007    38315.161 
  269000    289.96551   -1481.8026    476.64354    299.11808   -492.63014    38315.161 
  269100    299.41053   -1468.4779    491.88527    370.16859   -323.83741    38315.161 
  269200     297.4986   -1476.7614    492.62192    354.02179   -484.97202    38315.161 
  269300    307.95459   -1463.8357    498.02135    419.37846   -406.82424    38315.161 
  269400    300.97007    -1489.561    489.46455    353.67969   -470.87949    38315.161 
  269500    309.47547   -1499.3541    515.19086    407.87054   -213.57384    38315.161 
  269600    302.22423   -1485.6516    487.79356    361.55933   -121.66709    38315.161 
  269700    306.31692   -1502.1369    518.89014    394.57968   -186.38908    38315.161 
  269800    302.33626   -1476.8345    468.21913    351.30591   -155.60371    38315.161 
  269900    312.06543   -1458.4859    516.68612    461.88377   -385.38561    38315.161 
  270000     305.1225   -1459.9872    508.41743    420.88413   -164.52513    38315.161 
  270100     295.6345    -1468.558    511.23784    372.45637    -220.4754    38315.161 
  270200    289.32571   -1489.4935    512.08655    323.99237    359.44107    38315.161 
  270300    313.16836   -1521.8496    485.17302    371.96793    270.66565    38315.161 
  270400    305.66217    -1485.087     510.1852    399.97958   -383.12909    38315.161 
  270500    293.18095   -1502.4514    468.34027    284.62925   -259.39332    38315.161 
  270600    308.77902   -1472.9403    486.79987    402.76067    -443.9185    38315.161 
  270700    310.28245   -1497.0211    460.76436    359.40688   -411.02943    38315.161 
  270800    307.17345   -1491.1308    487.73407    378.28244   -234.75413    38315.161 
  270900     292.3736   -1525.7465    492.90297    282.26528     153.4871    38315.161 
  271000    302.26587   -1511.4308    511.90782    360.08174    709.45794    38315.161 
  271100    300.17754   -1496.5056    496.28827    349.99401    878.28409    38315.161 
  271200     286.9153   -1489.5738    463.18758    264.17091    205.28826    38315.161 
  271300    293.54324   -1496.9053    501.43887    324.90353    757.04935    38315.161 
  271400    303.06211   -1485.7051    472.86131    350.34243    496.33852    38315.161 
  271500    300.68907    -1536.071    480.18696    296.62817    31.254797    38315.161 
  271600    301.71436   -1501.4676    487.13288    342.78925    95.371076    38315.161 
  271700    307.97045   -1553.5691    474.99138    306.68642   -335.82006    38315.161 
  271800    291.34958   -1537.6143    478.86468    251.75314   -670.42592    38315.161 
  271900    302.89947   -1519.2162     472.6844    315.92287   -613.57711    38315.161 
  272000    301.80869   -1511.5202    480.19929    326.22731   -811.26115    38315.161 
  272100    267.29302   -1504.3968    492.80313    190.70169   -456.41758    38315.161 
  272200    292.83692   -1516.1379    478.47957    279.53455    380.41703    38315.161 
  272300      311.488   -1514.2126    489.85712    376.73072    30.422417    38315.161 
  272400    297.45888   -1503.3796    461.79928    296.40232    388.89487    38315.161 
  272500    306.65253   -1524.1537    503.39952    358.58185    94.602943    38315.161 
  272600    304.75055   -1496.4533    480.27917    354.60675    19.751491    38315.161 
  272700    301.41538    -1552.672    483.37504    286.48222   -105.74995    38315.161 
  272800    289.28998    -1555.492    487.28331    233.02995   -183.40728    38315.161 
  272900    294.39458   -1500.1496    478.46224    302.51193   -390.15257    38315.161 
  273000    295.28978   -1540.3565    487.46357    275.33297   -495.94236    38315.161 
  273100    299.96761   -1495.9442     451.4374    304.76024   -1048.2697    38315.161 
  273200    296.76229   -1490.6789    521.56749    365.73793   -1218.8063    38315.161 
  273300    298.65556   -1493.3052    470.76623    320.82635   -326.99105    38315.161 
  273400    310.11505   -1508.5262    504.34124    390.72566    -834.6043    38315.161 
  273500    298.05363   -1499.3405    451.38933    292.70664   -485.22914    38315.161 
  273600    299.20817   -1522.9748    461.07893    283.95513   -132.28812    38315.161 
  273700    305.22293   -1501.4312    502.33867    373.81308   -127.33477    38315.161 
  273800    310.37854   -1511.8027    488.21018    372.50331    345.50887    38315.161 
  273900    297.62784   -1513.3184    480.00517    305.42941    212.79942    38315.161 
  274000    297.83101    -1512.865    490.12142    316.91298     120.1766    38315.161 
  274100    286.57099   -1464.2762     493.5862    318.31841    69.275403    38315.161 
  274200    299.23644   -1489.3414    468.83388    325.47064    92.252235    38315.161 
  274300    307.11301   -1480.4894    478.88216    379.80015    62.477869    38315.161 
  274400    295.76722    -1533.691    474.72976    271.41223   -521.26741    38315.161 
  274500    306.39672   -1524.9326    491.99745    345.25032   -854.20434    38315.161 
  274600    299.63037    -1528.554    473.28225    292.47834   -1020.1965    38315.161 
  274700    295.01651   -1506.6808    520.02448    340.34042    -267.6692    38315.161 
  274800    300.23796   -1489.4997    471.76309    332.74641   -123.78213    38315.161 
  274900    306.33535   -1489.7661    489.12426    377.26755    39.074444    38315.161 
  275000    296.51387   -1520.8167    494.02291    306.93818   -423.32721    38315.161 
  275100    300.36118   -1477.4781    486.40969     359.9689    69.642039    38315.161 
  275200    302.16856    -1499.012    502.92273    363.07768    46.862519    38315.161 
  275300    304.59111   -1481.6448     505.3159    393.73478    75.598664    38315.161 
  275400     295.6217   -1511.4746    475.70448    293.94882     35.72281    38315.161 
  275500    308.01065   -1524.4548    487.68468    348.67479   -134.55181    38315.161 
  275600    300.74584   -1511.6248      481.849    322.99172   -214.77145    38315.161 
  275700    302.19789     -1507.15    475.16852    327.31743   -408.04519    38315.161 
  275800    315.25573   -1524.6239    472.01675    365.42651   -629.80908    38315.161 
  275900    298.95896   -1478.1963    479.54038    346.07414    228.88643    38315.161 
  276000    307.77397   -1476.5861    527.45339    435.24765    257.55817    38315.161 
  276100    291.60237    -1519.929    475.66798    267.37878    1000.6526    38315.161 
  276200    290.61003   -1522.1217    479.26886     264.3234    645.61309    38315.161 
  276300    293.52973   -1551.5098    473.17324    241.97263    625.83296    38315.161 
  276400    304.83884   -1522.8918    491.14053    339.42672     147.5795    38315.161 
  276500    304.15481   -1484.1439    492.56339    376.52065    406.36878    38315.161 
  276600    309.85502   -1501.1049    484.33474    376.97083    85.104579    38315.161 
  276700    295.47178   -1510.4383    473.35251    291.95879    232.41002    38315.161 
  276800    301.21281   -1529.2705    467.08859    292.68604   -308.36698    38315.161 
  276900    293.55048   -1485.6658    508.87453    343.61117   -77.481899    38315.161 
  277000    306.18842   -1507.6048    475.29546    344.93914    417.44535    38315.161 
  277100     298.2272    -1516.172    506.78463    332.05115   -125.93791    38315.161 
  277200    303.78621    -1476.313    497.84255    387.97274   -1.5722478    38315.161 
  277300    296.81219   -1473.1221    510.62475    372.57644    472.70422    38315.161 
  277400    304.12674   -1484.2317    478.52645    362.26975    641.42115    38315.161 
  277500    295.29461   -1441.2801    507.88164    394.84919   -108.08685    38315.161 
  277600    306.17023   -1465.1987    491.64117    403.60917   -225.97362    38315.161 
  277700    297.28508   -1419.6132    499.79642    417.38406   -178.02618    38315.161 
  277800     315.1045   -1476.1437    483.15188     424.3616    554.67269    38315.161 
  277900    290.96935   -1471.3876    527.79594    365.20077    423.99767    38315.161 
  278000    304.07489   -1472.0397    470.92294    366.62494     669.0916    38315.161 
  278100    286.10358   -1498.4909     483.6703     272.0854    110.01478    38315.161 
  278200    305.52272   -1529.6433    506.66036    351.27114    105.32532    38315.161 
  278300    288.58426   -1499.8082    479.34634    277.60232    281.60898    38315.161 
  278400    292.31394   -1496.9947    482.43415    300.27993    132.99729    38315.161 
  278500    302.88026   -1515.9009    480.52944     326.9968   -80.538557    38315.161 
  278600    295.06638    -1476.262    473.32391    324.28298    357.29312    38315.161 
  278700    305.85076   -1453.6593    509.39092    431.46128    254.86138    38315.161 
  278800    295.54792   -1460.8864    491.47133    359.97204     53.67743    38315.161 
  278900    297.85942   -1500.0382    478.42022    318.16628   -231.94742    38315.161 
  279000    292.35864   -1483.9262    502.51793    333.63323   -210.05015    38315.161 
  279100    301.33042   -1501.9829    471.77062    325.18469    230.46738    38315.161 
  279200    308.42435   -1495.9342    477.97574    369.34729   -563.82568    38315.161 
  279300    298.23031    -1483.134    462.99231    321.31084   -751.23373    38315.161 
  279400    294.90628   -1519.9033    461.64129    268.23898     -275.251    38315.161 
  279500    291.20001   -1523.1571    492.64506    279.31793   -585.33867    38315.161 
  279600    301.40173   -1581.4501    495.79643     270.0641    -194.1252    38315.161 
  279700    296.53105   -1546.4798    464.01374    251.34311   -463.92913    38315.161 
  279800     309.0675   -1486.1945     513.3783    417.38253     455.9082    38315.161 
  279900    289.98259   -1521.1953    442.99795     226.1566    294.67075    38315.161 
  280000    302.16908   -1513.7486    501.20662    346.62735    298.98635    38315.161 
  280100    296.44725   -1531.2003    479.96504    282.19707   -524.76929    38315.161 
  280200    296.29804   -1534.0847    502.21335    300.88983    191.23868    38315.161 
  280300    293.53394   -1503.5209    469.93518    286.74234    115.10705    38315.161 
  280400    300.23601   -1522.6984    492.94787    320.72379    258.37785    38315.161 
  280500    307.54335   -1489.2885     485.6968    379.75127   -73.214106    38315.161 
  280600    304.02779   -1511.5963     463.4512    319.38481    251.83425    38315.161 
  280700    300.98027   -1525.1403    488.91897    317.60066    286.74641    38315.161 
  280800     307.8687   -1511.6139    449.32277    322.51529   -240.53723    38315.161 
  280900    301.63926   -1478.5545     461.8892    340.12086    299.25964    38315.161 
  281000     306.2986   -1484.3841    493.51323    386.87319   -906.08489    38315.161 
  281100    293.55355   -1503.8911    485.99026    302.51545    44.118636    38315.161 
  281200    308.10182   -1481.7269    495.09981    399.22791    79.600394    38315.161 
  281300    287.04956   -1529.6733    493.22728    254.71507   -110.74553    38315.161 
  281400    298.39926   -1473.5134    485.57456     354.2737    16.896369    38315.161 
  281500    297.31114   -1489.3947    479.35812    327.28149   -67.920507    38315.161 
  281600    296.37372   -1512.3927    489.22956    309.93839    -171.4687    38315.161 
  281700    300.51795   -1494.5653    483.91654     341.0937   -161.52127    38315.161 
  281800    293.62393   -1509.2866    497.70854    309.15481    23.748654    38315.161 
  281900    305.64979   -1466.9826    459.52457    367.36772   -202.61959    38315.161 
  282000     298.9716   -1509.5615    476.56581    311.79119   -217.60792    38315.161 
  282100    307.36628   -1541.2752    491.14766      332.419   -138.87107    38315.161 
  282200    304.03488   -1518.8515    466.00904    314.71934   -418.30388    38315.161 
  282300    292.05888   -1523.7946    499.73858    289.63722   -671.47092    38315.161 
  282400    307.11395   -1514.4381    488.56829    355.54174    10.705226    38315.161 
  282500    304.41422   -1562.6886    471.67088    278.25028   -2.8020159    38315.161 
  282600    291.43792   -1569.3551    457.02842    198.57348   -446.87624    38315.161 
  282700    299.81339   -1546.7666    463.51052    265.31729     9.386945    38315.161 
  282800    286.08865   -1562.0504    462.84363    187.63209   -52.070963    38315.161 
  282900    301.62995   -1539.1019     480.4429     298.0853    194.81202    38315.161 
  283000    293.20066   -1543.4753     455.8472    231.20091   -287.71617    38315.161 
  283100    301.59638   -1504.3948    458.12314    310.32168   -136.85444    38315.161 
  283200    297.26904    -1544.196     473.0985    266.03123   -273.21741    38315.161 
  283300    288.32864   -1532.2913    470.03216    234.65535   -79.397716    38315.161 
  283400     289.8223   -1494.0647    466.61396     276.1823   -79.621124    38315.161 
  283500    298.34246    -1533.213    481.40024    290.14428   -440.91981    38315.161 
  283600    300.34372    -1550.958    481.00438    281.00512    405.30022    38315.161 
  283700    300.50192   -1504.2877    464.29001     311.6727    175.71581    38315.161 
  283800    300.83946   -1552.6213    480.49952    281.06689    890.36179    38315.161 
  283900    295.14577   -1533.1665    476.52329    270.93493    536.69847    38315.161 
  284000    295.32494   -1530.2174    459.58192    257.74861   -101.26096    38315.161 
  284100    306.35357   -1534.4844    480.63923    324.14616    -85.16988    38315.161 
  284200    307.53861   -1546.2696    482.40938     319.4615   -49.980884    38315.161 
  284300    306.54612   -1543.8576    469.95789    304.95776   -522.59485    38315.161 
  284400    299.09142   -1541.5476    457.99256    261.77078   -148.69289    38315.161 
  284500    294.71668    -1514.267    481.06787      292.449   -581.66419    38315.161 
  284600    292.91379   -1521.6371    503.20345    299.10498   -310.75799    38315.161 
  284700    308.29426   -1502.0295    490.43199    375.12308   -288.88226    38315.161 
  284800    291.55904    -1503.668    466.63957    274.41648     -168.249    38315.161 
  284900    301.39141   -1550.7843    475.45391    280.34093   -335.44731    38315.161 
  285000    309.87271   -1540.4028    470.38569    323.80344    99.960782    38315.161 
  285100    294.45019   -1517.5368     466.2993    273.21195    -322.9914    38315.161 
  285200    283.95653   -1513.6803    453.99435    217.56256   -303.89403    38315.161 
  285300    301.04873   -1490.3418    495.54207    359.33022    -431.5658    38315.161 
  285400    306.94432   -1491.9506    467.57667    356.27461   -519.83131    38315.161 
  285500    294.47469   -1487.0902    465.97875    303.44816   -247.24506    38315.161 
  285600    309.82617   -1492.8262    498.85481     399.6398   -274.10406    38315.161 
  285700    294.38041   -1478.4824    457.55147    303.20465   -331.42136    38315.161 
  285800    295.66455   -1474.1033    512.34206    368.15043   -104.30246    38315.161 
  285900    280.50744   -1486.7318    477.95848    252.96104   -127.52744    38315.161 
  286000    296.30981   -1436.8746     498.4935    394.43299    37.625786    38315.161 
  286100    299.99757   -1441.8141    500.98293    408.57067   -287.04203    38315.161 
  286200     296.9912   -1452.8639    480.46506    363.48013    95.548634    38315.161 
  286300    308.03691   -1464.8622    498.57318    419.27405    155.46122    38315.161 
  286400    296.08256   -1494.6942      497.713    334.81071    -99.39453    38315.161 
  286500     306.8192   -1471.9951    480.66171    388.75243   -364.77867    38315.161 
  286600    292.57188   -1472.3841    497.37669    340.99334   -396.83351    38315.161 
  286700    289.38536   -1499.7551    500.18088    302.09337   -298.08301    38315.161 
  286800    295.31989   -1478.2928     510.2428    360.31144   -29.144112    38315.161 
  286900     293.4213   -1486.4401    473.76457    307.14592   -218.08056    38315.161 
  287000    308.67316   -1473.8713    505.22128    419.77494    184.97767    38315.161 
  287100     301.9865   -1530.1419    469.86682    298.07305    -319.3473    38315.161 
  287200    297.66729   -1519.3232     475.2873    294.88415   -482.34446    38315.161 
  287300    293.68171    -1536.939    473.65746    257.71128    282.37797    38315.161 
  287400    300.93484   -1501.1344    467.63054    320.11374    304.19272    38315.161 
  287500    309.95537   -1488.2557    478.48142    384.41809   -147.65186    38315.161 
  287600    299.60803   -1511.6517    496.66848    332.66643    757.54761    38315.161 
  287700    298.07228   -1543.0748    470.33411    268.00099     375.5623    38315.161 
  287800    297.58152   -1538.8506    481.17482    280.85847    606.09967    38315.161 
  287900    301.90793   -1539.3764    470.71873    289.33698    306.20593    38315.161 
  288000    294.39793   -1512.7192    473.19423    284.68943   -400.36576    38315.161 
  288100    288.18472   -1515.9352    455.79187    236.12371   -817.47976    38315.161 
  288200    308.86857   -1519.1997    478.91583       349.02   -685.54707    38315.161 
  288300    299.99767   -1544.3836    486.55864    291.57729   -108.91581    38315.161 
  288400     291.2413    -1527.919    490.16076    272.25749    126.82862    38315.161 
  288500    300.05327   -1564.8683    461.05045    245.83445    776.13448    38315.161 
  288600    298.46776   -1539.8653    492.23492    294.89028    206.62491    38315.161 
  288700    307.88116   -1536.5417    475.90115    324.22191   -18.493879    38315.161 
  288800    295.87899   -1502.7238    484.92774    313.08021    199.47178    38315.161 
  288900    306.12043   -1496.5978    485.04786     365.3927   -32.741776    38315.161 
  289000    292.18158   -1511.6419    466.25421    268.85747   -197.01583    38315.161 
  289100    301.05061   -1467.7598    500.15804    386.53668   -510.03221    38315.161 
  289200    310.40353   -1488.5408    455.00013    362.66757   -789.86908    38315.161 
  289300    291.93156   -1477.5754    479.55935    315.10448   -577.70167    38315.161 
  289400    309.30497   -1499.8949    461.57198    352.94398   -442.24811    38315.161 
  289500    309.65236    -1483.416    474.00342    383.41686   -251.71521    38315.161 
  289600    289.86104   -1520.4321    488.39631    271.77145   -146.19169    38315.161 
  289700    297.59687   -1536.9429    492.50043    294.16087   -103.42445    38315.161 
  289800      305.509   -1531.0664    490.60533    333.73132    555.03454    38315.161 
  289900    302.57243   -1523.5676    476.57189    313.98794    503.06678    38315.161 
  290000    304.02302   -1510.3601    496.51166    353.65998   -135.63312    38315.161 
  290100    294.16849   -1495.3221    470.65712    298.51737   -10.407117    38315.161 
  290200    307.20784    -1472.686    505.43872    414.58654    145.02309    38315.161 
  290300    302.38356   -1493.2621    462.44631    329.31831    294.25234    38315.161 
  290400    301.07115   -1474.3568    498.07507    377.94903    294.73343    38315.161 
  290500    301.09889   -1473.5367    473.61861    354.43744   -56.247316    38315.161 
  290600     290.3166   -1451.2862    464.71545    319.28568   -83.295621    38315.161 
  290700     297.8992   -1484.0056    472.32175    328.27941   -377.78758    38315.161 
  290800    301.84573   -1507.0934    507.70185    358.32335   -429.83488    38315.161 
  290900    303.01807    -1472.212    449.62095    340.39707    49.078326    38315.161 
  291000    295.90994   -1449.5247    493.37082    374.86161   -136.48101    38315.161 
  291100    294.60023   -1469.2206    486.19186    342.09552   -3.6869563    38315.161 
  291200    303.61985   -1474.4258    491.80901    383.07818   -39.118437    38315.161 
  291300    300.54121      -1451.2    476.10803    376.75516     534.2204    38315.161 
  291400    298.44773   -1444.2928    509.43477    407.57251   -368.35988    38315.161 
  291500    293.36072    -1488.703    466.68709    297.53303    -347.9668    38315.161 
  291600    299.09677   -1490.8317      500.038    354.55621    49.430449    38315.161 
  291700    301.16128   -1508.4916    472.23108    318.37569   -571.39642    38315.161 
  291800      293.937   -1515.2784    456.38589    263.24856   -327.14746    38315.161 
  291900    299.64567   -1493.0081    510.28355    365.09441   -411.59701    38315.161 
  292000    300.37311   -1442.4807    465.77826    374.38856   -110.18012    38315.161 
  292100    309.03184   -1505.8945    486.01328    370.15711    442.44461    38315.161 
  292200    307.75259   -1546.3836    474.41452    312.31506    693.75291    38315.161 
  292300    300.11355   -1549.9317    481.18933    281.18105    247.52156    38315.161 
  292400    299.60969   -1501.3143    479.95266     326.2954    577.06381    38315.161 
  292500     295.4229   -1544.5701    476.72844    260.98308    312.00419    38315.161 
  292600    309.34588    -1507.894    502.37726    385.93418    615.53875    38315.161 
  292700    295.81671   -1509.6715    496.60466    317.52921   -132.97327    38315.161 
  292800    309.29674   -1544.1396    464.31411    311.40434   -44.270467    38315.161 
  292900    311.27276   -1542.2924    463.39046    321.21614     -742.801    38315.161 
  293000    294.24904   -1547.2973    458.63525     234.8826   -258.81661    38315.161 
  293100    302.22924   -1523.9195    484.70661    320.22708    55.456566    38315.161 
  293200    292.30402   -1510.0661    468.63053    273.36035    275.56353    38315.161 
  293300    307.86681   -1528.9844    477.83615    333.64965     423.2784    38315.161 
  293400    294.83674   -1542.1166    478.19007    262.26161    594.75995    38315.161 
  293500    300.59974   -1544.0044    501.83777     309.9437    650.10113    38315.161 
  293600    295.93576   -1517.5196    501.44706    315.05903    821.30996    38315.161 
  293700     301.2041    -1496.664    487.36195     345.5268    986.49986    38315.161 
  293800    297.17045   -1561.9463    493.88697    268.62594    311.63963    38315.161 
  293900    303.84098    -1532.585    477.94281    312.04738    724.63383    38315.161 
  294000     300.3504   -1536.3606    478.47657    293.10478    537.09311    38315.161 
  294100    307.87482   -1546.4713    482.24418    320.60685    726.01465    38315.161 
  294200    298.18406   -1561.8468    488.89774    268.29547    293.80443    38315.161 
  294300    285.34115   -1508.2275     479.8602    255.10931   -213.79757    38315.161 
  294400    299.78077   -1487.2698    509.59338    370.75023   -22.057057    38315.161 
  294500     290.5319   -1458.1023    463.85148    312.57401   -153.33486    38315.161 
  294600    307.05408   -1503.3713    503.81356    381.58448    463.19997    38315.161 
  294700    300.68337   -1512.1476    483.42814    323.76707    509.58752    38315.161 
  294800    305.13717   -1502.0831    477.92856    348.36542     359.3737    38315.161 
  294900    300.67741   -1476.8027      506.383    382.04007    464.82903    38315.161 
  295000    296.63607   -1502.0062    465.66473     297.9401    78.362524    38315.161 
  295100    303.25251   -1465.2123    488.17313    387.00346    394.63279    38315.161 
  295200    297.06858   -1455.6131    525.13215    405.74611    780.12372    38315.161 
  295300    293.73179    -1506.073     474.4725    289.61752   -9.5844952    38315.161 
  295400    296.76617   -1529.3787    484.25521    289.74328   -115.21428    38315.161 
  295500    294.97476   -1485.4406    476.26004    317.62841   -231.79244    38315.161 
  295600    294.51933   -1499.1013    478.25906    303.91821   -418.33872    38315.161 
  295700    305.89402    -1476.602    476.45842    375.78063   -501.84001    38315.161 
  295800    305.03031   -1518.2965    459.20587    312.94862   -233.68273    38315.161 
  295900    289.00888   -1529.9272    480.40479    250.45173   -19.507867    38315.161 
  296000    300.89654   -1513.4961    488.94476    328.89408    275.98479    38315.161 
  296100    297.65348   -1521.6574    494.72029    311.92086   -489.37879    38315.161 
  296200    293.78666   -1505.3645    479.55828    295.65859    -250.3566    38315.161 
  296300    301.75623   -1524.7821    496.45987    328.99007   -403.23493    38315.161 
  296400    296.09791   -1530.3686    490.83674    292.32909   -407.82151    38315.161 
  296500    285.75105   -1522.3507    482.14429    245.11395     91.59981    38315.161 
  296600     312.6117   -1524.9747    455.87233    337.03828    178.89077    38315.161 
  296700    296.87302   -1543.3366    474.56311    266.57391   -254.36381    38315.161 
  296800    300.80677   -1512.1329     500.2666    341.17533   -390.57951    38315.161 
  296900     294.8869   -1477.1989    495.55721    344.77203   -578.15666    38315.161 
  297000    297.01688   -1492.2867    505.27215    348.97993   -322.89042    38315.161 
  297100    299.08044   -1515.1283    477.97888    308.12707   -495.15797    38315.161 
  297200    301.92335   -1534.9133    511.52794    334.67869    87.054046    38315.161 
  297300    297.56347   -1493.8784    483.69988    328.27463     -241.847    38315.161 
  297400    295.41173   -1520.8775     494.0059    301.90292   -387.17308    38315.161 
  297500    298.93993   -1496.7103    484.22561    332.15972   -24.698757    38315.161 
  297600    301.07419    -1546.432    472.02665     279.8391   -279.27012    38315.161 
  297700     292.8077   -1538.9964    499.77592    277.84097    390.89457    38315.161 
  297800    300.21391   -1585.2554    458.54903    223.66856   -88.817018    38315.161 
  297900    284.18734   -1563.8043    462.93583    177.41821   -140.03259    38315.161 
  298000    295.54967   -1534.2777    463.61535    258.73258    311.57451    38315.161 
  298100    291.69843    -1535.406    479.21498    255.88087    754.49864    38315.161 
  298200    302.29815    -1547.154    491.71354    304.30947    372.63249    38315.161 
  298300    302.18678   -1509.9094    498.20226    347.54186    873.63487    38315.161 
  298400    290.87964   -1489.9534       477.84    296.27556    214.77342    38315.161 
  298500    302.72652   -1522.2751    474.67593    314.07757    592.97791    38315.161 
  298600    299.81162    -1477.508    500.60181    371.65919    321.19113    38315.161 
  298700    296.25981   -1466.6002    478.18961    344.17858    627.36999    38315.161 
  298800    302.30149   -1483.3764     482.9634    359.35189    393.45939    38315.161 
  298900    307.19613   -1449.2279    499.81933    432.37268   -26.000504    38315.161 
  299000    306.36359   -1510.9362    472.70022    339.80041   -79.245536    38315.161 
  299100    291.25034   -1501.2281    485.60954    294.43783     86.47844    38315.161 
  299200    299.09426   -1495.9373    479.03202    328.43343    827.56106    38315.161 
  299300    292.99893   -1471.6406    504.34427    350.62522    156.07507    38315.161 
  299400    308.51938    -1458.516    489.48852    418.70575    309.76957    38315.161 
  299500    301.61066   -1494.8253    473.27656    335.10882   -184.64163    38315.161 
  299600    298.09238   -1490.3531    464.90522    315.38424    85.650999    38315.161 
  299700    298.03012   -1498.8075    480.22387    321.96847    155.41373    38315.161 
  299800    291.61782   -1479.5994    493.21226    325.32216    125.68754    38315.161 
  299900    309.15392   -1480.6542     479.6293     389.5625    302.72313    38315.161 
  300000    297.74665   -1493.4259    491.06016     336.9113    1251.7491    38315.161 
  300100    304.66218    -1546.822    487.11256    310.67396    550.80178    38315.161 
  300200    305.36063   -1503.7148    508.44045    378.25076    580.23961    38315.161 
  300300     298.0823   -1496.1976    498.76407    343.35329    1209.5878    38315.161 
  300400    294.80496   -1484.5283    476.59862    318.11545     708.7238    38315.161 
  300500    309.60136    -1517.122    479.03073    354.50879    859.95347    38315.161 
  300600    312.33265   -1520.3886    475.03919    359.53614    933.55663    38315.161 
  300700    292.05259    -1513.755    465.96601    265.87595   -46.227482    38315.161 
  300800    298.60718   -1495.0528    476.17559    324.27049    72.520519    38315.161 
  300900    292.72886   -1542.4929    465.64758    239.86153   -350.51346    38315.161 
  301000    308.80472   -1571.7209    464.17745    281.47332    32.229806    38315.161 
  301100     295.8836   -1539.0801    502.75375    294.57066   -42.988804    38315.161 
  301200    302.37225   -1565.3584    475.65763    270.38243   -49.792706    38315.161 
  301300    303.80578   -1528.6068    490.19962    328.12404   -256.01751    38315.161 
  301400    300.84031   -1527.5744    482.30779    307.92583   -88.751166    38315.161 
  301500    297.42447   -1530.3255    453.68562    261.18799    10.517044    38315.161 
  301600    308.98361   -1526.6858    492.31465    355.45021   -121.22621    38315.161 
  301700    301.07278   -1504.5529    464.18757    313.87281   -121.84623    38315.161 
  301800    297.71502    -1516.248    481.94321    304.83001    -357.0664    38315.161 
  301900    301.92432   -1549.3372     463.4515    272.18269   -59.009943    38315.161 
  302000    306.63813   -1499.7028    482.26773    361.83626   -16.974182    38315.161 
  302100    302.82658   -1508.1668    479.17162    333.13159    458.72127    38315.161 
  302200    305.41413   -1541.7936    481.69465    313.66673   -176.71364    38315.161 
  302300    285.85068   -1505.4121    476.31689    256.67321   -410.87493    38315.161 
  302400    296.87083   -1499.3371    445.55887    281.55929   -325.82941    38315.161 
  302500    300.74798   -1485.1882    476.22354    343.81249   -119.74283    38315.161 
  302600    307.07045   -1476.3012    499.79855     404.7132   -165.78303    38315.161 
  302700     255.6089   -1481.8075    508.75232    176.68449    -49.39102    38315.161 
  302800    300.38275   -1506.5402    497.64085      342.235    96.681093    38315.161 
  302900    317.80366   -1503.9672    467.98379    393.51093    442.27815    38315.161 
  303000    298.25685   -1451.5494    508.58914    398.61169    1073.8922    38315.161 
  303100    290.16639   -1474.2479    480.93454    311.86731    424.07886    38315.161 
  303200    302.30336   -1499.1171    473.83459    334.49083    195.09717    38315.161 
  303300    295.11913   -1471.9868    501.79975    357.27133   -540.87812    38315.161 
  303400    311.63296    -1442.719    462.54209    421.56131   -386.85471    38315.161 
  303500    300.47824   -1525.6373    459.87674    285.80322   -306.58092    38315.161 
  303600    291.23393   -1567.4378    482.34209    224.88689     188.0111    38315.161 
  303700    306.19592   -1521.1994    480.09269    336.17549    57.536348    38315.161 
  303800    297.88629   -1526.5989    484.41553    297.72179    736.66597    38315.161 
  303900    292.83801   -1479.4158    493.15348    330.93543   -23.954016    38315.161 
  304000     298.7674   -1516.6008    473.19455     300.4622   -34.243498    38315.161 
  304100    309.86378   -1472.4166    490.11583    411.47967   -260.89996    38315.161 
  304200    294.99545   -1509.9081    456.27119    273.26508    170.11462    38315.161 
  304300    296.32765    -1470.652    481.18735    343.42969    5.2726851    38315.161 
  304400    309.51664   -1510.4157    448.85382    330.65704   -195.74121    38315.161 
  304500    298.69371   -1527.1425    483.10103     299.4955    417.80609    38315.161 
  304600      304.815    -1507.164    478.96408     342.8709    482.58683    38315.161 
  304700    307.91417    -1499.384    487.02862    372.65557    412.96368    38315.161 
  304800    303.71436   -1524.0847    491.43829    333.47367    542.59652    38315.161 
  304900    302.39645   -1518.8962    470.49077    311.78668    496.52361    38315.161 
  305000    303.43765   -1516.3549    472.73057    321.25102    438.63638    38315.161 
  305100     307.5314   -1569.6997    466.09488    279.68446    814.71044    38315.161 
  305200    301.95034   -1513.4001    495.83759    340.62294    758.33473    38315.161 
  305300    301.57199   -1514.6052    480.60985    322.48824    476.05587    38315.161 
  305400    298.34224   -1540.2364    505.69506    307.41468     819.6413    38315.161 
  305500    301.21014   -1465.9309    507.26503    396.19008     488.3438    38315.161 
  305600    293.74433   -1505.6052    483.17091     298.8402    186.08668    38315.161 
  305700    299.82225   -1501.9941    462.89689    309.51598   -421.94814    38315.161 
  305800    309.18708   -1507.9894    470.59538    353.34255    82.251888    38315.161 
  305900    306.04385   -1529.0376      474.053    321.61363   -184.05161    38315.161 
  306000    294.85206   -1562.1819    489.33916    253.41429   -282.49337    38315.161 
  306100    306.40007   -1552.1967    488.15372    314.15748     59.19561    38315.161 
  306200    305.53477   -1544.8391    445.80615    275.27534   -166.88384    38315.161 
  306300    302.74105   -1541.7976    488.48495    308.42939   -818.90848    38315.161 
  306400    306.24925   -1549.1117    472.46417    300.87458    -653.4734    38315.161 
  306500    299.75739   -1517.6384     472.7755     303.4585    -745.3763    38315.161 
  306600    301.37213   -1539.9903    444.77736    260.37171   -129.68921    38315.161 
  306700    305.63259   -1538.5682    468.39355    304.57365    311.70569    38315.161 
  306800     300.6936   -1556.2003    474.65053    270.98272   -428.48274    38315.161 
  306900    315.97445   -1542.9917    469.08303    347.35775   -200.32373    38315.161 
  307000    297.89883   -1534.6539    468.57673    273.88435   -31.777596    38315.161 
  307100    296.27546   -1560.8298    477.13922    248.96895   -329.73812    38315.161 
  307200    288.47612      -1489.7    462.88413     270.7619   -852.40115    38315.161 
  307300    297.62169   -1501.8071    505.24512    342.15295   -661.91263    38315.161 
  307400    293.51191   -1499.8814    473.39654    293.74417      -132.28    38315.161 
  307500    303.43678    -1516.166    517.63928    366.34472     479.0364    38315.161 
  307600    298.68814   -1519.8047     475.1212    298.82841   -132.25804    38315.161 
  307700    303.30998   -1552.9331    491.79131    303.15934   -126.86877    38315.161 
  307800    307.28409   -1504.8461    479.37742     356.7082   -83.485556    38315.161 
  307900    306.40077   -1602.8407    481.18057    256.54351    54.992566    38315.161 
  308000    305.40593   -1573.6069    493.90376    294.02565    363.68503    38315.161 
  308100      292.219   -1580.6417     457.6741     191.4458   -101.61747    38315.161 
  308200    304.51306   -1570.4087    472.58191    271.88581   -66.212521    38315.161 
  308300    300.32487    -1561.035    479.56461    269.40363    475.50547    38315.161 
  308400    307.84866   -1531.0676    483.03936    336.68806    372.50296    38315.161 
  308500    302.35965   -1529.7319    469.79078    300.08541   -96.578665    38315.161 
  308600    302.88449   -1522.1584    485.30287    325.53177   -108.06735    38315.161 
  308700     304.2362   -1477.5037      465.171     356.1346    160.76453    38315.161 
  308800    302.22002   -1493.5022    495.34117    361.23738   -319.91004    38315.161 
  308900    299.26312   -1507.4555    469.04895    307.69168   -361.40001    38315.161 
  309000    299.55069   -1531.3059    471.63837    287.72421   -641.84346    38315.161 
  309100     294.2601    -1444.111    465.59566    345.07906   -63.717566    38315.161 
  309200    303.86787    -1473.196    451.92408    345.53865   -182.97209    38315.161 
  309300    300.51016   -1496.2636    462.56629    318.01014    63.234835    38315.161 
  309400    303.47796   -1529.8938    487.74383    322.90669   -107.41556    38315.161 
  309500    299.86566   -1504.4146    470.55332    314.94715     53.93818    38315.161 
  309600    298.89964   -1523.4459    490.77668      311.794    244.19551    38315.161 
  309700    294.74457   -1532.1888    461.23004    254.81478    132.14602    38315.161 
  309800    296.45284   -1519.6277        472.7    286.52975    357.89441    38315.161 
  309900    297.91584   -1536.0685    470.02672    273.99628    494.34459    38315.161 
  310000    302.14639   -1511.7451    460.46305    307.78523    406.79823    38315.161 
  310100    292.09078    -1544.899    471.95313    240.89086   -402.07707    38315.161 
  310200     302.5466   -1525.1195    480.04948    315.79745    183.01587    38315.161 
  310300    291.24316    -1505.036     495.9318     300.9199   -166.23648    38315.161 
  310400    310.38372   -1511.6221    455.70934    340.20632   -24.073058    38315.161 
  310500    301.78334   -1567.8895    442.60071    232.14541   -457.89856    38315.161 
  310600    300.32577   -1550.3462    454.08989    254.62173   -562.10033    38315.161 
  310700     294.0635   -1486.0567    469.30913     305.9625   -285.03794    38315.161 
  310800    300.32597   -1512.9987    476.72678    314.60705   -181.01068    38315.161 
  310900    302.69362   -1498.2419    493.30382    356.59063    296.57311    38315.161 
  311000    315.48856   -1551.9183     459.0554    326.21798    711.36721    38315.161 
  311100    301.15887   -1489.1171    499.48434     364.9926    1487.9941    38315.161 
  311200    306.95946    -1483.033    478.67249     376.3561     1074.294    38315.161 
  311300    302.30292   -1511.3536     467.0754    315.49315    281.36585    38315.161 
  311400    295.83485   -1544.6586    491.56488    277.58398    -362.5049    38315.161 
  311500    297.62976   -1528.3803    486.28583    296.65684   -3.8822572    38315.161 
  311600    304.22473   -1534.3313    484.68415    318.76858   -581.10289    38315.161 
  311700    295.12668   -1542.7515    461.14809    245.88886   -425.52333    38315.161 
  311800    294.51816   -1523.3768    454.72595    256.10427   -809.98453    38315.161 
  311900    308.43622   -1498.8218    482.13619    370.67355   -338.64762    38315.161 
  312000    295.84435   -1498.3322    464.10243    296.49062     -351.408    38315.161 
  312100    300.27075   -1468.3711    511.29812    393.55755    672.73468    38315.161 
  312200    302.81207   -1506.9538    445.74131    300.84904    342.36461    38315.161 
  312300    303.81611    -1515.792    477.76387    328.54958    447.03323    38315.161 
  312400    289.56014   -1549.7683    511.56241    264.24787     216.5914    38315.161 
  312500    297.72049   -1547.3926    477.12766    268.89444   -28.395225    38315.161 
  312600     300.1089    -1486.073    464.20516    328.03469   -65.692306    38315.161 
  312700    305.10795   -1460.3604    476.25734    388.28538   -314.03454    38315.161 
  312800    302.13799   -1449.2669    492.26951    402.03209    -460.6823    38315.161 
  312900    306.20147   -1496.3189    485.32093    366.30923    264.25151    38315.161 
  313000    301.38837   -1495.2408    476.91012    337.32691    610.55372    38315.161 
  313100    290.25011   -1483.0997    505.83083    328.28842      362.116    38315.161 
  313200    289.70649   -1507.6515     480.5683    276.02892   -408.40414    38315.161 
  313300    301.34249   -1501.6686    498.32058    352.10327   -184.93978    38315.161 
  313400    305.40317    -1492.358      479.378     360.7364   -136.50423    38315.161 
  313500    306.83025   -1462.2748    479.39826    397.25898    -197.0937    38315.161 
  313600    300.67992   -1495.0764    476.76517    334.15976    459.19672    38315.161 
  313700    295.71579   -1477.3144    472.37208    325.19988    30.882197    38315.161 
  313800    293.97415   -1445.0101     495.3336    372.63169   -107.75945    38315.161 
  313900    295.19623   -1500.9675    457.80246    284.64015    88.436492    38315.161 
  314000    298.76725   -1498.2926    478.59929    324.17446   -18.153403    38315.161 
  314100    312.35395   -1475.1171    511.79668    441.66083   -426.24314    38315.161 
  314200    294.41446   -1461.0632    471.13651    334.36205   -954.77048    38315.161 
  314300    289.07366   -1486.7885    471.43518     284.9123   -915.77637    38315.161 
  314400    305.67605   -1492.5181    474.62893    357.05466    -1094.346    38315.161 
  314500    298.45867   -1482.0814    505.33199    365.73034   -222.98959    38315.161 
  314600    303.42685   -1478.5708    451.33271    337.58878    -386.2477    38315.161 
  314700    304.26614   -1505.8197    468.38586    331.16813   -327.94838    38315.161 
  314800    292.37679   -1494.9044    481.90098    302.11974   -31.085717    38315.161 
  314900     303.0985   -1466.9678    455.66298    352.04504   -482.98773    38315.161 
  315000    304.43447   -1514.7596    486.23253    340.83203   -352.31763    38315.161 
  315100    297.35633   -1494.5646    478.37453    321.33125   -170.42014    38315.161 
  315200    296.24111   -1542.9719    489.87463    279.40776   -64.558131    38315.161 
  315300    304.28451   -1492.7935    505.96123    381.85237   -317.49401    38315.161 
  315400    295.17571   -1481.0143    453.94969    300.64822    125.46263    38315.161 
  315500    296.20204   -1514.3263    492.86051    310.86359   -444.33535    38315.161 
  315600    295.85992   -1512.5332     477.3558    295.61302    107.97509    38315.161 
  315700    298.07287    -1483.142    496.99939     354.6018   -85.173819    38315.161 
  315800    297.44123   -1461.8853    472.56992    348.58789   -129.24455    38315.161 
  315900    304.00432    -1503.421    469.99425    333.99753    -778.6937    38315.161 
  316000    315.71595   -1472.1589    464.59557     412.5404   -441.58168    38315.161 
  316100    303.59172   -1532.5487    457.55399    290.57367   -343.37294    38315.161 
  316200     305.1971   -1532.6264    464.46509    304.62823   -303.87307    38315.161 
  316300    304.64739   -1484.7347    471.07081    356.65297    -262.8859    38315.161 
  316400    305.83794   -1525.5699    459.74855    309.85068    403.13729    38315.161 
  316500    298.06953   -1478.1954     476.0761    338.61004    351.00295    38315.161 
  316600    307.37338   -1512.0608    495.29006    365.80777    270.71617    38315.161 
  316700    306.70744   -1521.9587    476.25273    333.87714    -487.9777    38315.161 
  316800    300.17286   -1481.3542    459.52722    328.36327   -112.16151    38315.161 
  316900    286.00779   -1498.9474    469.03829    256.56604   -72.049552    38315.161 
  317000    300.73538   -1526.4253    476.89653     303.1917    243.47844    38315.161 
  317100    298.78542   -1501.2273    464.87483    307.59695   -124.42738    38315.161 
  317200    304.04743   -1500.8855    476.71006    343.44276    76.391152    38315.161 
  317300    295.72249    -1550.685    478.82859    258.31586    393.43671    38315.161 
  317400    288.46336   -1530.3957    480.82426    247.94897    395.29123    38315.161 
  317500    298.17756   -1471.6918    488.88344    358.40689   -286.28614    38315.161 
  317600    288.37665   -1491.5648    493.30087    298.86648   -47.955368    38315.161 
  317700    296.15804   -1553.1982    484.00607    262.93928    158.45985    38315.161 
  317800    298.31636   -1491.9552    495.68789    345.57232    141.57601    38315.161 
  317900    307.30886   -1439.1358     491.4789    434.63137    387.06619    38315.161 
  318000    291.67397   -1463.1473    477.61631    326.43088   -178.29726    38315.161 
  318100    302.10197   -1482.8936    485.64801    361.62184   -47.996104    38315.161 
  318200    298.54251   -1467.1785    469.73862    345.41698   -112.82901    38315.161 
  318300     296.8674   -1488.9332    476.20325    322.59213    260.80424    38315.161 
  318400    289.47153   -1492.5049    477.69335    287.24367    141.00177    38315.161 
  318500    306.88222   -1525.1635     486.8403    342.04601    308.21962    38315.161 
  318600    289.61217   -1424.7533    483.95962    361.89416    286.10692    38315.161 
  318700    298.24321   -1419.1672     496.0949    418.43831   -199.06461    38315.161 
  318800    304.33158   -1430.8145    494.47086    432.55267   -48.235945    38315.161 
  318900    301.57871   -1473.9687    473.88997     356.4351   -465.02096    38315.161 
  319000    298.00757   -1483.5723    488.66593    345.54435   -244.13088    38315.161 
  319100    293.38125   -1476.0148    492.22974    335.85616   -393.33177    38315.161 
  319200    293.62983   -1497.6825    462.46591    285.54279    252.27604    38315.161 
  319300     293.3905   -1488.9521    507.75837    338.48916    396.07595    38315.161 
  319400    294.91706   -1471.8563    497.15617    351.84934    283.23981    38315.161 
  319500    298.58335   -1462.6234    495.29052    375.70773    58.862288    38315.161 
  319600    306.90686   -1501.5876    459.00706    337.89947   -77.654813    38315.161 
  319700    305.39581   -1444.0186    494.38134    424.04608    232.40848    38315.161 
  319800    302.64391   -1462.4832     500.7433    399.56524   -95.715554    38315.161 
  319900    300.07458   -1474.9099     475.6219    350.46018     80.96619    38315.161 
  320000     306.2278   -1456.2107    489.34249    410.55739   -169.36061    38315.161 
  320100    295.97594   -1494.9289      499.525    335.90842   -283.94905    38315.161 
  320200    295.13232   -1494.2125    480.43465    313.73985   -178.05757    38315.161 
  320300      300.195   -1478.0593    491.90244    364.13298   -264.21273    38315.161 
  320400    303.76218   -1497.5566    510.50589    379.28448    164.64652    38315.161 
  320500    293.33101    -1475.123     470.0731    314.36542   -116.72702    38315.161 
  320600    295.02414   -1481.6542    470.49294    315.86986    -547.1255    38315.161 
  320700    301.51694   -1510.5953    485.23631    330.87694   -306.01167    38315.161 
  320800    300.96645   -1516.8096    479.45738    316.40764   -34.929736    38315.161 
  320900    298.41628   -1508.7724    478.18211    311.69882    339.41368    38315.161 
  321000    295.31534   -1521.1379    460.23119    267.43418    852.18565    38315.161 
  321100    298.17087   -1508.7964    454.87594    287.26473    183.24616    38315.161 
  321200    305.05628   -1512.9071    472.92287    332.17183    289.13781    38315.161 
  321300    300.90233    -1532.043    483.48006    304.90848    648.58877    38315.161 
  321400    296.27392    -1498.524     489.4348     323.5634    194.60019    38315.161 
  321500    307.90023   -1518.2832    485.75668    352.42177    836.91445    38315.161 
  321600    302.82546   -1486.5863    483.60068    359.13618    265.05431    38315.161 
  321700    302.28433   -1494.7243    496.00642    360.96981   -194.77603    38315.161 
  321800    297.00086   -1464.0128    497.07652    368.98611    296.72864    38315.161 
  321900    303.19645   -1443.7189    476.56238    396.63392    41.842168    38315.161 
  322000     307.2642    -1476.889    482.68355    387.88195    343.41859    38315.161 
  322100    298.03271   -1480.2258    469.71949    330.05747    -364.1538    38315.161 
  322200    305.79387   -1456.1181    484.19481    403.55045   -481.12577    38315.161 
  322300    297.57382   -1503.0796    458.92085    294.34091   -326.02477    38315.161 
  322400    300.59348   -1473.4508    474.00868    352.64009   -559.15641    38315.161 
  322500     291.5629   -1471.9973    510.02436    349.48938   -1.5417441    38315.161 
  322600    305.74354   -1515.2589    486.87261    346.86107    242.87369    38315.161 
  322700    310.57715    -1515.165    505.27153    387.09572    317.71935    38315.161 
  322800    301.60242   -1512.8942    484.17124    327.89748    532.27217    38315.161 
  322900    299.07826   -1519.5538    491.52905    317.24198    263.11016    38315.161 
  323000    299.52337   -1535.4057    485.20706    297.07013   -104.91886    38315.161 
  323100    304.53173   -1512.4707    516.04648    373.37245    831.05228    38315.161 
  323200     294.2006   -1542.9809    434.39812    214.74399    762.88222    38315.161 
  323300    302.49047   -1522.3474    506.14454     344.4121    177.47443    38315.161 
  323400    292.19602    -1525.084    478.35893    267.58499   -34.861281    38315.161 
  323500    293.22408   -1498.6444    461.14451    281.43441    122.09533    38315.161 
  323600    302.33745   -1495.3901    505.67467    370.21117   -36.792743    38315.161 
  323700    298.18935    -1517.398    478.48632    302.35667   -217.47006    38315.161 
  323800    290.39759   -1488.5192    478.84953    296.55097   -111.66074    38315.161 
  323900     302.1658   -1498.0128     465.2588     326.4006    102.90481    38315.161 
  324000    298.01998   -1489.0388     474.2664    325.73408     -392.518    38315.161 
  324100    306.52598   -1466.9818    493.24928    405.03432    186.74013    38315.161 
  324200     293.2815   -1524.9741    516.56734    310.78589      803.061    38315.161 
  324300    294.18598   -1593.3341    444.43365    174.36054    589.13688    38315.161 
  324400    295.91521   -1557.2369    471.53284    245.33507    882.37015    38315.161 
  324500    305.91745   -1522.7356    492.06454    345.35861    1090.3288    38315.161 
  324600    298.10308   -1520.3182    463.03173    283.59382    866.97077    38315.161 
  324700    302.78132   -1488.0902    512.84508    386.67805    932.36479    38315.161 
  324800    300.26533   -1510.8643    447.91151    287.65336    550.45844    38315.161 
  324900    292.17031   -1502.4035    490.78932     302.5803    241.72466    38315.161 
  325000      298.404   -1518.7738     461.7552    285.21528    130.85957    38315.161 
  325100     297.0302   -1557.6497    458.77326    237.17802    199.89634    38315.161 
  325200    300.61727   -1499.0154    472.93799    326.11182    495.52843    38315.161 
  325300    298.86144   -1527.0151    502.10791    319.38419   -293.40309    38315.161 
  325400    301.64252   -1512.5239    471.07768    315.35456    216.51802    38315.161 
  325500    298.96535   -1518.0233    472.58053    299.31609    145.58139    38315.161 
  325600    301.29943   -1483.9693    514.91248    386.20085    564.77327    38315.161 
  325700    300.82789   -1487.1316    457.40441    323.40942    334.83867    38315.161 
  325800    289.60945   -1486.7206    477.98161    293.93658    783.79781    38315.161 
  325900     299.5275   -1472.1147    494.29577    369.46849    860.93505    38315.161 
  326000    303.89522   -1466.0098    484.81882    385.74257    468.74023    38315.161 
  326100    293.69233   -1538.9039    498.17746    280.31409    739.46891    38315.161 
  326200    318.85721   -1471.3791    491.65554     454.5097    1217.2061    38315.161 
  326300    294.82148   -1441.4308    512.46165    397.15036     504.0341    38315.161 
  326400     285.8479   -1451.5527    508.06964    342.27287    317.35017    38315.161 
  326500    299.51307   -1440.9149    468.70299     375.0106   -628.26723    38315.161 
  326600    310.09489   -1487.1359     511.1941    418.87815   -326.93059    38315.161 
  326700    301.07513    -1464.917    492.56183    381.89352    -613.7194    38315.161 
  326800    299.29299   -1438.7803    484.99276    392.44501   -386.91424    38315.161 
  326900    305.76998   -1492.9184    468.92948    351.37743    142.46013    38315.161 
  327000    293.39407   -1487.3963    518.58617    350.88888    556.25287    38315.161 
  327100    308.14995    -1402.866    516.05002    499.25552    818.22642    38315.161 
  327200      303.501   -1459.1405    481.20218    387.22204    307.86713    38315.161 
  327300    298.17707   -1521.2791    478.11228    298.04632   -1.9781358    38315.161 
  327400     298.9395   -1440.7708    481.47505    385.34681    165.64392    38315.161 
  327500    300.56378    -1471.812    481.35108    361.48769   -430.32075    38315.161 
  327600    300.87595   -1482.5326    461.66613    332.48632   -242.72578    38315.161 
  327700    304.90913   -1483.4038    491.89182    379.98215   -108.22514    38315.161 
  327800    293.18107   -1472.0203    457.54873    304.26937   -393.17392    38315.161 
  327900    302.26479   -1472.8079    483.81881    370.61073     302.0081    38315.161 
  328000    305.51553   -1476.9136    478.58418     375.8924   -132.09995    38315.161 
  328100    309.14497   -1485.5977    483.35647    388.30595   -87.872656    38315.161 
  328200    304.94009   -1462.3998    459.42428    368.65791   -210.70213    38315.161 
  328300    299.04059   -1455.9299    474.07018    363.23749   -40.751542    38315.161 
  328400    302.16605   -1468.6014    489.04678    379.60107   -240.20378    38315.161 
  328500    297.39957   -1425.9499    472.95567    384.72162   -391.69426    38315.161 
  328600    300.78041   -1443.3193     490.5617     400.1654     508.8316    38315.161 
  328700    291.68967   -1416.0697    508.36607    404.32881    504.77116    38315.161 
  328800    301.69266   -1419.1468    477.66334    415.54288    71.501997    38315.161 
  328900    288.44984   -1426.4113    504.33677    375.38509    181.02177    38315.161 
  329000    294.07754   -1387.4417    520.55705    455.88856    16.116447    38315.161 
  329100     298.0348   -1410.5719    498.55295    428.55418    206.33622    38315.161 
  329200    303.88082    -1390.034    505.99408    482.82883    387.77939    38315.161 
  329300    307.55211   -1385.4182    487.04494    485.00913    564.64671    38315.161 
  329400    296.81132     -1432.89    472.01097    374.19086   -88.572731    38315.161 
  329500    303.64878   -1404.6553    492.96513    454.13495    528.16633    38315.161 
  329600    302.73434   -1421.7642    484.18031    424.12797    4.5729807    38315.161 
  329700    291.37554   -1450.1172       478.09    338.59238   -364.31884    38315.161 
  329800    303.61618     -1426.02    511.22776    450.88623   -22.921167    38315.161 
  329900    297.42336   -1425.9279    493.56439    405.45941   -161.01517    38315.161 
  330000     298.1964   -1445.9438    485.72863    381.08482   -21.892367    38315.161 
  330100    293.51086   -1448.5559    490.43981    362.10816   -348.56704    38315.161 
  330200    298.45835   -1454.6214    494.49787    382.35479   -764.26662    38315.161 
  330300    287.04194   -1427.7242    477.63525    341.03791   -640.08582    38315.161 
  330400    299.65147   -1475.2996    474.58509    347.13044   -178.66587    38315.161 
  330500     316.7168   -1436.1396    490.94806    479.41405    472.36104    38315.161 
  330600    301.87838   -1470.8974    485.50642    372.47074    428.28579    38315.161 
  330700    307.32222   -1495.2812    473.06088    360.12802    320.53279    38315.161 
  330800    293.70132   -1480.3927     477.2236    317.91193    179.54901    38315.161 
  330900    295.71544   -1481.2256    493.59346    342.50842    518.64798    38315.161 
  331000    303.89655   -1465.3687    495.58972     397.1606   -296.71157    38315.161 
  331100    291.76439   -1432.2006    521.84732     402.0153   -339.56812    38315.161 
  331200    307.13702   -1425.3265    484.58471    440.77352   -713.74632    38315.161 
  331300    307.84384   -1420.4683    515.68273     479.9091   -764.15551    38315.161 
  331400    300.51224   -1406.1626     490.6875     436.2417   -881.88972    38315.161 
  331500    296.19421   -1427.8926    514.69063    419.09217   -346.88171    38315.161 
  331600    300.13304   -1450.5029    489.37104     388.8793   -472.23768    38315.161 
  331700    293.27128   -1468.8292    494.53503    344.85244   -471.82915    38315.161 
  331800    309.76547   -1426.0077      513.279    480.60952   -898.05205    38315.161 
  331900    287.51186   -1429.5754    499.50762    363.17279   -1174.8296    38315.161 
  332000    300.74909   -1453.5288    457.10029    356.35363   -113.17109    38315.161 
  332100    309.22646   -1469.6283    477.56514    398.85057    413.56573    38315.161 
  332200    290.01392   -1447.7293    487.82419    344.58981    263.45655    38315.161 
  332300    300.40372   -1461.5853    468.65028    358.29362    249.85646    38315.161 
  332400    309.62643   -1473.9782    494.76002     413.4946    767.28837    38315.161 
  332500    296.76739   -1509.2436     503.9781    329.60677    547.78023    38315.161 
  332600    295.89268     -1479.21    492.76377    344.49156   -171.60225    38315.161 
  332700    310.79834   -1458.5318    484.57772    424.03005    180.84131    38315.161 
  332800    301.71616   -1432.0126    498.77081     423.8903   -60.896089    38315.161 
  332900    297.75896   -1415.0123    493.97192    418.29207    25.483317    38315.161 
  333000    301.97815   -1440.9856    502.27562     419.6005    127.00874    38315.161 
  333100    296.76234   -1458.8568    515.60352     391.5963    99.611866    38315.161 
  333200    286.73875   -1499.6641    494.53356     284.6325   -1.8497244    38315.161 
  333300    298.31903    -1445.801     500.4625    396.51311   -40.010179    38315.161 
  333400    302.64747   -1452.3821    473.09348    382.03247    60.854718    38315.161 
  333500    295.17428    -1483.409    480.99326    325.29068   -89.177714    38315.161 
  333600    298.15655   -1452.2923    469.08368    357.91218   -143.54137    38315.161 
  333700    307.38754   -1454.8015    491.51223    419.35292   -50.891828    38315.161 
  333800    307.23497   -1432.2482    510.67754    460.38528    25.461243    38315.161 
  333900    304.83492   -1465.4553    492.90205    398.60717    44.630823    38315.161 
  334000    298.40155   -1458.1246    493.89802    377.99624    189.19934    38315.161 
  334100    295.33966   -1460.8434     502.7616    370.36853    494.22958    38315.161 
  334200    304.70636   -1463.6121    526.57846    433.54845    142.52153    38315.161 
  334300     311.6798   -1473.2452    473.85036    402.55409   -70.672517    38315.161 
  334400    288.69076   -1463.7804    496.05897    330.82187   -144.03016    38315.161 
  334500    301.72504   -1480.0753    494.58603    371.68278   -353.88606    38315.161 
  334600    307.08835   -1489.8361    484.50978    375.97009     247.4546    38315.161 
  334700    298.47387    -1497.335    520.68497    365.89804    204.21471    38315.161 
  334800    307.89623   -1488.6295    495.20582    391.50663    593.86364    38315.161 
  334900    296.63019   -1474.9263    504.86953    364.19842    70.196572    38315.161 
  335000    293.90014   -1513.5189    485.90232    294.35872     407.4415    38315.161 
  335100     302.2614   -1529.8321    470.45807    300.21057    395.10681    38315.161 
  335200    301.24545   -1521.1248    519.32446     353.2144    607.38677    38315.161 
  335300    298.49261   -1510.8777    504.60797    336.36265    585.21644    38315.161 
  335400    301.93175   -1495.9835     486.7707    348.88904    517.21453    38315.161 
  335500    296.27228   -1453.8979    505.27022    384.01761    797.79965    38315.161 
  335600    296.38213   -1450.6546    502.26101    384.74577   -360.96082    38315.161 
  335700    305.29394   -1410.0034    501.43492    464.65661   -68.406908    38315.161 
  335800    306.20026   -1453.2004    484.31041    408.41177   -155.37822    38315.161 
  335900    297.42126   -1475.8726    514.83537    376.77618    64.316834    38315.161 
  336000    306.04013   -1459.9135    497.06437    413.73233   -464.01362    38315.161 
  336100    290.93735   -1483.1412     480.1509    305.65821   -283.74929    38315.161 
  336200    286.55999   -1494.3385     478.7393    273.35975   -80.871888    38315.161 
  336300    303.64811   -1507.2635     492.4727    351.03131    330.03903    38315.161 
  336400    300.07269   -1515.3874    483.25286    317.60513    63.225346    38315.161 
  336500    303.62307   -1499.5741    494.69327    360.82856     3.744291    38315.161 
  336600     293.0672   -1479.1835    476.60538    315.65053    153.23814    38315.161 
  336700    303.79238   -1480.0494    490.06619    376.48784     201.1242    38315.161 
  336800    302.74052   -1500.8074    493.78333    354.71566    311.97447    38315.161 
  336900    302.72139   -1496.7829    492.68665    357.55744    3.8392496    38315.161 
  337000    293.84443   -1486.7191    478.05388    313.05945    665.27926    38315.161 
  337100    307.62679   -1503.0476     455.2337    335.90445     663.5654    38315.161 
  337200    309.46733   -1452.9554    487.26391     426.3057    545.81295    38315.161 
  337300    298.53056    -1530.611    468.66228     280.8544    323.79355    38315.161 
  337400     308.3907   -1492.4336    465.26575    359.98654   -6.0128491    38315.161 
  337500    300.41432   -1486.8066    476.78793    341.25764    99.248653    38315.161 
  337600    297.22241   -1484.5323    495.33782    347.72454   -236.66606    38315.161 
  337700    303.50806   -1533.7199    477.48597    308.95821   -33.962214    38315.161 
  337800    299.70361   -1471.5084    498.37773    374.94889   -338.33576    38315.161 
  337900    303.21511   -1450.0658    500.31885    414.12747   -274.50665    38315.161 
  338000    289.57222   -1464.0637    469.40011    307.84447    98.876244    38315.161 
  338100    303.24759   -1470.8309    494.61181    387.80143    426.04042    38315.161 
  338200    296.77621   -1483.1274     513.8452    365.62981   -46.503116    38315.161 
  338300    294.20585   -1454.0918    458.69931    327.95792    319.15758    38315.161 
  338400    293.58675   -1491.2405    502.06618    331.39135    888.89065    38315.161 
  338500    301.65618   -1545.9798    490.08534    300.96776      677.919    38315.161 
  338600    303.60155   -1553.4853    474.37472    286.50199    817.89261    38315.161 
  338700    300.52537   -1536.1506    466.79368    282.41897     89.22694    38315.161 
  338800    306.31936   -1535.0899    476.74034    319.48787    133.99822    38315.161 
  338900    295.52415   -1533.9958     474.4697    269.75405    122.02041    38315.161 
  339000    304.78128    -1525.733    479.39363    324.57974    771.88507    38315.161 
  339100    302.21687   -1522.3308    479.36746    316.42092    487.54468    38315.161 
  339200    311.79604   -1493.3771    498.16998    407.26469    592.75461    38315.161 
  339300    302.82594    -1499.989     459.3677    321.50261    162.94235    38315.161 
  339400    301.50137   -1502.6717    499.17863    352.67283    -518.4903    38315.161 
  339500    292.01613   -1529.6427    450.94053    234.79876   -541.27729    38315.161 
  339600    296.35406   -1518.5881     489.0466    303.47163   -202.16113    38315.161 
  339700    290.51465   -1532.9052    477.24126    251.08323   -149.03564    38315.161 
  339800    290.69401   -1489.3243    455.20585     273.4355   -66.165606    38315.161 
  339900    295.63675   -1468.5425    489.44508    350.68921   -145.72919    38315.161 
  340000    301.73899   -1449.8108    484.93781    392.36172    277.63871    38315.161 
  340100    287.37347   -1422.3505    493.93231    364.19982     299.4975    38315.161 
  340200    313.29756   -1475.1684    483.92843    417.98579    179.11559    38315.161 
  340300    308.47238   -1496.9236    447.34034    337.93862   -107.56731    38315.161 
  340400    307.47268   -1448.1541    455.58024     390.4513   -372.84908    38315.161 
  340500    294.12884   -1467.6722    465.66214    320.99394    44.900215    38315.161 
  340600    312.05385   -1477.9993     490.1556    415.78775    298.14212    38315.161 
  340700    308.08508   -1424.6253    473.20424    434.35869    316.27516    38315.161 
  340800    303.50693   -1452.5521    515.24088    427.87585    82.957746    38315.161 
  340900    303.26318   -1468.5461    477.37563    372.92012    372.30217    38315.161 
  341000    285.22358   -1468.6844    475.55757    289.82089     764.4317    38315.161 
  341100    307.11755   -1467.4145    481.53106    395.54432    218.62215    38315.161 
  341200    302.16179   -1508.1773     469.0947    320.05394   -177.37418    38315.161 
  341300    293.76795   -1471.0975    452.27114    302.55429   -375.46525    38315.161 
  341400    311.69325    -1433.304    492.18483    460.89026    112.30234    38315.161 
  341500    305.53777   -1474.5144    481.07673    380.88415   -190.27208    38315.161 
  341600    307.74797   -1490.1829    466.22183    360.30237   -356.52753    38315.161 
  341700    303.96115   -1530.6888     443.0289    279.57018    131.51435    38315.161 
  341800     303.2391    -1518.649    488.55282    333.88607    722.81443    38315.161 
  341900    301.94988   -1515.6773     464.7726    307.27868     1016.258    38315.161 
  342000    303.39051   -1548.2036    462.71246    279.17221    971.41552    38315.161 
  342100    284.25329   -1520.9776    477.27059    234.87632    866.65657    38315.161 
  342200    301.15122   -1518.2697    489.83967    326.16094    687.46453    38315.161 
  342300    295.06878   -1523.6129    474.15713    277.77614    941.14849    38315.161 
  342400    310.71267   -1534.4599    452.93619     316.0751    1022.3048    38315.161 
  342500    297.98657   -1572.4758    472.95389    240.83429    802.06542    38315.161 
  342600    286.38923   -1495.5891    483.46808     276.0699    520.96354    38315.161 
  342700    293.85124   -1510.4262    470.54551    281.87457    115.89808    38315.161 
  342800    295.43976   -1479.5765    478.48503    327.80913   -129.58737    38315.161 
  342900    302.72764   -1514.6836      442.272    289.27019   -175.50281    38315.161 
  343000    300.47281   -1484.5758    471.27989    338.24349   -477.50588    38315.161 
  343100    298.35864   -1456.0231    494.24932    380.25602    -116.8613    38315.161 
  343200    291.84805   -1476.1704    486.58358    323.15811   -344.70145    38315.161 
  343300    301.81639   -1467.1414     488.7158    379.15725   -425.28016    38315.161 
  343400    291.01579   -1509.7967    477.92843    277.13313   -238.85758    38315.161 
  343500    296.71239   -1502.6825    457.51359    289.45596   -150.19178    38315.161 
  343600    301.62835   -1482.8931    469.88411    343.72806   -558.86867    38315.161 
  343700    286.88625   -1488.6054    497.57567    299.39681   -208.63177    38315.161 
  343800    291.52531   -1464.5892    485.37045    332.07448     188.6386    38315.161 
  343900    303.21594   -1454.8068    464.80986    373.88116   -91.408417    38315.161 
  344000    306.70012   -1497.6361    463.83479    345.74879   -218.85448    38315.161 
  344100    293.56229   -1456.8638    472.62903    336.22083   -135.97487    38315.161 
  344200    307.02182    -1456.511    478.75392    403.24005    578.28951    38315.161 
  344300    295.44348   -1486.2284     457.9584    300.64726    130.48972    38315.161 
  344400    308.60625   -1477.5473    477.93616    388.51281    419.98002    38315.161 
  344500    305.17746   -1441.3297    478.27938    409.65083    524.25718    38315.161 
  344600    304.67312   -1455.4567    481.03617    396.01209   -152.12805    38315.161 
  344700    293.24717   -1447.5507    480.65239    352.13991   -73.623643    38315.161 
  344800     303.5588   -1493.6971    466.55055    338.27373    238.75048    38315.161 
  344900    309.09113   -1490.9971    468.45462    367.76248    92.445766    38315.161 
  345000      299.002   -1461.6388    464.24477    347.52959    63.011115    38315.161 
  345100     297.4072   -1458.2014    474.41922    353.96804    -211.3011    38315.161 
  345200    293.67944   -1492.9562     464.7807    292.80711   -207.73398    38315.161 
  345300    306.09983   -1463.8036     487.1912    400.23762    165.72508    38315.161 
  345400     302.2111   -1509.5033    445.27359     295.1286   -54.129382    38315.161 
  345500    313.47368   -1476.5384    464.28062    397.76008    576.84218    38315.161 
  345600    295.17836   -1451.2137    460.41774     336.9288    227.67977    38315.161 
  345700    316.31512   -1446.4109    474.78966    451.17759    440.71936    38315.161 
  345800    294.73512   -1445.6619     478.7445    358.81368    104.16247    38315.161 
  345900    308.36581   -1477.6329    458.66474    368.07434    -42.95899    38315.161 
  346000    292.46574    -1448.164    474.41104    341.77036    112.91922    38315.161 
  346100    297.19297   -1477.5306    471.57201    330.82803    234.97368    38315.161 
  346200    301.03414    -1484.806    467.87516    337.13352     383.1103    38315.161 
  346300    302.60145   -1456.8013    469.08377    373.39663    115.30928    38315.161 
  346400    304.50176    -1477.989    472.34418    364.01696   -28.404479    38315.161 
  346500    293.96087   -1518.6905    453.78222    257.34023    190.39985    38315.161 
  346600    304.23896   -1509.4347    454.72981    313.77487   -422.13042    38315.161 
  346700    307.16447   -1511.0349    474.95391    345.55783    240.13482    38315.161 
  346800    304.85385   -1526.4244    469.66054    314.48166    176.56804    38315.161 
  346900    302.16518   -1483.1876    461.59582    337.55997    254.25457    38315.161 
  347000    291.90886   -1481.6738    459.38744    290.73205     28.34839    38315.161 
  347100    294.69279    -1496.309    458.89856    288.13025    41.999229    38315.161 
  347200    292.14962   -1464.3216    482.35008    332.12978   -130.70208    38315.161 
  347300    296.82069   -1478.9136    458.25905    314.45749   -94.619427    38315.161 
  347400    294.49693   -1457.3474    466.68026    333.99259    2.6246833    38315.161 
  347500    292.45119   -1475.1078     454.5961    294.94617    123.48184    38315.161 
  347600    287.94077    -1446.316    500.86517    349.71889    509.07526    38315.161 
  347700    303.70798   -1491.5175    470.50512    345.07899    105.79655    38315.161 
  347800    281.69883   -1443.3521    489.38088    313.12206   -624.70935    38315.161 
  347900    300.93609   -1450.0683    478.11437    381.66938   -675.08644    38315.161 
  348000    307.10626   -1459.5826    460.35868    382.15305   -437.86192    38315.161 
  348100    302.48971   -1473.2172    445.03721    332.43154   -747.23894    38315.161 
  348200    298.31856   -1396.3816    480.76193    426.22987   -1185.8546    38315.161 
  348300    300.10778   -1439.0834    464.64605    375.46016   -833.50364    38315.161 
  348400    293.71283   -1444.0005    478.99354    356.12577   -377.02535    38315.161 
  348500    284.42711   -1434.9514    461.45178    305.86557   -677.91559    38315.161 
  348600    292.69078   -1472.2046    491.25121    335.58208   -499.04562    38315.161 
  348700    304.71556   -1466.7568    508.60482    412.47155    448.00464    38315.161 
  348800    301.46519     -1470.85    506.51157    391.66479    387.29552    38315.161 
  348900     298.7596   -1444.7683    480.69846    379.76347    16.025305    38315.161 
  349000    294.13225   -1484.2839    459.68988    298.42535     -731.009    38315.161 
  349100    303.99645   -1492.2427    490.41846    365.56468   -490.36234    38315.161 
  349200    296.79111   -1455.4109    470.34947    349.91751   -521.19905    38315.161 
  349300    310.57982   -1427.7178    489.00845    458.29184   -696.16571    38315.161 
  349400    292.92201   -1460.3149     471.0218    328.28252   0.61828777    38315.161 
  349500    299.37811   -1457.5923    481.44816    370.47126    286.42457    38315.161 
  349600    302.68629   -1415.5904    500.57664    446.48202    885.72477    38315.161 
  349700    299.89437   -1479.8095    472.71678    341.84485    251.89969    38315.161 
  349800    304.50617   -1481.7316    464.56236    352.51242    13.838162    38315.161 
  349900    297.76064   -1493.1079    492.64215    338.87426   -411.15912    38315.161 
  350000    304.91638   -1497.8878    466.38166    340.02065   -272.29904    38315.161 
  350100    297.46507   -1533.5731     481.6078    286.04519     483.2726    38315.161 
  350200    317.89624    -1494.614    481.93232    417.22905    505.28233    38315.161 
  350300     297.3064   -1492.7894    482.58789    327.09523   -176.89314    38315.161 
  350400    301.86108   -1482.9766    504.83905    379.64635    91.890045    38315.161 
  350500     302.2808    -1510.104    493.90073    343.46858   -138.10953    38315.161 
  350600    303.59396   -1509.5841    488.33058    344.32502   -121.36371    38315.161 
  350700    304.98965   -1482.4754    482.60117    371.98213   -13.908716    38315.161 
  350800    293.08388   -1504.8128    457.70213    271.19306    250.88352    38315.161 
  350900    299.86561   -1477.8146    515.92396    386.91758    421.59626    38315.161 
  351000    287.46331   -1488.5425    455.24302    259.72264   -252.43913    38315.161 
  351100    303.63752   -1546.4719    487.37565    306.67818    65.631209    38315.161 
  351200    306.48089   -1480.5542    498.54402    396.55382    349.53902    38315.161 
  351300    293.72266    -1502.782    478.43257    296.82761   -80.289152    38315.161 
  351400    297.41706   -1523.4436    455.80595    270.15681   -226.73748    38315.161 
  351500    304.42245   -1546.8823    493.03681    315.45953   -339.80999    38315.161 
  351600    299.19752   -1543.9656    456.23118    258.06874    -277.0301    38315.161 
  351700    307.76107   -1548.6475    465.03675    300.71159   -5.8691205    38315.161 
  351800    302.67813   -1540.0577    500.81828    322.21968    119.11503    38315.161 
  351900    292.87485   -1542.7267    454.53672    229.17347    164.45698    38315.161 
  352000     299.5027   -1532.8708    487.61332    301.91833    18.283581    38315.161 
  352100    293.03266   -1525.2828    495.18452    287.97508    119.13513    38315.161 
  352200    288.02176   -1538.9675    458.21944    214.78605   -115.40622    38315.161 
  352300    284.46591   -1530.8071    502.17981    250.91241   -556.62918    38315.161 
  352400     300.6686   -1518.1002    465.48513    299.80502   -24.209079    38315.161 
  352500    311.57229   -1540.7948    465.50167    326.17221    297.34712    38315.161 
  352600    297.73129   -1504.8088    501.26191    335.66103     800.2621    38315.161 
  352700    307.80719   -1536.7121    474.78776    322.60549    751.63368    38315.161 
  352800    296.20281   -1515.9759    455.68603    272.04294    317.61103    38315.161 
  352900    309.10501   -1548.8178    499.35764    340.90721     5.803856    38315.161 
  353000    303.91952   -1462.3923    487.52105    392.17166    489.42752    38315.161 
  353100     305.0825   -1485.5813    497.02851    383.72125    571.38694    38315.161 
  353200    296.00275   -1507.1709    478.31793    302.57998   -146.25352    38315.161 
  353300    302.67378   -1510.8369    486.90254     337.5051    494.82288    38315.161 
  353400    308.03332   -1504.7687     467.8893    348.66754    404.82069    38315.161 
  353500    305.21901   -1520.0692    477.91419    330.73303     33.00254    38315.161 
  353600    298.64311   -1522.9492    458.86891    279.22906    275.81656    38315.161 
  353700    294.98608   -1530.0721    484.00212    280.78985    254.50841    38315.161 
  353800    299.71648    -1530.476    518.70875    336.37021   -204.93238    38315.161 
  353900    292.93533   -1512.7886    481.23813    286.08511   -177.32865    38315.161 
  354000    295.27627   -1505.8014    484.24082    306.60461     29.63832    38315.161 
  354100    307.53453   -1487.0828    485.71434    381.93488   -567.04038    38315.161 
  354200    303.98168   -1466.1106    458.08384    359.29574   -659.70713    38315.161 
  354300    302.05484   -1480.5761    478.03036    356.10968   -476.98247    38315.161 
  354400    301.93209   -1485.4331    480.31313    352.98335   -297.38781    38315.161 
  354500    297.90332   -1475.9449     489.4157    353.45255      -113.67    38315.161 
  354600     300.2261   -1505.9171    496.83089    341.34355    157.73185    38315.161 
  354700    300.06687    -1479.404    491.65842    361.96796   -181.42607    38315.161 
  354800     308.9975   -1497.1103    510.18287    402.95642    71.601201    38315.161 
  354900    294.56194   -1511.6785    473.83208    287.10564   -291.81108    38315.161 
  355000    310.62392   -1534.2774    483.02655    345.94866   -326.94937    38315.161 
  355100    302.27521   -1448.5371    466.97717    378.08674   -155.05537    38315.161 
  355200     297.0175   -1500.0954     484.0338    319.93573   -109.30219    38315.161 
  355300    300.51989   -1503.0568    459.67617    308.37052   -267.14644    38315.161 
  355400    292.59923   -1494.6275    468.68732    290.18354   -369.34336    38315.161 
  355500    304.23964   -1506.9531    469.10505    330.63476    264.01399    38315.161 
  355600    289.92479   -1462.8057    467.13656    308.42486   -154.79794    38315.161 
  355700    305.35465   -1477.7082    492.60791    388.39783    -354.7588    38315.161 
  355800    304.69545   -1496.3345    484.36454    358.56315   -263.38385    38315.161 
  355900    302.78891   -1490.7041    480.24242    351.49567    80.443294    38315.161 
  356000    296.64457   -1502.5545    461.32572    293.09111   -497.90218    38315.161 
  356100    303.17898   -1535.5823    476.46968    304.59928    61.937678    38315.161 
  356200    294.52385   -1487.1929    468.80799    306.39579   -369.47262    38315.161 
  356300    293.33775   -1519.1419    491.83695    292.14072   -415.12423    38315.161 
  356400    290.65594   -1475.1019    503.46177    335.74264   -116.33891    38315.161 
  356500    301.57525   -1540.4925    475.17357    291.17933    53.570973    38315.161 
  356600    312.78301   -1506.0967    467.58619    368.40069    266.08798    38315.161 
  356700    308.65653   -1525.3182    474.82096    337.85289    241.21333    38315.161 
  356800     302.4555   -1551.0969    506.18822    315.54891   -413.36534    38315.161 
  356900    300.38521   -1540.0298    468.16146    279.27712   -478.14009    38315.161 
  357000    303.60566   -1518.9704    473.72513    320.38589   -216.78733    38315.161 
  357100    306.11378   -1514.2391    489.96826     352.6419    8.7597581    38315.161 
  357200    299.32558   -1521.5915    482.22093    307.00858   -162.06275    38315.161 
  357300    296.15701   -1549.8614    461.96314    244.22852   -264.87715    38315.161 
  357400    293.88277   -1529.6479    471.23694    263.48619   -54.651349    38315.161 
  357500      312.349   -1484.4492    501.87859    422.38846    303.02385    38315.161 
  357600    302.53526   -1489.8905    490.24219    361.16809    253.67361    38315.161 
  357700    293.67266    -1516.591    493.96925     298.3303    324.77276    38315.161 
  357800     299.2445   -1504.6079    501.21403    342.62058    328.59354    38315.161 
  357900    301.48604   -1495.8251     485.7401    346.01196    329.16379    38315.161 
  358000     305.0931   -1487.6364    506.12681    390.81203    323.35956    38315.161 
  358100     294.0752   -1493.8739    493.17968    322.06844    1183.8117    38315.161 
  358200     289.9596   -1489.2289    496.40404     311.4257   -159.55289    38315.161 
  358300    296.68793   -1523.2764    504.76356    316.00205   -36.066138    38315.161 
  358400    290.29202   -1485.8221    468.29244    288.21609    240.16686    38315.161 
  358500    296.00321   -1501.6693    477.86251    307.62824    391.98167    38315.161 
  358600    290.92289   -1530.0598    464.05067    242.57438    140.81104    38315.161 
  358700    294.75958    -1529.834    456.68004    252.68713   -171.66647    38315.161 
  358800    290.70246    -1496.186    485.77014     297.1761    302.63282    38315.161 
  358900    300.24668   -1533.7157    488.92522     305.7318    349.53838    38315.161 
  359000    293.48737   -1527.5899     481.6061    274.13484    481.64268    38315.161 
  359100    298.75597   -1513.0523    489.22325    319.98795    677.17829    38315.161 
  359200     299.2058   -1524.1773    485.92804    307.59113    420.01701    38315.161 
  359300    298.85333   -1505.2594    480.00293    318.99848    534.63664    38315.161 
  359400    306.18092    -1500.385    510.76726    387.59696    917.26346    38315.161 
  359500    304.37619   -1498.3118    516.92349     387.7087    628.33195    38315.161 
  359600    302.12025   -1478.7395    497.55096    377.76109    596.84777    38315.161 
  359700     290.0202   -1475.0233    479.48534    308.98524   -16.103977    38315.161 
  359800    303.69539   -1502.8664    511.47503    374.64332    395.56317    38315.161 
  359900    300.97516   -1486.5358    477.08974    344.35295    104.00215    38315.161 
  360000    307.25401    -1515.211    491.46024    358.29082    471.38545    38315.161 
  360100    304.88658   -1570.7354    474.31488     274.9722    606.52958    38315.161 
  360200     290.1016   -1541.5573    481.43902    244.77103    353.84246    38315.161 
  360300    303.17296   -1497.1306    500.25243    366.80667     469.1388    38315.161 
  360400    296.85851   -1471.0193    490.34917    354.61199    368.48786    38315.161 
  360500    297.61762   -1478.2648    487.26834    347.70017    248.64066    38315.161 
  360600    299.24414   -1480.1121    484.75773     350.6585   -7.6894448    38315.161 
  360700    292.78807   -1467.3952    512.30851    361.88645    315.90712    38315.161 
  360800    306.40275   -1481.9325    471.75423    368.03423    646.21018    38315.161 
  360900    298.45614   -1475.8167     489.0877    355.73935    175.91106    38315.161 
  361000     311.7581    -1487.268    470.71013    385.74328    308.54097    38315.161 
  361100    294.97001   -1506.7689    488.21494    308.23358    515.03546    38315.161 
  361200    316.34848   -1478.8045    504.58971    448.73405    231.60649    38315.161 
  361300    293.79404   -1481.3476    497.35592    337.50637   -171.47299    38315.161 
  361400    297.34802   -1449.3504    504.89958    393.03318    637.14609    38315.161 
  361500    302.50212   -1498.9751    505.47533    367.16759    206.64872    38315.161 
  361600    294.34074   -1507.6935    502.10305    318.36669     11.05299    38315.161 
  361700    296.81722   -1512.7468    497.54919    319.89885    8.0953201    38315.161 
  361800      289.853   -1480.2649     496.6064    320.11258    58.364236    38315.161 
  361900     298.6226   -1500.9333     480.3554    322.63921    227.08202    38315.161 
  362000    304.60975    -1500.115    472.88813    342.92069    204.27985    38315.161 
  362100    306.46143   -1519.7191       496.28    355.03745    359.75271    38315.161 
  362200    299.19786    -1511.253    493.02285    327.57447    395.21406    38315.161 
  362300    288.88085   -1503.4719    480.77751    276.70386    527.82054    38315.161 
  362400    306.03131   -1488.7078    485.91847    373.75241    557.25659    38315.161 
  362500    307.87205   -1478.4829    483.43374    389.77236   -247.27292    38315.161 
  362600    307.14251   -1484.5853    489.31595    386.27067   -395.92131    38315.161 
  362700    297.30475   -1489.5966    497.64472    345.33749   -564.28942    38315.161 
  362800    292.71911   -1484.3222    485.33172     317.6725   -672.65378    38315.161 
  362900    295.18099   -1499.0999    479.13441    307.77109   -850.82847    38315.161 
  363000    303.86218   -1481.9767    500.12522    384.93345   -894.36469    38315.161 
  363100    301.45426   -1487.7587    484.42268    352.61798   -521.79633    38315.161 
  363200    300.73795   -1494.7965    504.16953    362.10512   -455.08149    38315.161 
  363300    296.63929   -1541.8561    495.59134     288.0313   -232.79344    38315.161 
  363400     300.3472    -1528.611    476.31238    298.67578   -151.85357    38315.161 
  363500    295.41505   -1525.3452    487.23395    290.67813   -168.38586    38315.161 
  363600    307.81082    -1533.989     488.9379    339.49497   -637.61848    38315.161 
  363700    294.53505   -1532.5715    504.08297    296.34261    -348.4592    38315.161 
  363800    292.90982   -1549.8866    492.44117    260.07541    401.38408    38315.161 
  363900    300.89932    -1508.954    489.95834    334.46226    597.03015    38315.161 
  364000    303.14757   -1533.9392    524.64287    354.27422    552.94721    38315.161 
  364100    304.24407   -1521.8473    516.58488    363.24028    299.48729    38315.161 
  364200    293.10772   -1588.2917    485.10117    215.22041    495.96722    38315.161 
  364300    295.48255   -1544.1179    501.32411    286.29928    302.66013    38315.161 
  364400    300.59499   -1512.1731    499.43477    339.35069    202.23152    38315.161 
  364500    296.24596   -1510.3677    484.41289    306.57205   -83.525088    38315.161 
  364600    300.82739   -1537.3156    503.07066    318.88935   -339.61072    38315.161 
  364700    295.86583   -1555.2788    494.12138    269.65959     -252.748    38315.161 
  364800    297.39688   -1526.9395    479.66819    290.43244    137.75708    38315.161 
  364900    297.81723   -1535.5047    485.51393    289.60376     437.7575    38315.161 
  365000    308.09249   -1517.2576    480.33284     348.8883    348.83225    38315.161 
  365100     295.5241   -1522.8034    490.20684    296.68337    361.52763    38315.161 
  365200    304.30812   -1545.1165    501.31174    324.98608     487.3318    38315.161 
  365300    310.89318   -1556.2386     493.3976    335.56972    629.63831    38315.161 
  365400    296.36615   -1555.6314      513.189    290.62515    659.56124    38315.161 
  365500    295.70427   -1531.8502    487.41923    285.65936    482.41227    38315.161 
  365600    306.83583   -1506.9209    515.35204    388.59171    613.56578    38315.161 
  365700    308.58455   -1525.0563     481.4425    344.41262    16.573811    38315.161 
  365800    298.85457   -1537.7479    498.20999    304.72261   -13.231861    38315.161 
  365900    312.21981   -1529.4879    494.94173    369.83174    -175.5006    38315.161 
  366000    289.81205   -1546.0266    514.12073    271.68104   -93.195602    38315.161 
  366100    296.43959   -1588.2936    485.42504    230.52927    126.35848    38315.161 
  366200    306.89789   -1579.9836    501.31254    301.76862    637.13167    38315.161 
  366300    304.31181    -1512.215    485.02557    341.61794    247.13709    38315.161 
  366400     301.0073   -1516.2809     487.4209    325.08353   -75.683815    38315.161 
  366500     313.1267   -1488.3059    497.43111    417.58236    350.55848    38315.161 
  366600    299.12138   -1476.2365    499.40371    368.62786    280.89343    38315.161 
  366700    311.11447   -1498.0317    496.20341    397.57776    173.41572    38315.161 
  366800    286.30842   -1470.4497    515.77884    333.15658    538.79126    38315.161 
  366900    308.95547    -1534.196     508.7698    364.26856   -148.86009    38315.161 
  367000    299.16893   -1531.2783     517.2858    331.68199    279.41147    38315.161 
  367100    299.57789   -1503.4936    511.91231    355.93276     45.45024    38315.161 
  367200    303.09297    -1522.458    499.16751    340.03446   -109.88734    38315.161 
  367300    302.32211   -1503.1411    486.20493    342.92143   -301.65082    38315.161 
  367400    302.96512   -1531.0682    485.01954     316.7013   -149.46538    38315.161 
  367500    306.75589   -1532.7102    505.93304    353.02385   -166.05003    38315.161 
  367600    296.56181   -1562.3441    477.14234    248.74583    85.290422    38315.161 
  367700    295.93785   -1497.7164    483.41087    316.83548   -373.21693    38315.161 
  367800     303.1524   -1513.3409     511.0731    361.32451   -9.5417146    38315.161 
  367900    295.32157   -1509.2942    488.37694     307.4517    338.19878    38315.161 
  368000    295.71336   -1529.6594    476.86305    277.33486   -59.151671    38315.161 
  368100    301.40758   -1521.9469    489.94004    323.73718    186.65758    38315.161 
  368200    306.22046   -1566.0637    480.63624    291.96512    360.31656    38315.161 
  368300     303.3519   -1569.5324    487.57971    282.53705    58.276194    38315.161 
  368400    310.54044   -1517.5144    490.54475    369.85443    42.688475    38315.161 
  368500    306.32636   -1531.1394    495.43714    342.16669   -69.561675    38315.161 
  368600    291.94752   -1566.2866    494.56634     241.4721    31.164406    38315.161 
  368700    303.21609   -1563.5836    515.48181    315.77707    46.783927    38315.161 
  368800    292.85052   -1554.6607    463.82612    226.41952    -348.1656    38315.161 
  368900    301.95626    -1508.582    494.73462     344.3647   -253.75941    38315.161 
  369000     294.8546   -1532.7906    487.14051    280.61844   -365.95577    38315.161 
  369100     299.4944   -1516.0072    487.69215    318.82342   -34.883828    38315.161 
  369200    306.09205    -1494.077    489.59767    372.33568    5.9013848    38315.161 
  369300    314.13935   -1508.1309    487.06944    391.95068   -201.20438    38315.161 
  369400     298.8644   -1477.3275    479.80232    346.77957   -351.25312    38315.161 
  369500    298.71074   -1463.4225    489.01312    369.20416   -391.11843    38315.161 
  369600    301.65051   -1473.0532    503.70613     387.4897   -343.70809    38315.161 
  369700    305.56811   -1497.4668    502.95991    379.95147    25.247528    38315.161 
  369800    296.61063   -1494.7215     495.0319    334.47756    115.29358    38315.161 
  369900     301.1452   -1502.6831     496.4949    348.37569    599.93461    38315.161 
  370000     310.5004    -1480.762    480.15555    396.03751   -44.214028    38315.161 
  370100    303.85113   -1515.1119    495.09785    346.72121    195.23809    38315.161 
  370200    304.30517   -1485.0439    529.49474    413.22837    518.01501    38315.161 
  370300     309.5851   -1530.0057     477.3421    339.86326    494.46461    38315.161 
  370400     306.7556   -1528.6302    480.22066    331.39016    541.77684    38315.161 
  370500    303.47437   -1506.6463     503.3434    361.73764    559.96412    38315.161 
  370600    289.44114   -1533.9993    478.70617    246.62539    229.44198    38315.161 
  370700    295.26163   -1492.2391    490.12192    325.98211    230.91546    38315.161 
  370800    300.22989   -1510.0482    529.35479     369.7533    713.90458    38315.161 
  370900    301.72908   -1561.5439    492.81027    288.45649    403.29698    38315.161 
  371000    299.66095   -1560.0322    500.59272    288.44814    210.29278    38315.161 
  371100     293.6734   -1542.6712    487.44974    265.73393    201.96956    38315.161 
  371200    300.98484   -1552.0328    488.21855     290.0283    131.76374    38315.161 
  371300    298.23675   -1496.9634    518.01888    362.53704   -508.30494    38315.161 
  371400    296.16787   -1471.3155    484.42116    345.28128    -505.4691    38315.161 
  371500    298.27834   -1509.4001    455.34086    287.60931   -502.71196    38315.161 
  371600    301.71422   -1505.1266     516.5808    368.57758   -348.91881    38315.161 
  371700    296.25367   -1475.0861    483.87334     341.3488   -872.85845    38315.161 
  371800    302.29707    -1508.942    486.14159    336.94458   -500.98403    38315.161 
  371900    291.39013   -1496.2351    476.94212    291.39214   -358.04069    38315.161 
  372000     314.8371   -1508.2859    469.80751    377.67223   -375.44308    38315.161 
  372100    291.93132   -1497.7955    470.83258    286.15655   -220.48153    38315.161 
  372200    291.39517   -1544.1227    500.46776    267.05288    267.03497    38315.161 
  372300    290.26403   -1527.6394    501.11322    279.09371   -26.378628    38315.161 
  372400    306.62723   -1517.7089    480.93531    342.44865    69.634512    38315.161 
  372500    294.70017    -1518.511    487.89179    294.95461   -270.53507    38315.161 
  372600    294.68119   -1516.7451    515.87586    324.61923   -136.56607    38315.161 
  372700    306.32159   -1558.1636    496.36426    316.04812    550.89385    38315.161 
  372800    298.76232    -1553.716    471.78411    261.91365    458.09159    38315.161 
  372900    302.11779   -1531.1482    475.83002    303.62041    238.00462    38315.161 
  373000    292.31797   -1506.4174    496.09363    304.53487   -275.71115    38315.161 
  373100    290.41882   -1540.8788    483.28284    248.72021    141.14822    38315.161 
  373200    295.31984   -1527.4121    472.97089    273.91992   -419.60222    38315.161 
  373300    307.26022   -1497.2085    479.78355    364.64456   -443.72158    38315.161 
  373400    296.59798   -1535.7761    490.67343     289.0076   -1125.2255    38315.161 
  373500    293.98943   -1532.3951    484.22338    274.20518   -917.43994    38315.161 
  373600    299.48346   -1545.2353    481.90671    283.76074   -641.10212    38315.161 
  373700    309.44648    -1563.065    483.95104    312.78949   -347.89916    38315.161 
  373800    296.66876   -1576.6911    477.62124    235.35877   -722.00312    38315.161 
  373900    299.45197   -1522.7336    506.16531    330.37935   -804.48734    38315.161 
  374000    293.23522   -1525.8944    484.79871    277.88875   -430.67851    38315.161 
  374100    293.30763   -1532.8271    495.16067    281.64374   -413.64968    38315.161 
  374200    304.87191   -1508.6398     491.0279    353.71484   -383.29885    38315.161 
  374300    282.27532   -1550.9564    505.68647    224.41637   -138.05172    38315.161 
  374400    281.78999   -1521.0479    511.51643    257.97179   -127.13796    38315.161 
  374500    298.73306   -1584.9953    464.39875    223.11747   -135.96934    38315.161 
  374600    299.99249   -1572.2594    470.13055    247.25009    21.845805    38315.161 
  374700    289.54694   -1543.8332    484.77392    243.33512    309.58014    38315.161 
  374800    300.52126   -1528.6969    505.02749    328.08798    410.42656    38315.161 
  374900     298.3161   -1524.1343    476.08781    293.79194    164.79143    38315.161 
  375000    309.79458   -1495.6567    474.23265    372.04504    21.323878    38315.161 
  375100     307.6221    -1553.289    493.80543    324.21364    214.78849    38315.161 
  375200     293.2755   -1539.1718    496.46031     276.4541    132.15739    38315.161 
  375300    301.85853   -1509.2649     485.7577    334.26529    137.99166    38315.161 
  375400    311.62011   -1523.5724    492.47942    370.58743   -183.98793    38315.161 
  375500    300.05203   -1507.2792    498.00775    340.37531   -172.50218    38315.161 
  375600     293.5699   -1519.2769    491.00886    292.22185   -366.42157    38315.161 
  375700    301.94843   -1504.9808    510.48527    363.68132   -354.87267    38315.161 
  375800    306.00259   -1542.4934    494.67902    328.59823   -442.72913    38315.161 
  375900    290.65176    -1521.127     507.2589    293.49586    136.94407    38315.161 
  376000    299.97259   -1487.8815    501.66008    363.06801   -79.780719    38315.161 
  376100     297.5579   -1488.3762    487.58071    337.63253    98.144785    38315.161 
  376200    308.65915   -1510.3764    503.69799    381.68349    155.74282    38315.161 
  376300    294.45568   -1485.1373    530.15996    369.49676   -48.382763    38315.161 
  376400    293.33552   -1510.0321     493.9898    303.39329   -370.98721    38315.161 
  376500    297.81215   -1509.0332    504.55777    335.09628   -70.867393    38315.161 
  376600    303.59402   -1476.0719     517.1941    406.70095   -379.28901    38315.161 
  376700    294.48561    -1538.813    504.28843    290.08423    210.10199    38315.161 
  376800    303.98338   -1518.3667    511.49138    360.45481   -146.89741    38315.161 
  376900    307.63702   -1527.6329    501.47843    357.60986   -631.09183    38315.161 
  377000    293.43812   -1498.5386    470.38777    291.74628   -585.79237    38315.161 
  377100    291.24095   -1534.0522    483.63568    259.59762   -300.09805    38315.161 
  377200    302.65164   -1569.4143    490.58039    282.50604   -294.02283    38315.161 
  377300    303.43448   -1504.4306    478.42599    338.85658   -190.49128    38315.161 
  377400    294.49405   -1536.2102    502.27479    290.71128    166.01484    38315.161 
  377500    300.48133   -1522.8935    487.93075    316.61498     303.3586    38315.161 
  377600     292.0649   -1538.9546    497.08432    271.84997    395.39822    38315.161 
  377700    299.02094   -1541.5399    509.25252    312.72144    396.40827    38315.161 
  377800    295.21459   -1564.2173     504.2181    267.88854    307.97161    38315.161 
  377900    311.05479   -1530.3521    487.74753    356.53306    -40.09822    38315.161 
  378000    302.84101    -1485.745    510.54016    386.98681   -391.52562    38315.161 
  378100    296.43318   -1518.0482    483.69129    299.01211   -561.31908    38315.161 
  378200    300.64497   -1502.7953    488.32292    337.84147   -1102.2039    38315.161 
  378300    300.65639   -1501.1066    479.92432     331.1829   -764.00411    38315.161 
  378400    297.06766   -1487.2669    527.68376    376.63981    21.667394    38315.161 
  378500    286.43268   -1554.7743    510.99165    244.60371   -29.256546    38315.161 
  378600    300.09415    -1545.875    499.23053    303.19174    -32.93721    38315.161 
  378700    309.10775   -1555.9272    504.93062    339.38321    760.85893    38315.161 
  378800    302.97058   -1514.1014    523.99085    372.66391    206.36653    38315.161 
  378900    305.15646   -1504.1006    508.93641    377.44253    250.97654    38315.161 
  379000    298.10215    -1517.817    485.63477    308.69392   -144.08809    38315.161 
  379100    297.88005   -1525.6051    491.50654    305.77849    -5.838235    38315.161 
  379200    299.54901   -1582.6555    492.16376    256.89242   -315.12977    38315.161 
  379300    299.37871   -1551.6836    489.07597    284.01052    174.73779    38315.161 
  379400    301.07913   -1580.2307    530.52571    304.56166    572.59148    38315.161 
  379500    297.85381   -1550.7791    484.87448    273.85441    75.905361    38315.161 
  379600    292.88029   -1520.8632    498.10568    294.63047     -194.326    38315.161 
  379700    309.76028    -1519.875      497.914    371.35387   -131.40036    38315.161 
  379800    299.17325   -1514.0914    485.30536    316.90787   -217.54078    38315.161 
  379900    301.53297   -1544.8009    490.86058    302.36777   -533.42523    38315.161 
  380000    305.00777   -1505.8682    499.07698    365.14668   -768.59961    38315.161 
  380100    298.17626   -1535.0881    476.16568    282.28706   -1096.1705    38315.161 
  380200    297.38707   -1533.7239    499.68579    303.62157   -811.03075    38315.161 
  380300    301.48659    -1534.209    496.60566    318.49609   -574.82004    38315.161 
  380400    288.90321    -1541.004    501.40698    259.90181   -523.53197    38315.161 
  380500     298.4331   -1537.8452    490.64497    295.16453    -543.3938    38315.161 
  380600    298.68264   -1500.5969    495.68212     338.5724   -143.72161    38315.161 
  380700    287.94771   -1502.5139    495.13545     287.8225    159.60216    38315.161 
  380800    307.93151   -1502.9703    501.61753    383.73625    304.91669    38315.161 
  380900    299.29878   -1465.1214    500.32749    381.46463    183.50314    38315.161 
  381000    298.63483   -1509.8381    489.78395    323.21801     73.18598    38315.161 
  381100    304.26667   -1463.2453    482.95147     388.3105   -247.95392    38315.161 
  381200    307.10936   -1525.6626    488.69357    344.42185   -498.75233    38315.161 
  381300    299.06039    -1499.308    460.89468    306.77304   -200.90198    38315.161 
  381400    310.38568   -1504.3354    493.80978    385.60236   -267.49643    38315.161 
  381500    292.20015    -1500.195    492.06695     306.2006    103.87354    38315.161 
  381600    301.60979    -1522.239    493.54916     327.9638   -338.02475    38315.161 
  381700    288.97567   -1519.7769    505.50281     285.5507   -735.81158    38315.161 
  381800    305.09373   -1510.6297    504.96944    366.66427    185.61427    38315.161 
  381900    296.16272   -1502.2506    470.01789     299.9198   -445.51197    38315.161 
  382000    297.11284   -1505.6521    497.16716    327.94125   -53.566117    38315.161 
  382100    295.42298   -1468.9927    484.56106     344.3934   -245.68871    38315.161 
  382200    300.58365   -1510.3946    506.57595    348.21937   -842.85983    38315.161 
  382300    297.07292   -1514.7819    467.32151    288.78622   -138.94614    38315.161 
  382400    307.86637    -1503.559    509.64705    390.88401   -291.42783    38315.161 
  382500    296.45317   -1508.1656    466.86635    292.15964   -1117.8905    38315.161 
  382600    299.49034   -1507.7308    514.55772     353.9472   -1027.9755    38315.161 
  382700    305.04784   -1535.5044    507.43499    344.04867   -354.97468    38315.161 
  382800     299.2217   -1542.3772    489.40172    292.93644    84.864518    38315.161 
  382900    307.29108   -1589.5346    501.14536    293.81909    89.204493    38315.161 
  383000    311.68828   -1537.4981    481.93616    346.42512    81.638811    38315.161 
  383100     294.4477   -1510.6924    485.57439    299.32021    130.90318    38315.161 
  383200    303.00894   -1553.8769    487.77807    296.84819    468.34375    38315.161 
  383300    307.42787   -1574.1585    506.96454    315.62967    737.25816    38315.161 
  383400    299.99466    -1573.503    494.10174    269.98742    367.14884    38315.161 
  383500    300.40159   -1587.0352    451.96788     216.1518   -324.61242    38315.161 
  383600    305.95024   -1555.6775    493.30235    313.80198   -425.62554    38315.161 
  383700    302.16264   -1586.9469    496.18472    268.37811    29.955114    38315.161 
  383800     299.0602   -1570.0147    470.48462    245.65541   -763.04731    38315.161 
  383900    310.43691   -1605.4548    454.43773    245.34129   -416.22292    38315.161 
  384000    305.50356   -1580.8499    483.49595      276.814   -283.84743    38315.161 
  384100    289.76473   -1586.1645    497.84039    215.04995    102.72425    38315.161 
  384200    308.53755   -1537.4001    500.43906    350.85397    928.50759    38315.161 
  384300    303.14622   -1538.6906    490.24815    315.12205    583.95639    38315.161 
  384400    299.17974   -1590.4404    470.74311    226.02584    166.94428    38315.161 
  384500    313.86174   -1554.3452    518.26877    375.68699    493.38143    38315.161 
  384600    305.20488   -1534.5461    478.17702    316.45536    247.66257    38315.161 
  384700    291.11563   -1589.3601    455.09579    175.18609   -255.04087    38315.161 
  384800    298.16867   -1579.4605    466.40272    228.11753   -135.44665    38315.161 
  384900    300.64677   -1559.1079    486.24083    279.45485    138.46633    38315.161 
  385000    294.76343   -1526.1456    487.90289    287.61567    104.35569    38315.161 
  385100    301.76717   -1520.9589    490.93881    327.34148    285.99689    38315.161 
  385200    284.61417   -1588.8763     491.0673    182.39757    205.52352    38315.161 
  385300     292.6326    -1496.074    512.91396    333.11377   -11.344888    38315.161 
  385400    299.55866   -1508.5238    508.56227    347.46601     26.01747    38315.161 
  385500    299.53159    -1525.211    533.44888    355.54364     150.8877    38315.161 
  385600    291.88605   -1547.0222    498.60565    264.49923   -124.62875    38315.161 
  385700    309.46182   -1512.3774    480.08326    359.67823    -67.77685    38315.161 
  385800    295.02113   -1523.4656    502.49345    306.04539   -231.09262    38315.161 
  385900    296.45494   -1516.6395    486.57305    303.40044   -364.47529    38315.161 
  386000    311.93418   -1493.0779    507.42881     417.4441    374.51882    38315.161 
  386100    298.01641   -1518.5981    471.63377     293.5261    23.769134    38315.161 
  386200    299.79423   -1508.3698    482.21707    322.33441     248.0935    38315.161 
  386300      295.031   -1525.2581    503.54067    305.34446   -175.46636    38315.161 
  386400    296.67955   -1543.2976    489.56923    280.74884    112.84195    38315.161 
  386500    301.69739   -1563.4665    480.63146    274.21255    436.35889    38315.161 
  386600    299.79047   -1523.0734    503.45831    328.85519    797.71244    38315.161 
  386700    302.04767   -1501.9683    491.98937    348.64428       334.74    38315.161 
  386800    309.08547   -1475.9345    490.94579    405.29085   -133.09195    38315.161 
  386900    307.67269   -1515.8799    493.00233    361.04719   -812.56072    38315.161 
  387000    295.81229   -1478.0718    477.96364    330.46801    -191.7429    38315.161 
  387100    307.58778    -1512.219    505.43749    376.76131   -246.49518    38315.161 
  387200     294.2423   -1520.2176    495.29572    298.59242   -158.05549    38315.161 
  387300    310.87244   -1513.1972    468.39796    353.51819   -197.38459    38315.161 
  387400      301.009     -1517.04    498.32035    335.23161   -164.67756    38315.161 
  387500    296.76674   -1487.8778    496.70001    343.69155   -473.73408    38315.161 
  387600     310.3146   -1537.7086    476.49892    334.59851    222.84702    38315.161 
  387700    293.88352   -1515.5137    519.52347    325.91032   -36.471962    38315.161 
  387800    302.76648   -1553.8407    477.81069    285.82648   -97.168577    38315.161 
  387900    305.95861   -1538.9667    494.83181    332.07994   -60.911143    38315.161 
  388000    303.63402   -1534.5293      460.918    292.14733   -659.19995    38315.161 
  388100    313.10607   -1526.2354    487.30271    369.43171    -99.48475    38315.161 
  388200    287.34952   -1523.9404    493.85455    262.42441   -169.67715    38315.161 
  388300     302.3293   -1568.9909    489.87614     280.7752    -125.5894    38315.161 
  388400    302.67846   -1553.4599    493.39113    301.39172    296.29008    38315.161 
  388500    297.31576   -1575.9526    474.83645    236.22269   -129.84596    38315.161 
  388600    298.76491   -1516.5647    484.23573    311.52819       91.976    38315.161 
  388700    300.78664   -1530.2829    480.75919    303.42736   -475.31002    38315.161 
  388800    302.56555   -1551.3699    502.00218    311.58491   -452.27288    38315.161 
  388900    310.74812   -1544.8264     508.4004    361.33222   -443.42264    38315.161 
  389000    302.01604   -1535.5269    478.83564    301.78973   -520.61963    38315.161 
  389100    302.58615   -1555.4776    484.19834    289.76605   -826.96573    38315.161 
  389200    305.28412   -1534.8786    494.53626    332.83857   -262.08621    38315.161 
  389300    303.37356   -1565.0615    475.53068     275.0563   -409.39368    38315.161 
  389400     303.0994   -1552.9373    483.38337    293.79998    166.78045    38315.161 
  389500    299.57158   -1555.6337    482.64342    274.49539    269.15086    38315.161 
  389600    299.88393   -1538.6664    497.33084    307.55513    430.21499    38315.161 
  389700    303.22127   -1543.8042     484.8372    304.93509    742.69322    38315.161 
  389800    292.28374   -1571.2755    494.37555    237.80474    303.82233    38315.161 
  389900    298.93951   -1552.4593    508.04459    300.22789    -62.18146    38315.161 
  390000    299.78475   -1585.1663    463.61669    226.89486    40.387535    38315.161 
  390100    297.72014   -1626.0834     473.8448    186.91923     667.7873    38315.161 
  390200    302.60242   -1579.9505    492.73612    273.90416    1029.7081    38315.161 
  390300    300.53974   -1573.4537    501.25833    279.64514    442.34442    38315.161 
  390400    301.51281    -1599.641     455.3711    211.94747    650.25591    38315.161 
  390500    301.89114   -1618.0418    487.63795    227.51524    432.67822    38315.161 
  390600    307.75463   -1612.8869    494.03556    265.44208    487.21286    38315.161 
  390700     295.1744   -1622.4654    475.86949    181.11106       332.89    38315.161 
  390800    288.62265   -1633.2882    484.45626    149.40491    200.59859    38315.161 
  390900     302.7441   -1636.5877    481.33248    206.50061    164.63181    38315.161 
  391000     292.0786   -1603.1062    485.69451     196.3702   -52.564935    38315.161 
  391100    297.24319   -1554.9488    488.18316    270.24684   -348.19465    38315.161 
  391200    311.64532   -1611.0005    468.38199    259.17535    285.57058    38315.161 
  391300    307.97176    -1566.489     472.9481    291.72907    543.96028    38315.161 
  391400    297.27932   -1594.4571    479.96794    222.68579    358.05194    38315.161 
  391500    303.15693   -1584.0216    472.83382    252.42493    511.27274    38315.161 
  391600    293.42219    -1553.516    483.29089    249.60034    -60.29817    38315.161 
  391700    301.84993   -1555.6066    485.88741    288.01457    52.240428    38315.161 
  391800    311.62998   -1583.1798    457.09878    275.64388     408.8913    38315.161 
  391900    294.63649    -1594.833    484.59672    215.05118   -47.829539    38315.161 
  392000    306.55576   -1596.7855    480.02005    262.13529    406.48493    38315.161 
  392100     296.9045   -1590.0093    467.57857    213.05832    36.736223    38315.161 
  392200    309.39426   -1529.8966    504.43639    366.20826    586.19099    38315.161 
  392300    309.25631   -1570.6074    487.65652    308.09715    97.530629    38315.161 
  392400    302.82187   -1525.7001    511.02157    347.42701   -353.72331    38315.161 
  392500    300.78299   -1569.9006    463.73276     246.7668   -252.19373    38315.161 
  392600    300.47816   -1587.8446    450.98895    214.70786   -455.27994    38315.161 
  392700    288.51505   -1557.0584    498.48742    239.18196   -380.96437    38315.161 
  392800    296.19431   -1563.8169    480.31817     248.7958    -365.7069    38315.161 
  392900    302.09218   -1564.9491    483.00047    276.87478   -606.02309    38315.161 
  393000    297.26025   -1569.6135    497.95919    265.43492   -170.22555    38315.161 
  393100    286.03426   -1593.5578    497.91884    190.95529    172.20588    38315.161 
  393200    303.95122   -1574.4602    490.61389    283.33917    382.36768    38315.161 
  393300    296.28469   -1570.5321    500.07734    262.24631   -399.71713    38315.161 
  393400     294.6093   -1562.0372    479.38533     242.5132   -42.013616    38315.161 
  393500    299.46522   -1597.5201    487.08236    236.56952   -344.08718    38315.161 
  393600    292.84558   -1548.2958    472.78555    241.72159   -901.24665    38315.161 
  393700    301.79626   -1523.2426    463.66232    297.91204    -650.3156    38315.161 
  393800    306.75884   -1533.4033    522.43497    368.84588   -437.59153    38315.161 
  393900    297.92781    -1501.478    471.46609    310.08005   -182.02069    38315.161 
  394000     304.4026    -1545.631    453.42663    277.01146   -719.41552    38315.161 
  394100    298.37945   -1550.0868    479.60645    271.64309   -339.04098    38315.161 
  394200    301.21247   -1538.4537    494.84393    311.25667   -220.40286    38315.161 
  394300    298.74545   -1551.8935    499.98215    291.85837    205.25718    38315.161 
  394400    300.67214   -1576.3089    474.93372    251.06084   -2.7238385    38315.161 
  394500    307.10305   -1532.5966    478.61688    327.38285    107.56588    38315.161 
  394600    296.72426   -1554.2654    489.51726    269.93013    457.75201    38315.161 
  394700    305.06216   -1548.2094    493.89353    317.86661    232.39782    38315.161 
  394800    295.34809   -1530.2805    502.11596     300.3237   -310.86683    38315.161 
  394900    310.41501   -1567.7297     487.0967     315.6269   -88.334081    38315.161 
  395000    299.18191   -1580.6293    478.79335    243.89699    173.80788    38315.161 
  395100    297.52505    -1560.328    503.60427    281.55656   -462.22453    38315.161 
  395200    294.41965    -1543.368    484.68762    265.63165   -292.14773    38315.161 
  395300    291.78299   -1529.3817    515.01771    298.08829   -330.50797    38315.161 
  395400    298.27529   -1528.6426    470.17294    283.18521    316.30755    38315.161 
  395500     309.5541   -1572.8712    502.86521    322.38146    293.31888    38315.161 
  395600    300.89696   -1543.5711    500.24124    310.11739   -5.9206702    38315.161 
  395700    298.24803   -1562.9687    485.07281    263.63634    122.18059    38315.161 
  395800    309.67422   -1555.3379    469.81181    307.40163    59.537711    38315.161 
  395900    305.23127   -1594.6524    472.95054    251.24133   -18.336194    38315.161 
  396000    296.15481   -1596.5753    485.04106    220.58268   -28.293272    38315.161 
  396100    294.51603   -1557.8773    499.77674    266.64505   -91.822954    38315.161 
  396200    285.58041   -1561.0517    487.29861    210.79969    70.296487    38315.161 
  396300    300.81398   -1574.3864    503.34994    282.03759    181.57489    38315.161 
  396400    298.52219   -1572.7426     487.6123    257.63511   -604.77582    38315.161 
  396500      292.958   -1561.8129    499.52449    255.44912   -892.84526    38315.161 
  396600    308.12032   -1561.0289    488.69912    313.60847   -157.49138    38315.161 
  396700    312.01128   -1543.9904    469.03861    328.48816   -565.19032    38315.161 
  396800    299.91874   -1472.3231    508.00306    384.72718   -555.70226    38315.161 
  396900    297.00021   -1520.4888    494.12396    309.55469   -555.96066    38315.161 
  397000    303.41873   -1501.5955    507.66479    370.85955   -274.25064    38315.161 
  397100    288.93116   -1512.1244    492.04501    279.54527    292.69211    38315.161 
  397200    302.44166     -1509.19    509.57736    360.78279     480.0295    38315.161 
  397300    292.92285   -1542.6223    507.33174    282.28879    43.645102    38315.161 
  397400    304.54108    -1545.014    523.37458    348.19923    139.85039    38315.161 
  397500    294.43952   -1528.1015     478.5671    274.86706   -236.92357    38315.161 
  397600    291.31626   -1518.0433    517.68343    309.99295   -923.33956    38315.161 
  397700    294.48242   -1513.0248    488.33624    299.90587   -432.34682    38315.161 
  397800    302.37349   -1564.2934    509.43858    305.23389   -533.90927    38315.161 
  397900     292.6843   -1510.9921    481.83183     287.3461    119.00746    38315.161 
  398000    295.47585   -1507.2578    510.87611    332.68116   -378.56515    38315.161 
  398100    289.37964   -1518.2498    499.32279    282.71489    435.81159    38315.161 
  398200    303.19639   -1564.8793    492.59387    291.50478     465.1639    38315.161 
  398300      302.774   -1564.5795    498.10654    295.41729    355.99968    38315.161 
  398400     302.1347   -1511.6239    487.97037    335.36116    621.09087    38315.161 
  398500     296.7708   -1484.4874    508.84174    359.24201    744.84211    38315.161 
  398600    300.90437   -1501.7982    491.44958    343.13195   -65.158866    38315.161 
  398700    303.34644   -1476.7662    478.83478    366.53376   -530.30757    38315.161 
  398800    303.87692    -1470.356    502.07057    398.56585   -215.51309    38315.161 
  398900    305.73279   -1463.3359    507.70055    419.56364   -134.25547    38315.161 
  399000     303.3853   -1483.7262    492.17582    373.08952   -267.04945    38315.161 
  399100    296.80572   -1489.2802    480.30607    326.07053   -88.536902    38315.161 
  399200    298.44332   -1530.8006    461.34793    272.95804   -116.34458    38315.161 
  399300    296.81456   -1503.8962    504.00779    335.19603    288.00189    38315.161 
  399400    297.88081   -1523.1401    442.37791    259.11828    304.55453    38315.161 
  399500    295.75932    -1537.176    516.19855    309.36051    -143.0099    38315.161 
  399600    293.16262   -1530.4813    490.50791    278.68454   -180.26536    38315.161 
  399700    307.36049   -1500.1364    497.13014    379.51424    614.78478    38315.161 
  399800    310.07342   -1512.2417    490.51713    372.99876    51.594172    38315.161 
  399900    302.20719   -1514.8696    481.12017    325.59134    89.865265    38315.161 
  400000    295.28663   -1526.7853    515.43607    316.86258   -10.831822    38315.161 
  400100    303.68009   -1563.2046    456.90561    259.66691    219.30561    38315.161 
  400200    291.21017   -1533.0777     508.3721    285.17014   -68.653956    38315.161 
  400300    315.86939   -1531.6243    517.40593    406.57556    374.99407    38315.161 
  400400    295.47766   -1564.5321    452.32854    216.86746    -604.1962    38315.161 
  400500    306.15559   -1522.4262    506.37463    361.04922    41.062662    38315.161 
  400600     293.3958   -1542.7217    480.26024    257.24528    275.72696    38315.161 
  400700    295.42586   -1545.6197    486.06758    269.28589    137.19458    38315.161 
  400800    295.60469   -1534.3685    492.27646    287.55043    336.28791    38315.161 
  400900    302.70293   -1552.2313    472.55176      281.891    379.62142    38315.161 
  401000     305.0685   -1507.0087    487.47212    352.67451    110.29525    38315.161 
  401100    289.94684   -1536.9902    484.08881    251.29178    254.53119    38315.161 
  401200    311.49035   -1553.0722    456.46207    304.48667     275.0999    38315.161 
  401300    287.06145   -1595.0887    524.99698    221.12284    489.30845    38315.161 
  401400    307.12872   -1594.3752    484.77314    271.87594    1371.7018    38315.161 
  401500    288.83673   -1544.0798    483.34263    238.46267    469.65215    38315.161 
  401600    296.42555   -1576.0118    480.18565    237.50855   -118.20715    38315.161 
  401700    300.91601   -1591.5277    457.50449    219.50974    -120.2204    38315.161 
  401800     302.0287   -1558.4685    449.64147    249.71082   -536.02125    38315.161 
  401900    309.51418    -1540.079    467.82247    319.95136    -147.1485    38315.161 
  402000     295.0977   -1541.0158    485.25326    271.59946   -622.49095    38315.161 
  402100    301.90322   -1518.6577     475.4833    314.79908   -183.01151    38315.161 
  402200    299.10878   -1560.5494    478.57254    263.42712    445.70068    38315.161 
  402300    303.73496   -1519.2916    498.46691      345.388    96.053476    38315.161 
  402400    298.58409   -1532.6981    503.01253     313.3583    538.22628    38315.161 
  402500    297.36664    -1558.896     469.0459    247.71766    204.67443    38315.161 
  402600    301.43911   -1509.1223    475.36725    322.13081     136.4986    38315.161 
  402700    293.07775   -1494.0593    492.00333    316.22021   -211.82001    38315.161 
  402800    300.49118   -1497.3962    483.76335    337.98918   -472.38745    38315.161 
  402900    301.15965    -1511.924    494.04628    336.75111     40.82537    38315.161 
  403000    311.74559   -1497.0369    488.21211    393.42005    667.43728    38315.161 
  403100    304.28164   -1512.9972    493.82472     349.4992    450.68746    38315.161 
  403200    303.43226   -1502.3101    480.81036    343.35147    459.21343    38315.161 
  403300    297.57615   -1470.9763    472.27188    339.80572     446.8919    38315.161 
  403400    308.63032   -1494.6204    517.60857    411.22044   -177.53307    38315.161 
  403500    295.85823   -1471.1003    480.25193    339.93453   -760.90154    38315.161 
  403600    296.81406   -1497.3021    463.16006    300.94016   -1057.4473    38315.161 
  403700    299.91725   -1483.4042    497.51851    363.15487   -641.92772    38315.161 
  403800     303.0082   -1487.3169    500.30566    375.93243   -235.90195    38315.161 
  403900    306.75972   -1501.6222     502.3617    380.55766    61.107371    38315.161 
  404000    295.57207   -1484.9669    494.78893    339.31774   -596.43218    38315.161 
  404100     294.5533   -1452.3752    493.09884    365.63682   -756.63559    38315.161 
  404200    307.68897   -1512.4459    462.32929    333.88142   -375.94854    38315.161 
  404300    295.27333   -1460.6283    480.79836      348.322   -389.04879    38315.161 
  404400    294.16448    -1541.047    476.03697    258.15425   -338.70796    38315.161 
  404500    307.52536   -1503.2378    471.27225    351.29651   -769.57448    38315.161 
  404600    306.46219   -1480.3166     505.4537    403.61696   -227.03685    38315.161 
  404700    307.06011   -1501.4907    487.20148    366.88013   -347.33608    38315.161 
  404800    295.64991    -1506.089    497.27156    321.02838   -428.35853    38315.161 
  404900    301.18547   -1488.5572    501.57417    367.76199   -18.923104    38315.161 
  405000    299.72029   -1507.2087    457.75624    298.70213   -594.91556    38315.161 
  405100    296.83656   -1480.1624    512.28334    367.30434   -511.68483    38315.161 
  405200    298.91304   -1472.8639    456.48535    328.14494    8.8403905    38315.161 
  405300    296.99225   -1485.0719    460.37203    311.18384    53.513868    38315.161 
  405400    299.99961   -1494.4711    485.63103    340.57089     236.7614    38315.161 
  405500    297.41098   -1465.6222    450.75747     322.9024    25.767892    38315.161 
  405600    312.59169   -1484.0988    478.97859    400.93047    305.95888    38315.161 
  405700    309.95234   -1496.5374    487.80256    385.44391    47.607321    38315.161 
  405800    295.95174   -1514.2588    478.88977    295.83446   -171.00802    38315.161 
  405900    302.24577   -1531.3137    504.61362    332.81417    839.33923    38315.161 
  406000    304.81987   -1504.8582    515.81729    382.05174    809.99988    38315.161 
  406100     297.3538   -1518.3985    497.04277    316.15425     243.2368    38315.161 
  406200    300.11739   -1504.8807    521.67127    366.73134   -213.09262    38315.161 
  406300    288.99591   -1473.3649    469.35356    295.90454   -420.94287    38315.161 
  406400     290.6219   -1511.1527    490.60649    286.68338   -69.765367    38315.161 
  406500     295.7109   -1497.2244    486.66816    319.56392   -434.85704    38315.161 
  406600    298.81013   -1545.1006    483.77074    282.73076     61.53082    38315.161 
  406700     300.7897   -1518.6592    481.10378    315.40937    376.72392    38315.161 
  406800     295.3412   -1488.2478    482.90335    323.11284    129.59153    38315.161 
  406900    301.91827   -1495.0138    483.65257    346.67993   -260.11382    38315.161 
  407000     301.0157   -1484.1472     505.4033    375.23743    150.74551    38315.161 
  407100    300.84176   -1531.0791    488.62773    310.74758    116.55292    38315.161 
  407200    303.74807   -1495.1194    486.31319    357.46545   -134.05261    38315.161 
  407300    295.00158   -1496.9088    483.81681    313.83767   -672.90528    38315.161 
  407400    290.29511   -1515.9787     494.7265    284.50747    -34.55075    38315.161 
  407500    302.27666   -1481.5391    482.32108    360.43517   -370.90971    38315.161 
  407600    293.11915   -1532.8533    488.96355    274.57264   -394.61382    38315.161 
  407700    302.47203   -1517.0508    461.70135     305.1825    410.09579    38315.161 
  407800     295.1897    -1541.119    482.41207    269.06878   -175.42794    38315.161 
  407900    302.81083   -1558.0969    456.22855    260.18757    -84.99538    38315.161 
  408000    304.10866   -1532.4786     494.3691     329.7841   -110.03244    38315.161 
  408100    297.81979   -1532.1523     480.0386    287.49232   -587.27533    38315.161 
  408200    308.99985   -1494.3227    489.06181    384.63357   -294.89931    38315.161 
  408300    302.93924   -1472.7414     468.2199    358.11207   -500.19898    38315.161 
  408400    303.33663   -1504.3802    495.42788    355.46867   -35.527339    38315.161 
  408500    301.95474   -1498.3676    516.53952    376.37709   -252.74692    38315.161 
  408600    298.04275   -1522.7852    495.40923    313.23296    502.78873    38315.161 
  408700    291.07749   -1522.4972    477.49034    264.27201    135.14459    38315.161 
  408800    294.93085    -1478.742    512.99725    360.86671   -281.84447    38315.161 
  408900    295.49095   -1523.5834    466.20353    271.75092   -594.31779    38315.161 
  409000      303.248   -1501.1618    485.75415    348.61474   -138.53325    38315.161 
  409100    297.10653   -1526.5966    485.57105    295.37217   -347.85401    38315.161 
  409200    290.82359   -1487.0046    474.07412    295.20639   -220.85616    38315.161 
  409300    299.20441   -1470.8906    486.16585     361.1094    -266.2637    38315.161 
  409400     294.5616    -1513.642    496.88771    308.19629   -142.15437    38315.161 
  409500    304.14317   -1508.4926    475.52384    335.08013   -57.507299    38315.161 
  409600    293.49489   -1506.6451    492.41583    305.92317    148.13431    38315.161 
  409700    296.42315   -1488.6161    506.07698    350.78472    807.84774    38315.161 
  409800     300.3058   -1532.3267    473.25334    291.71483    146.01567    38315.161 
  409900    287.66032   -1501.5629    471.22341    263.56886  -0.39030976    38315.161 
  410000    296.39084   -1516.3532    506.78043    323.60574    224.89846    38315.161 
  410100     304.9345   -1481.6282    491.61439    381.59443   -105.96939    38315.161 
  410200    294.74696   -1495.2791    481.39764    311.90282    654.24648    38315.161 
  410300    306.78837   -1487.3525    510.05133    402.64589    521.50941    38315.161 
  410400    294.38083   -1473.3669    497.00988     347.7804    75.513465    38315.161 
  410500    295.23208   -1500.8958    484.24673    311.31734   -257.32131    38315.161 
  410600    301.95949   -1449.8315    481.43962    389.83475   -469.64484    38315.161 
  410700    299.20881   -1478.8993    501.46118    368.41575    -485.7522    38315.161 
  410800    308.82744   -1484.1605    458.54773    363.50616   -415.10646    38315.161 
  410900    302.70589   -1556.5225    508.26245    313.32386   -459.03323    38315.161 
  411000    304.75479    -1544.361    490.56517    317.00416    226.98998    38315.161 
  411100    295.96911   -1510.7084    480.40473    300.97789   -512.42248    38315.161 
  411200    302.12893   -1519.3575    485.35619    324.98744   -239.44065    38315.161 
  411300    294.87733   -1507.7248    469.05338    287.69932   -87.820192    38315.161 
  411400    292.63239   -1490.0493    500.90619    327.12976   -77.509372    38315.161 
  411500    307.30141   -1488.4513    482.92894    376.73243   -12.734194    38315.161 
  411600    304.25755   -1470.6628    478.03744    375.93802    223.34789    38315.161 
  411700    306.41178   -1500.9941    484.64166    361.90073    307.20835    38315.161 
  411800    295.20682   -1477.0745     489.6533    340.43163    505.06171    38315.161 
  411900    305.11708   -1493.7301    489.51113    368.21062    612.90871    38315.161 
  412000    313.43417   -1515.8337    465.37048    359.37696    859.78087    38315.161 
  412100    293.80203   -1526.0707       472.19    267.65326    407.72737    38315.161 
  412200    298.65045   -1506.6967     484.7285    321.37424   -262.46779    38315.161 
  412300    301.77608   -1499.6701    489.98555    347.71707   -367.88189    38315.161 
  412400    298.94383   -1489.5006     458.1391    313.30057    118.29361    38315.161 
  412500    294.46629   -1492.0689    501.90427    334.35716    33.306682    38315.161 
  412600     304.0007   -1501.3606     503.2313    369.27874    345.25306    38315.161 
  412700    298.93206   -1489.1461    457.25815    312.72109     196.4301    38315.161 
  412800    302.60693   -1503.5689     481.1706    338.74048   -35.421422    38315.161 
  412900      294.759   -1513.9081    487.46714    299.39754    23.326908    38315.161 
  413000    293.38292   -1536.3085    473.91188    257.25222   -10.007719    38315.161 
  413100    295.26345   -1490.9578    496.04902    333.19866    89.926925    38315.161 
  413200    299.66699   -1473.2841    499.66235    374.29302   -403.19022    38315.161 
  413300    296.25099   -1463.5081    506.57443    375.61585    305.54459    38315.161 
  413400    305.48393   -1535.3837    471.19706    309.89298   -137.35896    38315.161 
  413500    308.34198   -1494.4712    472.43038    364.89446   -206.91648    38315.161 
  413600    305.74662   -1460.8023    503.51463    417.97363   -661.89826    38315.161 
  413700    294.66557   -1477.2811    476.35249    324.48961   -661.69103    38315.161 
  413800     314.7487   -1488.6347    458.15485    385.27309   -354.45235    38315.161 
  413900     309.6005   -1491.6358    489.62773    390.58804   -239.66404    38315.161 
  414000    303.03841   -1510.2306    481.25874    334.10776   -11.189679    38315.161 
  414100    297.78649   -1519.6236    483.83998    303.67256   -25.519414    38315.161 
  414200    300.60161   -1507.6947    515.47247     359.8965    226.58339    38315.161 
  414300    302.49581   -1488.4601    495.01406    367.19291    139.54351    38315.161 
  414400    296.36319   -1493.0909    469.87953    309.84278    363.55982    38315.161 
  414500      307.758   -1464.0597     516.4568    436.70564   -69.970996    38315.161 
  414600    302.31716   -1493.8341    461.31762    327.31896   -425.92005    38315.161 
  414700    298.11584   -1517.5981    460.18007    283.51964    318.84661    38315.161 
  414800    295.97234   -1527.6876    469.63499    273.24354   -275.77459    38315.161 
  414900    300.88452   -1520.1868    476.99843    310.20293    111.48211    38315.161 
  415000    297.27975   -1502.3957    493.01107    327.79225   -228.34777    38315.161 
  415100    292.76386    -1527.197    495.33774    285.00496   -437.26756    38315.161 
  415200    300.88729   -1512.4263      491.559    332.53651    -367.1097    38315.161 
  415300    302.27843   -1514.1401    467.33075    312.85181   -382.86504    38315.161 
  415400    298.48811   -1524.5817    482.42997    300.46046   -221.02752    38315.161 
  415500    304.73426     -1541.53    498.34549    327.52307   -197.29883    38315.161 
  415600    292.41736   -1536.8062    482.10741    260.60688   -250.76934    38315.161 
  415700    298.40537   -1474.3818    479.03254    346.89073   -247.40376    38315.161 
  415800    306.12418   -1500.5869    474.71704    351.08973   -40.325015    38315.161 
  415900    292.69209   -1477.1388    485.98279    325.38541     614.1518    38315.161 
  416000    297.57478   -1450.6967    483.58704    371.39431   -149.10321    38315.161 
  416100    307.08763   -1448.4084     474.0344     406.9191    109.84988    38315.161 
  416200    300.15067   -1456.0085    496.48883     390.5708     753.4852    38315.161 
  416300     300.4878   -1461.0101    482.27053    372.86735    391.12753    38315.161 
  416400    302.76888    -1458.277    482.36721    385.95748    -234.2432    38315.161 
  416500    302.64244   -1488.7603    511.62246    384.16068   -15.499767    38315.161 
  416600    299.95362   -1489.2085    509.89187    369.88751   -275.87426    38315.161 
  416700    295.76466   -1455.9468     516.5734     390.9885    16.016339    38315.161 
  416800    303.40985   -1470.9823    479.20493    372.97298   -396.58429    38315.161 
  416900    292.43629   -1470.5205    486.17104    331.04132    2.3259113    38315.161 
  417000     297.2175   -1445.5553    474.93387    366.27544    -138.6127    38315.161 
  417100    306.57154   -1486.0388    474.14201    367.07496    67.448457    38315.161 
  417200    303.76775    -1526.761    497.74145    337.34066    193.44944    38315.161 
  417300    299.67876   -1476.3306    507.84444    379.48163    442.46884    38315.161 
  417400    305.67809   -1479.8877    493.17504    388.24034    469.66566    38315.161 
  417500    308.12988    -1488.696    489.54131    386.82655    411.61017    38315.161 
  417600    316.68181   -1512.9753    504.55993    416.03285   -322.54209    38315.161 
  417700     295.8497   -1492.1297    467.51796    306.13277    86.345472    38315.161 
  417800     306.8553   -1519.5894    476.76652    337.42527    -544.8093    38315.161 
  417900    299.91087   -1523.1803    475.28268    301.11415   -161.86848    38315.161 
  418000    291.71013   -1495.0548    485.69859    302.76834   -308.94957    38315.161 
  418100    297.40324   -1460.2869    488.64673     366.0922   -101.55101    38315.161 
  418200    300.96755   -1499.3876    509.17375    363.55089   -237.34453    38315.161 
  418300    304.17166   -1512.0446    472.56783    328.70025     175.3049    38315.161 
  418400    303.04367   -1503.2515    483.72305    343.57485    1136.6428    38315.161 
  418500    303.24623   -1516.1047    482.49933    330.40902     578.1932    38315.161 
  418600    289.29165   -1492.3609    486.01057    294.89575    274.61261    38315.161 
  418700    305.31205   -1500.1235    486.79299    359.97603    133.37303    38315.161 
  418800    298.60106   -1537.9444    489.66314    294.83891   -60.570475    38315.161 
  418900    307.33508     -1513.96    485.09335    353.53957    297.24212    38315.161 
  419000    295.48064   -1563.1265    473.37703    239.33499   -40.010317    38315.161 
  419100    299.24642   -1522.2892    499.25922    322.99308    13.998296    38315.161 
  419200    291.50871   -1513.0966    473.14687    271.26876    80.106796    38315.161 
  419300    298.11795   -1558.4552    465.68663    248.17866    141.96896    38315.161 
  419400    302.80827    -1548.391    468.78353    282.43697    251.92971    38315.161 
  419500    294.65977   -1557.1939    465.22655    233.42485    231.72738    38315.161 
  419600    305.00611   -1547.5104    503.46486    327.88484   -372.04477    38315.161 
  419700    295.08086   -1554.5805    473.41244    246.11814    161.59256    38315.161 
  419800    296.08359    -1519.379    472.86986    285.28744   -17.056371    38315.161 
  419900    309.21773   -1559.7211    486.33278     317.4861     33.37718    38315.161 
  420000    293.94302   -1556.7593    488.61439    254.02328    497.21236    38315.161 
  420100    305.36718   -1566.7249    458.32354    265.15321      148.667    38315.161 
  420200    304.75138   -1538.6125    492.91007    325.08218   -21.097077    38315.161 
  420300    295.77867   -1542.8115    448.20418    235.81768   -488.51581    38315.161 
  420400    306.14037   -1481.9896    478.22376    373.26655   -374.44548    38315.161 
  420500    295.82046   -1518.6902    492.55449    304.47726   -254.86183    38315.161 
  420600    299.69108   -1497.2926    473.17807    323.90864   -85.880451    38315.161 
  420700    302.78895   -1534.0203    472.79858    300.73584   -188.77077    38315.161 
  420800    303.29382   -1508.8775    504.90336    360.25428   -395.05777    38315.161 
  420900    308.99885   -1520.9853    462.08076    330.98532    31.603804    38315.161 
  421000    297.42717   -1552.4848    467.69479    253.04996   -62.866287    38315.161 
  421100    305.54744   -1500.4341    502.21921    376.15038   -1.3241899    38315.161 
  421200    305.25913   -1516.0267    480.20995    337.25176    546.97205    38315.161 
  421300    299.37156   -1506.2683    497.01793     337.3356    718.63654    38315.161 
  421400    304.12445   -1481.8376    483.37421    369.50129    914.45122    38315.161 
  421500    302.11555   -1495.3426    487.45136    351.03727    386.49205    38315.161 
  421600    302.88821   -1479.1092    486.68404    369.97889    263.60011    38315.161 
  421700    303.97657   -1483.8409    475.29834    358.75691   -109.61054    38315.161 
  421800    298.26728   -1462.7027    473.04654    351.96269   -128.87603    38315.161 
  421900    299.67931   -1427.1125    520.64474    441.50249   -337.05074    38315.161 
  422000    294.85672   -1453.3284     458.4494    331.39897   -302.55116    38315.161 
  422100    300.43259   -1429.5011     504.7608    426.61819     136.9263    38315.161 
  422200    297.85886   -1400.7922    492.12941    431.11902   -382.85026    38315.161 
  422300     301.1744   -1441.9195    467.35355    380.12928    -38.50496    38315.161 
  422400    287.48758   -1448.1693    492.10817    337.07024    233.59042    38315.161 
  422500    301.21683   -1469.1067    469.32621    355.10552   -16.438132    38315.161 
  422600    303.48416   -1492.5422    491.30487    363.84723    16.995299    38315.161 
  422700    296.12506   -1470.3863    487.50203    349.09884     88.15399    38315.161 
  422800    309.84033   -1450.8929    475.82145    418.60344      -359.78    38315.161 
  422900    309.69193   -1433.0657    503.78951    463.73125   -459.91388    38315.161 
  423000    296.87509   -1390.9596    470.43843    414.83558   -737.84326    38315.161 
  423100    303.86824   -1429.9307    492.26644    429.14797   -324.34716    38315.161 
  423200    300.79296   -1416.6366    506.76484    443.10776    -143.1437    38315.161 
  423300    293.77839   -1453.1375    475.38843     343.6786    451.90412    38315.161 
  423400    300.82006   -1470.0321    472.14476    355.21402    722.72363    38315.161 
  423500    302.88831   -1457.4157    492.21321    397.20194    876.81975    38315.161 
  423600    304.76329   -1469.1451    496.50549    398.19858    1027.9497    38315.161 
  423700    289.38173   -1509.5277    487.35714     279.4807    469.97302    38315.161 
  423800     303.2755   -1471.8113    510.89684    403.23164    474.74283    38315.161 
  423900    305.81072   -1489.8904    461.93101    347.59017    417.31408    38315.161 
  424000    303.22463   -1463.8854    479.15237    379.18418   -34.565233    38315.161 
  424100    295.06482   -1482.5063    460.12674    304.83454    -780.4784    38315.161 
  424200    302.42961    -1446.287    485.73297    399.78714   -196.74764    38315.161 
  424300    291.77793   -1461.3867     491.7859    342.82867   -286.09151    38315.161 
  424400    296.95785   -1475.0438    487.49674    348.18193    -54.81731    38315.161 
  424500    289.39673   -1444.8415    485.70156    342.57887    57.992848    38315.161 
  424600    299.13925   -1473.3793    503.15331    375.31508    82.002284    38315.161 
  424700    305.34753   -1472.2454     479.3477    380.56841    316.90742    38315.161 
  424800    295.03305   -1499.9357    490.92791    318.06335     234.8271    38315.161 
  424900      298.535    -1459.612    500.91048    384.12153    124.49736    38315.161 
  425000    305.63026   -1428.5382    493.07878    439.27841    5.3163383    38315.161 
  425100    304.60868   -1468.1513    482.49108    384.48256   -182.15045    38315.161 
  425200    298.30595   -1477.5368    484.22727     348.4833   -537.47535    38315.161 
  425300     300.2155   -1474.5964    493.91759    369.70326   -345.55524    38315.161 
  425400    305.75634   -1498.2192    480.58422    357.66998   -610.18042    38315.161 
  425500    300.50495   -1478.9308    518.05115    390.80434   -572.34314    38315.161 
  425600    294.05323   -1497.6952    474.59284    299.56156   -220.08033    38315.161 
  425700    305.21096   -1483.9353    485.72033    374.63683   -389.26026    38315.161 
  425800    291.57402   -1494.9739     462.4716       279.01   -1146.7971    38315.161 
  425900    295.54821   -1492.2798    450.37165    287.48019   -946.26819    38315.161 
  426000    294.01338   -1518.4736    449.08589    253.09693   -495.77856    38315.161 
  426100    299.28341    -1520.049    490.77181    316.91229   -971.25316    38315.161 
  426200    303.34203   -1486.0757    479.30951    357.67915   -256.03532    38315.161 
  426300    293.61419   -1507.8483    466.73928    279.58011       406.64    38315.161 
  426400    299.00096   -1476.2698    482.02365    350.67288    19.152998    38315.161 
  426500    298.84438   -1505.5923    476.65872    315.28107    310.86935    38315.161 
  426600    292.29326    -1474.541    487.17052    327.37694     218.3564    38315.161 
  426700    290.41245   -1490.4419    465.38403    281.22967     310.8624    38315.161 
  426800    298.56659   -1445.0473    478.45275    376.37062   -352.80139    38315.161 
  426900    304.73037   -1491.3835    504.18289    383.48951    113.58743    38315.161 
  427000    298.94559    -1484.275    450.89795    311.29289   -204.29355    38315.161 
  427100    290.08421   -1525.6244    460.39852    239.58518     177.5896    38315.161 
  427200    294.43698   -1516.6204    494.89209    302.66165    322.46078    38315.161 
  427300    290.35426   -1532.7342     442.5744    215.86598    30.046445    38315.161 
  427400    303.31261    -1498.693    473.56413     339.1841     256.3756    38315.161 
  427500    303.20325   -1495.9408    477.52136    345.40163    429.86552    38315.161 
  427600    297.68348   -1523.8711    470.65769    285.77953    759.82226    38315.161 
  427700    300.06003   -1505.5835    457.69415    301.79338    27.014912    38315.161 
  427800    303.68004   -1509.7184    495.47118    351.71851    122.88817    38315.161 
  427900     296.7351   -1463.6518    462.87934    333.95462     44.23833    38315.161 
  428000    312.15896   -1447.8606    494.08029    450.32394   -681.89848    38315.161 
  428100    297.61992     -1482.37    468.94529    325.28227   -193.93205    38315.161 
  428200    301.62816   -1479.7406    491.27514    368.27075   -246.69945    38315.161 
  428300    292.87928    -1495.864    488.19875     309.7182   -499.83298    38315.161 
  428400    297.68932   -1527.2066    450.83161    262.64417   -227.51359    38315.161 
  428500    296.75335   -1544.2721    491.96148    282.49854   -771.20973    38315.161 
  428600    296.80125   -1487.2171    473.77316    321.58066   -179.31569    38315.161 
  428700    293.86099   -1479.0783    478.76398    321.48491   -51.065892    38315.161 
  428800    306.99502   -1465.6389    477.57043    392.80815    240.69186    38315.161 
  428900     297.3252    -1481.377    489.04231    345.04663    335.29471    38315.161 
  429000    301.66137   -1481.3107    474.41297     349.9879    146.04726    38315.161 
  429100    297.77231   -1499.6032     488.7269    328.51623    244.59104    38315.161 
  429200    308.16847   -1512.9473    464.01156    337.21903   -258.85997    38315.161 
  429300    307.17534   -1475.1306    480.07403    386.63117    13.794883    38315.161 
  429400    300.04368   -1486.6242     459.9204    322.90538   -238.40009    38315.161 
  429500    292.80891   -1499.5068    493.79078    311.35084   -293.42433    38315.161 
  429600    317.72349   -1491.8835    504.69123    441.94139   -25.723983    38315.161 
  429700    295.94554   -1486.0197    468.45048     313.6064    626.85681    38315.161 
  429800    297.31593   -1473.0875    507.68094    371.93309     850.5135    38315.161 
  429900    309.84808   -1486.5547    467.70196    374.85705    92.593697    38315.161 
  430000    304.33673    -1459.541    469.28017    378.65866    110.72089    38315.161 
  430100    286.31031   -1467.8567    491.65078    311.63002   -278.75931    38315.161 
  430200    303.32786   -1477.1161    469.13747    356.40299    186.30033    38315.161 
  430300    298.40685   -1506.4194    481.93502    317.76232    414.95048    38315.161 
  430400    296.72656   -1510.8481    468.09603    291.93658     76.84151    38315.161 
  430500    308.47568   -1519.5847    479.84019    347.79219    172.14374    38315.161 
  430600    304.81587    -1471.771    478.12286    377.42659    106.59279    38315.161 
  430700    307.59103   -1488.1571    487.58829    382.98868     672.9236    38315.161 
  430800    309.24532   -1493.7152    474.15157     371.4349    496.33497    38315.161 
  430900     294.0228   -1445.6964    462.21001    339.04061    415.98294    38315.161 
  431000     298.8572    -1489.303     488.4201    343.38947     344.4464    38315.161 
  431100    301.14221   -1497.4417    501.45945    358.56819    620.61616    38315.161 
  431200    297.77085   -1502.8777    451.73319    288.24141    720.51733    38315.161 
  431300    306.07785   -1508.1758    472.22779    340.80307    331.33846    38315.161 
  431400    288.20063   -1545.3371    499.42482    250.42638   -406.43542    38315.161 
  431500    298.67703   -1494.9192    460.89084    309.43355    16.287787    38315.161 
  431600    298.33008   -1468.5154    481.67498    355.06092   -376.63873    38315.161 
  431700    298.19209   -1494.1913    463.97239    311.06176    53.850325    38315.161 
  431800     299.6697   -1543.5325    469.60665    274.00113    212.25182    38315.161 
  431900    297.49944    -1531.198    477.82406    284.79116   -228.84894    38315.161 
  432000    288.68082   -1466.6473    469.47749    301.32874   -775.88607    38315.161 
  432100    294.63428   -1474.8402    477.74807    328.18531   -24.022189    38315.161 
  432200    299.37702   -1496.5213    501.07706     351.1663     -126.636    38315.161 
  432300    299.89612   -1493.3851    462.06502    317.62537   -303.23382    38315.161 
  432400    298.65994   -1468.2533    484.09325    359.22501   -768.23373    38315.161 
  432500    300.43582   -1462.0959    491.07933    380.35647    66.907032    38315.161 
  432600      293.656   -1470.2574    455.30062     305.9203     409.3706    38315.161 
  432700    304.50068   -1469.8812     507.0958    406.87158    107.23061    38315.161 
  432800    295.52315   -1484.2086    469.72232    314.78939     401.1271    38315.161 
  432900    301.04541   -1498.6357    504.59447    360.07379    187.26326    38315.161 
  433000    309.74852   -1485.7792    471.95377    379.43651   -486.45947    38315.161 
  433100    296.94399   -1443.4269    501.12979    393.36953   -235.36763    38315.161 
  433200    301.16115   -1451.4422    497.84821    401.04166   -512.67959    38315.161 
  433300    303.57712   -1500.3864    491.22102     356.3374   -1052.7676    38315.161 
  433400    297.96301   -1496.7592    490.80005    334.29112   -492.08839    38315.161 
  433500    297.09754   -1470.1457    479.65153     345.8632   -367.75338    38315.161 
  433600     306.9426   -1477.6198    479.02749    382.04854   -334.98467    38315.161 
  433700    294.66001   -1521.8184    484.74757    288.32239   -182.81686    38315.161 
  433800    287.54749   -1511.1958    496.58446    278.78941    218.17883    38315.161 
  433900    301.38476    -1519.096    482.23136    318.77679    757.13451    38315.161 
  434000    307.04062   -1474.8971    488.97854     395.1631    562.56211    38315.161 
  434100    296.36958   -1496.9622     476.1441    312.26487   -115.16897    38315.161 
  434200    304.49089   -1509.9785       488.58    348.21441    430.28279    38315.161 
  434300    295.52397   -1534.2937    487.15908    282.14471    384.89558    38315.161 
  434400     299.4661   -1533.0575    488.47234     302.4261   -43.989183    38315.161 
  434500    310.56023   -1507.7179    484.17207    373.36723    7.6759861    38315.161 
  434600    303.03231   -1519.7298    465.18784    308.51023    502.61757    38315.161 
  434700    300.81801   -1516.2071    464.06468    300.94973    792.94237    38315.161 
  434800    314.44509   -1441.0954    465.46716    438.75914    689.40101    38315.161 
  434900    304.47812   -1473.0278    497.70954    394.23726    214.06927    38315.161 
  435000    304.77938   -1538.4202     477.0501     309.5405     322.9105    38315.161 
  435100    308.32714    -1469.546    500.11198     417.4345    8.6841698    38315.161 
  435200    313.50039   -1480.4659    484.87078    414.54296   -75.410606    38315.161 
  435300    298.65464    -1495.184    498.36349    346.54069   -136.60325    38315.161 
  435400    299.47494   -1477.4392     495.3646    364.97636    2.0805872    38315.161 
  435500    308.36886   -1488.0929    473.60446    372.56776   -98.364966    38315.161 
  435600    297.46993   -1483.4317    490.15693    344.75759    59.560424    38315.161 
  435700    291.62518   -1472.1774    508.30252    347.86757    509.95364    38315.161 
  435800    304.98814   -1497.3081    492.67674    367.21819    279.93145    38315.161 
  435900    312.15164   -1526.0536    491.46616    369.48384    150.44752    38315.161 
  436000    296.33517   -1485.2939    500.54363    348.17787    -174.0024    38315.161 
  436100     302.3269   -1509.5144     492.1312    342.49598    158.44306    38315.161 
  436200    295.68073   -1509.7061    483.26359    303.54192   -546.96767    38315.161 
  436300    305.53403   -1514.3468     468.3527    328.31088    358.47257    38315.161 
  436400    296.81315   -1500.1257    488.80649    323.75886    462.00563    38315.161 
  436500    291.25476   -1538.8623    476.91795    248.13186    73.568399    38315.161 
  436600    302.78807   -1543.5664    496.71549    315.10263    520.51119    38315.161 
  436700     295.6427   -1549.7897    471.36896    251.39268    356.79531    38315.161 
  436800    298.46708   -1530.2364    495.68699    307.96819    621.04665    38315.161 
  436900    300.94954   -1546.0082    474.34953     282.0251    649.38352    38315.161 
  437000     299.9835   -1540.3888    487.51184    296.46155    1169.1647    38315.161 
  437100    294.34448   -1502.6361    483.72314    305.06092    920.96447    38315.161 
  437200    290.36371    -1533.586     465.4029    237.88516    786.01776    38315.161 
  437300     302.4584   -1489.8208     479.2195    349.86946   -87.579683    38315.161 
  437400    298.09599   -1523.4489    483.25258    300.65207    380.38439    38315.161 
  437500    296.62199   -1531.0763    477.66886     280.8109    279.90601    38315.161 
  437600    296.47732   -1507.5047    498.02418    324.08699   -225.19881    38315.161 
  437700    306.79267   -1512.9533    465.79019    332.80333   -83.795497    38315.161 
  437800    297.66413    -1514.823    488.36268    312.44554   -56.248005    38315.161 
  437900    305.32136   -1499.3211    471.03807    345.06538     442.7111    38315.161 
  438000    306.70745   -1470.6934    468.83594    377.72566    280.99767    38315.161 
  438100    305.17753   -1516.9581     479.9453    335.68862     89.54491    38315.161 
  438200    311.45076   -1476.2822    485.57751    410.21401    23.958888    38315.161 
  438300    305.14186   -1490.4904    474.29705    356.34766   -309.45413    38315.161 
  438400    307.28676   -1497.8652    455.29902     339.6227   -398.20429    38315.161 
  438500    302.18982   -1473.0038    481.39103    367.64989   -704.88012    38315.161 
  438600    302.18748   -1448.5495    474.05728    384.75985   -262.48653    38315.161 
  438700     301.4636   -1470.9994    478.43031    363.42697   -165.83416    38315.161 
  438800    294.92721   -1487.5567    456.89576    295.93419   -182.44332    38315.161 
  438900    293.29885   -1436.3286    493.60495    376.54698    -355.7417    38315.161 
  439000    298.91489   -1450.0144    512.13196    406.64939   -451.46713    38315.161 
  439100    298.23909   -1500.8952    502.21117    342.80805    429.45771    38315.161 
  439200    298.34857   -1542.8209    442.40188     241.5655    496.53788    38315.161 
  439300    303.64277   -1549.7259    464.16171    280.23383    164.98975    38315.161 
  439400    302.71815   -1513.9974     450.6002    298.24191   -210.17087    38315.161 
  439500    307.01612    -1500.625    437.44993    317.79643   -202.20445    38315.161 
  439600    309.69343   -1488.4006    479.31049    383.92409   -418.97297    38315.161 
  439700    311.12898   -1491.2257    480.43896    388.68462   -211.36921    38315.161 
  439800    306.71643   -1475.5742    467.38003    371.42932   -89.464235    38315.161 
  439900    301.60437   -1461.3626    478.33588    373.60247   -89.966201    38315.161 
  440000    299.33243   -1448.3155    453.75798    351.85248   -105.94991    38315.161 
  440100    307.21599   -1459.8346    480.16391    402.19985    -254.7219    38315.161 
  440200    292.97103   -1485.8617    489.76231    321.69672   -133.42346    38315.161 
  440300    297.32964   -1485.3096    464.20202    316.29369    128.37284    38315.161 
  440400    295.09791   -1478.6294    480.77059    329.50411     -134.552    38315.161 
  440500    306.13597    -1509.942    455.04658    322.11714     -571.524    38315.161 
  440600    297.07781   -1456.4488    510.82453    390.64436   -440.61551    38315.161 
  440700    291.11405   -1518.2785    464.88602    256.05087   -400.38284    38315.161 
  440800    313.75518   -1487.7103    474.55381    398.12759   -396.21257    38315.161 
  440900    298.00306   -1460.2134    524.94594    405.16287   -329.09323    38315.161 
  441000    289.30473   -1473.0134    452.36931    280.66084    -847.0274    38315.161 
  441100     284.0012   -1507.3154    479.09406    249.22813    -717.7133    38315.161 
  441200    304.58662   -1511.8129    454.50972    312.74035   -163.94225    38315.161 
  441300    303.14311   -1482.9024    506.61069     387.2589     379.6077    38315.161 
  441400    302.08221   -1511.4919    454.40135    301.68801    -280.9153    38315.161 
  441500    292.99232   -1491.4177     486.3624    312.83656   -357.55405    38315.161 
  441600    303.56236   -1509.8706    503.70826      359.274   -205.93349    38315.161 
  441700     306.7676   -1472.2722    473.65073     381.2322    30.850994    38315.161 
  441800    307.99307   -1470.4967    480.05338    394.92256   -131.52576    38315.161 
  441900    303.53031   -1460.4142    474.16746    379.04539   -110.36539    38315.161 
  442000    301.94163   -1450.7464    469.15248    376.55236   -146.85794    38315.161 
  442100    310.09765   -1479.8027    468.85274     383.8824    373.25312    38315.161 
  442200    303.91147   -1473.2406    464.01062    357.77669     554.2212    38315.161 
  442300    303.59496   -1478.6734    480.01632    366.92593   -14.050857    38315.161 
  442400    297.95919     -1435.67    480.05007     384.6131    418.96109    38315.161 
  442500    299.48839   -1500.2963     477.0316    323.84682    563.55247    38315.161 
  442600    309.80609   -1449.8572    479.45806    423.12181    320.48756    38315.161 
  442700    290.20193   -1458.6169    467.41942    314.14309    186.54304    38315.161 
  442800    299.51262   -1437.7149    490.47713    399.98271     88.61858    38315.161 
  442900    314.37801   -1471.3627     462.5284    405.25132    196.68633    38315.161 
  443000    296.28873   -1399.0592    481.16361    414.82366    195.77815    38315.161 
  443100    314.14447   -1419.5363    451.92601    445.42489    45.107248    38315.161 
  443200    300.10561    -1433.952    483.13317    399.06892   -21.098892    38315.161 
  443300    300.64314   -1438.0686    484.75926    398.99623    292.29247    38315.161 
  443400    296.82028   -1455.4969    453.70274    333.31603   -364.77994    38315.161 
  443500    310.77466   -1447.5586    494.55066    444.86962   -103.59555    38315.161 
  443600    297.32627   -1435.7052    469.79357     371.4745    129.55556    38315.161 
  443700    307.62879   -1453.6208    482.50991     412.6165    407.75809    38315.161 
  443800    306.58948   -1414.7241    486.71806    451.04645    235.68463    38315.161 
  443900    297.81344   -1392.8583     469.9956    416.71482    311.54343    38315.161 
  444000    303.37593   -1434.7079    491.94554    421.83541    38.353135    38315.161 
  444100    303.46984   -1418.6223    456.73842     403.1363     82.90623    38315.161 
  444200    308.41488   -1424.5541    490.87043    453.57952   -186.37872    38315.161 
  444300    304.36546   -1396.0852    476.21958    449.18312   -376.04099    38315.161 
  444400    306.39441   -1431.1583    465.16372    412.18041   -552.18449    38315.161 
  444500    305.78857   -1385.2489    494.48466    484.68575   -256.56994    38315.161 
  444600    299.56977   -1441.9742    473.60489    379.10821    -384.0753    38315.161 
  444700    301.02352   -1400.4948    476.73833    430.26011   -188.08371    38315.161 
  444800    294.74347   -1424.8573     484.8475     385.7588    -623.7137    38315.161 
  444900    302.23192   -1461.1532    495.49967    393.79841   -220.51203    38315.161 
  445000    290.59043    -1436.141    478.55804     349.5051   -336.88141    38315.161 
  445100    302.50201    -1455.013      504.429    410.08288    480.10831    38315.161 
  445200    300.09665   -1444.4041    482.59669    388.04002    458.03987    38315.161 
  445300    295.81356   -1459.0597    474.61266    346.13491    91.209811    38315.161 
  445400    306.71463   -1399.6926    482.37794    462.30072    20.528813    38315.161 
  445500    291.51479   -1445.2482    440.74397    306.74164   -333.50716    38315.161 
  445600    294.24916   -1481.9582    470.36862    311.95562   -215.50006    38315.161 
  445700    292.07775   -1520.1033    485.03125    278.70606    158.05947    38315.161 
  445800    291.57903   -1495.4397    502.50891    318.60401    286.31984    38315.161 
  445900    296.54035    -1473.421    480.43292    340.86294    452.28777    38315.161 
  446000    303.44247   -1456.7722    472.63456    380.75941    48.014336    38315.161 
  446100    307.00888     -1473.42    479.58761    387.10653   -338.75676    38315.161 
  446200    306.78671    -1506.958    482.38883    355.37042   -290.33474    38315.161 
  446300    309.60652   -1495.2363    446.96373    344.35067    4.6291047    38315.161 
  446400    300.42473    -1472.488    494.78178    373.61694   -420.41622    38315.161 
  446500    299.68628   -1421.7618    473.21314    399.45288   -106.25678    38315.161 
  446600    307.04696   -1384.3277    499.94236     496.7249    165.03999    38315.161 
  446700    292.90887   -1458.4585    498.73464     357.7926    324.34053    38315.161 
  446800    297.72935   -1426.2148    468.78967    381.77407    394.36474    38315.161 
  446900    304.94117   -1453.2863    477.91089    396.26288    251.96711    38315.161 
  447000    299.26877   -1445.2014    470.59222    371.51442   -251.98787    38315.161 
  447100    287.98306   -1434.6859    483.97307    344.64717   -468.40402    38315.161 
  447200    302.55631   -1429.0999    501.40364    433.21487   -12.173062    38315.161 
  447300    289.89085   -1458.6748    458.59911    303.86561   -326.79063    38315.161 
  447400     302.9379   -1477.5825    491.19937    376.24435   -284.40111    38315.161 
  447500    301.84208    -1409.601    513.98451    462.08198   -718.08417    38315.161 
  447600    315.23588   -1441.5865    468.71591    445.07372   -832.78745    38315.161 
  447700    290.15852   -1465.6601    480.97605    320.46124   -913.78279    38315.161 
  447800    302.04639   -1479.5343    457.90401    336.98713   -639.01366    38315.161 
  447900    299.46912   -1423.5074    496.83098    420.34843   -465.93281    38315.161 
  448000    287.75488   -1453.8164    473.80454    314.32179    -568.5849    38315.161 
  448100    297.27222   -1436.3514     474.4167    375.20834   -156.77333    38315.161 
  448200    311.66186   -1416.9938    483.43567    468.31013    -795.5305    38315.161 
  448300    305.96044   -1430.1847    484.32286    430.36118    -548.0567    38315.161 
  448400    306.51327   -1430.1843    502.32553    450.85093   -441.62107    38315.161 
  448500    292.72785   -1469.4072    484.63916    331.93419    402.75148    38315.161 
  448600    291.54252   -1475.0253    451.56631    287.91168    81.004527    38315.161 
  448700    304.35536   -1460.0077    502.86226    411.85785   -175.96688    38315.161 
  448800    307.30504   -1454.8238    479.08632    406.53359   -229.31967    38315.161 
  448900     306.4445    -1435.575    440.11411    382.93941   -81.513627    38315.161 
  449000    306.25207   -1450.1001     470.4653    397.90001   -31.645769    38315.161 
  449100    296.89905   -1418.2637    472.79297    389.99375    80.761539    38315.161 
  449200    300.41063   -1440.5705     476.1296    386.81885    -20.70555    38315.161 
  449300    305.42646   -1468.3206    449.74875    355.24932    -133.7878    38315.161 
  449400    304.30821   -1488.3458    498.81277    379.25825   -156.53742    38315.161 
  449500    298.36507   -1474.9798    460.06898    327.14788    443.34119    38315.161 
  449600    288.89725   -1471.4603    491.20672     319.2185    6.8465245    38315.161 
  449700    306.56111   -1492.6416    460.45344    346.73667   -316.42389    38315.161 
  449800    307.25693   -1491.9407    483.14034    373.25427    135.25242    38315.161 
  449900     302.8059   -1485.3761    512.50801    389.16568     262.1645    38315.161 
  450000    299.75651   -1498.2594    469.79213    319.85018    619.41328    38315.161 
  450100    303.85943   -1519.1672    470.50597     318.1113      519.924    38315.161 
  450200    294.55625   -1474.2701    480.20882    330.86526     804.3495    38315.161 
  450300    305.69809   -1504.7559    473.58042    343.86751    46.213368    38315.161 
  450400    299.60289   -1492.1879    481.34357    336.78217    512.87775    38315.161 
  450500    302.31609   -1484.2649    475.04682    350.61245    519.28997    38315.161 
  450600    292.89879    -1475.085    480.44996    322.83608    397.33245    38315.161 
  450700    303.20149   -1496.6476    495.23888    362.40443    877.70292    38315.161 
  450800    286.50629   -1502.0038    475.79254    262.50617     170.2801    38315.161 
  450900    290.83934   -1491.1722    478.56375    295.59919    81.916978    38315.161 
  451000    296.10341   -1516.3651    457.49961     273.0202   -113.36808    38315.161 
  451100    288.18782   -1501.6697    465.41042    260.02177    90.503082    38315.161 
  451200    306.40989   -1535.9357    479.19911    321.50805    107.85169    38315.161 
  451300     300.5061   -1504.3657    468.05134    315.37476   -433.55151    38315.161 
  451400    301.00684   -1497.7667    438.28084    294.45569   -740.41553    38315.161 
  451500    286.21758   -1510.7191    485.02051    261.72018   -166.31558    38315.161 
  451600    301.26518   -1510.3119    475.98715    320.77877    2.3654528    38315.161 
  451700    299.02532   -1523.5183    471.05951    292.56974    66.910948    38315.161 
  451800    298.99074   -1527.5174    482.81332    300.16899   -176.81001    38315.161 
  451900    302.68862   -1541.0547    458.92698    279.37854    241.35641    38315.161 
  452000    297.50578   -1498.8656    463.95775    303.28575   -36.562789    38315.161 
  452100    296.64463   -1519.9278    487.37759    301.76995    -327.5522    38315.161 
  452200    303.43327   -1461.9144    490.69649    393.63778   -522.84772    38315.161 
  452300    301.89525   -1456.9829    452.49607    353.45084   -196.33158    38315.161 
  452400    300.81288   -1477.2361    473.11215    348.94517   -72.648417    38315.161 
  452500    306.10044   -1462.5671    504.08963     418.3753   -612.43951    38315.161 
  452600    301.70352   -1456.5093    469.74573    370.31164    -760.0349    38315.161 
  452700    297.06569   -1457.8876    493.44892    371.77544   -114.51065    38315.161 
  452800    306.58666   -1455.9509    486.95141    410.04031    266.76982    38315.161 
  452900    301.03284   -1479.9518    506.51497     380.6217    825.32497    38315.161 
  453000    295.20433   -1518.7381    478.80227    287.90581    315.47014    38315.161 
  453100     297.8236   -1477.6571    483.64031    345.60639    303.85729    38315.161 
  453200    307.97506   -1505.2804       493.33    373.33443    637.72569    38315.161 
  453300    310.32579   -1494.3974    491.45586    392.91699    381.58282    38315.161 
  453400    299.92469   -1474.9793    476.96767     351.0623   -326.20514    38315.161 
  453500    304.02876   -1458.9486    481.38015    389.96582    165.50682    38315.161 
  453600    291.73205    -1456.656    519.96837    375.53548    352.66195    38315.161 
  453700    308.14876   -1466.4917    461.43078    381.00524    476.65226    38315.161 
  453800    304.84721   -1460.4305    475.90971    386.69484    120.55711    38315.161 
  453900    294.52673   -1495.0214    478.45775    308.23011    326.53458    38315.161 
  454000    305.71975   -1489.2334    474.89161    360.79864    218.12362    38315.161 
  454100    296.94871   -1499.8266    476.79222    312.65345   0.69272691    38315.161 
  454200    303.52238   -1499.3515    475.84913    341.75413    52.038923    38315.161 
  454300     297.0444   -1517.7165    482.95986    301.36169   -277.22272    38315.161 
  454400    297.94978   -1485.0739    481.17744    336.29423   -241.69692    38315.161 
  454500    298.72233   -1503.5101    452.09759    292.25315    64.653114    38315.161 
  454600    302.33199   -1564.0577    506.99645    302.84092    187.58244    38315.161 
  454700    308.05876   -1549.3609     483.1907    319.49118   -48.173278    38315.161 
  454800    305.49888   -1529.8631    449.53452    293.81837   -162.76713    38315.161 
  454900     298.1323   -1540.7561    464.10413    264.35976    249.02984    38315.161 
  455000    304.08281   -1546.6868    496.20457    317.29511    169.47197    38315.161 
  455100    302.64543   -1527.7434    485.24509    318.81363    234.02807    38315.161 
  455200    298.98871   -1483.7021    480.76814     341.9299     159.7169    38315.161 
  455300    299.09456   -1479.5857    474.99118     340.7455    418.18322    38315.161 
  455400    296.66846   -1524.9854    472.57606    282.01799    641.97484    38315.161 
  455500    300.68988   -1510.6706    464.51739    306.36259    197.97595    38315.161 
  455600    293.07163   -1581.2517    442.91005    179.90696   -395.66198    38315.161 
  455700     305.3844     -1528.71    485.57326    330.49525    157.90217    38315.161 
  455800    290.25444   -1498.7801    465.52315    272.31985    243.08059    38315.161 
  455900    297.91878   -1530.6091    483.46527    292.90744    394.40584    38315.161 
  456000     305.3402   -1514.5889     483.1253     341.9695    528.33665    38315.161 
  456100    304.55199   -1495.1384    475.21941    349.96878    472.23331    38315.161 
  456200    296.29794   -1464.7458    485.82679     353.8417    280.89341    38315.161 
  456300    301.25107   -1494.5719    480.36668    340.83484    252.40043    38315.161 
  456400    298.23924   -1486.7192    479.13149    333.90504     511.5627    38315.161 
  456500    293.66959   -1515.9593     475.1756    280.15455    642.84344    38315.161 
  456600    307.60416   -1490.0552    464.48432    358.04573    529.71343    38315.161 
  456700    298.83079   -1496.6078    494.01678    341.56254    983.56302    38315.161 
  456800    306.85655   -1540.8786    472.19043    311.56561    856.21338    38315.161 
  456900    309.76439   -1518.2772     473.2861    348.34229      540.223    38315.161 
  457000    302.26247   -1547.7818    464.55495    276.36257     67.88265    38315.161 
  457100    287.73377    -1549.767    464.93005    209.40177    378.28729    38315.161 
  457200    292.68261   -1511.5612    470.76629    275.70387   -365.36501    38315.161 
  457300    287.60783    -1532.658    489.00669    250.02092    283.58221    38315.161 
  457400    311.48429   -1537.9576    478.19182    341.30373   -90.756655    38315.161 
  457500    284.41866   -1485.4359    494.31393    288.20518   -195.62266    38315.161 
  457600     297.7263      -1464.4    483.37766     358.1632   -511.42426    38315.161 
  457700      292.037   -1510.4772    466.98105    270.09861     -160.389    38315.161 
  457800    314.46188   -1461.1748    491.96529    445.25333   -22.201796    38315.161 
  457900    289.60901   -1481.5901    482.18947    303.27296    381.69258    38315.161 
  458000    293.12039   -1480.0968    479.07401    317.44512    368.13396    38315.161 
  458100    302.88357   -1473.7159    479.28395    367.95117    280.51088    38315.161 
  458200    296.55628   -1498.7966    479.20619    314.33233     902.9366    38315.161 
  458300    303.34403   -1485.9034    529.03428    407.58515    440.50291    38315.161 
  458400    297.23135   -1474.6349    473.38803    335.71233    186.35295    38315.161 
  458500    293.37721   -1478.6764    482.20377    323.15049    413.93453    38315.161 
  458600    303.47651   -1481.1348    497.25048    381.16585   -353.31416    38315.161 
  458700    288.94346   -1460.7475    504.50744    343.43984    269.00983    38315.161 
  458800    302.97743   -1439.8065     467.1272    390.12602    67.484647    38315.161 
  458900    299.90881   -1416.3121    508.00194    440.69234    150.82867    38315.161 
  459000    294.92717   -1441.0442    507.65202    393.20271   -29.207467    38315.161 
  459100    299.05161   -1438.5634    462.21673    368.80016    56.087864    38315.161 
  459200    310.39577   -1467.2391    482.60168    411.53589    303.45653    38315.161 
  459300    298.97985   -1443.4813    484.58197    385.92468     18.55828    38315.161 
  459400      305.851   -1493.0025    471.45492    354.18319   -95.782784    38315.161 
  459500     299.3305   -1451.7499    466.91477    361.56617    132.16961    38315.161 
  459600    298.45577   -1433.0327    497.74572    407.17975    213.36636    38315.161 
  459700     305.8463   -1464.3602    476.00521    387.35467   -163.62481    38315.161 
  459800    304.09176   -1468.0692    470.81619    370.56464    169.69441    38315.161 
  459900    304.95609    -1416.635     486.6733    441.74371     383.9769    38315.161 
  460000    292.85509   -1441.6716    470.29748    345.90046   -397.56504    38315.161 
  460100    298.86521   -1449.6043    495.95295    390.65701   -831.30062    38315.161 
  460200    297.59322   -1461.3391    461.24588    338.49371   -220.53334    38315.161 
  460300    297.92726   -1470.3331    496.80148    366.55778   -1.2979469    38315.161 
  460400    301.11506   -1461.9892    470.05424    362.49329   -34.443872    38315.161 
  460500    305.68787   -1463.1372    449.32179    361.18159   -220.29548    38315.161 
  460600    312.46633   -1468.4589    480.62982    417.65772    425.88524    38315.161 
  460700    297.46652   -1431.8456    477.25528    383.42669    133.76727    38315.161 
  460800    293.74906   -1436.8767    479.34188    363.76091    102.13711    38315.161 
  460900    294.88894   -1378.7214    484.92463    432.62613    232.67486    38315.161 
  461000    296.30109   -1430.3839    469.19626    371.58725   -929.71643    38315.161 
  461100    305.60474   -1469.2416    481.51576    386.89723    75.574852    38315.161 
  461200    298.83354    -1450.303    470.68594    364.54886    521.16886    38315.161 
  461300    289.68027    -1449.279    507.96221    361.67739    61.085938    38315.161 
  461400    290.76551   -1458.4581    455.69412    305.11161   -178.57556    38315.161 
  461500     306.2333   -1480.2469    466.48949    363.69293    574.04945    38315.161 
  461600     306.1369   -1470.9328    484.49728    390.58118   -79.521897    38315.161 
  461700    281.65914   -1502.2818    479.34004    243.97304   -31.042024    38315.161 
  461800     307.6914   -1466.0585    473.45588    391.40632    347.47396    38315.161 
  461900    306.75629    -1474.659    478.72992    383.87374   -105.92641    38315.161 
  462000    299.53668   -1488.4359    470.52241    329.41524    319.03488    38315.161 
  462100    300.26319   -1454.8777    468.40325    364.12206   -130.08072    38315.161 
  462200    295.84127   -1456.5017    491.98479     366.1897   -516.50699    38315.161 
  462300    295.73192   -1431.6959    467.75404     366.2728    -315.1595    38315.161 
  462400    292.20861   -1426.8752    507.31754    394.80908   -80.080983    38315.161 
  462500    293.30752   -1463.0706    478.20831    334.44729    132.04659    38315.161 
  462600    300.58841    -1481.319    482.55259    353.29302    654.23278    38315.161 
  462700    304.43133   -1450.3276    461.06816    380.08557     285.5787    38315.161 
  462800    298.39515   -1426.9114    497.54436    412.82704    219.72957    38315.161 
  462900    293.73647    -1438.696    460.37815    342.92121   -491.47712    38315.161 
  463000    305.43978   -1421.8969    482.67411    434.65829    -366.2983    38315.161 
  463100    298.37004   -1464.0776    467.09691    345.10037   -344.29449    38315.161 
  463200    301.24699   -1507.4395    476.93303    324.51528   -82.459852    38315.161 
  463300    298.85687   -1450.4725    492.73391    386.53229    -104.2553    38315.161 
  463400    293.74169    -1491.852    466.06815    295.47873   -164.70701    38315.161 
  463500     294.8601   -1470.5883    465.62622    321.33109    22.218246    38315.161 
  463600    301.56415   -1464.0325    470.80436    363.22014   -273.24687    38315.161 
  463700    298.80318   -1430.5805    498.12706    411.57596   -385.27863    38315.161 
  463800    298.29147   -1446.6594    464.37305    359.44134   -223.49593    38315.161 
  463900    307.89876   -1471.6637    443.03399      356.312    67.020097    38315.161 
  464000    297.69167   -1433.0424    482.16952    388.15686   -652.62227    38315.161 
  464100    308.60248   -1449.2723    485.66376     424.4985   -180.70862    38315.161 
  464200    297.30725   -1439.9663    465.23772    362.57203    96.417792    38315.161 
  464300    309.81935   -1443.4615    495.73415    445.85328    94.042613    38315.161 
  464400    302.67847   -1462.8816    448.36537    346.94435   -854.22121    38315.161 
  464500    292.42026   -1438.3494    475.35565    352.32496   -854.59088    38315.161 
  464600    301.08069   -1461.2694    483.91589    376.92021    124.20778    38315.161 
  464700    294.36871   -1454.1785      464.336    334.24046   -244.20463    38315.161 
  464800    298.23897   -1466.8437    458.90156    333.54935    134.64245    38315.161 
  464900    301.12572   -1468.4925    491.09601    377.07981     1035.929    38315.161 
  465000    296.21426   -1453.0251    467.64221    347.00139    1151.3405    38315.161 
  465100    307.87986   -1501.9788    468.93133    351.80923    528.18812    38315.161 
  465200    298.60518    -1448.024    494.63382    389.74858    62.436844    38315.161 
  465300    310.64982   -1450.8821    443.65443    390.08842   -468.35923    38315.161 
  465400    298.51329    -1428.944    451.58632    365.36778   -461.11006    38315.161 
  465500    293.87385   -1394.1748    495.27604    422.95831   -211.08399    38315.161 
  465600    302.28227   -1429.1955    433.54705    364.02998   -66.396068    38315.161 
  465700    305.28866   -1468.2953    491.03034    395.93637    -252.0722    38315.161 
  465800    297.94516   -1455.3191    462.35246    347.20331    197.64764    38315.161 
  465900    294.16418   -1415.0462    456.74131    364.85806    178.24394    38315.161 
  466000    308.20223   -1453.0162    453.38763    386.67814    341.83816    38315.161 
  466100    293.67318   -1442.8634    464.36314    342.45412    316.18275    38315.161 
  466200    296.72734   -1421.1299    466.54909    380.11131    507.88641    38315.161 
  466300    297.47205   -1444.8437    470.80528    364.00347    109.36101    38315.161 
  466400    299.58263   -1450.4498    500.75265    397.83824    216.30014    38315.161 
  466500    291.91697   -1405.3385    471.16092    378.87736   -492.19834    38315.161 
  466600    292.35632   -1422.6275    465.65222    358.05583   -384.49046    38315.161 
  466700    298.46577   -1469.0117    468.76613    342.26606   -455.21151    38315.161 
  466800    298.00995   -1437.2868    468.04399    371.21856   -6.8451613    38315.161 
  466900    300.37009   -1445.9117    494.72164    399.88737   -76.195241    38315.161 
  467000    300.89759   -1409.4589    448.08576    392.07693   -344.10716    38315.161 
  467100    296.42103   -1399.5322    477.63766    411.41987   -550.78454    38315.161 
  467200    290.63334   -1425.4245      461.501    343.35758   -307.75688    38315.161 
  467300    304.52211   -1437.5347     449.8211    382.03977   -260.83674    38315.161 
  467400    306.25567    -1433.303    482.50656    426.75453    228.54748    38315.161 
  467500    295.20331   -1407.5204    491.29122    411.60784    207.99711    38315.161 
  467600    302.34556   -1455.0971    472.82886    377.69492    1086.7099    38315.161 
  467700    298.90413   -1459.6412     475.7935    360.63571    434.42187    38315.161 
  467800     301.9708   -1450.1627    479.94931    388.06408    920.60799    38315.161 
  467900    304.90497     -1448.45    460.62793    383.65339    363.42042    38315.161 
  468000    293.09167   -1454.0148    474.05631    338.38024    603.51725    38315.161 
  468100     305.4613   -1461.8256    494.01613    406.16839    574.15668    38315.161 
  468200    291.73326   -1508.6103    504.65332    308.27164    522.62589    38315.161 
  468300    301.86114   -1430.3112    471.24942    398.72241     498.7019    38315.161 
  468400    300.28884   -1419.0254    489.72953    421.41602    48.249441    38315.161 
  468500    284.45414   -1439.9751    486.47171    325.98335    188.43804    38315.161 
  468600    309.80762   -1445.3038    493.50742    441.73144    105.63439    38315.161 
  468700    295.52535   -1444.6132    490.90298    375.57534   -167.99056    38315.161 
  468800    294.06876   -1422.6854    456.37297    356.42127     303.6846    38315.161 
  468900    294.28329   -1453.5425     465.4798      335.636   -328.20728    38315.161 
  469000    306.48116   -1415.2885    481.69158    444.96839   -33.953773    38315.161 
  469100    306.31227    -1419.978    480.85857    438.68613   -982.02182    38315.161 
  469200    302.25387   -1433.5072    470.16584    396.20935   -499.23246    38315.161 
  469300    300.96114   -1459.4808    486.70013    380.95529   -182.88061    38315.161 
  469400    294.20418   -1457.7935    464.89419     330.4435    131.04654    38315.161 
  469500    296.88099   -1435.8093    465.25043    364.82436    262.67104    38315.161 
  469600    305.22833   -1453.8966    466.83983     385.8732    51.193218    38315.161 
  469700    298.88439   -1429.4537    482.92851    397.86947    784.72715    38315.161 
  469800    309.64741   -1442.9706    503.59448    453.43108     526.8335    38315.161 
  469900     301.4741   -1475.7353    455.38093    335.68892    229.64533    38315.161 
  470000    296.89165   -1485.0338    455.54504    305.94249   -256.14187    38315.161 
  470100    290.79676   -1468.4364    477.21646    316.79622   -298.82376    38315.161 
  470200    292.31219   -1430.9043    469.31419     353.2425   -352.31433    38315.161 
  470300    300.28304   -1459.8193    469.00106    359.86756    345.93437    38315.161 
  470400    297.43019   -1452.5785    465.23757    350.51267    -190.3135    38315.161 
  470500    297.77678   -1453.7946    481.56016    367.17811     27.51777    38315.161 
  470600    290.12644   -1450.5016    469.83548    324.33486   -67.129704    38315.161 
  470700    303.45376   -1420.8424    469.52018    413.62564   -179.15284    38315.161 
  470800    306.39984   -1411.4096    473.06417      439.854   -573.78511    38315.161 
  470900    300.08476   -1393.5784     492.7814      448.997   -76.731027    38315.161 
  471000    304.87563   -1377.0148    456.08308    450.41179     58.57419    38315.161 
  471100    296.39436   -1464.5544    481.98734    350.62729      45.1226    38315.161 
  471200    302.55769   -1437.0398      467.631    391.50855    288.08252    38315.161 
  471300    288.89046    -1512.884    470.66485    257.22239    753.03629    38315.161 
  471400    303.58989   -1450.0746    472.52213    388.00771    675.24918    38315.161 
  471500    288.92745   -1467.8943    472.11922    303.83282    473.15895    38315.161 
  471600    292.38406    -1464.095    467.75255    318.81343    55.355531    38315.161 
  471700    309.44016   -1501.8017    468.72702    358.80023    73.522299    38315.161 
  471800    298.53095   -1462.0487    464.84835    345.60448   -114.12893    38315.161 
  471900    296.74085   -1484.5688    465.39606    315.58014    -221.7024    38315.161 
  472000    303.71146   -1456.5402    497.24719    406.81405    4.8543123    38315.161 
  472100    297.90786   -1468.8497    476.03021    347.18266   -163.72177    38315.161 
  472200    293.20376   -1452.6559    457.79754    323.98453    -335.9054    38315.161 
  472300     303.3908   -1435.9933    484.86487    413.53622     62.64591    38315.161 
  472400    301.78755   -1446.3717    497.29595    408.37742    97.713219    38315.161 
  472500    301.14042   -1458.9351    470.92552    366.53277    267.60464    38315.161 
  472600    316.61416   -1478.1514    481.89047    427.88298    754.31699    38315.161 
  472700    297.28701   -1437.9881    492.98754    392.20902     59.95968    38315.161 
  472800    296.90724   -1446.3371    474.00589     363.1701    646.59293    38315.161 
  472900    301.17686   -1460.4126    469.49068    363.78433    443.19533    38315.161 
  473000    296.82058   -1439.3052    511.97275    407.77908    272.69318    38315.161 
  473100    307.54066   -1472.1458     489.1444     400.3295    450.33897    38315.161 
  473200    307.20408   -1451.6268    467.93881    398.12902     185.7329    38315.161 
  473300    306.78942   -1522.8702     497.8967    354.97835   -426.68494    38315.161 
  473400    310.79102   -1491.1609    472.85744    379.64769    -248.2954    38315.161 
  473500     295.9179   -1567.6432     447.3448    210.75286    -97.79042    38315.161 
  473600    305.85914   -1558.0755    502.13178    319.82363    555.79037    38315.161 
  473700    309.87432   -1572.2322    462.94338    284.53901    437.99509    38315.161 
  473800    291.36366   -1556.2426    478.15971    232.48319    259.34912    38315.161 
  473900    310.62267   -1561.5683    463.92374    299.54936    632.25198    38315.161 
  474000    305.32608   -1518.6588    473.59475    328.30558    16.550526    38315.161 
  474100    307.47783   -1528.7984    468.21985    322.46981    387.78671    38315.161 
  474200    302.24238   -1533.4063    446.08207     272.1748   -118.51573    38315.161 
  474300    298.62881   -1544.4905    461.15599    259.91051   -212.90024    38315.161 
  474400    303.61458   -1527.0288    465.47856    304.12105   -151.56413    38315.161 
  474500    298.56992   -1507.7046    483.63556    318.91109   -490.17762    38315.161 
  474600    304.82505   -1447.8667    447.49665    370.74598   -474.67104    38315.161 
  474700     293.3197   -1493.1724     472.4751    298.66719   -367.50592    38315.161 
  474800    304.04423   -1490.2338    485.79065    363.16068   -132.44973    38315.161 
  474900    296.94852   -1516.1694     478.2919    297.80956   -388.33905    38315.161 
  475000    307.07261   -1548.6868     493.8542    326.39301    655.31607    38315.161 
  475100    301.69224   -1545.7824    456.69999    267.94204    326.33753    38315.161 
  475200    308.69365   -1538.1899    460.95511    311.28231    147.72975    38315.161 
  475300    302.13396   -1506.9355    494.60859    346.68448    181.20249    38315.161 
  475400    294.83553   -1496.5739    503.68823    333.29708     871.2611    38315.161 
  475500    297.79166   -1523.0884    485.18152    301.57266    161.81005    38315.161 
  475600    291.98574   -1454.8446    459.26287    317.78254    221.77514    38315.161 
  475700    295.36147   -1476.8237    471.19296    322.91761   -39.144815    38315.161 
  475800    277.31987   -1481.3518    492.65169    258.69637   -222.69674    38315.161 
  475900     292.7998   -1510.6614    475.49057    281.85508    226.52831    38315.161 
  476000    294.27521   -1484.0519     500.9018    340.51226    265.57527    38315.161 
  476100     299.7579    -1457.814    510.68596    401.19567   -234.51104    38315.161 
  476200     306.2848   -1440.3184    486.95192    424.31548     635.6222    38315.161 
  476300    309.15048   -1443.7225    485.92765     432.7771    221.58906    38315.161 
  476400    306.43243   -1438.7735    490.82606    430.39864    677.67377    38315.161 
  476500    291.43057    -1499.168    469.09024    280.78935    408.80555    38315.161 
  476600    303.02437   -1490.6843    503.09299    375.42515    948.83774    38315.161 
  476700     297.3441   -1528.4823    496.49813    305.48217    543.31524    38315.161 
  476800    303.06566    -1423.173    479.50526     419.5344    632.53672    38315.161 
  476900     288.4069   -1440.9352    500.74567    357.07694    244.46342    38315.161 
  477000    287.16185   -1494.1082    486.38571    283.94371    642.36349    38315.161 
  477100    293.65392   -1470.4523     470.1384    320.55384    97.437379    38315.161 
  477200    300.12627   -1484.7771    467.36048     332.5641    1.7623486    38315.161 
  477300    306.30786   -1456.9421    502.21669    423.06029    612.98092    38315.161 
  477400    312.61091   -1476.3106    491.50056    421.32706    319.78066    38315.161 
  477500    304.37861    -1519.404    488.07173    337.77559    47.549941    38315.161 
  477600    294.28679   -1498.9539    490.68771    315.44824   -28.682845    38315.161 
  477700    305.41372   -1505.8695    483.25565    351.15002    286.98215    38315.161 
  477800    303.91253    -1495.993    464.13824    335.15665    429.44831    38315.161 
  477900    303.82407     -1488.42    482.91645    361.10998    415.48706    38315.161 
  478000    298.13707    -1494.708    480.59518    326.92036     722.7142    38315.161 
  478100    302.98117   -1514.2154    472.44286    321.04958    513.48918    38315.161 
  478200     301.1163   -1487.8826    482.23549    348.78679    442.06976    38315.161 
  478300    291.65927   -1541.1275    476.87626    247.64449    287.10467    38315.161 
  478400    299.67796   -1529.9215    479.82671    297.86935   -57.547579    38315.161 
  478500    292.98042   -1527.0635    478.33075    269.10565    218.78118    38315.161 
  478600    311.84396    -1525.209    480.86882    358.34714   -152.57533    38315.161 
  478700    288.65008    -1493.706    472.03296    276.68727   -441.37367    38315.161 
  478800    297.65712    -1513.776    471.10175    296.20007   -588.14607    38315.161 
  478900    306.40559   -1511.0752    448.19909    315.34917   -88.750422    38315.161 
  479000     294.5712   -1537.2031    451.75394    239.54463   -214.64732    38315.161 
  479100    305.81594   -1523.3149    508.53492    360.79311    452.66623    38315.161 
  479200    288.99928   -1556.3549    466.28526    209.86139    872.12596    38315.161 
  479300    301.24132   -1550.7366    454.83437    259.09404    199.86074    38315.161 
  479400    300.86472   -1550.0411    470.42733    273.68847   -35.842446    38315.161 
  479500    305.09659   -1480.0097    480.95679    373.28444    316.44946    38315.161 
  479600    308.66218   -1505.0364    486.54373     369.8829    754.81747    38315.161 
  479700    294.94436   -1546.3119    504.26497    284.62528    686.81018    38315.161 
  479800    295.77691   -1531.7803    486.88744    285.52417    650.05833    38315.161 
  479900    300.55263   -1546.8579    481.47715    286.51768    735.81531    38315.161 
  480000    311.24469   -1485.9807    489.27234    403.28341    458.79981    38315.161 
  480100    294.85994   -1499.2579    491.83261     318.8672   -183.53653    38315.161 
  480200    311.40241   -1508.0973    462.85438    355.45831    238.43744    38315.161 
  480300    310.51758   -1467.5076    498.43251    427.64617    520.10246    38315.161 
  480400    299.80571    -1503.579    495.66524    340.62499    420.31975    38315.161 
  480500    303.64162    -1528.607    491.21857    328.40447    430.42779    38315.161 
  480600    305.23347   -1525.8967    479.13751    326.19396    121.37151    38315.161 
  480700    304.87889   -1531.9203    479.74133    319.17924    511.74699    38315.161 
  480800    294.51354   -1533.7448    479.81567    270.80529   -217.12755    38315.161 
  480900    292.53158   -1532.8424    487.58335    270.56035   -551.88479    38315.161 
  481000    306.75938   -1507.3019    467.05936    339.57416   -581.46461    38315.161 
  481100    291.07671   -1459.2516    476.31358    326.33738   -279.12157    38315.161 
  481200    303.14471    -1521.283    472.79922    315.07396    -426.0446    38315.161 
  481300    306.17733   -1509.9265    487.15783    354.42988     -454.846    38315.161 
  481400    299.17171   -1559.0549    502.82393    289.45602   -276.91877    38315.161 
  481500    293.95868   -1537.6239    453.14333    237.75806   -474.50904    38315.161 
  481600    304.31544     -1509.58    491.65103    350.89474   -519.30813    38315.161 
  481700    303.32072   -1534.3822    466.00578    295.97301   -245.04583    38315.161 
  481800     295.0251   -1529.7315    480.35228    277.65618   -27.530111    38315.161 
  481900    299.63142   -1507.6624    478.65283    318.74526   -69.835215    38315.161 
  482000    306.48224   -1474.5277    489.76558    393.80794   -243.85561    38315.161 
  482100    296.63404   -1500.8092    480.92127    314.38452   -380.95774    38315.161 
  482200    295.66087   -1480.3587    480.67835    330.21474    -697.8153    38315.161 
  482300    285.07946   -1460.9517     489.8463    311.19403   -544.58662    38315.161 
  482400    303.16296   -1455.3987      498.566    406.80712    283.27739    38315.161 
  482500    310.12895   -1444.5875    505.72906    456.11473   -126.48076    38315.161 
  482600    293.34534   -1476.6355    500.48263    343.32689   -375.72342    38315.161 
  482700    293.47113   -1431.8675    486.65877    374.83688    295.31751    38315.161 
  482800    303.54093   -1478.7837    465.28342    351.83969   -119.44333    38315.161 
  482900     308.2785   -1495.8912    487.53243    378.29102    245.17847    38315.161 
  483000    299.90871   -1505.0255    478.71486    322.69138    713.59531    38315.161 
  483100    291.70171   -1480.3462    495.33501    327.07549    286.49066    38315.161 
  483200     317.8344   -1440.0275    495.81499    485.42011    501.93919    38315.161 
  483300    301.65885   -1455.5176    478.12768    379.48436    3.5991084    38315.161 
  483400    308.59423   -1457.4009    510.31216    440.98113     623.8379    38315.161 
  483500    296.61925   -1486.1041    478.62797    326.72981   -232.65312    38315.161 
  483600    293.23451   -1478.1289    472.59747    313.44983   -590.93991    38315.161 
  483700    295.62013   -1462.7356    471.44401    338.42024   -866.87894    38315.161 
  483800    305.85839   -1459.3418    494.16178    410.58395   -847.48112    38315.161 
  483900    291.62084     -1445.84    482.67152    348.55441   -428.39301    38315.161 
  484000    287.23711   -1461.7873     490.2916      320.509    20.375105    38315.161 
  484100    310.31917   -1517.2731    473.73907    352.29477   -12.045144    38315.161 
  484200    312.00246   -1486.3399    434.38083    351.44124    -244.4854    38315.161 
  484300    300.15904   -1459.7625    502.13659     392.5022    -50.76994    38315.161 
  484400    301.28456   -1450.8518     473.8656    378.20455    16.158184    38315.161 
  484500    301.20926   -1476.8735    473.37189    351.35037   -92.356007    38315.161 
  484600    300.42421   -1484.4954    470.58517    337.41061   -545.55861    38315.161 
  484700    307.13883   -1535.3129    472.69279    318.90332   -425.29634    38315.161 
  484800    305.58839   -1517.2702    456.80618     314.0855    270.27507    38315.161 
  484900    302.66482   -1519.2134    471.15918    313.34493   -25.547409    38315.161 
  485000    298.66314   -1514.2863    484.25026    313.36336   -765.84624    38315.161 
  485100    302.30166   -1478.7728    483.40455    364.39739   -191.46844    38315.161 
  485200     312.8596   -1490.3696    492.25258    409.13878    39.863305    38315.161 
  485300    299.04673   -1475.4483    467.28311    336.95964    -366.7324    38315.161 
  485400    302.82629   -1456.9519    480.05359    385.22721   -440.80677    38315.161 
  485500    291.35251   -1477.0189    483.12526    316.62226   -289.67445    38315.161 
  485600    299.09446   -1490.8311    467.90385    322.41226   -58.701285    38315.161 
  485700    303.24167   -1477.7033    479.31985    365.61046   -153.52262    38315.161 
  485800    300.39329   -1470.7742     491.4721    371.87961    -315.2994    38315.161 
  485900    295.87145   -1509.9105    493.55475    314.48662   -404.60304    38315.161 
  486000    297.56187   -1523.5427    458.42694    273.33016   -116.61764    38315.161 
  486100    289.13476   -1515.5247    454.27548     239.2912    342.94876    38315.161 
  486200    296.66231   -1572.0982    488.08305    250.38456   -30.592758    38315.161 
  486300    292.46304   -1491.9265     456.0569    279.64153    304.99117    38315.161 
  486400    301.86225   -1505.0305    507.54926    360.30794    998.00422    38315.161 
  486500    306.05273   -1540.5586    459.54017     295.6197    463.47228    38315.161 
  486600    292.71433   -1519.7513    488.40358    285.29373     615.2225    38315.161 
  486700    296.61486    -1513.979    486.16023    306.36738    523.24514    38315.161 
  486800    306.21753   -1537.9067    462.68913    302.16186    619.33474    38315.161 
  486900    305.26974   -1507.4812    457.27652    322.91149    369.35524    38315.161 
  487000    294.23428   -1496.9189    490.68533     317.2447    151.98965    38315.161 
  487100     296.5503   -1512.3981    478.07398    299.57169   -285.41183    38315.161 
  487200    297.48781   -1512.9831    482.92747    308.05714   -927.94372    38315.161 
  487300    296.12516   -1503.5593    458.00859    286.43277   -617.00637    38315.161 
  487400    298.91659   -1544.4857    429.26821    229.32196   -460.84619    38315.161 
  487500    299.58366   -1528.0904    470.79481     290.2444   -797.13621    38315.161 
  487600    288.96161   -1492.8537    477.40129    284.30916   -206.28923    38315.161 
  487700    307.68482   -1497.7465    466.99081    353.22362    245.82115    38315.161 
  487800    302.57294   -1503.7755    469.52295    326.73329   -28.026473    38315.161 
  487900    307.70654   -1514.2536    471.27682    341.10034   -125.31487    38315.161 
  488000    296.26914   -1519.4145    473.69381    286.91044   -944.01522    38315.161 
  488100    309.48969   -1491.9793    465.14663    365.26508   -431.67761    38315.161 
  488200     292.3088   -1482.2954    505.17396    337.69588   -766.61254    38315.161 
  488300    300.22994   -1486.4801    506.63565    370.60258    -254.0838    38315.161 
  488400    295.06321   -1463.4755    478.27372    342.00506     127.7341    38315.161 
  488500    299.06804   -1479.1494    481.68574    347.75707   -49.214075    38315.161 
  488600    298.92476   -1467.7212    469.78889    346.64392   -37.801053    38315.161 
  488700     287.3447   -1485.0228    493.59585    301.06166    24.711957    38315.161 
  488800    315.63178   -1529.7787    441.06345    331.00991    108.57093    38315.161 
  488900    296.76666    -1497.293    502.12646    339.70253   -357.12747    38315.161 
  489000    298.60276   -1476.6128    461.61462    328.12962   -392.44681    38315.161 
  489100     300.5819   -1503.9017    463.16337    311.29176   -555.72473    38315.161 
  489200    304.86865   -1482.3077    474.91168     363.9161   -7.5372856    38315.161 
  489300    299.42323   -1469.1631    450.71346    328.36872    551.22674    38315.161 
  489400    299.66628   -1474.3496    452.81696    326.37898     502.7011    38315.161 
  489500    296.74008   -1476.7051    467.11104    325.15536    863.33101    38315.161 
  489600    304.24325   -1438.0329    510.95318    441.41931    865.01698    38315.161 
  489700    295.28249   -1478.3136    480.56047    330.44001    364.94399    38315.161 
  489800    298.21231   -1468.4135    453.15278    326.11092    140.65205    38315.161 
  489900     301.4358   -1483.9937    459.69866    331.57594   -83.325373    38315.161 
  490000     292.4674   -1479.9791     477.5822    313.13386   -173.76998    38315.161 
  490100    298.12153   -1458.9767    455.35105    337.33758   -483.72184    38315.161 
  490200    311.39737   -1472.6063    472.04249     400.1148    201.53421    38315.161 
  490300    305.74456   -1457.7296    491.57571    409.09805   -58.642921    38315.161 
  490400    295.91176   -1453.8579    513.30379    390.46957   -77.735391    38315.161 
  490500    297.23926   -1470.1763     453.0962    319.91471    -122.2969    38315.161 
  490600    307.28898   -1478.3022    456.03496    359.93158   -84.456603    38315.161 
  490700    306.09203   -1485.9401    450.31707    341.19189    246.28183    38315.161 
  490800    314.56929   -1526.4943    468.04111    356.49283   -46.687098    38315.161 
  490900    308.77257   -1535.7266    475.70091    328.84639    -332.7796    38315.161 
  491000    294.83072   -1533.1163    449.64504    242.68985   -42.179089    38315.161 
  491100    295.49042   -1514.3083    485.86941    300.68952   -272.57674    38315.161 
  491200    297.28182   -1508.7548     487.3714    315.80285    282.98427    38315.161 
  491300    296.73811   -1504.6339    468.20087    298.30754    518.20702    38315.161 
  491400    306.34958    -1519.164    490.91528    349.72466    273.71466    38315.161 
  491500    303.37822   -1499.5112    442.90849    308.00534    294.03997    38315.161 
  491600    295.20403   -1497.8333    503.21403    333.22093   -47.150759    38315.161 
  491700     303.1746   -1509.2585    472.21096    326.64465    119.66492    38315.161 
  491800    299.22938    -1501.219    473.84463    318.57205    335.01509    38315.161 
  491900    299.75643   -1506.4524       462.25    304.11468   -33.089684    38315.161 
  492000    296.16342   -1473.9239    469.42908    327.66078    295.33273    38315.161 
  492100    299.54001   -1493.3494    475.10668    329.10094   -417.27122    38315.161 
  492200    296.75355   -1497.7592    445.65558    282.70648    61.898723    38315.161 
  492300    299.12486   -1460.9524    458.88508    343.40892    241.20507    38315.161 
  492400    297.53106    -1508.572    461.68347    291.41877   -159.68139    38315.161 
  492500    304.06798   -1482.6833    439.11839    324.14574    96.095351    38315.161 
  492600    306.05914   -1477.3536    471.38831     370.7017    356.25908    38315.161 
  492700    309.67721   -1499.1312    471.43051    365.24048    60.586991    38315.161 
  492800    294.75995    -1490.951    458.87197     293.7637    411.22747    38315.161 
  492900    306.61201   -1521.1443    464.04433    322.05386    538.51281    38315.161 
  493000    291.77655   -1488.5692    477.91647    301.77055    326.62361    38315.161 
  493100    296.86935   -1465.8034    473.26222    342.78974    260.43453    38315.161 
  493200    292.16102    -1455.132    477.62288    336.64351    99.696567    38315.161 
  493300    295.33215   -1487.0144    483.46559    324.86767    67.518013    38315.161 
  493400    291.20436   -1450.0872    453.10696    312.86933    171.85338    38315.161 
  493500    307.82306   -1432.6526    473.94787    425.89643    409.09139    38315.161 
  493600    299.20304   -1435.9748    454.40717    364.26033    71.340021    38315.161 
  493700    304.34064   -1492.7863    468.10856    344.25935   -38.410319    38315.161 
  493800    298.13163   -1497.9178    496.15664    339.24757    228.41969    38315.161 
  493900    297.17129    -1474.414     449.2357    311.51074   -271.33428    38315.161 
  494000    300.16355   -1504.5653    462.69859    308.28169    20.741394    38315.161 
  494100    296.70187   -1481.9972    460.18445     312.7648   -458.84825    38315.161 
  494200    301.28045   -1481.8903    469.71932     343.0012    39.377179    38315.161 
  494300    298.14969   -1500.6893    485.10589    325.50653   -453.40187    38315.161 
  494400    302.32305   -1498.6276    468.79934    330.03362    130.58293    38315.161 
  494500    299.26107   -1498.1838    453.87883    301.78403   -225.33294    38315.161 
  494600    307.99298   -1518.0732    463.70125    330.99357   -138.66242    38315.161 
  494700    304.81517   -1487.8339    488.43584     371.6735   -143.43785    38315.161 
  494800    304.27105   -1521.1685    460.15902     307.6146   -82.361376    38315.161 
  494900    293.05428   -1485.2939    441.76632    274.64297    358.15071    38315.161 
  495000     311.0002   -1471.3423      477.672    405.22181    224.03659    38315.161 
  495100     293.3102   -1492.6007    461.79724    288.51821    117.25899    38315.161 
  495200    311.00466   -1455.7827    486.76088    429.89028    395.70239    38315.161 
  495300    293.19064   -1460.3768    483.01805    341.42518    264.75591    38315.161 
  495400    291.15796   -1478.1813    463.55431    295.01385   -60.948458    38315.161 
  495500    299.82109   -1488.4092    481.77498    341.97374    62.121625    38315.161 
  495600    301.83499   -1495.6029    457.50277    319.56643    18.391033    38315.161 
  495700    296.30608   -1489.1987    452.64284    296.24144    234.61143    38315.161 
  495800    295.73812   -1455.7674    457.62047    332.09565    73.227472    38315.161 
  495900    289.17419   -1466.7367    463.54061    297.52167   -327.28498    38315.161 
  496000    311.14815   -1478.9637    479.02513    399.61895   -423.76317    38315.161 
  496100    299.58787   -1429.4683     474.5023    392.59292   -405.43449    38315.161 
  496200    301.08755   -1480.2355    489.77806    363.84712   -556.63444    38315.161 
  496300    299.97517   -1487.6564    475.73897     337.3836   -267.17072    38315.161 
  496400    301.57381   -1466.5457    504.77289    394.71895    137.08171    38315.161 
  496500     297.6669   -1425.9046    488.96064    401.97439    197.69328    38315.161 
  496600     290.6044   -1407.9871     498.0037    397.16754    294.11598    38315.161 
  496700    294.51732   -1420.3127    478.88529    383.32395    371.67874    38315.161 
  496800    296.64743    -1418.268    477.46837     393.5331    499.05573    38315.161 
  496900    303.93368   -1420.8133    480.47103    426.76429    354.65954    38315.161 
  497000    301.72983   -1439.1162    485.14736    403.22467    -122.5256    38315.161 
  497100    307.68093    -1451.298    495.63176     428.2956    200.94867    38315.161 
  497200    290.30117   -1487.9216    494.03464    311.89998   -95.774761    38315.161 
  497300    302.15977   -1455.0467    472.66973    376.75045   -99.462439    38315.161 
  497400    300.58496   -1459.3535    508.13367    400.82405   -246.02242    38315.161 
  497500    307.70848   -1453.3745    475.95163    406.66284   -83.924803    38315.161 
  497600    305.56512   -1475.6847    453.31637    352.07655    256.12982    38315.161 
  497700    299.06314   -1456.3779    486.86264    375.68343    110.77383    38315.161 
  497800     306.7777   -1417.0935    479.53595    442.34155    427.74427    38315.161 
  497900    301.04139   -1447.3302    497.17525    403.94195    458.61045    38315.161 
  498000    312.38703   -1478.9759    490.81273    416.96693    788.19105    38315.161 
  498100      302.668   -1527.7187    487.49438     321.1892    951.44208    38315.161 
  498200    297.59176    -1501.056    459.72174    297.24609      808.847    38315.161 
  498300    297.04311   -1508.6819    459.48011    286.91071    307.41124    38315.161 
  498400    303.81421   -1469.0594    473.12941    370.63923   -337.22296    38315.161 
  498500    309.42656   -1466.4295    473.74214    399.12639   -111.10884    38315.161 
  498600    299.38468   -1483.0765    453.17327    316.74176   -23.573806    38315.161 
  498700    298.60373   -1477.9715    454.50121     319.6619    31.957865    38315.161 
  498800     306.4358   -1494.5354    499.17898     383.0048   -263.78729    38315.161 
  498900    301.54764   -1458.0858    469.54032    367.82858   -562.17055    38315.161 
  499000    307.42559   -1503.6579    463.53506    342.69044   -192.41075    38315.161 
  499100    296.67387   -1494.3358    464.02084    304.13667   -195.19423    38315.161 
  499200    307.16962   -1470.7299    468.54865    379.48073   -86.822626    38315.161 
  499300    292.93674   -1470.6728    485.87422    332.84334    39.690032    38315.161 
  499400    299.06146   -1476.7591    463.16172     331.5937    -769.1173    38315.161 
  499500    306.96753   -1427.9547    469.65276    422.45099    41.233205    38315.161 
  499600    301.20358   -1472.0413    485.45085    368.23602    198.69454    38315.161 
  499700    297.69413   -1465.3629    475.51064    349.18856    340.05079    38315.161 
  499800    293.06567    -1481.537    469.47049    306.15525    142.45379    38315.161 
  499900    302.60263   -1487.1261    475.42341    349.41675    548.27246    38315.161 
  500000    307.77246   -1460.8984    504.71031     428.1855    352.08804    38315.161 
  500100    306.10061   -1457.1919    481.80508    401.46665     617.9825    38315.161 
  500200    289.42428   -1495.5897    485.19397    291.44699    238.81176    38315.161 
  500300     304.6476    -1517.335    466.09459    319.07735    622.47679    38315.161 
  500400    303.69385   -1516.2987    472.99295    322.72208    560.56626    38315.161 
  500500    299.42325   -1505.0665    485.46217    327.21413   -243.13783    38315.161 
  500600    301.88564   -1541.3518    463.56307    280.10564    -397.3979    38315.161 
  500700    300.55389    -1507.741    478.70968    322.87275   -214.28259    38315.161 
  500800    289.46987   -1511.4077    477.96889    268.60891   -245.76249    38315.161 
  500900    297.51766   -1474.5607    490.94333    354.62963   -271.53286    38315.161 
  501000    292.90124   -1485.8414    496.17168    327.81251   -190.70191    38315.161 
  501100    300.75023   -1521.1154    459.81686    291.48872    505.37568    38315.161 
  501200    297.59188   -1521.0755    483.85414    301.35954   -174.71308    38315.161 
  501300    288.63175    -1501.165    494.65627    291.76916    39.545929    38315.161 
  501400    307.71304   -1468.3929    499.49763    415.21102    191.42688    38315.161 
  501500    294.77226   -1505.1793    496.12831    316.84715   -697.41209    38315.161 
  501600     304.5666    -1479.362    493.64841    384.23986   -189.70277    38315.161 
  501700    306.31823   -1488.4761    486.59401    375.95033    234.39622    38315.161 
  501800    309.69903   -1496.3776    478.82987    375.49165    7.1265002    38315.161 
  501900    311.89335   -1447.9647    492.65601    447.60079    9.3774294    38315.161 
  502000    299.43645   -1475.3846    453.27001     324.7632   -421.12571    38315.161 
  502100    295.63759   -1458.6049    459.85863    331.04419   -270.64781    38315.161 
  502200    299.28253   -1470.0536    492.01465    368.14651    18.859598    38315.161 
  502300    305.41969   -1466.8229    485.74302    392.71079    491.83518    38315.161 
  502400    302.99588   -1471.2791    462.11087    353.72003    656.01942    38315.161 
  502500    308.27131   -1496.5445    497.49599    387.56893    630.29283    38315.161 
  502600    295.94811    -1461.943    480.20596    349.45014    505.45081    38315.161 
  502700    301.35445   -1469.2435    517.16629    403.42793    712.03678    38315.161 
  502800    299.09246   -1504.9145    459.41335    299.82945    437.41993    38315.161 
  502900    311.29674   -1514.5621    467.33345    352.99723   -258.68079    38315.161 
  503000    307.94271   -1492.6359    479.16608    371.66955    141.42932    38315.161 
  503100    302.09431   -1508.9828    489.40976    339.25993    232.76178    38315.161 
  503200    305.45271   -1455.7819    454.66203    372.81937     287.9735    38315.161 
  503300     299.6031    -1475.479    487.86032     360.0088   -19.687046    38315.161 
  503400    304.16726   -1515.4342    480.28661    333.00963   -26.698029    38315.161 
  503500    300.31197   -1481.8448    469.68394    338.65512    -85.10994    38315.161 
  503600    305.84169    -1459.637    502.82512    418.87696   -527.19316    38315.161 
  503700    293.28287   -1522.3133    476.98157    273.86705    473.95637    38315.161 
  503800      311.738   -1487.0147    461.10694    376.30294    660.99792    38315.161 
  503900     302.0801   -1448.8201    469.22337    379.17232     630.4568    38315.161 
  504000    304.19503    -1453.055    483.72952    398.95666    325.67025    38315.161 
  504100    300.45355   -1461.6235    493.29139    383.12071   -104.39059    38315.161 
  504200    298.60757   -1428.4104    463.17332    377.91244    329.08212    38315.161 
  504300     298.3373   -1458.6824    475.53866    358.79009    127.85263    38315.161 
  504400    304.24603   -1465.0844    484.66841    388.09553     943.1752    38315.161 
  504500    294.06297   -1474.1008    497.88943    346.49627     125.3384    38315.161 
  504600    302.93866   -1458.8725    499.88815    403.64657    394.25213    38315.161 
  504700    295.16435   -1419.4665    465.99721    374.19247   -120.46549    38315.161 
  504800    300.71787   -1455.8763    475.43725    372.20271   -523.23176    38315.161 
  504900    297.93147   -1450.3506    454.95404    344.71187     -322.297    38315.161 
  505000    291.82981   -1426.0246    497.19648    383.83476   -473.44647    38315.161 
  505100    293.95903   -1436.4499    492.80247    378.59272   -556.27604    38315.161 
  505200    303.65791   -1424.0215    468.54507    410.38966    266.27655    38315.161 
  505300    288.00274   -1435.9447    471.35045    330.85424   -244.53706    38315.161 
  505400    301.53083   -1413.1748     517.8662    460.98988   -284.07808    38315.161 
  505500    304.54532   -1420.2597    498.16722    447.76531    56.851897    38315.161 
  505600    291.86117   -1397.8208    492.58426    407.56739   -100.95567    38315.161 
  505700    295.86638   -1403.4648    473.57863    400.93331   -2.6471044    38315.161 
  505800    307.00157    -1435.727    486.91248    432.09155   -56.464992    38315.161 
  505900    293.69159   -1453.4027    494.58521    362.21976   -525.30192    38315.161 
  506000    298.31826   -1443.8612    489.41555     387.4025    190.86983    38315.161 
  506100    298.05218   -1436.3891    460.81527    365.07751    256.32005    38315.161 
  506200    304.69614   -1426.6146    485.79621    429.71771    78.827086    38315.161 
  506300    308.74578   -1410.3224    492.21803    470.64717    306.35617    38315.161 
  506400    300.44892   -1437.1805    490.96401    405.21545    410.18654    38315.161 
  506500    297.28592   -1458.9592    485.04791     363.2934   -124.69722    38315.161 
  506600    294.75424   -1476.0589    472.20172    321.95987   -553.31475    38315.161 
  506700    300.94466   -1453.5022    472.57148     372.7311   -953.51519    38315.161 
  506800    303.09341     -1465.84    464.88612    362.37309   -518.49592    38315.161 
  506900    295.84984   -1475.4596    459.88813    315.17361    7.6906542    38315.161 
  507000     296.3132   -1501.2271    488.86223     320.4644     418.3878    38315.161 
  507100    307.00633   -1491.6356     453.7145    343.00639    -330.8353    38315.161 
  507200    297.19103   -1455.8309    464.22695    345.17388     279.8992    38315.161 
  507300    292.08152   -1456.2368    487.80537    345.36359   -418.35347    38315.161 
  507400    295.77984   -1496.2157    471.38329    305.59783     53.77383    38315.161 
  507500    300.89786   -1466.1823    490.41651    377.68552    83.451137    38315.161 
  507600    299.42037   -1498.8405    459.31709    307.28212    -34.63579    38315.161 
  507700    302.98875   -1485.5496    487.00151    364.30811    484.77269    38315.161 
  507800    292.36134   -1479.6699    463.47404    298.85781    587.25831    38315.161 
  507900    312.04761   -1484.9967    473.92177    392.52839    45.709117    38315.161 
  508000    310.81741   -1484.6878    458.86559    372.24768   -537.69984    38315.161 
  508100    295.44463   -1483.9735    466.17449    311.12348   -645.60273    38315.161 
  508200    300.39031    -1476.628    489.23858    363.77895   -369.82655    38315.161 
  508300    300.05729   -1470.1603     465.6975    345.20764   -9.6943346    38315.161 
  508400     295.9445   -1464.3463    451.13938    317.96392     104.1075    38315.161 
  508500    300.07828    -1479.632    505.63332    375.76615    387.44244    38315.161 
  508600    298.54912   -1463.5002    470.41799    349.80437    149.95435    38315.161 
  508700    298.67262   -1462.2206    482.25992    363.48139   -676.91896    38315.161 
  508800    292.64534   -1451.3629    498.32918    363.29743   -252.06593    38315.161 
  508900    303.47037   -1449.0077     434.6669    350.68172   -273.20667    38315.161 
  509000    309.03522   -1412.5968    468.70063    446.15731    30.175477    38315.161 
  509100    299.61882   -1406.3375    481.13169    422.49234   -282.24652    38315.161 
  509200    306.04581   -1411.2304    465.18817    430.56481   -385.11033    38315.161 
  509300    297.95574   -1454.6596     459.1404    344.69833   -852.93974    38315.161 
  509400    300.91471   -1447.8138    481.22585    386.93922   -338.32575    38315.161 
  509500    302.20445   -1423.7269    466.52144    402.12298    -481.4667    38315.161 
  509600     294.4041   -1463.7829    476.30695    336.76617    -549.8477    38315.161 
  509700    303.23984   -1431.2321    499.67619    432.42977    785.83637    38315.161 
  509800    294.23297   -1398.7423    467.53946    392.26955   -28.152338    38315.161 
  509900     308.0051   -1406.7116     500.5805    479.28885    -97.23079    38315.161 
  510000    296.69074   -1431.8601    450.08738    352.75485   -144.47283    38315.161 
  510100    300.51835    -1433.976    476.43308    394.20138   -779.65305    38315.161 
  510200    289.37947   -1376.7247    463.35709    388.27347   -263.44857    38315.161 
  510300    299.58189   -1413.6291    466.53801     400.4409   -85.469212    38315.161 
  510400    287.59002   -1364.8501    459.37498    388.11696   -462.73959    38315.161 
  510500    312.30463   -1399.0002     504.6946    510.45392   -222.51991    38315.161 
  510600    293.54691   -1438.6626    455.54667    337.27049   -379.00611    38315.161 
  510700    291.96836   -1421.8097    479.29296    370.76927   -405.86785    38315.161 
  510800    302.31879   -1427.8898    471.81009    403.76308   -211.47328    38315.161 
  510900    302.21364   -1474.0034    474.93575    360.30211   -617.00703    38315.161 
  511000    299.68639   -1461.4419    484.49832    371.05854    162.59978    38315.161 
  511100    301.75308   -1506.2973    462.26847    313.26932    146.91883    38315.161 
  511200    301.55839   -1478.1412     466.9526    345.23384    9.1455326    38315.161 
  511300    299.84133   -1486.7344    462.68447     324.6491    562.84179    38315.161 
  511400     289.6254   -1455.3816    476.67442    324.04015   -338.48465    38315.161 
  511500    306.06866   -1455.8604    477.41333    398.26276    270.69842    38315.161 
  511600    296.43062   -1479.6706    489.46934    343.15618    45.450664    38315.161 
  511700    301.23927   -1443.6624    465.28676    376.61138   -422.76852    38315.161 
  511800    303.90329    -1464.675    488.68477    390.97968   -240.36118    38315.161 
  511900    299.16219   -1472.3325    487.92066    361.23239   -244.11166    38315.161 
  512000     297.9377    -1503.117    479.05687    316.07631   -189.82195    38315.161 
  512100    304.54597   -1499.0216      458.966    329.80504    -218.7301    38315.161 
  512200    301.89338   -1487.8347    479.95194    350.04642   -277.91236    38315.161 
  512300    293.98528   -1453.1729    473.04288    342.22821   -242.52634    38315.161 
  512400    296.90383   -1433.3319     468.2744    370.42847   -503.46743    38315.161 
  512500    304.96832   -1453.9204    457.85081    375.69084    244.23124    38315.161 
  512600    299.90809   -1445.0582     472.2265    376.16762    203.82435    38315.161 
  512700    297.88981   -1503.7075    478.46018    314.67363    -722.7739    38315.161 
  512800    293.72436   -1455.4286    486.60173    352.35773    292.57961    38315.161 
  512900     298.4928   -1451.3952    467.21632    358.45431    356.48385    38315.161 
  513000     292.5345   -1470.7285    486.04095    331.14503    469.82838    38315.161 
  513100    306.28411   -1447.1263    476.67369    407.22622    662.79955    38315.161 
  513200    307.37748    -1486.944    471.09695    366.74991    473.31142    38315.161 
  513300    301.34022   -1463.2968    481.23445    373.37873    81.893582    38315.161 
  513400     290.1053   -1460.0948    460.06153    304.87265   -275.86211    38315.161 
  513500    309.45707   -1457.5919    474.75176    409.11085   -396.85097    38315.161 
  513600    298.28219   -1478.3716    448.79346    312.10779   -145.26407    38315.161 
  513700    291.13266   -1463.2598    474.85666    321.12387   -621.52157    38315.161 
  513800    303.31971   -1470.4087    480.30287     374.2391   -476.37447    38315.161 
  513900    298.12257   -1461.1497    443.23289    323.05117    376.75404    38315.161 
  514000    303.54025   -1447.9234    498.48241    415.89593    647.16954    38315.161 
  514100    296.36712   -1501.3338    480.06368    311.80171    1047.3335    38315.161 
  514200    291.99085   -1470.9558    484.17185    326.60333    686.60974    38315.161 
  514300     292.3505   -1466.2156    481.75637    330.54566     439.5721    38315.161 
  514400    307.42992    -1469.824    472.75121    385.76002    225.40856    38315.161 
  514500    300.23273   -1467.4421    495.87063    378.88805    349.10478    38315.161 
  514600    305.24566   -1463.4861    461.15714    370.67895    828.03592    38315.161 
  514700    308.74644   -1473.3673    473.37039    388.75763    444.20504    38315.161 
  514800    297.02351   -1474.5913    488.25413    349.68716    85.402431    38315.161 
  514900    301.39603   -1475.8755     475.2325    355.04917    132.62497    38315.161 
  515000    312.19297    -1446.642    462.41976    420.03494    254.18393    38315.161 
  515100    298.88891   -1481.3898    485.18382      348.209    781.25452    38315.161 
  515200    300.04006   -1481.1433    486.04788    354.49753    955.80689    38315.161 
  515300    296.81765   -1474.2971    471.90366    332.70488    174.12362    38315.161 
  515400    300.50272   -1488.9956    469.47659    332.15499    396.96296    38315.161 
  515500    299.04497   -1469.6995     492.8018    368.21923    197.40784    38315.161 
  515600    304.00416   -1470.2188    467.81109    365.01587    126.13416    38315.161 
  515700    303.63943   -1487.9396    482.08746    359.93083   -64.926525    38315.161 
  515800     291.3261   -1506.4515    460.86145    264.80711    54.845877    38315.161 
  515900    297.18462   -1449.3898    457.05105    344.41022   -158.04097    38315.161 
  516000    305.47855   -1479.6268    467.55853     361.9872   -390.89794    38315.161 
  516100    302.87375   -1497.7012    444.56052    309.19826   -819.49161    38315.161 
  516200    305.77119   -1518.4577    478.60007    335.51413    -112.9286    38315.161 
  516300    295.72917   -1484.3371    491.34302    337.20823    152.80969    38315.161 
  516400    310.24042   -1471.4801    475.95696    399.95141    150.40783    38315.161 
  516500    293.20668   -1467.7116    462.74045    313.88492   -186.54279    38315.161 
  516600    307.37558   -1425.5139     483.7762    440.85064    305.11153    38315.161 
  516700    298.70598   -1438.9281    466.65934    371.32337    543.11564    38315.161 
  516800    293.27467   -1441.6977    494.73169    372.19592    654.24506    38315.161 
  516900    297.37347   -1468.1777    459.35168    328.77242    300.42474    38315.161 
  517000    301.52916   -1438.7523    481.63386    399.17253   -234.51471    38315.161 
  517100    299.04311   -1468.9638    460.31918      336.464    107.81938    38315.161 
  517200    296.32468   -1483.1375    494.90361    344.64712    211.06743    38315.161 
  517300    305.81418   -1442.4076    479.75187    412.90938    474.82422    38315.161 
  517400    291.40673   -1454.7427     462.2626    318.27968   -148.83243    38315.161 
  517500    308.02204   -1453.1737    463.97046    396.29292   -147.71526    38315.161 
  517600    294.31765   -1461.3844    459.78276     322.2516   -406.21333    38315.161 
  517700    300.40956   -1462.5332    473.03608    361.75785    -433.7036    38315.161 
  517800    302.31869   -1456.3878    469.41763    372.87215   -192.95528    38315.161 
  517900    307.60395   -1449.2915    470.28538    404.60953    507.48006    38315.161 
  518000    304.78338   -1489.8356    448.87085    329.96374    104.67901    38315.161 
  518100    305.19482   -1445.8081    468.45321    395.42431    362.77102    38315.161 
  518200    288.56842   -1443.9336    515.42718    369.48652    256.20182    38315.161 
  518300    298.80577   -1434.4802    459.92213    369.48294   -211.73711    38315.161 
  518400    285.91466   -1440.1081    496.52368    342.47182   -170.85223    38315.161 
  518500    296.75268   -1451.7826    464.79036    347.81388   -398.45571    38315.161 
  518600    303.41202   -1440.3066    465.90193    390.35544   -222.34816    38315.161 
  518700    303.01594   -1429.7492    460.90164    394.13094   -143.34643    38315.161 
  518800    298.72994   -1431.5571    465.05044    377.19321   -145.96694    38315.161 
  518900    309.84485    -1445.576    487.71846    435.83772     635.2839    38315.161 
  519000    312.05006   -1483.5634    458.39308    378.44405    116.48635    38315.161 
  519100    292.85733    -1456.224    458.43303    319.49367    -272.0861    38315.161 
  519200     294.7157   -1494.0514    484.92085    316.51316    869.50086    38315.161 
  519300    290.55665   -1519.2825     486.1378    273.79149    1094.3605    38315.161 
  519400     305.9577   -1485.1843    470.65161    361.67802    289.86114    38315.161 
  519500    297.28655   -1506.1407    478.52484    309.59164    338.91148    38315.161 
  519600    294.77321   -1488.2085    473.68874    311.38265    580.86388    38315.161 
  519700    303.37886   -1499.4327    483.84422    349.02245    210.47962    38315.161 
  519800    287.40668   -1496.6185     477.5792    273.72814   -561.73052    38315.161 
  519900    303.26552   -1494.0106    450.10455    320.19513    21.804725    38315.161 
  520000    300.95979   -1489.8359    453.34047    317.23445   -151.73953    38315.161 
  520100    306.31314   -1484.1466    474.32821    367.99111     476.0713    38315.161 
  520200    294.45437   -1492.4967     460.8733    292.84485    62.182068    38315.161 
  520300    309.30727   -1489.1995     455.6102    357.68792    93.107853    38315.161 
  520400    307.20991   -1446.4588    455.59088     390.9753    109.29612    38315.161 
  520500     303.9175   -1464.1736     485.3009     388.1611   -246.12958    38315.161 
  520600    296.61362   -1503.2528    483.52982    314.45761   -365.11889    38315.161 
  520700    306.24233   -1435.9092    466.02126    407.60304   -288.07124    38315.161 
  520800    303.91023   -1438.5012    478.09563    406.59556   -358.36211    38315.161 
  520900     303.8482   -1441.4611    466.62344    391.88445    144.33931    38315.161 
  521000    294.04785   -1460.9224    465.51787    327.23516   -8.1999923    38315.161 
  521100    308.88263   -1463.9261    466.69464    392.13564    70.017673    38315.161 
  521200    302.73221   -1458.5256    468.81036    371.98706    470.14203    38315.161 
  521300    306.96367   -1452.6829    507.96233    436.01501    86.019585    38315.161 
  521400    311.26402   -1444.0839    458.82417    414.81904    476.44965    38315.161 
  521500     302.5883   -1465.1068    488.02219    383.97044    589.94913    38315.161 
  521600     304.9997    -1473.852    484.59373    382.64331    724.52241    38315.161 
  521700    309.26994   -1435.9029    460.98412    416.19054    616.07919    38315.161 
  521800    297.10622   -1437.7992    487.14134     385.7385   -343.42814    38315.161 
  521900    300.72818   -1444.7919    475.78487    383.68104   -98.127148    38315.161 
  522000    292.72089   -1507.8358    489.04127    297.87646   -283.96249    38315.161 
  522100    311.09888   -1495.2407    455.49842    359.59362   -125.22886    38315.161 
  522200    295.14893   -1449.1245    458.09883    336.56675    436.04466    38315.161 
  522300    307.83242   -1493.9293    479.84792    370.56192    249.60076    38315.161 
  522400    308.10346   -1497.1441    459.21202    347.93038   -210.77255    38315.161 
  522500    303.26471   -1494.0352    494.76128    364.82356    198.77283    38315.161 
  522600    291.59912   -1501.9834    437.60967    247.25149    318.41662    38315.161 
  522700    302.67642   -1495.4666    449.37441    315.35916    258.85448    38315.161 
  522800    295.17027   -1495.1202      465.086    297.65422    77.803988    38315.161 
  522900    299.85607   -1478.4801    502.15204    372.43728   -125.06299    38315.161 
  523000    294.57365   -1471.2028    459.30655    313.10851   -188.71169    38315.161 
  523100     297.5096   -1506.5447     471.1793     302.8454   -259.62338    38315.161 
  523200    299.50191   -1495.1662    467.50012    319.50624    108.44765    38315.161 
  523300    299.71152   -1495.6739    457.75222    310.19343     432.7681    38315.161 
  523400     295.8962   -1485.7233    452.64805    297.87835   -240.01309    38315.161 
  523500    285.19807   -1512.8527    443.73737    213.71771   -301.03867    38315.161 
  523600    306.62446   -1481.0267    468.01536    366.19847    -518.8367    38315.161 
  523700    298.25092   -1453.9583    489.91807    377.50502    200.26598    38315.161 
  523800    310.16391   -1510.0141     422.3471    307.46341   -203.12174    38315.161 
  523900    304.57126   -1481.5661    458.83721    347.24555   -55.455544    38315.161 
  524000    300.19428   -1461.6468    433.22684    321.86658    56.623388    38315.161 
  524100    289.29839   -1468.3393    471.27789    304.21503     -120.618    38315.161 
  524200    296.68248   -1432.0556    457.64761    360.08239   -230.55642    38315.161 
  524300    304.66074   -1450.2929    429.53431     349.6183   -73.371145    38315.161 
  524400    306.50974   -1435.9469    447.60898    390.35588   -191.20171    38315.161 
  524500    298.21887   -1458.1875    486.78415    369.99782    17.364982    38315.161 
  524600    297.75759   -1482.2823    456.73331    313.77725    225.05902    38315.161 
  524700    286.79026   -1461.1532     482.1671    311.00869   -296.40691    38315.161 
  524800    296.34481   -1468.7147    465.39433    329.65115   -29.830648    38315.161 
  524900     299.2848    -1439.023    482.70651    389.87916    457.64753    38315.161 
  525000    299.79622   -1454.5691    473.55425    367.48125    149.90662    38315.161 
  525100    295.41515   -1448.6596    445.37952    325.50975   -750.24438    38315.161 
  525200    300.09156   -1465.9346     459.1964    343.08633   -384.37922    38315.161 
  525300    290.63745   -1468.1427    457.73844    296.89531   -147.23525    38315.161 
  525400    298.44976   -1484.8384    470.94286    328.54415   -175.70948    38315.161 
  525500    303.15358   -1454.2329    456.49173     365.8565     264.7933    38315.161 
  525600    292.99511   -1470.0076    444.14687    292.04367    112.23265    38315.161 
  525700    307.04443   -1452.5039    467.25651     395.8514   -16.570048    38315.161 
  525800    294.49047   -1439.3663    483.83677    369.10104    46.680723    38315.161 
  525900    308.60149   -1418.5265    466.31688    435.89293    85.362907    38315.161 
  526000    307.74655   -1472.8487    489.63538    401.04369   -91.162953    38315.161 
  526100    294.68518   -1452.5961    458.52415    331.43447    341.29475    38315.161 
  526200    298.78556   -1430.0903     490.1646    404.02446    427.43207    38315.161 
  526300    299.63159   -1441.1998    469.19481    375.75056   -168.49681    38315.161 
  526400    300.69162   -1451.3378    466.22377     367.4096    -316.8245    38315.161 
  526500    293.72027   -1444.3543    466.29942    343.11137   -665.99842    38315.161 
  526600    302.85589   -1439.7671    471.00727    393.49879   -77.353475    38315.161 
  526700    298.73898   -1468.1801    476.99039    352.55086   -222.09931    38315.161 
  526800    296.72015    -1489.159    474.26969    319.77052   -234.23875    38315.161 
  526900    303.94251   -1486.1524    476.65157    357.64545   -399.50719    38315.161 
  527000    288.62159   -1453.8819    450.65055    295.00077    -297.7684    38315.161 
  527100    294.96637   -1413.3649    478.46067    391.86704   -130.22731    38315.161 
  527200    295.96459   -1442.6856    468.78681    357.36246   -307.48088    38315.161 
  527300    306.77495   -1460.3273    485.08416    404.64359    139.50012    38315.161 
  527400    298.89258   -1467.9801    482.84382    359.29521   -460.37978    38315.161 
  527500    302.50677   -1494.2309    452.89085    319.34821   -570.52267    38315.161 
  527600     300.7739   -1471.8714    454.41868    335.44105   -510.64266    38315.161 
  527700    298.20595   -1481.2034    469.20474    329.34434   -894.78158    38315.161 
  527800    300.82254   -1525.5599    455.44391    282.99657   -215.44298    38315.161 
  527900    312.02533   -1510.1651    487.11273    380.45077    173.34923    38315.161 
  528000    301.32456   -1517.7088    464.80658    302.46839   -477.78887    38315.161 
  528100     307.4594   -1494.2616     465.4096    354.11335     156.7619    38315.161 
  528200    299.39748   -1474.2205     476.3573    348.83933     203.1149    38315.161 
  528300    298.67241    -1468.355    488.93813    364.02426   -101.76522    38315.161 
  528400    302.84586   -1469.6796    455.77381    348.30774    439.90652    38315.161 
  528500     307.2913   -1454.2705     468.3263    396.26512   -108.40146    38315.161 
  528600    303.86207   -1448.5032    490.60354    408.88476   -19.917517    38315.161 
  528700    297.31232   -1450.1126    455.36265    342.57342   -362.20708    38315.161 
  528800    306.38162   -1398.2085     481.9398     461.8488   -611.09048    38315.161 
  528900    302.71141   -1424.4705     473.8047    410.94296    -482.9765    38315.161 
  529000    310.17226   -1470.8636    465.97999    390.28438    150.26417    38315.161 
  529100    297.06316   -1447.5584    483.27237    371.91663   -452.60793    38315.161 
  529200    296.05416   -1469.0299    481.12423    343.75848   -195.41269    38315.161 
  529300     291.0119   -1434.0794    481.01784    355.92231   -182.82732    38315.161 
  529400     296.9323   -1433.5981    476.63738    378.65335    -322.6901    38315.161 
  529500    292.52791   -1457.5276     490.6579    348.93323   -98.507226    38315.161 
  529600    297.85071   -1466.1123    498.96929    372.60213   -571.74544    38315.161 
  529700    297.07101   -1469.3563    478.82475    345.70641   -268.76012    38315.161 
  529800    303.45851   -1466.8655    477.78038    375.88413   -90.072124    38315.161 
  529900    296.12306   -1516.4703    462.63722      278.141   -25.246124    38315.161 
  530000    289.46672   -1524.4721    485.16481    262.72634    284.58003    38315.161 
  530100    287.89067   -1533.3836    479.44796    241.00877    357.28113    38315.161 
  530200    290.57505   -1504.3603    480.11859    282.77712    219.17933    38315.161 
  530300    283.97262   -1469.4953    465.76496    273.59057    278.43273    38315.161 
  530400    301.84334    -1484.362    477.25743    350.59955     -482.857    38315.161 
  530500     292.1306   -1457.2141    488.84541     345.6471   -48.063743    38315.161 
  530600    310.45324   -1480.6313     482.8689    398.66942   -342.35963    38315.161 
  530700    299.35466   -1478.8598    496.52333    364.17345   -270.52776    38315.161 
  530800    292.66472    -1479.796    466.01652    302.63883   -427.59213    38315.161 
  530900     303.1209     -1495.43    479.88783    347.90851   -763.09722    38315.161 
  531000    295.58408   -1477.1456    486.74793    339.15208   -710.27884    38315.161 
  531100    302.22283    -1474.396    481.44398    366.45909   -109.32834    38315.161 
  531200    302.04269   -1472.1287    487.58004    374.05215    119.42965    38315.161 
  531300    309.81419   -1470.5246    492.02758    415.06027    487.82993    38315.161 
  531400    299.36534   -1445.2735    491.85925     393.1437    742.86494    38315.161 
  531500    300.79861   -1492.2094     481.1923    341.98773    264.09765    38315.161 
  531600    298.26249   -1491.6081    513.99735    363.98655    5.6634459    38315.161 
  531700    290.25644   -1483.5632    452.14615     274.1687   -332.38783    38315.161 
  531800    301.38298   -1435.0456    506.56986    427.15764     -187.194    38315.161 
  531900    293.45756   -1451.2057    490.39326    359.17207    138.72673    38315.161 
  532000    305.28175   -1445.9819    486.08659    413.27497    21.174139    38315.161 
  532100    300.52993   -1462.9967    465.95074    354.75038   -69.806489    38315.161 
  532200    297.80053   -1495.0551    458.98545    303.44975   -170.68068    38315.161 
  532300     303.4387   -1437.3857    478.73225     406.2267   -239.70702    38315.161 
  532400    296.07892   -1492.6208    455.26497    294.41973   -190.57267    38315.161 
  532500    303.38976    -1501.018     497.6132    361.25519    231.52915    38315.161 
  532600    301.53198   -1489.7333    472.37567    338.94595     326.3354    38315.161 
  532700    296.97839   -1495.6552    480.98703    321.15316    273.67138    38315.161 
  532800    308.23974   -1481.3219    490.26873     395.4223    285.45812    38315.161 
  532900    301.87294   -1481.4524    458.41501    334.79993    100.98128    38315.161 
  533000    298.66821    -1430.236    494.18846    407.37469   -91.967836    38315.161 
  533100    302.02231   -1445.3231    462.94105    376.12704   -30.823771    38315.161 
  533200      303.446   -1425.1343    483.71205    423.49068   -241.39694    38315.161 
  533300    308.41186    -1485.017    457.99945    360.23204   -81.165904    38315.161 
  533400    296.31183   -1486.4976     452.2674    298.59299   -300.47128    38315.161 
  533500    302.10368   -1473.3653    441.12657    326.63642    268.11861    38315.161 
  533600    297.28363    -1446.573     468.0478    358.66919     475.7934    38315.161 
  533700    306.12828   -1459.2751    514.99954    432.70235     887.5559    38315.161 
  533800    304.59929   -1451.2786    477.57213    396.39405    790.70598    38315.161 
  533900    299.00948   -1428.1114    471.73941    388.58536   -7.7087305    38315.161 
  534000    292.58182   -1420.4444    477.72531    373.32632    35.787282    38315.161 
  534100    303.29901   -1423.3424    480.44014    421.34952   -188.69067    38315.161 
  534200     299.6537   -1485.3814    469.08025    331.55394    96.740243    38315.161 
  534300    291.90574   -1485.0294    477.75107    305.72607   -313.44492    38315.161 
  534400    306.51518   -1488.7586    478.23956    368.19924    -62.57222    38315.161 
  534500    310.65362   -1441.6773    493.26952    448.92536    24.759378    38315.161 
  534600    305.25889   -1451.2403     473.0499    394.87703    4.7255375    38315.161 
  534700    293.95727   -1513.8032     464.3873    272.81639   -403.47222    38315.161 
  534800    309.36721   -1486.7296    461.21909    366.03631    292.76734    38315.161 
  534900    307.04557    -1459.454    479.07396     400.7239    169.27326    38315.161 
  535000    313.73235   -1468.6654    498.09879    440.61478    119.67041    38315.161 
  535100     305.5665   -1443.7668    495.61197    426.29622   -343.41396    38315.161 
  535200     305.8535   -1434.2901    460.02748    401.47939    203.95983    38315.161 
  535300    308.30186   -1439.6111    480.08433    427.22801   -334.25532    38315.161 
  535400    304.29088   -1449.1575    483.61836    403.17415    201.33009    38315.161 
  535500    304.67014   -1514.2885     471.2796    327.41034    239.50283    38315.161 
  535600    302.85686   -1501.3846    466.52896    327.40733     86.74747    38315.161 
  535700    290.88126   -1504.1006      463.186    267.48166    203.72864    38315.161 
  535800     300.1201   -1452.7985    462.52761      359.682   -198.04761    38315.161 
  535900    294.26481   -1447.8791     454.9674    330.70385    188.52119    38315.161 
  536000    288.91697   -1467.5746    470.54727    302.53348   -143.37922    38315.161 
  536100     309.3725    -1448.358    479.20635    422.41901    432.23631    38315.161 
  536200    298.45193   -1434.1855    473.78751    382.05139    558.98403    38315.161 
  536300    298.95008    -1427.776    486.08273     402.9969    714.30589    38315.161 
  536400    299.77115   -1465.1035    453.31874    336.59857     529.7449    38315.161 
  536500    282.27035   -1464.1027    466.53582    272.09715   -357.16926    38315.161 
  536600    308.74082    -1481.234    488.93565    396.43097    27.198412    38315.161 
  536700    296.60665   -1468.0706    474.46167    340.54036   -321.23835    38315.161 
  536800    307.34372   -1450.7081    476.47637    408.21339    70.758558    38315.161 
  536900    300.83135   -1445.4161    503.96454    411.70056    254.24344    38315.161 
  537000    292.50118   -1448.8967    477.42233    344.20831    76.893553    38315.161 
  537100    297.69497   -1450.3699     480.0342     368.7089    98.774854    38315.161 
  537200    301.61658   -1436.0719    483.32401    403.93625    246.16318    38315.161 
  537300    305.30351    -1469.574    473.61102    377.30517   -19.355192    38315.161 
  537400    298.24013   -1463.8127    449.83042     327.5145   -142.59222    38315.161 
  537500    307.34224   -1433.7861    482.63358     431.2859   -171.92393    38315.161 
  537600    299.42042   -1441.4952    489.16596    394.47653    602.36092    38315.161 
  537700    301.97789   -1459.1505    468.88273    368.04156   -425.75235    38315.161 
  537800    298.72082   -1474.4715    484.15517    353.34259   -646.31973    38315.161 
  537900    306.75763   -1481.0574    475.59012    374.34157   -2.2201776    38315.161 
  538000    293.06005    -1468.268    473.56085    323.48934   -502.50319    38315.161 
  538100    303.77932   -1456.9029    482.56816    392.07748   -497.03006    38315.161 
  538200    302.19444   -1473.2423    484.33645    370.37753    91.115516    38315.161 
  538300    296.29881   -1463.6563    491.01922    360.12754   -240.31217    38315.161 
  538400    291.38108   -1454.1254    482.21844    338.73742     124.0952    38315.161 
  538500    302.03032    -1443.212    476.20018    391.53332    8.4787906    38315.161 
  538600    303.03806   -1482.6667    473.15568    353.56699    439.50169    38315.161 
  538700    303.08737   -1502.8525    461.34896    321.79628   0.55904188    38315.161 
  538800    303.55645   -1479.3877    483.86509    369.88719    527.04394    38315.161 
  538900    301.06202   -1502.2931    457.42012     309.3168    469.20906    38315.161 
  539000    291.68542   -1454.3308    509.63474    367.31731     13.53013    38315.161 
  539100     286.2644   -1490.1385    473.10774    270.59867   -244.00819    38315.161 
  539200    294.98039   -1478.4575     481.5343    329.91108    317.95318    38315.161 
  539300    297.07437   -1462.4692    481.99804    355.78193    385.77867    38315.161 
  539400    307.74214   -1469.4233    486.49802    401.31191   -91.664227    38315.161 
  539500    304.31094   -1421.5689     484.6446    431.87923    105.08804    38315.161 
  539600     305.0027   -1474.9559    468.89824    365.85747     -213.504    38315.161 
  539700    296.85609   -1489.5997    485.81279    331.48437   -79.373378    38315.161 
  539800    303.68081   -1515.6108    485.99225    336.35054   -477.61295    38315.161 
  539900      304.788   -1485.6371    465.73667    351.04886   -114.67219    38315.161 
  540000    293.40955   -1523.2894    472.68485    269.16408     55.26912    38315.161 
  540100     305.2552   -1471.9032     472.9394    374.08706    52.122662    38315.161 
  540200    298.72044   -1507.8585    502.81364    338.61232    920.48459    38315.161 
  540300    309.95774   -1505.0663    481.96147    371.09817    469.32394    38315.161 
  540400    299.69464   -1469.5511    495.62374    374.11179   -246.42722    38315.161 
  540500    298.79948   -1487.1736    453.45526    310.29437     412.3149    38315.161 
  540600    284.58897   -1539.5716    461.19752    201.71916   -235.76851    38315.161 
  540700    298.91792   -1504.3462     459.3166    299.51589    84.569535    38315.161 
  540800    289.57538   -1500.2054    469.40717    271.72406   -468.72178    38315.161 
  540900    290.95535   -1477.7736     491.7533    322.70924    -792.4268    38315.161 
  541000    291.01526    -1501.975    473.05383    280.07784   -181.69726    38315.161 
  541100     307.4137    -1489.553    463.11902    356.32585   -309.22039    38315.161 
  541200    295.98449   -1456.6102    480.63955    355.38012    225.22112    38315.161 
  541300    312.29724   -1519.8232    480.49318    365.39616    1214.3088    38315.161 
  541400    297.75712   -1491.1005    483.05397    331.27764    677.30463    38315.161 
  541500    289.37532   -1470.5714    484.25612    315.30712    594.41492    38315.161 
  541600     296.7523   -1460.7586    468.72702     342.7728      559.733    38315.161 
  541700    293.74336   -1465.1054    505.10575     361.2704    505.36475    38315.161 
  541800    311.71971   -1472.2709    504.84195    434.69948    442.26924    38315.161 
  541900    296.08749   -1472.7307    472.72753    331.81086    270.09187    38315.161 
  542000    302.76024   -1505.2024     479.4761    336.10207    225.59015    38315.161 
  542100    303.20863   -1509.7167    496.72128    350.84988    936.17055    38315.161 
  542200    300.82334   -1510.1113    461.71917    304.72403    869.10021    38315.161 
  542300    294.74066   -1437.3846    493.88611     382.2575    419.03219    38315.161 
  542400    302.57713   -1474.0698    465.91636    352.85133    200.24775    38315.161 
  542500    297.02601   -1462.6495    501.05969    374.44571    561.60449    38315.161 
  542600    293.87271   -1449.0953    515.77663    388.53329     281.6899    38315.161 
  542700    302.96688   -1435.1142    509.35943    437.00308    539.70001    38315.161 
  542800    301.34751   -1486.5416    491.90723    360.83947   -14.724327    38315.161 
  542900    308.68589   -1470.2807    487.77361    405.97512    268.23719    38315.161 
  543000    294.94801   -1457.2492    501.72859    371.16807    95.974667    38315.161 
  543100    294.55746   -1450.8503    472.36652    346.44812    70.107097    38315.161 
  543200    305.42593   -1459.4412     524.4194    438.79698   -7.1206282    38315.161 
  543300    300.57586   -1481.3328    473.84435    344.51452    233.82441    38315.161 
  543400    293.39512   -1478.0965    464.00799    305.61517   -127.21039    38315.161 
  543500    298.74454   -1464.7043    494.83033    373.89168    738.23385    38315.161 
  543600    304.03167    -1499.883     499.2814    366.94576     481.6437    38315.161 
  543700    298.20996   -1461.5061    486.51152    366.36643    219.19427    38315.161 
  543800     304.7974   -1466.3489    480.77015    385.41283   -121.64325    38315.161 
  543900      295.926   -1467.9029    500.12735    363.31216   -351.79376    38315.161 
  544000    303.70866   -1438.3679    485.50321    413.22976   -296.71886    38315.161 
  544100    300.87639   -1464.0112    483.35195    372.69549   -267.10337    38315.161 
  544200     293.1218   -1485.8224    488.82834    321.48021   -336.02307    38315.161 
  544300    292.89769   -1469.6131    501.94597    349.79912   -336.39449    38315.161 
  544400    293.09966   -1453.1407    484.57961    349.81363   -138.07567    38315.161 
  544500    294.51239   -1465.7474    462.83938    321.82123   -97.354973    38315.161 
  544600     301.8805   -1432.7964    504.81867    429.89353    22.391075    38315.161 
  544700    296.72182   -1420.0623    495.03837    409.64336   -263.58881    38315.161 
  544800    299.92528   -1450.1442     474.5366    373.46907    24.822451    38315.161 
  544900    299.00235   -1444.7886    492.54967    392.68634   -70.049388    38315.161 
  545000    307.29416   -1446.8742    479.74519    415.09318     65.61454    38315.161 
  545100     305.2885   -1457.9445    482.24617    397.50231   -446.04235    38315.161 
  545200     298.6738   -1480.2888    485.48391    348.64257   -76.215503    38315.161 
  545300    285.33463   -1462.4161    474.34321    295.37436    313.00344    38315.161 
  545400    308.61863   -1460.1572    487.63875    415.66124    726.53588    38315.161 
  545500    309.24614   -1480.9088    491.20031    401.29376    804.98882    38315.161 
  545600    306.68577   -1445.2308     480.6987    414.95344    545.14676    38315.161 
  545700    300.00754   -1433.3276    470.09752    386.21655    154.36543    38315.161 
  545800    289.73697   -1467.3275    465.90656    301.82821     464.4852    38315.161 
  545900    302.00809    -1536.249    466.67537     288.8716    55.866022    38315.161 
  546000    298.09958   -1460.7243    458.10365    338.24388    187.17333    38315.161 
  546100    305.27122   -1464.7282    486.18051    394.57525    1.5672326    38315.161 
  546200    291.37894    -1489.581    476.29729    297.35114   -256.51061    38315.161 
  546300    309.96079   -1461.4431    472.27661    405.05024    251.91903    38315.161 
  546400    305.85098   -1439.4472    480.80879    417.09223    253.58972    38315.161 
  546500    304.14864    -1458.638    479.32185    388.75728    138.89394    38315.161 
  546600    298.60706   -1501.9792    475.47473    316.64277    7.9151944    38315.161 
  546700    287.32109   -1476.0737    484.20251     300.5113   -276.32618    38315.161 
  546800    301.70732   -1519.6498    458.85296    296.29544   -500.39694    38315.161 
  546900    289.94241   -1494.7289    490.20675    299.65109   -187.82363    38315.161 
  547000    289.14409   -1477.1187    475.80586    299.26951   -592.40153    38315.161 
  547100    303.85252   -1446.8632    491.37578    411.25411    -675.3881    38315.161 
  547200    303.61577   -1411.5688    480.50589    434.61369    84.801657    38315.161 
  547300    311.83976   -1411.3173    484.51301    475.86415    128.96984    38315.161 
  547400    288.64864    -1480.238     469.9609     288.0767    88.557016    38315.161 
  547500    303.65427   -1488.6396    477.89184    355.10204    37.149826    38315.161 
  547600    314.44072   -1499.3389    465.99677    381.02558   -66.675382    38315.161 
  547700    292.98619   -1552.5792    464.53305    229.81818   -787.27754    38315.161 
  547800    297.37425   -1499.5743    489.40458    327.43226   -451.84385    38315.161 
  547900    292.32436     -1520.72    479.59325    273.76063   -547.99742    38315.161 
  548000    301.66276   -1535.5705    461.80306    283.12446   -68.526428    38315.161 
  548100    306.30928   -1508.6012    478.17705    347.36797     802.4888    38315.161 
  548200    295.87977    -1524.974    479.72761    285.63339    261.54688    38315.161 
  548300    292.61165   -1532.4582    460.07458    243.79597    268.39256    38315.161 
  548400    303.36392   -1531.1663     454.0911    287.46855    536.76087    38315.161 
  548500    300.02621   -1494.3616    486.43465    341.60366    14.207795    38315.161 
  548600    318.55552   -1469.3397    484.55548    448.09205    99.986369    38315.161 
  548700    291.75372   -1516.1404    467.53508    263.71527   -596.99485    38315.161 
  548800      299.919   -1474.5406    486.15379    360.66156   -748.90297    38315.161 
  548900    290.79332   -1494.1464    455.17795    269.03221    -271.6713    38315.161 
  549000    302.53248   -1512.4623    488.61047    336.95209   -376.57045    38315.161 
  549100    298.09345   -1467.6327    474.81268    348.01691   -532.40171    38315.161 
  549200    301.59568   -1470.4917    488.93193    375.03041   -341.83524    38315.161 
  549300    296.29747   -1436.7782    496.07656    392.05693    211.88774    38315.161 
  549400    310.73211   -1439.0751    486.14169    444.75276   -289.33223    38315.161 
  549500    300.24612   -1461.8841    490.83687     379.4725    36.500382    38315.161 
  549600    293.56883   -1492.6021    486.27395    314.15691     437.5867    38315.161 
  549700    307.09763   -1508.1055    469.09075    342.32337    102.48376    38315.161 
  549800     301.6967   -1473.6712    482.08333    365.45671   -105.19488    38315.161 
  549900    294.50784   -1472.5984     475.1435    327.25389    75.461404    38315.161 
  550000    313.45874   -1471.6758    469.07099     407.3459    -638.8205    38315.161 
  550100    299.82947   -1424.2418    478.58624    402.99012   -290.04158    38315.161 
  550200    299.91906   -1433.3048    501.15342    416.89728   -950.47423    38315.161 
  550300    292.25547   -1463.4286    474.72185    325.87077   -120.75793    38315.161 
  550400    311.73375    -1484.359    465.39526    383.22782   -433.19234    38315.161 
  550500    285.01243    -1470.595    467.59248    278.99547    427.95819    38315.161 
  550600      312.131   -1490.4411     488.7765    402.31389   -133.03878    38315.161 
  550700    294.81621   -1447.9554    491.05792    369.19828    220.54547    38315.161 
  550800    293.96583    -1496.324    475.57381     301.5206    177.17962    38315.161 
  550900    299.08406   -1443.2585    487.23301    389.26725     327.7157    38315.161 
  551000    297.58974   -1461.4387     489.6289    366.76143    481.71716    38315.161 
  551100     291.2661   -1495.5293    515.03978    329.63778    45.403846    38315.161 
  551200    297.67849   -1476.6201    465.62193    327.97227    132.05506    38315.161 
  551300    294.54616   -1480.1645    441.05473    285.77132    -30.35788    38315.161 
  551400     301.7164   -1480.1168    481.27425    358.29061   -311.32505    38315.161 
  551500     304.4194   -1491.1618    466.86135    344.99093   -235.52908    38315.161 
  551600    301.77941   -1451.7186    456.93835     362.6363   -157.00195    38315.161 
  551700    299.76878   -1448.2995    480.03738    380.11052   -201.55337    38315.161 
  551800    302.51714   -1480.0286    465.70679    346.41305   -467.76492    38315.161 
  551900    292.20617    -1516.494    472.47143    270.33316   -425.90358    38315.161 
  552000    299.13779   -1498.9076    466.96877     313.5956     7.013092    38315.161 
  552100    282.73647   -1480.3468    464.94697    256.36078   -341.03519    38315.161 
  552200    306.04598   -1501.3641    475.37609    350.61981   -557.42816    38315.161 
  552300    299.07022   -1513.0696    466.74752    298.90842   -798.68392    38315.161 
  552400    298.91431   -1499.4798     505.9387    350.98809   -4.4713485    38315.161 
  552500    294.51815   -1494.3332    464.19784    294.61977   -548.25872    38315.161 
  552600    302.48318   -1469.9623    467.86731    358.48715   -428.75805    38315.161 
  552700    292.79931    -1473.999    483.01784    326.04254   -58.693803    38315.161 
  552800    307.91374   -1502.4576     466.5044    349.05582    348.80681    38315.161 
  552900    292.21939   -1517.9154    460.73906    257.23886   -501.10124    38315.161 
  553000    299.27979   -1520.9253    493.38417    318.63206    297.42063    38315.161 
  553100    312.49891    -1496.884    459.58325    368.33256    654.13503    38315.161 
  553200    307.41447   -1500.8554    495.07726    376.98512    947.20733    38315.161 
  553300    295.82348   -1541.4621    456.84919    246.01369    752.90836    38315.161 
  553400    312.06053    -1551.759    481.59544    333.49792     142.0495    38315.161 
  553500    292.11717   -1547.4633    457.66781    224.15992    562.73311    38315.161 
  553600    305.81082   -1532.9815    455.43896    298.00743    236.95446    38315.161 
  553700    292.58679   -1457.9922    512.91411     370.9897    345.39617    38315.161 
  553800    301.97431   -1497.8075    494.20517    354.69092    -35.60444    38315.161 
  553900    294.50969   -1500.1989    473.15192    297.67009   -527.14161    38315.161 
  554000    297.96263   -1494.6011    452.52478    298.17218   -745.29386    38315.161 
  554100    287.06917   -1442.8484    506.65458    355.05547   -648.72116    38315.161 
  554200    294.66765   -1443.2645    516.26216    398.42519   -827.83476    38315.161 
  554300    298.25201   -1450.5528    434.90083    325.89819   -544.35608    38315.161 
  554400    303.79931   -1474.4149    508.98019    401.06749   -533.62083    38315.161 
  554500    292.25162   -1432.2924    452.96091    335.22868   -666.78248    38315.161 
  554600    308.19095   -1417.3301    501.74754    470.67344   -472.93844    38315.161 
  554700    302.80029   -1446.8546    465.07525    380.22921   -113.01706    38315.161 
  554800    295.42311   -1451.8915    500.76772    377.70191    118.29095    38315.161 
  554900    301.47091   -1480.2378    495.25242    371.04353    776.14222    38315.161 
  555000    304.85018   -1480.3962    489.66685    380.49968    354.03504    38315.161 
  555100    291.39513    -1448.413    465.93768    328.23233    600.40787    38315.161 
  555200    304.78367   -1470.0069    450.89809    351.82107    282.94403    38315.161 
  555300    308.46447   -1445.5339    512.71664      454.669    -111.1573    38315.161 
  555400    299.78883   -1506.8466    442.31483    283.93106   -748.00615    38315.161 
  555500    297.90128   -1483.1289    484.89483    341.73854   -482.70513    38315.161 
  555600    303.36534   -1462.4183    473.24956     375.3814    -429.6365    38315.161 
  555700    290.02371    -1460.768    479.34238    323.11327    -512.1834    38315.161 
  555800    292.96017   -1470.6584    493.20689     340.2957   -63.919771    38315.161 
  555900    310.97732   -1475.1152    487.56138    411.23534   -40.271951    38315.161 
  556000    315.78487   -1483.7895     475.3359    411.96007    122.67837    38315.161 
  556100    307.63019   -1482.2461    489.09185    390.57935    17.019462    38315.161 
  556200    307.03185   -1456.5864     470.5219    394.97782   -507.52202    38315.161 
  556300    301.54491   -1466.0094    475.58445    365.93687   -870.29144    38315.161 
  556400       303.53   -1426.7374    488.45038    427.00381   -267.06925    38315.161 
  556500    302.80859   -1471.1491    480.46564     371.3624    393.80189    38315.161 
  556600    300.07692   -1505.2544    511.75963    356.26396    403.04449    38315.161 
  556700    299.59233   -1496.8275     481.4764    332.22788    -260.0418    38315.161 
  556800    301.79248   -1440.2359    466.46887    383.70828    -270.3984    38315.161 
  556900    302.49874   -1484.0767     516.5763    393.15171   -217.09826    38315.161 
  557000    296.33563   -1447.9889    462.77243    347.71376   -417.28435    38315.161 
  557100    304.25863   -1421.2645    490.51118    437.81491   -437.84852    38315.161 
  557200    307.42514   -1412.9908    483.13062    452.95112   -529.34533    38315.161 
  557300    292.93134   -1418.7958    476.36605    375.18784   -261.39401    38315.161 
  557400    297.62955   -1465.6568    491.83264    364.92618    9.8799133    38315.161 
  557500    298.01895   -1526.8512    461.07418    274.72486    409.02068    38315.161 
  557600    294.24558    -1538.355    473.03204    258.20608    176.96429    38315.161 
  557700    301.34027   -1498.0029    449.29907    306.73744   -34.625804    38315.161 
  557800    299.81811   -1455.3321    477.99019    371.25266   -92.392907    38315.161 
  557900    301.77004   -1447.9778    472.16734    381.56398    514.69461    38315.161 
  558000    300.71975   -1444.1448    533.97677    442.48217   -425.61547    38315.161 
  558100    298.80332   -1453.9636    463.05988    353.12626    79.935758    38315.161 
  558200    304.57305   -1475.7161    496.91592     391.1823   -10.498966    38315.161 
  558300    305.52804    -1460.059    497.25822    411.47728    216.25501    38315.161 
  558400    289.44512   -1472.1674    468.98539    298.75444   -193.17769    38315.161 
  558500    306.86608   -1483.6282    480.49213    377.16057    160.56012    38315.161 
  558600    299.80146   -1472.3661    472.01591    348.16944    110.63281    38315.161 
  558700    306.18323   -1475.1029    491.70195    393.82417    151.95765    38315.161 
  558800    305.56444    -1456.963    487.61663    405.09543   -216.19242    38315.161 
  558900    294.72838    -1441.886    461.37958    345.19429   -213.50245    38315.161 
  559000    312.08698   -1425.0027    481.13051    459.90822   -382.88826    38315.161 
  559100    305.56358   -1477.3231    475.37291    372.48774     45.47106    38315.161 
  559200    300.06329   -1468.6406    455.46004    336.51685   -390.59953    38315.161 
  559300    290.74947   -1475.5324     504.6524    336.92342   -499.61778    38315.161 
  559400    292.99431   -1516.7196    462.45135    263.63251   -265.69575    38315.161 
  559500    302.95375   -1511.3411    477.82903     329.1867   -669.66884    38315.161 
  559600    297.07392   -1473.2334    462.37253    325.39021    -366.2416    38315.161 
  559700    304.04964   -1501.6056     467.5238    333.54642   -123.63779    38315.161 
  559800    302.28444   -1460.0726    470.85878    370.47434    30.019376    38315.161 
  559900    294.14016    -1472.316    486.50172    337.24061   -323.59211    38315.161 
  560000     295.8773     -1515.06    477.88665    293.69527   -197.02801    38315.161 
  560100      291.578   -1531.0128    482.78178    263.29917    81.635814    38315.161 
  560200     297.7652   -1506.6429    483.57218    316.28977     134.5432    38315.161 
  560300     301.4717   -1532.8245    457.99649    281.20442    35.579603    38315.161 
  560400     297.7765   -1487.3068    474.55881     326.6633    56.123126    38315.161 
  560500    301.41379   -1497.1114    502.08661    360.74724   -222.22669    38315.161 
  560600    300.12654   -1506.5299    470.60446    314.05642   -266.07623    38315.161 
  560700    304.48618    -1456.085    473.81169    387.31848    70.942561    38315.161 
  560800    296.83299   -1471.4708    491.73647    355.43304   -146.50168    38315.161 
  560900    311.30042   -1511.1232    460.49984    349.61908     29.71748    38315.161 
  561000    292.53524    -1507.113    481.26236    289.98527    262.73986    38315.161 
  561100    302.62676   -1495.7488    486.22573    351.70489    899.72454    38315.161 
  561200     319.0116   -1501.8588    481.37079    414.43971    497.40844    38315.161 
  561300    297.52961   -1512.8266    460.51935    285.99354     416.9293    38315.161 
  561400    300.94612   -1532.1981    496.20776    317.67809    274.06676    38315.161 
  561500    299.96909   -1494.9773    471.14562    325.44197    100.05773    38315.161 
  561600    308.82766   -1539.9457    482.03531    331.20953   -65.715781    38315.161 
  561700    305.05896   -1491.6984    476.97537    357.44511   -42.105118    38315.161 
  561800    306.59825   -1493.5102    465.08598    350.66772    21.817769    38315.161 
  561900    300.04397   -1494.5923    448.21711    303.23532    60.365383    38315.161 
  562000    290.39052   -1462.9323    471.29021    314.54677   -127.37151    38315.161 
  562100    303.35292    -1455.098    481.74548    391.14177    555.20529    38315.161 
  562200    300.18645   -1432.7976    489.13822    406.59196    298.33325    38315.161 
  562300    301.54765   -1455.9189    515.81438    416.26957    483.38507    38315.161 
  562400    296.16455   -1482.7773    465.91067     315.2941   -160.57298    38315.161 
  562500    296.58932   -1449.6532    497.66826    382.08635   -3.2740256    38315.161 
  562600    290.26108   -1470.3485     493.2406    328.49867   -273.36628    38315.161 
  562700    299.95559    -1453.517    489.91894    385.61491   -308.67417    38315.161 
  562800    300.43267   -1428.1022    494.14799    417.40464    152.08605    38315.161 
  562900      311.251   -1459.4496    482.19234    422.76295    378.68588    38315.161 
  563000    304.20882    -1450.322    479.97476    397.99697   -108.20758    38315.161 
  563100    303.77712   -1482.7211    488.02558    371.70686   -502.32821    38315.161 
  563200    311.26542   -1475.4343    486.72546    411.37622   -115.94095    38315.161 
  563300    296.55201    -1519.707    451.45697    265.65345   -97.055477    38315.161 
  563400    304.66578   -1512.9559     495.0869    352.53056    510.23608    38315.161 
  563500    301.88545   -1511.0191    508.20376     355.0782   -473.22034    38315.161 
  563600    303.40078   -1501.7392    448.34198    311.31234    167.20735    38315.161 
  563700    295.07706   -1500.4538    487.48395    314.29924   -231.00943    38315.161 
  563800    287.14631   -1503.5008    479.00838    267.10387   -174.58328    38315.161 
  563900     299.3631   -1499.0502    466.10236    313.60012     195.6435    38315.161 
  564000    297.36635   -1512.5487    500.89745    325.91525   -307.26714    38315.161 
  564100    300.67051   -1526.0874    473.41313    299.75446    373.61192    38315.161 
  564200    298.41201    -1576.813    449.07993    214.53676    420.97282    38315.161 
  564300    300.73741   -1511.2257    504.85374    346.35761   -28.568383    38315.161 
  564400    300.45786   -1556.2171    482.85584    278.11089    15.726793    38315.161 
  564500    293.65517   -1504.5512     460.4054    276.72763   -382.13442    38315.161 
  564600    298.18989   -1487.1198    489.48016    343.63117   -378.85794    38315.161 
  564700    304.89524   -1501.8691    468.90771    338.47028   -17.247425    38315.161 
  564800    295.04872   -1473.8511    489.28823    342.57881   -416.13043    38315.161 
  564900    286.21907   -1434.2864    508.73788    361.87692   -490.74122    38315.161 
  565000    292.84732   -1435.9748    479.06858    360.33345   -629.59171    38315.161 
  565100    306.06746   -1471.2911    484.28981    389.70314   -636.22451    38315.161 
  565200    291.27814   -1503.6508    490.47865    297.00932   -330.59541    38315.161 
  565300    303.60997   -1454.2246    506.99499    418.42084     475.8017    38315.161 
  565400    292.92789    -1422.949    507.54799    402.20099    368.37489    38315.161 
  565500     305.2746   -1462.6872     496.2615    406.71234    58.220089    38315.161 
  565600    300.58355   -1472.8441    474.61079     353.8042      88.6273    38315.161 
  565700    328.84756   -1525.6956    499.63289    453.10761    290.63274    38315.161 
  565800    305.23993   -1449.4874    468.88974    392.38448    641.50507    38315.161 
  565900    303.66684   -1474.5195    487.04711    378.43391    410.31003    38315.161 
  566000    299.21243   -1456.5174    492.27218    381.62501   -2.0642947    38315.161 
  566100    305.94042   -1480.1793    499.24821    395.20187    105.60293    38315.161 
  566200     303.9029   -1488.3048    498.03687    376.70019    -515.5757    38315.161 
  566300    296.74474    -1489.314    483.53082    328.98725   -627.83965    38315.161 
  566400    291.65607   -1435.3848    477.32203    353.81865   -188.20191    38315.161 
  566500    311.43331   -1509.2906    472.97937    364.52902   -355.34169    38315.161 
  566600    303.34672   -1492.8594    459.05004    330.65704   -702.45693    38315.161 
  566700    289.96224   -1504.4031    511.68378    311.54307   -674.55492    38315.161 
  566800    302.63833   -1482.2463    482.09554    361.12928    493.38092    38315.161 
  566900     301.1138   -1466.7517    507.73037    395.40135    66.992985    38315.161 
  567000    305.36143   -1500.1042    481.70133    355.12574   -208.08812    38315.161 
  567100    300.37495   -1486.8195    472.67989    336.95966    124.86239    38315.161 
  567200    308.74063   -1464.7946    480.71397    404.64778   -621.56453    38315.161 
  567300    296.46091   -1482.8662      484.803    335.43051   -378.01452    38315.161 
  567400    308.95565   -1497.7196    486.47495    378.45096   -147.72793    38315.161 
  567500    296.05456   -1476.4013    494.73748    350.00214    153.09518    38315.161 
  567600    301.55622   -1498.2578    498.57405    356.72895   -210.60213    38315.161 
  567700    303.47926   -1509.8672    468.81454    324.00987    319.16726    38315.161 
  567800    300.76494   -1501.4021    493.18771    344.63901   -346.58618    38315.161 
  567900     303.1373   -1485.5038     488.6143    366.63497   -666.33277    38315.161 
  568000    299.04655   -1478.9224    489.39973    355.60137   -387.83163    38315.161 
  568100     298.8636   -1497.7321    457.58257     304.1516   -595.87309    38315.161 
  568200    308.46804   -1544.7755    460.29571    303.02251   -593.75728    38315.161 
  568300     309.4446   -1527.7039    470.86838    335.05943   -1116.0735    38315.161 
  568400     306.1877   -1527.7031    489.66326     339.2054   -838.63493    38315.161 
  568500     292.4389   -1512.6213      485.193     287.9743   -722.19839    38315.161 
  568600    303.66984   -1522.7183    486.69415    329.89564   -595.86743    38315.161 
  568700     309.4809     -1548.25    474.17341    317.98157   -705.73992    38315.161 
  568800    290.09764   -1544.3559    471.66529    232.18087    -763.3829    38315.161 
  568900    286.10966   -1595.0354    463.57691     155.4749   -816.72758    38315.161 
  569000    294.40292   -1596.0149    474.91121    203.13315   -1094.2871    38315.161 
  569100    299.68466   -1534.5138    477.12572    290.60622   -695.50966    38315.161 
  569200    306.95501   -1526.5439    466.02816    320.18087   -688.44071    38315.161 
  569300    296.21578    -1530.419    488.58335    290.55544   -504.78673    38315.161 
  569400    305.15135   -1558.8527    499.19187    312.92284   -64.510227    38315.161 
  569500    293.16335   -1561.7826    449.27358    206.15214    72.443782    38315.161 
  569600    298.88238   -1545.5723    501.22784     300.0412   -177.11462    38315.161 
  569700    300.20072   -1542.9019    516.63879    324.05243    695.60466    38315.161 
  569800    295.96641   -1573.0434    468.00219    226.22827   -46.110551    38315.161 
  569900    288.86715   -1560.3808     476.6162    215.57204    308.42496    38315.161 
  570000    303.12277   -1542.6021    499.91004    320.76702    498.40175    38315.161 
  570100    297.10251   -1536.0123    487.74549    288.11286    517.89862    38315.161 
  570200    291.91405   -1570.3969    513.64095    256.28585    319.14743    38315.161 
  570300    291.10841   -1566.5965     489.0851    231.90655   -533.30638    38315.161 
  570400    300.15685   -1514.6312    493.60526    329.09223    191.04589    38315.161 
  570500    294.15486   -1562.7635    478.77714     239.1347    15.776867    38315.161 
  570600    301.33923   -1526.9634    494.52755    323.00081   -419.45456    38315.161 
  570700    304.65527   -1500.4942    490.35058    360.20866   -302.40917    38315.161 
  570800    309.27312   -1508.5414    475.71392    358.29608   -239.92369    38315.161 
  570900    296.80072   -1523.9105    470.54332    281.65501   -593.72516    38315.161 
  571000    300.25722    -1559.778    471.74832    262.53998   -213.27216    38315.161 
  571100    289.10751   -1585.3659    458.29548    173.34743   -20.732465    38315.161 
  571200    292.51859   -1602.9142    461.50266     174.3495   -271.62225    38315.161 
  571300    302.56186   -1546.6705    482.95397    297.21958   -88.087637    38315.161 
  571400     309.9537   -1610.2148    463.89157    247.86166    -438.6652    38315.161 
  571500    301.35899   -1569.8418    464.29089     249.9746    312.94267    38315.161 
  571600    297.73184   -1562.2218    479.92472    256.91337   -445.56688    38315.161 
  571700    302.63744   -1530.9406    507.61807    337.95346   -64.983801    38315.161 
  571800    299.58372   -1510.7899    479.95066    316.70107   -899.00418    38315.161 
  571900    294.36002   -1517.6589    466.57107    272.95598   -907.20756    38315.161 
  572000    306.69156   -1498.9056     466.3722    346.97825      -549.23    38315.161 
  572100     295.7077   -1549.9746    492.29048     272.4216    -444.3799    38315.161 
  572200    293.79139   -1535.0831    486.95636    273.35943   -247.58103    38315.161 
  572300    299.53516    -1539.813    491.36486    298.87367    29.760959    38315.161 
  572400    302.28271   -1540.3382    492.47771    311.81989    145.23359    38315.161 
  572500    292.18773   -1513.7437    496.83847     297.3676    683.07274    38315.161 
  572600       287.84   -1464.0799    511.12959     341.7662    982.94246    38315.161 
  572700    292.43242   -1482.1525    480.24967    313.47063    855.75344    38315.161 
  572800    316.84598   -1520.0622    499.86405    404.98848    1078.7677    38315.161 
  572900    295.02353   -1536.3474    478.14526    268.82621    517.26828    38315.161 
  573000    296.38997    -1555.662    485.15131    262.66398    1049.7938    38315.161 
  573100    315.87879   -1556.6348    480.70526    344.90668    1139.4112    38315.161 
  573200    301.60995   -1558.2518    471.27341    269.67593    603.62963    38315.161 
  573300    306.31572   -1518.1245    485.30072    344.99731    487.46519    38315.161 
  573400    300.43403    -1513.252    492.68345    330.79647    769.88416    38315.161 
  573500    291.25138   -1509.3527    489.55098     290.2593    926.65196    38315.161 
  573600    293.79726   -1538.9685    475.38053    257.92452      873.156    38315.161 
  573700    298.57692   -1504.3214     486.9824    325.67268    482.08769    38315.161 
  573800    296.74657   -1535.0375    470.03437    269.77554    715.53642    38315.161 
  573900    302.55728   -1541.7331    454.17417    273.35655    150.55336    38315.161 
  574000    300.07022   -1541.6656    484.42921    292.49212   -17.168322    38315.161 
  574100    294.77558   -1544.6113    466.87453    248.17625   -436.35941    38315.161 
  574200    296.88132   -1494.0025    489.23823    330.62046   -385.81777    38315.161 
  574300     305.1453   -1509.8968    497.12658     359.7863    139.30932    38315.161 
  574400    308.48775   -1477.5837    514.51476    424.52203   -235.54365    38315.161 
  574500    297.40455   -1511.4541    512.71849    339.00269    31.034661    38315.161 
  574600    308.88957   -1485.2101    516.77471    420.96296   -395.70043    38315.161 
  574700    305.85378   -1509.1477    482.24187    348.83746   -831.06185    38315.161 
  574800    296.16915   -1526.1215    474.84685    280.90674   -509.64322    38315.161 
  574900     300.5971   -1500.6357    492.95382     344.4166   -579.81671    38315.161 
  575000    289.43251   -1547.4804    494.64404    249.04339   -373.30686    38315.161 
  575100    306.80893   -1569.2049    495.53976    306.37448    443.17912    38315.161 
  575200    307.25819   -1567.2609    483.21529    298.01471    183.71664    38315.161 
  575300    297.71953   -1551.8538    475.32434    262.62565   -106.51905    38315.161 
  575400    305.50298    -1533.539    489.50828    330.13463   -229.37825    38315.161 
  575500    299.58998   -1510.7799    485.64541    322.43394   -476.57554    38315.161 
  575600     306.1841   -1502.4348     455.3682    330.16251   -718.10563    38315.161 
  575700    292.26071   -1531.3997    471.13179    254.33316   -450.75149    38315.161 
  575800    299.35116   -1526.2757    469.18313    289.40163   -251.93577    38315.161 
  575900     304.7061   -1490.0889    480.31918    360.81119     -397.014    38315.161 
  576000    288.46548   -1500.1368     495.6173    293.01042   -677.59134    38315.161 
  576100    301.45498   -1447.7659    488.16915    396.36055   -37.448339    38315.161 
  576200    303.76717   -1507.4727    460.16373    319.04862   -207.93335    38315.161 
  576300    308.09523   -1464.0808    484.45181    406.19643   -509.37321    38315.161 
  576400    296.78961   -1501.5536    491.23618    324.65481   -59.017247    38315.161 
  576500    301.95155   -1516.7182    507.51527    348.98794    202.43983    38315.161 
  576600     313.3057   -1503.2213    477.14927    383.19029    -263.0102    38315.161 
  576700    296.92172    -1524.073     477.0228    288.51627   -674.76848    38315.161 
  576800    309.21376   -1466.5079    470.36735    394.71597    -264.9399    38315.161 
  576900    308.65838   -1486.3706    509.46847    411.45637    70.705199    38315.161 
  577000    295.39865   -1476.1434    476.91731    329.48957    382.96948    38315.161 
  577100    283.62062   -1487.7346    502.85659    290.85949     299.9462    38315.161 
  577200    302.66765   -1470.7918    511.83475    402.45492    293.96928    38315.161 
  577300    302.02231   -1454.0361    483.10041    387.57348    143.55808    38315.161 
  577400    296.34183   -1497.7233    489.82883     325.0636    129.49791    38315.161 
  577500    307.53072   -1461.2825    490.13515    412.13883    86.661553    38315.161 
  577600    308.61357   -1483.8179       486.16    390.49903   -398.57308    38315.161 
  577700    287.53334   -1491.4112    503.83724     305.7632    -422.7724    38315.161 
  577800    299.44069   -1471.1913    458.71167    334.41731   -15.342918    38315.161 
  577900    297.88951   -1461.9484     492.2366     370.2078    99.058332    38315.161 
  578000     298.8367   -1446.9382    521.28952    418.53141    463.34021    38315.161 
  578100    299.51314    -1487.731    464.70932    324.20107    621.79456    38315.161 
  578200    299.62376   -1470.1292    488.96525    366.55642    852.46161    38315.161 
  578300    301.13307   -1478.9596    504.74258    380.29226   -101.25362    38315.161 
  578400    308.32943   -1519.9664    463.62566    330.53813    25.961179    38315.161 
  578500    295.85806   -1484.7297    490.99791    337.05026    60.766832    38315.161 
  578600    294.19002   -1490.0534    521.38744    354.61318    278.37895    38315.161 
  578700    295.75062   -1500.0583    486.53385    316.77435    62.157333    38315.161 
  578800    296.07639   -1488.2766     483.8748    327.36234   -259.39662    38315.161 
  578900    290.40165   -1488.4349     462.3389    280.14294   -212.41723    38315.161 
  579000    297.40162   -1496.0989    491.94291    333.56906   -235.12382    38315.161 
  579100    307.81974   -1496.1273    447.99171    336.45065    182.33285    38315.161 
  579200    302.31248   -1502.2828     512.7629    370.29446    130.14736    38315.161 
  579300     294.9333   -1498.1331    497.45808    325.94748    367.99006    38315.161 
  579400    305.86782   -1555.8715    488.59095    308.52589    131.90267    38315.161 
  579500    308.00929    -1525.628    492.33818    352.14901    377.94303    38315.161 
  579600    306.09275   -1512.9829    505.99199    369.82721    782.05761    38315.161 
  579700    299.83011   -1496.3774    490.02733    342.29842     439.7223    38315.161 
  579800    287.31291   -1489.6809    478.43794    281.10266    42.425564    38315.161 
  579900    296.05688   -1470.9596    491.78944    352.50629   -1050.8269    38315.161 
  580000    302.20511   -1489.6999    479.48724    349.11873   -229.12345    38315.161 
  580100    309.74468    -1481.245    498.80105    410.80075   -443.72243    38315.161 
  580200    300.48966   -1478.8638    499.18496    371.93634   -245.66461    38315.161 
  580300    300.35422   -1477.8892    496.44251    369.55936   -555.95365    38315.161 
  580400    300.43549   -1480.5861    497.08634    367.87182   -367.10024    38315.161 
  580500    317.63301   -1504.0642    488.56758    413.23011     360.6642    38315.161 
  580600    301.39422   -1492.4575    483.48571    346.71216    141.65417    38315.161 
  580700    294.53468   -1512.5492    521.88671    334.16694    547.49601    38315.161 
  580800    314.06702   -1519.4167     500.0449      393.315    859.07844    38315.161 
  580900    297.73763   -1493.6023    502.56634    348.20048    576.44588    38315.161 
  581000    294.22841   -1497.1891    487.94432    314.20704    34.310196    38315.161 
  581100    290.81918   -1564.7509    474.42398    217.79007    49.583574    38315.161 
  581200    290.82767   -1524.4396    479.54574    263.26129   -84.519483    38315.161 
  581300    296.06454   -1489.8047    503.37855    345.28466   -185.62045    38315.161 
  581400     308.6944   -1513.5128    507.18063    382.18833    -10.71083    38315.161 
  581500    309.18009   -1501.5703    504.28377    393.41857    555.84974    38315.161 
  581600    300.45427   -1499.0765    492.30006    344.67964   -28.361967    38315.161 
  581700    300.38416   -1501.4099     497.4051    347.13581   -309.91635    38315.161 
  581800    302.06594   -1503.6974    485.21752     340.2255    -302.0199    38315.161 
  581900    299.02923   -1487.6723    480.39421    337.76807   -416.06714    38315.161 
  582000    303.29129    -1507.322    485.26957    342.16464   -321.70062    38315.161 
  582100    300.06681   -1486.9581    511.02438    373.77953   -513.62822    38315.161 
  582200    293.94981    -1487.207    473.42467    308.41636   -88.559658    38315.161 
  582300    306.39192    -1480.454    496.39134    394.10122   -122.94049    38315.161 
  582400    299.82605   -1495.5514    500.26233    353.34125   -152.84468    38315.161 
  582500    312.86577   -1530.4549    461.82048    338.64903    438.50032    38315.161 
  582600    300.23306   -1508.0526    501.31082    343.71924   -230.11204    38315.161 
  582700    301.65683   -1522.7109    458.54208    292.69633    665.01192    38315.161 
  582800    301.79137   -1554.6446    484.84942    287.67516   -218.92612    38315.161 
  582900    300.60955     -1534.14    463.92383    281.93829   -547.01074    38315.161 
  583000    302.33631   -1544.1915    489.90594    305.63596   -421.80176    38315.161 
  583100     296.7367   -1486.8845    498.30417    346.15392    -374.6102    38315.161 
  583200    292.21143   -1517.2808    487.96356    285.06208   -109.36703    38315.161 
  583300    296.88586   -1499.5127    484.49399    320.38645   -251.56409    38315.161 
  583400    297.36486   -1488.5715    494.53653    343.52472    266.10481    38315.161 
  583500    291.69176   -1478.7395    506.83358      340.136    282.77572    38315.161 
  583600    303.45019   -1464.9618    508.61532    408.58535    755.24878    38315.161 
  583700    294.99395   -1510.5203    513.91176    330.28679    815.14636    38315.161 
  583800    309.58681   -1499.8025    492.41423    385.14635    570.78496    38315.161 
  583900    307.15865     -1525.56    491.30142    347.35406    379.49113    38315.161 
  584000    294.97763   -1517.7604    465.67824     274.7397    894.23763    38315.161 
  584100    305.77836   -1560.1494    489.40937    304.66402    44.941981    38315.161 
  584200     296.1006   -1556.2264    474.00933    249.65597    149.32454    38315.161 
  584300    298.66541   -1558.6441    495.11797    279.88353    57.492127    38315.161 
  584400    300.11186   -1553.2488    478.79114    275.45821    194.63782    38315.161 
  584500    303.76978   -1536.0304    515.73736    346.07627    83.397336    38315.161 
  584600    292.05521   -1537.3105    476.62889    252.99505    98.518928    38315.161 
  584700    292.25088   -1529.5846    513.72701    298.69929    203.41579    38315.161 
  584800    302.57364   -1517.7451    497.54081    340.78477    107.47225    38315.161 
  584900    295.92256   -1534.9144    470.45328    266.61111    179.52211    38315.161 
  585000    298.92978   -1537.0658    473.81359    281.34661    198.17373    38315.161 
  585100     299.3656   -1513.3496    498.12154    331.33108    176.50918    38315.161 
  585200     296.0062   -1463.1183    483.57592    351.90602     364.8033    38315.161 
  585300    302.55751   -1547.7415    480.11298    293.28794   -357.82874    38315.161 
  585400    286.76386   -1527.6941    506.42547    268.60733   -409.56769    38315.161 
  585500    299.80481   -1495.2046    496.91997    350.25009    132.00401    38315.161 
  585600    300.95054   -1525.2343    488.24666     316.7006   -513.15651    38315.161 
  585700    296.08041   -1558.2679     471.7615    245.27579   -439.00589    38315.161 
  585800    290.48095   -1557.2002    453.09992    202.49528   -829.40267    38315.161 
  585900    304.05743   -1526.8232    501.18356    342.02355   -388.37482    38315.161 
  586000     305.6179   -1537.3624     488.7449    326.06481    -397.0674    38315.161 
  586100    297.32453   -1506.3956    502.16805    333.15078   -252.56133    38315.161 
  586200    296.01875   -1503.6024    491.97998     319.8825   -748.13503    38315.161 
  586300    304.15146   -1493.0258     474.2588    349.31916    86.762168    38315.161 
  586400    309.60627   -1546.4734    480.67334     326.8221   -776.78423    38315.161 
  586500    305.11453   -1491.5669    473.87618    354.72741   -327.37209    38315.161 
  586600    299.74287   -1485.1336    533.84921    396.97176    275.51903    38315.161 
  586700    293.26452   -1527.9093    485.88036    277.08733    -368.6446    38315.161 
  586800    304.70569   -1507.6434    460.13369    323.06939    -120.5704    38315.161 
  586900    299.92832   -1545.6045    497.62108    301.10687    98.697293    38315.161 
  587000     307.8561   -1516.7408    508.10688    376.11587    209.95609    38315.161 
  587100    298.94981   -1507.5451    500.68785    337.83169    160.60614    38315.161 
  587200    297.28347   -1536.0794    500.73068    301.84488   -190.44707    38315.161 
  587300    281.66259   -1515.7508     490.0578    241.23722    92.380707    38315.161 
  587400    305.52163   -1542.4682    514.87844    346.65946    144.28282    38315.161 
  587500    293.38885   -1525.0221    498.00482    292.65818   -11.186797    38315.161 
  587600     298.5275   -1496.0051    480.96793    327.75216   -22.906032    38315.161 
  587700     306.2977   -1503.1449    508.15284    382.74795   -383.76665    38315.161 
  587800    310.44308   -1496.3636    478.32066    378.34318   -53.151544    38315.161 
  587900     301.0088   -1514.3328    505.99034    345.60788   -110.01655    38315.161 
  588000    300.64333   -1510.3364    477.67579    319.64581    41.798087    38315.161 
  588100    295.85864   -1496.7435    503.30755    337.34877   -16.981495    38315.161 
  588200     296.6421   -1517.6897    537.93915    354.55814    190.59515    38315.161 
  588300    308.65261   -1510.1583    501.19996    379.37419    238.91132    38315.161 
  588400    299.88199   -1524.9452    508.85667    332.79338    423.62655    38315.161 
  588500    302.27293   -1549.9807    499.11463    308.77033    730.88408    38315.161 
  588600    309.03001   -1530.2195    501.05426    360.86486    722.33658    38315.161 
  588700    298.43828   -1542.3824    511.35077    311.35637    931.74024    38315.161 
  588800    300.08422   -1509.9771    503.65037    343.46485    325.65663    38315.161 
  588900    295.00516   -1555.3677    490.70477    262.28276   -51.686253    38315.161 
  589000    310.49527   -1557.7292    487.50925    326.40096    428.03691    38315.161 
  589100    302.47907   -1525.8561    496.29503     331.0026    458.27542    38315.161 
  589200    308.20059   -1492.6655    491.62697    385.26077    544.69491    38315.161 
  589300    310.92557   -1556.8903    500.02233    341.68843    266.93297    38315.161 
  589400    302.58774   -1506.4781    470.81605    325.39046    296.96899    38315.161 
  589500    300.32266   -1511.5177    489.98146    329.32779    41.715868    38315.161 
  589600    295.06884   -1508.4951    475.65366    294.39068   -220.88492    38315.161 
  589700    296.03041   -1557.9063    487.61109    261.26209   -336.13863    38315.161 
  589800    299.19671   -1544.1518    497.27601    298.92366   -471.56177    38315.161 
  589900     297.7544   -1527.4253    487.99875    299.88535   -91.355164    38315.161 
  590000    303.98546   -1532.6137    476.88344    311.60918    111.79171    38315.161 
  590100    294.40266   -1550.4185    509.91044    283.72756    162.67198    38315.161 
  590200    292.84907   -1531.7059    459.48325    245.02483    402.19164    38315.161 
  590300    298.98789   -1539.7397    509.97906    315.09954   -208.39895    38315.161 
  590400    301.42646     -1519.88    470.58855    306.53755     179.0804    38315.161 
  590500    299.10953    -1518.882     476.7198    303.24514   -408.14861    38315.161 
  590600    308.70522   -1569.3714     504.4121    323.60988   -159.26767    38315.161 
  590700    301.14421   -1566.7403    465.25821    253.07726    196.56485    38315.161 
  590800    306.16164   -1551.0841    500.96761     327.0115    43.572258    38315.161 
  590900    305.58733   -1534.7974    467.37818    307.12554    471.08942    38315.161 
  591000    295.54681   -1610.0983    503.68723    222.97101     270.0917    38315.161 
  591100    300.93282   -1581.3257    466.43684    238.71973    586.46377    38315.161 
  591200    298.03891   -1535.4159    520.56053    325.73632    574.97707    38315.161 
  591300     292.2012   -1535.0887    463.49339    242.73811    517.06674    38315.161 
  591400    300.01066   -1494.1638    507.76954    363.06637    499.26944    38315.161 
  591500    290.12194   -1561.6446     492.5793    235.91544    136.74663    38315.161 
  591600     303.6465   -1565.5382    505.86997    306.14657    618.13131    38315.161 
  591700    296.83797   -1605.9909    477.38898    206.58787    382.58978    38315.161 
  591800    301.91001   -1559.0972    503.29252    302.19937    475.00801    38315.161 
  591900    304.44093   -1566.8001     473.4146    276.00268    270.14068    38315.161 
  592000    305.40225   -1557.6503    461.73989    277.80187    38.245282    38315.161 
  592100    292.14913   -1549.2844    504.13326    268.94807    500.84643    38315.161 
  592200    307.87766   -1515.7206    505.88152    375.00772    767.93628    38315.161 
  592300    312.81085   -1550.3336    516.67211    373.37491   -193.38276    38315.161 
  592400    287.64923   -1549.2318    484.97251    229.59913    -248.0561    38315.161 
  592500    296.90557   -1551.8278    483.29022    266.95626   -285.28827    38315.161 
  592600    307.25217   -1566.8386    470.99931    286.19396    -324.4573    38315.161 
  592700    305.99105   -1568.4809    482.82171    290.70154   -1018.7262    38315.161 
  592800    295.79433   -1573.4926    497.19763    254.20042   -701.45017    38315.161 
  592900    299.30504   -1553.5824    492.56691    285.27125   -606.89587    38315.161 
  593000    299.50856    -1531.429    493.42069    309.19388   -590.83948    38315.161 
  593100    309.89725   -1530.5377    492.53193    355.92515   -909.61168    38315.161 
  593200    305.29423   -1526.6782    508.49587    355.04406   -124.01159    38315.161 
  593300     301.2358   -1516.6263    471.81496    310.16001   -527.47615    38315.161 
  593400    298.19088   -1499.2802    520.30022     362.2952     194.7892    38315.161 
  593500    294.31209   -1512.5024    484.57771    295.90357   -429.71997    38315.161 
  593600     306.3548   -1543.9445    479.81863    313.87105   -138.84816    38315.161 
  593700    302.30505   -1546.6061    489.32797    302.50276   -306.34416    38315.161 
  593800    308.42071   -1549.6268    488.38882    326.05142    366.14058    38315.161 
  593900    299.13623   -1526.0046    476.44206    295.96489    731.59495    38315.161 
  594000    295.19563   -1540.3649    491.90078    279.33831    350.56062    38315.161 
  594100    298.42103   -1549.7752     475.0607    267.59591   -296.78966    38315.161 
  594200    291.64398   -1538.9689    505.51767    278.37577    331.91555    38315.161 
  594300    301.04809   -1552.3375    469.27204    271.06163    554.67765    38315.161 
  594400    305.00611   -1566.8923    506.41838    311.45645    1008.9863    38315.161 
  594500    306.10472   -1525.9819     493.5613    344.45147    760.61294    38315.161 
  594600    297.44004   -1524.7464     476.2445    289.39597    291.52761    38315.161 
  594700    297.65301   -1514.8317    495.10596    319.13012    220.82162    38315.161 
  594800     295.8529   -1561.7441    471.52433    240.53909     358.8968    38315.161 
  594900    304.82503   -1580.5165    498.92115    289.52052    111.75833    38315.161 
  595000    302.21619   -1545.7816     515.6672    329.26682    9.3188655    38315.161 
  595100    298.07648   -1539.3342    510.08632    311.51271    398.08883    38315.161 
  595200    293.80853   -1566.2462    485.54271    240.85975    64.258215    38315.161 
  595300    308.83218   -1541.3363    492.44639    340.25026    113.25908    38315.161 
  595400    302.98373   -1559.4651    481.95781    285.32636   -42.888339    38315.161 
  595500    304.32319   -1528.2798    508.20255     348.7814   -530.14714    38315.161 
  595600    303.12701   -1510.2497    499.04987    352.27835   -308.80066    38315.161 
  595700    292.70916   -1546.1811    478.84251    249.27961   -666.68974    38315.161 
  595800    293.82923   -1527.0249    498.93425    293.56566   -1005.6641    38315.161 
  595900    291.70552   -1515.9307    472.54129    268.71435   -843.47497    38315.161 
  596000    308.10909   -1467.0669    498.37466    417.19544    157.29214    38315.161 
  596100    298.26882   -1489.2207    492.25257    344.65769    234.21535    38315.161 
  596200     308.1905   -1490.2298    517.72652    413.75063    367.99444    38315.161 
  596300    294.75434   -1513.0899    474.10785     286.8355    187.65763    38315.161 
  596400    297.89711    -1545.235    521.44891    316.16777   -430.88963    38315.161 
  596500    299.65181   -1515.1339    491.34029    324.05298    175.50167    38315.161 
  596600    301.98172   -1547.4092    487.27642    298.19375    261.92884    38315.161 
  596700    299.84989   -1502.4293    529.24299     375.5512    778.86941    38315.161 
  596800    304.04762   -1503.9735    477.84142    341.48703    798.23541    38315.161 
  596900    303.43215   -1518.3101    483.52668    330.06725    -201.4458    38315.161 
  597000    309.47648   -1503.3276    534.49051    423.20124    58.684197    38315.161 
  597100    299.68232   -1503.6836    478.61688    322.91704     225.8887    38315.161 
  597200    301.16535   -1447.8415    514.52401    421.33707   -313.71626    38315.161 
  597300    298.10616   -1467.0131    521.84641    395.72748    520.35507    38315.161 
  597400    300.40351   -1469.6405    511.71636    393.30355    612.81892    38315.161 
  597500    292.77493   -1508.5498    490.50921    298.87349   -429.19437    38315.161 
  597600    310.45704   -1506.0013    492.66051    383.10808   -265.05629    38315.161 
  597700    301.42184   -1511.8052    481.18525    325.18821     -373.725    38315.161 
  597800    298.01988   -1494.2466    488.14248    334.40191   -128.27876    38315.161 
  597900    297.86656   -1483.1332     536.5851    393.26838    32.474614    38315.161 
  598000    297.85683   -1545.3761    500.34728    294.74388    401.01511    38315.161 
  598100    300.63483    -1535.089    482.05966     299.2389    306.40584    38315.161 
  598200    305.90279   -1543.4684    482.44772    314.94309    34.214574    38315.161 
  598300     297.3064   -1510.3349    480.01092    306.97285   -347.60054    38315.161 
  598400    300.68504   -1519.2165    467.29844    300.57595   -553.96594    38315.161 
  598500    301.04278   -1524.4765    513.46131    343.08798   -191.51635    38315.161 
  598600    297.89154   -1495.2976     501.7296    346.36072   -225.44608    38315.161 
  598700    310.59821   -1522.1756    494.16947    369.07784   -1030.2126    38315.161 
  598800    292.69181   -1546.5999    465.92073    235.86095   -599.05411    38315.161 
  598900    296.56644   -1558.0219    467.93455    243.88111   -254.94446    38315.161 
  599000    304.32461   -1534.6037    480.42029    314.68155   -10.273605    38315.161 
  599100     287.0353   -1514.8544    492.94279    269.18535   -160.56745    38315.161 
  599200    315.25253   -1504.4302     500.8078     414.3968    247.76974    38315.161 
  599300    314.35359   -1530.1293    503.82224     387.6687    -265.0963    38315.161 
  599400    296.65679   -1497.0948    483.47671    320.75668     224.5512    38315.161 
  599500     313.7826   -1549.8565    485.92314    347.47409    203.18907    38315.161 
  599600    293.03151   -1485.4549    505.77161    338.38487   -90.008544    38315.161 
  599700    305.76944    -1526.392    497.53918    346.51105   -295.25248    38315.161 
  599800    297.96704   -1539.0267    472.20583    273.44751   -510.06212    38315.161 
  599900    316.16262   -1557.9428    483.76191    347.93199   -276.33757    38315.161 
  600000    292.10271   -1533.0126     515.6244    296.50218   -89.648573    38315.161 
  600100    302.20394   -1546.1887    495.32609     308.4635    -366.3099    38315.161 
  600200    294.40918   -1531.2525    481.81952    274.83198   -95.250058    38315.161 
  600300     302.7128   -1533.6854    515.77059    343.70022   -160.04526    38315.161 
  600400    316.67995    -1577.143    507.83214    355.12899    161.71656    38315.161 
  600500    290.52295   -1563.2834    472.50941    216.01052    77.867345    38315.161 
  600600    313.64187   -1544.1519    486.36451    352.98709    299.85014    38315.161 
  600700    302.07801     -1541.22    481.51974    299.05947   -152.72035    38315.161 
  600800     305.0883   -1543.2762    480.67596     309.6998   -295.05208    38315.161 
  600900    297.80987   -1500.9657    490.30545    328.90116   -240.87892    38315.161 
  601000    299.54554     -1496.47    504.49828    355.39684     -458.072    38315.161 
  601100    294.21483   -1512.6211    488.06853    298.83819   -712.72751    38315.161 
  601200    292.66844   -1537.1634    461.22091    240.49255   -349.70112    38315.161 
  601300    302.04966   -1551.0273    486.94034     294.5452   -615.22404    38315.161 
  601400    306.77625   -1558.3215    484.88737     306.4584    477.44252    38315.161 
  601500    296.22893   -1548.6473    466.44113    250.24412    273.59321    38315.161 
  601600    300.37913   -1546.3087    512.04716    316.85647    216.44337    38315.161 
  601700    306.08232    -1515.649    498.07777    359.20003    48.366366    38315.161 
  601800    293.26102   -1535.1878    479.60202    263.51472   -791.71876    38315.161 
  601900    293.37486   -1491.9508     489.2979    316.95959   -818.12656    38315.161 
  602000    295.71935   -1503.9865    501.20039    327.37201     -877.042    38315.161 
  602100    302.32166   -1525.9871     489.9782    323.84673   -565.00443    38315.161 
  602200    297.62588   -1528.1783    491.48522    302.04075   -290.26347    38315.161 
  602300    294.71773   -1488.7234    504.56088    341.49032   -670.59166    38315.161 
  602400    300.65845   -1496.1195    483.47974    339.73467   -1051.8475    38315.161 
  602500    292.69434   -1518.0382    483.25031    281.76362   -765.99097    38315.161 
  602600    302.31732   -1528.9574    476.93329    307.81198   -755.34992    38315.161 
  602700    299.07455    -1534.485    493.10948    303.87448   -1047.2895    38315.161 
  602800    296.58796   -1514.2928    491.46407    311.23647   -645.25624    38315.161 
  602900    302.99102   -1530.6489    479.85688    312.07442    -185.8109    38315.161 
  603000    308.08008   -1534.5012    475.52966    326.78575   -423.04478    38315.161 
  603100    296.52916    -1473.367    484.52271    344.95645   -998.86744    38315.161 
  603200    300.14796   -1464.9273    509.10688    394.25781   -819.07086    38315.161 
  603300    302.17762   -1523.6499    477.31083    312.86865   -615.38083    38315.161 
  603400    304.02473   -1484.8108    514.26215    396.96748   -370.13034    38315.161 
  603500    298.20097   -1517.4112    481.00991    304.91935   -86.776658    38315.161 
  603600    296.12992   -1529.1514    490.66048    293.51406   -130.67652    38315.161 
  603700    301.60138   -1517.5482    483.15859    322.22616   -78.549248    38315.161 
  603800    303.27445   -1497.2517    478.56763    345.45725   -230.09765    38315.161 
  603900    306.20473   -1471.7619     483.7972    389.35713   -200.95808    38315.161 
  604000    289.34149   -1474.5956    508.48443    335.35907    132.41827    38315.161 
  604100    297.18949   -1467.9715    487.71788    356.51731   -449.04792    38315.161 
  604200    311.33873   -1505.5811    480.86498    375.69873    68.179266    38315.161 
  604300    290.56692   -1538.6874    481.80567    250.10063   -294.26291    38315.161 
  604400    295.80884   -1527.7874     451.1158    253.88916   -636.04812    38315.161 
  604500    287.85374   -1522.2322    485.14339    257.68954    165.97492    38315.161 
  604600    310.36716   -1526.1823    475.12484    344.98722   -296.33762    38315.161 
  604700    297.36864   -1503.1881    499.05167    333.44031    132.73356    38315.161 
  604800    294.90496   -1520.3594    457.31651    263.45208    47.604537    38315.161 
  604900    310.39422    -1486.451    479.62337    389.33868    2.1474871    38315.161 
  605000    303.53038    -1557.462    467.50642    275.33692    308.91769    38315.161 
  605100    297.51714   -1488.8427     481.8948    331.29684    16.699573    38315.161 
  605200    299.57726   -1467.9315    481.44012    361.01986    439.66257    38315.161 
  605300    304.68982   -1462.4692    510.19938    418.23793    348.43575    38315.161 
  605400    309.86299   -1476.5568    467.35288    384.57298     127.2515    38315.161 
  605500    292.88788   -1458.9971    483.72171    342.14673    264.48334    38315.161 
  605600    298.33219   -1421.2118    504.09603    424.79504    46.756804    38315.161 
  605700    299.52983   -1427.4266    481.76509     401.6363    225.02129    38315.161 
  605800    291.10472   -1403.0413    470.40483    376.76495   -268.66254    38315.161 
  605900     306.9539    -1459.769    473.04929    393.97193    -431.9733    38315.161 
  606000     303.3856    -1421.107    481.63035    425.16466    356.23565    38315.161 
  606100    302.85332   -1438.5529    487.00437    410.69853    343.55475    38315.161 
  606200    308.96367   -1443.7087     489.1365    435.15947    563.18311    38315.161 
  606300    304.26531   -1459.2146     491.8531    401.23674    631.06532    38315.161 
  606400    298.43948     -1471.09    466.36737    337.67083    235.73966    38315.161 
  606500    304.68592    -1484.196    462.94518    349.23932    54.388856    38315.161 
  606600    308.79363   -1453.0833    476.60857    412.49216    497.21463    38315.161 
  606700    289.94463   -1447.2619    493.12082    350.04212   -20.438707    38315.161 
  606800    302.34663   -1518.0385    477.09555    319.02494   -5.9520439    38315.161 
  606900    306.10822   -1510.5975     447.4419    313.73213   -123.17635    38315.161 
  607000    304.26275   -1471.3664    498.81488    396.03523   -237.54169    38315.161 
  607100    297.42554   -1440.1267    470.07948     367.7855   -67.085953    38315.161 
  607200    291.08005   -1440.3442    475.87042    344.81665     176.0512    38315.161 
  607300    306.53751   -1472.7432    466.87363    372.94914    154.26361    38315.161 
  607400    299.40777   -1451.6295    478.15248    373.27184    -105.4144    38315.161 
  607500    296.36713   -1542.1095    476.76665    267.72904   -102.42377    38315.161 
  607600    290.44961    -1508.313    460.59416    258.73578   -432.51706    38315.161 
  607700    309.08918    -1416.372    471.13991    445.06417    172.85274    38315.161 
  607800    301.13298   -1470.4014    495.48884    379.59629   -323.86096    38315.161 
  607900     297.6622   -1462.1742    485.60383    362.32677   -530.17708    38315.161 
  608000    303.50031   -1447.6882    479.64048    397.10952   -654.96062    38315.161 
  608100      302.769   -1442.3497    480.55361    400.07171   -327.13828    38315.161 
  608200    302.40094   -1457.2772    469.00402    371.93905   -300.59922    38315.161 
  608300    305.46243   -1438.7136    522.61887    457.88826   -177.23025    38315.161 
  608400    295.81874   -1437.8052    511.65776    404.45778    63.242755    38315.161 
  608500    304.35201   -1447.0357    480.44561    402.39819    46.143735    38315.161 
  608600    299.44743   -1493.8401    489.24572    342.33288   -79.997553    38315.161 
  608700    294.64242   -1480.9951     495.2451    339.56415    124.57788    38315.161 
  608800    300.93266   -1499.8071    502.98216    356.78291    379.15039    38315.161 
  608900    288.80994   -1500.8179    486.82638    285.08776    -337.5826    38315.161 
  609000    297.35335   -1476.8692    496.06925    356.70801    321.99115    38315.161 
  609100      296.006   -1475.6458    478.68025    334.48196   -195.10497    38315.161 
  609200    301.68422   -1456.4367    479.14222    379.69396   -82.674101    38315.161 
  609300    297.99893   -1482.3085    477.13329    335.23657   -144.42004    38315.161 
  609400    302.00571   -1487.9482    484.72076    355.20699     40.58758    38315.161 
  609500    306.31136   -1460.8111    467.91563    384.90602   -662.28283    38315.161 
  609600    300.05441   -1513.5347    478.77643    314.89914   -217.30719    38315.161 
  609700    307.18854    -1458.437    497.47604    420.78611    5.9919064    38315.161 
  609800    301.39185   -1457.9971    519.62838    417.30462   -107.26167    38315.161 
  609900    298.25982   -1489.5301    484.64445    336.69968    143.19272    38315.161 
  610000    294.08948   -1464.0513    472.44193    331.21756    -2.797039    38315.161 
  610100    288.02808   -1480.9039    490.45652    305.11508   -375.52769    38315.161 
  610200    302.37792   -1512.5821    480.15045    327.67704    -319.9505    38315.161 
  610300     303.7589   -1456.4711    515.95919    425.80847    -316.6801    38315.161 
  610400    303.13662   -1455.7328    498.39799    406.18654    148.03771    38315.161 
  610500    296.36468   -1434.5596    496.60447    395.10573   -46.492486    38315.161 
  610600    300.43097   -1450.1892    476.00546     377.1675   -79.708168    38315.161 
  610700    304.84313   -1457.0177    509.61237    423.79194   -304.13485    38315.161 
  610800    300.91287   -1493.3623    473.01081    333.16733   -162.66241    38315.161 
  610900    296.79461   -1512.0534    487.94605    310.88741    489.46534    38315.161 
  611000    305.09441   -1481.2652    459.04044    350.10282    52.025075    38315.161 
  611100    300.23168   -1423.3217    486.46124    413.59434   -14.150845    38315.161 
  611200    295.38396   -1506.4368    471.60255    293.81537    183.02616    38315.161 
  611300    290.18524   -1476.2904    470.18449    299.15964    223.23989    38315.161 
  611400     294.3567   -1480.1868    464.62118    308.46326    252.85054    38315.161 
  611500    298.49511    -1474.242    519.06338    387.46501    370.02113    38315.161 
  611600    305.90257   -1443.4662    480.02099     412.5175    453.99434    38315.161 
  611700    308.06884   -1475.3602    483.91416    394.26067    13.118078    38315.161 
  611800    304.07588   -1453.7229    506.43404    420.45727    396.86659    38315.161 
  611900    312.33994    -1457.692    489.82941    437.05572    47.543012    38315.161 
  612000    295.20989   -1466.3378    484.30246    345.83127   -18.737828    38315.161 
  612100    302.24572   -1446.4315    459.54561    372.62822    15.097345    38315.161 
  612200    299.29813    -1431.934    495.03927      409.361   -191.59362    38315.161 
  612300    294.26086   -1487.3935    480.94376    317.14811   -301.17632    38315.161 
  612400     300.5839   -1495.3786    467.05067    323.71122    -781.2675    38315.161 
  612500    298.84118   -1434.4201    466.50238    376.28258   -390.33867    38315.161 
  612600    298.41636   -1411.6524    481.24071    411.87773   -193.20911    38315.161 
  612700    309.45508   -1437.6162    472.79594     427.1218   -43.510415    38315.161 
  612800    297.43277   -1447.0695    517.12702    407.92266    -196.9978    38315.161 
  612900     303.1665   -1476.2562    472.46095    359.86049   -21.179441    38315.161 
  613000    293.24439   -1448.8478    453.37139    323.54932   -289.73339    38315.161 
  613100    302.92525   -1442.6932    478.57185    398.44928    314.31452    38315.161 
  613200    306.81508   -1476.5843    455.39779    358.88074    813.03076    38315.161 
  613300    305.37268   -1466.4736    485.06431    392.16993    507.11291    38315.161 
  613400    302.63918    -1455.766    466.62539    372.14323    808.65586    38315.161 
  613500    310.74328   -1452.8472    487.73146    432.62068    716.31358    38315.161 
  613600    303.50196   -1469.9526    489.58475     384.7968    709.02381    38315.161 
  613700    302.70028    -1478.976     473.2336    355.81631    223.37101    38315.161 
  613800    300.05709   -1501.2588    472.77025    321.18099    48.599485    38315.161 
  613900    291.22547   -1482.2796    471.59618    299.26101   -722.41483    38315.161 
  614000    301.33078   -1502.3515    447.60535     300.6525   -1616.1863    38315.161 
  614100    292.30634   -1490.8591    442.34097    266.28816   -1352.7858    38315.161 
  614200    298.96738   -1475.3898    490.83618    360.21436   -1408.4726    38315.161 
  614300    305.08594   -1477.2219     439.6068    334.67441   -568.51037    38315.161 
  614400    307.34784   -1452.3426    484.73371    414.85477   -630.19304    38315.161 
  614500    296.59774   -1475.5616    486.89172    345.43936    -704.7597    38315.161 
  614600        304.7   -1458.9463    474.83857    386.44573    47.991432    38315.161 
  614700    301.59547   -1455.8363    467.32683     368.0797   -188.60081    38315.161 
  614800    297.25877   -1490.5441    476.79921    323.33767     -89.3365    38315.161 
  614900    296.05964   -1463.2222    525.87181    394.33845   -253.60386    38315.161 
  615000    299.16844   -1482.9399    467.62459    330.35699   -308.47912    38315.161 
  615100    300.86749   -1467.2821    488.66669    374.69933   -980.28696    38315.161 
  615200    293.91105   -1499.7924    462.44437    284.67633   -410.89245    38315.161 
  615300    296.69915   -1439.3743    496.27222    391.46323   -205.69136    38315.161 
  615400    303.78754   -1413.9525    487.03732    439.53408   -280.24024    38315.161 
  615500     296.3987   -1440.6282     469.3526    361.93829    -256.2041    38315.161 
  615600    303.25223   -1422.7695    469.39836    410.67024   -496.69716    38315.161 
  615700    296.87595   -1431.7625    506.53714    410.13521   -237.46053    38315.161 
  615800    299.93193   -1464.6637    466.36388     350.8067   -42.547527    38315.161 
  615900    299.53469   -1471.2477    492.25611    368.32815    136.80444    38315.161 
  616000     303.3877   -1453.9276    500.35976    411.08288   -73.094647    38315.161 
  616100    306.00789   -1417.1657    463.45418    422.72497   -267.94398    38315.161 
  616200    299.29109   -1449.9136    472.44257      368.753    -303.7276    38315.161 
  616300     297.6759    -1455.179    473.03218    356.81195   -8.2206605    38315.161 
  616400    291.39617   -1434.2241    478.66485    355.15303    70.321833    38315.161 
  616500    290.37546   -1449.3083    476.80505    333.61791    335.41619    38315.161 
  616600    306.74088   -1407.1595     479.7173    452.29125   -13.408364    38315.161 
  616700    302.24075   -1411.9336    467.72568    415.28379   -414.89166    38315.161 
  616800    301.83685   -1405.8086    467.65287    419.51925   -326.58446    38315.161 
  616900    296.39156   -1441.8569     485.8425    377.16743   -273.50844    38315.161 
  617000     306.3647   -1444.8791     504.2328    437.39509   -540.94368    38315.161 
  617100    288.58434   -1416.7928    507.95744    389.22922    -64.96028    38315.161 
  617200    298.28091   -1468.6287    488.55977    361.61121    384.79671    38315.161 
  617300    298.64929   -1464.3398      479.084    358.08134    363.80931    38315.161 
  617400    294.09822   -1437.3616    479.09222    364.59693    327.33847    38315.161 
  617500    296.83155   -1465.6816    453.84502    323.32428    142.48231    38315.161 
  617600    288.27514   -1411.1516    521.02649    406.54866     315.7565    38315.161 
  617700    299.21455   -1456.9794    468.00251    356.90286   -144.03919    38315.161 
  617800    296.81564    -1414.527    489.82575     410.3881   -232.36566    38315.161 
  617900    297.92629   -1422.1247     476.1538    394.11422   -14.754522    38315.161 
  618000    291.84687   -1460.7669    483.97352    335.94615    67.365673    38315.161 
  618100    293.52161   -1441.3588    495.65219    374.56601   -461.52727    38315.161 
  618200    299.86042   -1438.1182     474.3977    385.06438   -311.46034    38315.161 
  618300    307.87565   -1469.4325    474.99616    390.40138   -391.09441    38315.161 
  618400    308.29681    -1431.959     508.0016    462.77473   -375.16425    38315.161 
  618500    293.89714    -1421.055    476.99754    377.90437    -1150.498    38315.161 
  618600    307.23124   -1437.5984    488.18964    432.53039   -1036.6188    38315.161 
  618700    304.74473   -1448.2732    450.24885    372.73033   -753.90998    38315.161 
  618800    305.66222   -1455.3949    470.73672    390.22344   -1076.0627    38315.161 
  618900    292.91868   -1457.3288    473.75723    333.98905    -545.5643    38315.161 
  619000    304.06717   -1460.6576    467.26823    374.31768   -531.19435    38315.161 
  619100    302.45499   -1468.8876    473.16039    364.72815   -533.52869    38315.161 
  619200    305.79621   -1435.8054    471.92013    411.59906   -398.59202    38315.161 
  619300    297.77384   -1432.0521    477.13415    384.48135   -283.26629    38315.161 
  619400    292.33906   -1426.2711    475.88794    364.57031    -176.6192    38315.161 
  619500    289.58308   -1419.1213    479.57868    363.01431   -159.30959    38315.161 
  619600    302.62553   -1438.7992    469.98373    392.40694   -884.92875    38315.161 
  619700    299.09108   -1472.3418    489.26949    362.25199   -653.17989    38315.161 
  619800    295.21505   -1460.4496    481.90356    349.34376   -693.16106    38315.161 
  619900    307.93358   -1482.5139    471.89688     374.4813   -937.49978    38315.161 
  620000    297.70194   -1483.4805    484.10741    339.70285   -675.63517    38315.161 
  620100    301.70065   -1469.8581    457.70857    344.91278   -587.59332    38315.161 
  620200    294.13945   -1440.3849    483.61057    366.27742   -957.55388    38315.161 
  620300    301.71106   -1463.5616    466.49528    360.04282   -558.97953    38315.161 
  620400    295.27821   -1439.4368    475.24638    363.98341   -522.18296    38315.161 
  620500     297.2028   -1474.1138    471.94796    334.66492   -948.62962    38315.161 
  620600    307.06898   -1458.4158    464.10117    386.89463   -336.18372    38315.161 
  620700    294.05315   -1480.5752    465.86466    307.95302   -290.52563    38315.161 
  620800    303.18799    -1432.705     472.2926    403.34002   -385.03354    38315.161 
  620900    304.63636   -1461.3534    469.58222    378.49608   -298.68883    38315.161 
  621000    296.15197   -1418.1227    446.69157    360.67297    290.32138    38315.161 
  621100    302.61619   -1400.8626    479.76936    440.08719    118.37162    38315.161 
  621200    291.54907   -1384.1736    494.08017    421.30663   -64.349831    38315.161 
  621300     299.7256   -1389.0139     474.2058     433.3703    104.01398    38315.161 
  621400    293.05767   -1445.1427     480.7194    353.76255   -50.092673    38315.161 
  621500    301.27151   -1427.9544    500.33247     427.5101    432.89874    38315.161 
  621600    294.63553    -1465.053    498.63551    358.86561      395.714    38315.161 
  621700    293.33944   -1446.8416    448.59552    321.20715   -354.76729    38315.161 
  621800    301.76619    -1423.606    506.45622    440.20731   -498.62556    38315.161 
  621900    306.80156   -1468.9762    447.08467    358.11484   -637.63941    38315.161 
  622000    290.46361   -1470.7566    465.28429    301.04527   -828.73029    38315.161 
  622100    296.15179   -1429.0779    479.44231    382.46769   -552.16223    38315.161 
  622200    301.31163   -1409.9854    453.04842     398.3755   -542.26884    38315.161 
  622300    305.24619   -1415.4172     485.3535    442.94657   -26.116151    38315.161 
  622400    293.93024    -1481.778    450.12555    290.45821   -18.198897    38315.161 
  622500     292.0028   -1513.8235    494.76804    294.38549   -583.13178    38315.161 
  622600     305.2539   -1464.4049    480.69201    389.33211   -10.075703    38315.161 
  622700     292.6006   -1454.5787    467.01909    328.57028   -303.67011    38315.161 
  622800    305.93011   -1475.3512    475.30858    376.04402   -73.473749    38315.161 
  622900     306.8977   -1485.1671    486.66275    381.93456   -197.20738    38315.161 
  623000    300.16271   -1490.1604    474.25465    334.23881   -188.68536    38315.161 
  623100    299.45182   -1458.8703    462.95997    351.03668     364.0692    38315.161 
  623200    309.51806    -1406.019    495.35703    481.56338    336.47869    38315.161 
  623300    302.40496   -1469.7619    466.21544    356.68383   -20.142839    38315.161 
  623400    301.10893   -1502.3402    461.74415    313.80464     150.9901    38315.161 
  623500     306.9464   -1467.9478    492.52939    405.23952   -103.95593    38315.161 
  623600    299.26974   -1485.9419    483.92467     344.1107   -35.606103    38315.161 
  623700    316.91501   -1434.1621    485.12441    476.45944    -125.4953    38315.161 
  623800    295.84055   -1457.6903    469.40065    342.41367    -104.9387    38315.161 
  623900    302.50063   -1403.6135    491.97351    449.02065   -165.60355    38315.161 
  624000    294.62621   -1403.9816    491.37398    412.63351   -524.88411    38315.161 
  624100    296.83057   -1453.3751    493.82539    375.60673   -122.03178    38315.161 
  624200    312.98237   -1464.7588    476.84964    419.89881   -403.47301    38315.161 
  624300    292.83157   -1449.5361    468.09596    335.72865   -260.25438    38315.161 
  624400    293.83888   -1470.9118    493.03472    343.82264   -282.58755    38315.161 
  624500    298.20491   -1475.4209    478.21564    344.13305    335.18632    38315.161 
  624600    302.13695   -1538.1803    490.42504    311.26954   -242.14887    38315.161 
  624700    303.53625   -1504.1074     470.4827    331.69415    330.23952    38315.161 
  624800    301.64703   -1521.4497    457.78324    293.15465     576.9547    38315.161 
  624900    299.39285   -1537.1196    484.64979    294.21192    23.266798    38315.161 
  625000    295.57319   -1504.5344    461.70428    286.67059    374.31291    38315.161 
  625100    304.18689   -1527.3307    465.82925     306.7441    -132.0968    38315.161 
  625200    308.25093   -1533.4538    465.97767    319.04957   -511.92342    38315.161 
  625300    302.99315   -1531.9543    457.99222    288.91394   -82.958375    38315.161 
  625400    296.04891   -1497.0901    494.64131    329.19173   -338.21605    38315.161 
  625500    295.96891   -1474.6572    505.10577    361.72929    295.17732    38315.161 
  625600    292.96454   -1519.6387    461.93305    260.06129    432.18195    38315.161 
  625700    301.93877   -1479.6937    503.59958    382.03923    358.00391    38315.161 
  625800    303.85969   -1480.7332     462.9929    349.03346     142.2929    38315.161 
  625900    294.02901   -1483.4254    499.89285     339.0224    86.461647    38315.161 
  626000    289.03915   -1492.8513    493.67738    300.93642    145.50813    38315.161 
  626100    302.46073   -1513.0165    475.97658    323.44128   -143.38099    38315.161 
  626200    304.65948   -1502.9432     475.4428     342.8709    -33.53208    38315.161 
  626300    305.79699   -1517.7302    468.11708     325.8747   -284.18718    38315.161 
  626400    298.63637   -1500.2984    468.50278    311.48338    -28.48886    38315.161 
  626500    299.38883   -1531.5337    497.33201    312.46189   -16.953776    38315.161 
  626600    288.53329   -1492.2468    482.00914    287.59727     620.8108    38315.161 
  626700    302.20961   -1539.1818    472.87046    293.04028    682.92224    38315.161 
  626800     304.9555   -1530.3345    518.94694    360.31521    1053.7291    38315.161 
  626900    304.77116   -1554.4386    480.27508       296.71    1029.4673    38315.161 
  627000    297.36674   -1513.3537    485.20323    309.41778     959.8756    38315.161 
  627100    300.44645   -1498.6826    472.82287    325.56117    947.51127    38315.161 
  627200    301.03991   -1498.6937    462.63771    318.03427    1195.1165    38315.161 
  627300    296.96123   -1496.3878    519.90527    359.26164    1395.9454    38315.161 
  627400    298.55762   -1528.2567    494.70831    309.37646    1059.5791    38315.161 
  627500     297.7255   -1528.7039    486.34165    296.81963    651.38941    38315.161 
  627600    295.15208   -1546.5828    485.59284    266.61665    441.35889    38315.161 
  627700    291.83882    -1492.001    465.79224    286.49466   -1.6825902    38315.161 
  627800    300.18516   -1499.0085    479.10967    330.34673   -5.5083887    38315.161 
  627900    295.40301   -1503.2476    487.64097    313.12863    78.543607    38315.161 
  628000    296.08039   -1508.1158    490.76505    314.43135   -306.86955    38315.161 
  628100    301.70332   -1539.3868    484.20392    301.89141   -98.919524    38315.161 
  628200    295.07592   -1547.2733    457.30705     237.2977   -397.58901    38315.161 
  628300    294.60097   -1488.0642    509.11233    346.17575    454.71805    38315.161 
  628400    306.34739   -1481.6112     496.6372    392.98953    704.03279    38315.161 
  628500    297.46141   -1509.4984    472.60144    301.09709    -143.7078    38315.161 
  628600    294.90164   -1482.3284    497.43487    341.58659   -201.14187    38315.161 
  628700    303.51878   -1467.1615    499.62263    397.70149    71.715771    38315.161 
  628800    293.39577   -1452.8901    491.62264     358.4391   -510.05108    38315.161 
  628900    291.43849   -1474.0543    489.37382    326.22222   -142.39724    38315.161 
  629000    297.81777   -1480.8553    471.70189    330.44353   -40.673898    38315.161 
  629100    312.66629   -1467.1257    479.41946    418.68002   -87.109866    38315.161 
  629200    299.52167   -1461.4317    513.98021    399.80972    169.27217    38315.161 
  629300    288.88666   -1492.7726    479.94006    286.59189    110.68769    38315.161 
  629400    312.76077   -1502.0381    495.09806     399.8712      148.187    38315.161 
  629500    295.56247   -1480.3226    480.57335    329.70327   -93.350451    38315.161 
  629600    302.56646   -1478.9178    457.95349    339.99241   -102.21244    38315.161 
  629700    302.94326   -1512.5333    491.91802    342.03629    -316.1926    38315.161 
  629800    290.74281   -1480.5173    495.97001    323.22621   -578.91484    38315.161 
  629900     305.0601   -1476.0387    481.85315    377.98773   -1207.2309    38315.161 
  630000    293.58124   -1451.2014    501.05609    370.39559   -22.725902    38315.161 
  630100    295.54819   -1469.9261    480.28631     339.7485    84.683685    38315.161 
  630200    309.36553   -1423.1647    511.16137    479.53596     527.2714    38315.161 
  630300    297.66507    -1467.842    491.65948    362.72758    201.53164    38315.161 
  630400    293.18612   -1498.2264    480.12241    300.65958    385.03165    38315.161 
  630500    315.39381   -1489.4124    478.59584    407.83812    263.61018    38315.161 
  630600    309.63319   -1465.2304    486.10101    413.61381     821.5432    38315.161 
  630700    300.79115   -1513.7075    494.50865    333.77253    713.04646    38315.161 
  630800    309.98072   -1483.4484    488.08875    398.94674    590.08491    38315.161 
  630900    290.72764   -1454.1482    492.82888    346.38596    959.30452    38315.161 
  631000    305.11956   -1459.5731    512.53627    425.40389      570.173    38315.161 
  631100    302.94604   -1503.7818    488.50042    347.38278    73.452784    38315.161 
  631200    296.84303   -1500.1319    498.33294    333.41359    62.587057    38315.161 
  631300    299.86232   -1450.2053    491.20222    389.79031    655.62398    38315.161 
  631400    298.42942   -1461.9374    493.51758    373.92834    579.75424    38315.161 
  631500    299.60208   -1471.7703    497.82816    373.68071    934.92814    38315.161 
  631600    301.82868   -1524.2549    491.27461    324.65793     427.0969    38315.161 
  631700    305.16065   -1539.5204     488.3613    321.46646    500.17017    38315.161 
  631800    294.43927   -1549.5686    462.93926    237.77097   -74.661146    38315.161 
  631900     299.5947   -1561.2184     502.1742    288.54545   -181.46307    38315.161 
  632000    302.92271   -1516.3735    472.28915    318.47485   -170.79458    38315.161 
  632100    309.28775     -1510.64    448.89201    329.44141   -346.70913    38315.161 
  632200    307.55367   -1498.1846    474.88346    360.08832    -206.6059    38315.161 
  632300     289.7917   -1500.9745    461.96036    264.48118    9.6162596    38315.161 
  632400    301.68975   -1513.2833    498.78344    342.51337   -660.02629    38315.161 
  632500    299.98931   -1534.0075    466.55061     281.9077   -530.78986    38315.161 
  632600    296.31527   -1536.1154    440.38636    237.10955   -66.523823    38315.161 
  632700    297.86334   -1535.7686    474.91319    278.94652   -241.32593    38315.161 
  632800    309.23573     -1499.34    492.94493    384.56036    194.87137    38315.161 
  632900    301.36743   -1495.7204    456.30996      316.153    316.11613    38315.161 
  633000    308.82747   -1516.2489    478.14413    351.01429   -128.19188    38315.161 
  633100    289.77671    -1511.654    488.10533    279.87925   -363.60416    38315.161 
  633200    304.33335   -1481.0002    499.50612    387.41024   -65.773135    38315.161 
  633300    293.79145   -1518.5482     469.3597    272.29791   -874.04793    38315.161 
  633400     302.6709   -1522.9281    470.43914    308.93752   -233.23659    38315.161 
  633500     312.6095   -1516.9879    474.17471    363.31761    468.28994    38315.161 
  633600    295.79878   -1545.2701    506.89523    292.14054    493.13498    38315.161 
  633700    300.56657    -1517.857    491.74044    325.84464    626.56588    38315.161 
  633800    293.90002   -1508.6411    493.26641    306.60011     708.8499    38315.161 
  633900    304.91949    -1503.406     491.6329    359.76772    532.61564    38315.161 
  634000    293.37523   -1537.7682    489.63113    271.47718    499.52625    38315.161 
  634100    294.75653   -1540.8178     479.3706    264.38016    129.46452    38315.161 
  634200    285.48974   -1527.0281    479.47715    236.59398    347.58822    38315.161 
  634300    301.76921   -1500.0925    513.34839    370.62662   -442.43365    38315.161 
  634400    308.86975   -1480.1252    480.99522    390.17925    -270.0826    38315.161 
  634500    301.84138   -1540.2685     499.2733    316.70013    11.692859    38315.161 
  634600    301.61955   -1502.9696    484.95583    338.68369     -506.277    38315.161 
  634700    294.42019   -1513.8593    512.21101    322.66619   -638.89042    38315.161 
  634800    294.12797   -1517.8344    499.99347     305.1591   -628.86123    38315.161 
  634900    302.71622   -1525.2101    473.24646    309.66669   -518.41731    38315.161 
  635000      303.559   -1531.3465    509.43118    343.50595   -338.74429    38315.161 
  635100    298.22971   -1546.4809    499.10846    294.07744    18.700535    38315.161 
  635200    300.01366   -1513.2904    503.18521    339.36895    -147.5041    38315.161 
  635300    306.48999   -1521.4784    489.13624    346.26283   -387.24047    38315.161 
  635400    295.47438   -1491.7732    498.37008    335.65314   -316.92513    38315.161 
  635500    302.04956   -1510.6499    504.82913    352.81098   -836.36856    38315.161 
  635600     307.2246   -1489.7871    464.71777    356.83996   -707.80329    38315.161 
  635700    302.45144   -1521.9305    484.35944    322.86831   -704.94671    38315.161 
  635800    309.91381    -1488.594    493.64151     399.0529   -598.38939    38315.161 
  635900    302.50821   -1520.6379    486.41986    326.47676   -87.954953    38315.161 
  636000     305.8734   -1558.3632    514.44725     331.9156    412.65227    38315.161 
  636100    297.51773   -1541.9987    458.00237    254.25103   -323.05671    38315.161 
  636200    292.84713   -1522.1927    491.73763    286.78375   -309.39026    38315.161 
  636300     295.6987   -1541.8924    469.87915    258.05199     111.6743    38315.161 
  636400    298.67255   -1522.2183    495.33468    316.55814   -202.67769    38315.161 
  636500    305.74773   -1486.1768    511.47649    400.56599   -286.69395    38315.161 
  636600    296.05148    -1489.028    479.70659     322.3307    392.74685    38315.161 
  636700    310.09279   -1507.1408    493.58616    381.25587    810.89436    38315.161 
  636800    301.33013    -1521.845     508.1152     341.6659    156.58918    38315.161 
  636900    299.89799   -1524.6966    496.98937    321.24664    554.62918    38315.161 
  637000    304.20633   -1558.8419    477.47836    286.96939   -328.60772    38315.161 
  637100    290.24758   -1541.1273    494.68734    259.10594   -530.47286    38315.161 
  637200    308.53246   -1474.1464    496.10967    409.75539    140.44111    38315.161 
  637300     291.8381   -1531.4467     518.2109    299.46431   -141.74158    38315.161 
  637400    299.00102    -1511.353    498.32512    331.89137   -377.39407    38315.161 
  637500    291.47808   -1505.9656    479.40682    284.52196    142.28777    38315.161 
  637600    300.13964   -1511.3836    503.90619    342.56343   -215.23276    38315.161 
  637700    303.57452    -1486.453    487.71907    366.75714   -161.92072    38315.161 
  637800    299.46179   -1478.7272    495.36923    363.63382    37.638757    38315.161 
  637900    296.82196   -1540.0901    476.45907    271.48675    105.54272    38315.161 
  638000    301.90021   -1523.8605    491.45372    325.55316    207.20938    38315.161 
  638100    292.71846   -1511.6026    513.48845    318.54592   -134.72865    38315.161 
  638200    300.81225   -1509.1612    485.86034    329.76541   -127.30261    38315.161 
  638300    286.08162   -1486.2776    507.10344    307.63308    75.786855    38315.161 
  638400    287.94975   -1490.5062    492.16234    296.86629   -126.79998    38315.161 
  638500    294.08401   -1511.6743    483.08437    294.21236    625.88832    38315.161 
  638600    301.62284   -1533.1138    516.62333    340.22186    215.27053    38315.161 
  638700    293.79393   -1516.1324    488.62584    293.99104    720.90732    38315.161 
  638800    300.29022   -1507.4077    495.52171    338.83217    156.27387    38315.161 
  638900    296.40911   -1521.1322    490.75758    302.88609   -204.86667    38315.161 
  639000    297.30751   -1542.1555    517.17313    312.31942   -106.01563    38315.161 
  639100    301.25589   -1546.0758     502.5283    311.51425   -121.23221    38315.161 
  639200    299.39027   -1535.7847    508.05347    318.93882    65.216896    38315.161 
  639300    302.65374   -1513.1742    463.09963    311.27475    180.24741    38315.161 
  639400     299.0172   -1558.5762    489.20202     275.6178    294.55974    38315.161 
  639500    301.14236   -1567.4633    471.00361    258.09144    219.51752    38315.161 
  639600    303.40708   -1541.0297    489.26519    312.97338   -48.693344    38315.161 
  639700     292.8342    -1564.828    467.63121    219.98387   -111.73431    38315.161 
  639800    304.06309   -1566.4457    487.27273    288.51575    227.76008    38315.161 
  639900    308.13955   -1536.0088    482.53419     332.5501    646.79854    38315.161 
  640000    299.19107   -1529.2769    471.65884    288.15608    26.018305    38315.161 
  640100    306.91675   -1540.0167    482.87284    323.38074    360.49773    38315.161 
  640200    292.81217   -1518.7738    492.05248     290.3602    303.65971    38315.161 
  640300    300.61757   -1539.7962    484.34102    296.73542    569.06396    38315.161 
  640400    300.89559   -1508.0892    500.48801    345.83992    674.48411    38315.161 
  640500    285.77566   -1537.4177    498.59697    246.61028   -44.320485    38315.161 
  640600    294.84088   -1534.2668    499.97667    291.91659   -71.641216    38315.161 
  640700    293.91593   -1538.4085    480.08297    263.72083   -440.32211    38315.161 
  640800    298.08792   -1492.8707    489.22382    337.16524   -338.24009    38315.161 
  640900    300.14847   -1549.2026    475.23588     276.1138     467.6098    38315.161 
  641000     304.7359   -1549.4492    488.38805    309.65382    737.41981    38315.161 
  641100    306.64286   -1556.6973    459.93815     282.5334    439.46713    38315.161 
  641200    294.91196   -1528.0294    492.07962    290.57666    472.26064    38315.161 
  641300    307.51489   -1493.0271    494.01917    384.20708    537.72373    38315.161 
  641400    297.01997   -1469.1481    481.82223    348.68254   -68.588913    38315.161 
  641500    302.73799   -1502.3061    501.93592    361.35812    252.97304    38315.161 
  641600    308.19851   -1483.3794    517.74281    420.65337   -240.24534    38315.161 
  641700    307.38531   -1485.9626    505.62182    402.29134   -370.76418    38315.161 
  641800     303.2525   -1477.8047    500.67012    386.90797   -159.84616    38315.161 
  641900    307.56519   -1461.8881    505.54923    427.10237   -142.23759    38315.161 
  642000    292.89777    -1435.937    493.65594    375.18555   -704.04055    38315.161 
  642100    298.16121   -1505.8697    500.90214    336.17424    162.60293    38315.161 
  642200    293.19304    -1446.296     486.3901    358.88882   -104.52936    38315.161 
  642300    303.63035   -1452.4901    497.75807    411.01019    11.423344    38315.161 
  642400    290.22653   -1457.8541    507.50088    355.09798   -422.37892    38315.161 
  642500    301.22666   -1484.8376    504.84227    374.93495   -415.00598    38315.161 
  642600    297.36704   -1516.2855    467.18273    288.46678   -111.03813    38315.161 
  642700    295.72725   -1507.9063     513.9529    336.24026    347.08886    38315.161 
  642800    289.47339   -1508.6985    483.07816    276.44321    144.10408    38315.161 
  642900    301.09656   -1539.0156    486.16705    301.49655    529.81849    38315.161 
  643000    297.20135   -1508.2758    493.52837    322.07681    262.19312    38315.161 
  643100    298.36814   -1523.1041    500.31133    319.27973     220.6115    38315.161 
  643200     297.4307   -1485.1662    495.76193    348.45163    215.51854    38315.161 
  643300    308.97299   -1487.9552    487.96982    389.78827   -14.248311    38315.161 
  643400     301.6143   -1486.6798     501.5442    371.53834    15.292957    38315.161 
  643500    288.56824   -1543.6956    471.07094    225.36752   -19.943184    38315.161 
  643600    300.68071   -1529.7467    491.32616    314.05398     78.86872    38315.161 
  643700    292.17205   -1488.8932    479.01718    304.32621   -354.49316    38315.161 
  643800     303.6822   -1490.4921    507.16312    382.64644    110.37755    38315.161 
  643900    306.47187   -1523.6106     470.3902    325.30305    121.74982    38315.161 
  644000    304.55009    -1510.717    495.66094    354.82317    65.978823    38315.161 
  644100     300.0459   -1518.8873    471.04943    301.78127    489.25898    38315.161 
  644200    299.51322   -1484.3013    522.88867    385.81054    133.93599    38315.161 
  644300    294.73526   -1485.3887    482.21162     322.5546    382.93735    38315.161 
  644400    299.53261   -1502.6357    522.17428    366.84893    595.12953    38315.161 
  644500    301.11095   -1460.0841    502.43691    396.76255   -67.936537    38315.161 
  644600    306.67728   -1459.0862     490.9491    411.31024    317.69997    38315.161 
  644700    302.27321   -1507.6991    498.57717    350.51574    177.28465    38315.161 
  644800    306.12964   -1550.3187    485.97622    312.64162    466.68855    38315.161 
  644900    295.14379   -1526.9412    484.05301    284.68113     405.6225    38315.161 
  645000    312.00823   -1539.8372    505.75958    369.34863    110.34229    38315.161 
  645100    295.63937   -1516.1511    493.24721    306.89452    338.74126    38315.161 
  645200     305.7958   -1518.4634    485.77036    342.78945   -134.21988    38315.161 
  645300    296.35803   -1524.7246    516.88145    325.18785   -223.77435    38315.161 
  645400    309.65807   -1532.8395    490.45179    350.46739   -123.77352    38315.161 
  645500    294.55201    -1534.217     493.5999    284.29031    386.35639    38315.161 
  645600    299.00202   -1576.9111    502.74108     270.7537    146.20101    38315.161 
  645700    298.07767   -1518.0177    505.51955    328.26779   -98.769075    38315.161 
  645800    298.34123   -1517.9174    511.95801    335.99215    -362.1798    38315.161 
  645900    300.16127   -1500.8215    486.86913    336.18575   -160.07106    38315.161 
  646000    285.50873   -1524.0876    484.01538    244.15818   -33.505135    38315.161 
  646100    303.77297   -1492.7133    482.55511    356.22552    156.52356    38315.161 
  646200    303.03154   -1499.7165    481.75879    345.09101    844.29719    38315.161 
  646300    298.45328   -1473.0383    498.75233    368.16956    910.70413    38315.161 
  646400     297.0669   -1488.7517    472.73309    320.20084    567.01864    38315.161 
  646500    305.25428   -1481.1406    511.02875    402.93485    230.45383    38315.161 
  646600    300.04394   -1508.9161      505.808    346.50225    442.88522    38315.161 
  646700    298.73777   -1458.0352    473.98523    359.68523    450.22829    38315.161 
  646800    306.26633   -1475.8063    482.38117    384.17379    345.02339    38315.161 
  646900     296.1125   -1432.6068     486.3552    385.67491   -147.28582    38315.161 
  647000     301.9921   -1456.6614    490.20637    391.91823    46.944288    38315.161 
  647100    307.61574   -1504.3889    478.53861    357.81834   -261.65174    38315.161 
  647200    295.03587   -1493.3645    485.08434    318.80366    301.79704    38315.161 
  647300    299.18362   -1493.9126    508.09873    359.92667   -345.03789    38315.161 
  647400     302.2247   -1450.9686    514.21369    422.66459    111.26519    38315.161 
  647500    299.03212   -1485.3207    483.68091    343.41934   -453.29395    38315.161 
  647600    297.09362   -1502.7497     493.8578    327.44776   -359.46223    38315.161 
  647700    295.72723   -1497.0452    497.60567    330.75401   -307.51248    38315.161 
  647800    293.63118   -1489.2642    498.48155     329.9828    -370.8169    38315.161 
  647900    297.32146   -1455.8415    511.46393    392.98696   -612.69981    38315.161 
  648000    296.29965   -1478.6143    488.85319    343.00725   -860.27367    38315.161 
  648100    310.75521    -1506.729    486.49142    377.55254   -630.74175    38315.161 
  648200    299.80293   -1499.2523    489.78842    339.06239   -588.34592    38315.161 
  648300    295.40798   -1470.3845    467.88759    326.26066   -735.95505    38315.161 
  648400    308.39673   -1506.1941    474.21599    355.20349    99.222104    38315.161 
  648500    298.65432   -1498.2816    511.86594    356.94414   -244.86588    38315.161 
  648600    293.49475   -1471.6891    477.57165     326.0344     664.5871    38315.161 
  648700    316.14656   -1522.8858    482.08538     381.2402    1257.6951    38315.161 
  648800    295.00583   -1526.2445    492.44844    293.15261    469.87898    38315.161 
  648900    294.65666   -1502.2387    491.23462    314.37408     1224.893    38315.161 
  649000    300.68892   -1506.6969    460.86387    306.67848    516.83845    38315.161 
  649100    298.74641   -1500.6374    505.36407     348.5007     667.9167    38315.161 
  649200    288.78669   -1494.1487     508.5849    313.41098    533.44641    38315.161 
  649300    301.14208   -1530.5852    484.81331    308.77791   -494.44349    38315.161 
  649400    295.41216   -1486.1109    464.87431    307.53977   -388.02282    38315.161 
  649500    300.27499   -1483.6847    488.49925    355.46415   -598.19032    38315.161 
  649600     296.4967   -1496.5913    490.13973     327.2031   -398.00232    38315.161 
  649700    296.23034   -1493.5156    483.68293      322.624    -621.5669    38315.161 
  649800    297.58225    -1492.806    499.32215    345.05376   -259.21818    38315.161 
  649900    287.67184   -1499.4979    495.81968    290.28187    -385.4851    38315.161 
  650000    291.56601   -1494.4478    494.84124    311.86968   -44.098334    38315.161 
  650100    303.36813   -1553.9641    473.96758    284.56618   -262.90512    38315.161 
  650200    292.04766    -1486.585    476.88696    303.94467    215.56498    38315.161 
  650300    308.43735   -1502.3075    499.96641    385.02319    491.26457    38315.161 
  650400    291.39384   -1464.7903    481.87924    327.79076    250.49012    38315.161 
  650500    301.18508   -1506.4199    493.61564    341.93896    75.737686    38315.161 
  650600    302.11677     -1502.32    501.16847    357.78255   -29.748562    38315.161 
  650700    296.10242   -1512.2265    486.88453    306.53926   -190.41403    38315.161 
  650800    297.40103   -1520.3974    489.52995      306.855   -198.52423    38315.161 
  650900    305.69074   -1488.5167    484.31278    370.80601   -31.589531    38315.161 
  651000    290.42974   -1538.6581    487.61983    255.32703    151.74582    38315.161 
  651100    296.10744   -1557.9116     488.6453     262.6375    485.14066    38315.161 
  651200    299.47265   -1608.0397     506.6155    245.61647    850.90235    38315.161 
  651300    303.38947   -1578.7661    489.15049    275.04307    677.62474    38315.161 
  651400    304.51378   -1548.2707    489.10561    310.55074    238.60233    38315.161 
  651500    303.95598   -1541.4444    513.32453    339.08695   -613.63852    38315.161 
  651600    299.70138    -1519.119    478.88148    307.83196   -273.95926    38315.161 
  651700    303.32784   -1548.2587     484.5037    300.62646    337.92831    38315.161 
  651800    295.02688   -1503.8443    492.50458    315.70363    97.943188    38315.161 
  651900    299.82635   -1547.1136    462.46946    263.98752   -237.83639    38315.161 
  652000    300.80653   -1527.3449    515.69334    341.38898   -87.391119    38315.161 
  652100    296.69065   -1549.2769     497.8848    283.13495   -380.55747    38315.161 
  652200    294.49362   -1562.3831    494.60202    256.86374   -333.40299    38315.161 
  652300     308.0589   -1538.1997    489.82726    337.28957    204.36538    38315.161 
  652400    302.22234   -1570.9104    487.13453    275.63307    221.27441    38315.161 
  652500    304.61127   -1583.5059    480.40205    267.05059    87.120906    38315.161 
  652600    299.99629   -1565.7771    504.69279    288.31166    14.183069    38315.161 
  652700    296.95572   -1553.6703    482.83809    264.88714    627.00677    38315.161 
  652800    307.67165   -1572.6222    466.02937    277.32733    581.49117    38315.161 
  652900    286.15034   -1589.7144    471.63169    169.03369   -219.41221    38315.161 
  653000    298.74791    -1580.778    478.47881     241.4815     107.2522    38315.161 
  653100     294.8015   -1607.1672    470.14543    189.00785  -0.34138091    38315.161 
  653200    291.74268   -1523.2446    501.18452    290.21087    373.18867    38315.161 
  653300    292.54173   -1503.0287    488.57774    301.41409   -341.42957    38315.161 
  653400    320.91812   -1482.6249    518.16413    479.04257    207.27844    38315.161 
  653500    296.51164   -1502.6568    482.95249    314.01759     162.5506    38315.161 
  653600    303.00879   -1486.7462    495.36605    371.56626   -220.46401    38315.161 
  653700    297.10341    -1519.619    510.25029      327.015    200.15361    38315.161 
  653800    295.82708   -1545.6956    484.94343    269.89062    354.11032    38315.161 
  653900    300.19309    -1550.665    484.78383    284.40004   -194.65444    38315.161 
  654000    292.56959   -1529.3123    515.12832    301.80648   -151.93357    38315.161 
  654100    304.00928   -1507.7841     509.0582     368.7207   -321.23987    38315.161 
  654200    305.19848   -1513.2552    478.84066    338.38119   -310.66273    38315.161 
  654300    290.46189   -1525.8644    455.88723    236.53274   -829.32629    38315.161 
  654400    289.44251    -1556.579    497.14247    242.48813   -93.535929    38315.161 
  654500    307.88545   -1525.6144     497.5088    356.77619   -178.12453    38315.161 
  654600    298.27116   -1511.5743     467.3138    297.37583    -571.5595    38315.161 
  654700    299.03342   -1502.8958    474.67939    316.84855   -1267.9508    38315.161 
  654800    299.08136    -1517.421    492.88157     320.7412   -841.22887    38315.161 
  654900    297.01824    -1534.976    460.86726    261.89183    11.044836    38315.161 
  655000    301.70275   -1592.1085     487.2365    252.19977   -45.419357    38315.161 
  655100    301.76491    -1549.495    504.74815    312.60451   -7.8520523    38315.161 
  655200    296.74528   -1516.3562    498.44025    316.85688    -31.81663    38315.161 
  655300    303.88443   -1498.2962    492.87839    361.46725   -95.806883    38315.161 
  655400    300.02247   -1551.0807    490.77381    289.20686    16.253549    38315.161 
  655500    293.87065   -1506.3561     507.4964    322.98295    303.25153    38315.161 
  655600    296.89619   -1536.2065    495.11965    294.36474    116.51895    38315.161 
  655700    308.34793   -1578.6941    464.97465    273.24261    158.00491    38315.161 
  655800    298.80261    -1517.905    496.61154    322.73336    196.33214    38315.161 
  655900    296.66819   -1515.7533    457.56568    276.23849     213.2014    38315.161 
  656000    302.74968   -1545.3883    505.29844    321.69102   -24.430395    38315.161 
  656100    305.45871   -1481.6007    520.12118    412.48671      262.538    38315.161 
  656200    307.94648   -1519.2812     495.3294    361.20452    387.64577    38315.161 
  656300    299.39116   -1480.8603    515.18256    380.99633     569.4123    38315.161 
  656400    298.15675    -1496.568    506.56727    351.12097    40.864893    38315.161 
  656500     306.6635   -1466.3812    494.31323    407.31743   -660.03954    38315.161 
  656600    300.91669   -1469.6992    481.31667    365.15354   -54.456899    38315.161 
  656700    303.34095   -1536.1889    506.45155    334.70304     106.9963    38315.161 
  656800    296.36684   -1503.5597     491.2266     320.7375    41.192301    38315.161 
  656900    301.97505   -1522.0186    503.35295    339.63093   -414.22317    38315.161 
  657000    295.58925   -1506.8825    505.18254    327.87305   -173.58991    38315.161 
  657100    290.18019   -1499.3366    504.38197     310.2882   -288.62352    38315.161 
  657200    292.70237   -1520.4284    487.27126     283.4305   -633.32359    38315.161 
  657300    292.83457   -1530.1146    470.01964    257.08729   -123.92388    38315.161 
  657400    293.27566   -1518.1716    512.90514    313.89989    21.988843    38315.161 
  657500    292.06111   -1546.2236    512.91786    280.39753     54.90083    38315.161 
  657600    295.25398    -1553.079    476.26039    251.24631    198.93196    38315.161 
  657700    291.66861   -1544.7442    523.06748    290.26098   -78.720569    38315.161 
  657800    301.97914   -1540.8515    480.68893    298.15238    484.16479    38315.161 
  657900    297.68254   -1542.4361    488.44621    284.99877     -461.884    38315.161 
  658000    295.76355   -1546.9843    494.12491     277.4976   -863.71073    38315.161 
  658100    289.18203   -1556.5972    504.72097    248.87682    -410.9034    38315.161 
  658200    301.58544   -1517.9007    484.27778    322.92122    282.09289    38315.161 
  658300     306.3448   -1533.2747    522.82935    367.50653   -274.34874    38315.161 
  658400    292.90288   -1545.4366    496.45516    268.50815   -46.545779    38315.161 
  658500    290.78822   -1546.4107    495.78006    257.34714   -169.38938    38315.161 
  658600    295.89506   -1544.2467    490.41728    277.11909   -326.13446    38315.161 
  658700    307.15941   -1521.4053    504.64155     364.8523   -28.396648    38315.161 
  658800    301.12492   -1479.4806    494.80326    369.79532   -197.26722    38315.161 
  658900    297.16409   -1535.6822    497.05855    298.03303    301.42775    38315.161 
  659000    307.23117   -1534.7169     515.9089    363.13084    729.28887    38315.161 
  659100    299.00654   -1550.7128    504.89141     299.1227    179.79551    38315.161 
  659200    301.66982   -1542.1351    498.35054    313.13909    182.57498    38315.161 
  659300    297.74748    -1500.373    499.26422    338.17204    47.263579    38315.161 
  659400    290.69877   -1549.1179    506.46928    264.92677    238.61519    38315.161 
  659500    311.74491   -1587.5821    504.27085    318.93049   -562.81212    38315.161 
  659600    291.29583   -1580.4721    479.21342    209.00225   -725.31783    38315.161 
  659700    295.72611   -1548.9045    504.92882    286.21288   -1102.7699    38315.161 
  659800    294.74065   -1524.2723    466.51504    267.99865   -671.67236    38315.161 
  659900    305.12248   -1494.4452    494.72661    372.73529    -155.2254    38315.161 
  660000    297.85409   -1503.9597    468.24576    304.04634    3.9800672    38315.161 
  660100    298.60362   -1479.7745    500.83091    364.18818   -18.632804    38315.161 
  660200    293.65649   -1536.1461    508.61024    293.34348     328.0825    38315.161 
  660300    306.43756   -1543.0383    500.29578    335.62665   -66.368266    38315.161 
  660400     290.9914   -1513.1008    498.25286    294.04374    33.305834    38315.161 
  660500    302.40747   -1510.6813    475.72977    325.29011    187.40015    38315.161 
  660600    293.45194   -1541.8035    491.02319    269.17893    131.11833    38315.161 
  660700    298.27171   -1548.4597    509.36955    302.54858    260.67502    38315.161 
  660800    293.68714   -1571.2256    481.71763    231.50918    296.97239    38315.161 
  660900    304.35219    -1523.102    509.49595    355.38299    78.165043    38315.161 
  661000    298.24959     -1548.99    484.08579    276.63505    376.48933    38315.161 
  661100    296.99309   -1561.0434    479.44036    254.28442   -77.789357    38315.161 
  661200     286.5537   -1526.0118    490.88592    253.80476    168.20219    38315.161 
  661300    302.20559   -1580.3952    495.86302    274.80141     303.8907    38315.161 
  661400    304.78936   -1592.0519    487.79704    266.70059    344.14512    38315.161 
  661500    301.92531   -1565.9086     488.7243    280.88856   -362.55659    38315.161 
  661600    291.95263   -1555.6028    481.27639    238.88894   -59.690963    38315.161 
  661700    306.98472    -1603.834    509.08207    286.07834   -223.59563    38315.161 
  661800    295.47386   -1583.4941    486.79624    232.35609    343.96507    38315.161 
  661900    305.97519   -1589.2159    488.41332    275.48678    357.59265    38315.161 
  662000     296.1464    -1539.298    517.44195      310.223    313.07443    38315.161 
  662100    298.66158    -1532.491    506.12312    317.02459    44.668258    38315.161 
  662200    302.51755   -1539.8809    519.08286    339.93875   -266.16891    38315.161 
  662300    294.02819   -1552.5751    484.67426    254.65044   -260.09697    38315.161 
  662400    299.53448    -1540.031     491.1091     298.3969   -257.39298    38315.161 
  662500    302.43865   -1554.6895    473.19572    278.88806   -608.30439    38315.161 
  662600    297.68114   -1552.4141    469.79241    256.36066   -775.11697    38315.161 
  662700    295.59934    -1550.185    496.24612    275.67946   -366.83374    38315.161 
  662800    290.26549   -1498.9847    502.33196    308.97375   -244.30491    38315.161 
  662900    304.15049   -1550.7366    479.13982    296.48503    -228.1154    38315.161 
  663000    306.11294   -1560.1971    504.07652    320.78836    323.14191    38315.161 
  663100     297.4756   -1559.8373    504.32762    282.54816    404.58345    38315.161 
  663200     304.6493   -1542.3487    511.69896     339.6757   -34.437211    38315.161 
  663300     290.3754   -1520.4359    503.03105    288.71595   -381.32702    38315.161 
  663400    320.40392    -1563.081     468.0882    346.19756   -228.61434    38315.161 
  663500    302.35545   -1518.2418    463.58397    305.34983   -741.95119    38315.161 
  663600    304.92117   -1537.8383    477.86417    311.57426   -720.59338    38315.161 
  663700    288.91517   -1564.3364    497.58727    232.80354   -745.84361    38315.161 
  663800    297.23981     -1596.77    482.42555    222.65279   -280.71462    38315.161 
  663900    301.44291   -1550.7966    501.06654    306.17295   -956.62176    38315.161 
  664000    298.69919   -1533.7482    478.10516    287.91858   -817.52252    38315.161 
  664100    307.84361   -1533.3782    487.35159    338.66695   -506.06185    38315.161 
  664200    294.83061   -1540.1862    494.12033    280.09467    -150.9359    38315.161 
  664300    293.82403   -1554.0182    483.95548    251.57018   -286.66857    38315.161 
  664400    306.13227   -1548.1282    493.82964    322.69734    134.90927    38315.161 
  664500     304.4451   -1576.8687    472.92123    265.45945    528.88321    38315.161 
  664600    299.31481   -1540.8632    490.86937    296.33684    394.06971    38315.161 
  664700    298.22059   -1529.9575     479.4252    290.87652    272.38575    38315.161 
  664800    298.11783   -1563.3614    499.94961    277.53482    328.25811    38315.161 
  664900    287.74946   -1545.7672    504.48494    253.02701   0.44025391    38315.161 
  665000    295.47557   -1541.0142    489.25311    277.30051     -93.4887    38315.161 
  665100    294.30517   -1520.5224    498.66087    301.93556   -495.43696    38315.161 
  665200    308.40431   -1498.2636    494.97663    383.92866    131.72096    38315.161 
  665300    318.20467   -1528.3082    491.80824     394.7981    430.21213    38315.161 
  665400    298.68111   -1578.3318     498.1663    263.31477    1021.7315    38315.161 
  665500    299.54449   -1547.6346    491.73705    291.46625    135.43454    38315.161 
  665600    303.46228   -1534.9369    476.06945    306.11873     34.55049    38315.161 
  665700    299.94148    -1536.532    467.25568    279.87316    183.44811    38315.161 
  665800    302.51185   -1554.5365    523.41855    329.59317   -5.0565544    38315.161 
  665900    310.01737   -1553.4924    489.14165    330.12055    111.84176    38315.161 
  666000     302.3739   -1553.2349    475.33579     282.1915    150.75473    38315.161 
  666100    300.55943   -1535.9747    524.70027    340.65466   -187.19219    38315.161 
  666200    297.62479   -1500.6575    483.06237    321.13379   -521.35009    38315.161 
  666300    308.23987   -1554.3465    478.19671    310.32625    -35.72736    38315.161 
  666400    296.68299   -1560.6722     500.4676    274.28804    784.87029    38315.161 
  666500    311.63811    -1569.804    485.99298    317.95044    727.59505    38315.161 
  666600    288.99896   -1580.8877    499.13606    218.17791    323.36157    38315.161 
  666700    311.06015   -1553.2403     480.7783    326.69976    354.93623    38315.161 
  666800     294.6288   -1597.0682    473.84114    202.02574    524.20054    38315.161 
  666900    303.20726   -1510.5589    487.49414    340.77438   -26.713124    38315.161 
  667000    299.87388   -1566.0372    483.52611    266.33434   -392.59392    38315.161 
  667100    300.27941   -1583.4421    490.70312    257.93056   -612.19484    38315.161 
  667200    299.01554   -1551.7842    496.38908    289.58941    -19.71898    38315.161 
  667300    298.03369   -1540.4187    500.96455    301.11397   -798.07057    38315.161 
  667400    303.22087   -1500.7231    516.42412    379.60132   -301.12987    38315.161 
  667500     284.8586   -1536.4248    501.01725     245.8985   -663.10587    38315.161 
  667600    294.78218   -1528.6807    491.99824    289.26023   -104.59744    38315.161 
  667700    296.82001   -1541.7605    506.49761    299.84608    88.139481    38315.161 
  667800    291.77226   -1564.7427    483.52246    231.18368   -503.05377    38315.161 
  667900     295.0937   -1520.6719    479.78504    286.45714   -327.10478    38315.161 
  668000     294.9405   -1513.9281    494.56442    307.29117   -412.36466    38315.161 
  668100    301.56701    -1556.407    502.78237    302.83657   -440.85276    38315.161 
  668200    295.21765   -1529.4937    479.10006    277.50788    342.40744    38315.161 
  668300    301.03276   -1527.2409    469.66571    296.48293   -229.94649    38315.161 
  668400    306.45284   -1525.5957    512.76009    365.60231    127.00353    38315.161 
  668500    301.07509   -1543.8122    461.10656     271.5429    62.079793    38315.161 
  668600    306.82996   -1539.4908    501.13467    341.77798   -485.49658    38315.161 
  668700    299.79957   -1519.4845    482.55438    311.58101    -296.2673    38315.161 
  668800    307.29536   -1537.2818    481.62386    326.56964    -306.1003    38315.161 
  668900    302.69872   -1534.1324    503.17259    330.59186    326.57099    38315.161 
  669000    307.19267   -1535.8024    496.94375    342.90705    70.893397    38315.161 
  669100    303.59967   -1548.6518    482.01813    298.97051    360.37655    38315.161 
  669200    294.75194   -1503.3482    501.28294    323.74144    2.2343698    38315.161 
  669300    302.80429   -1491.8541    492.09108    362.26353    -288.6876    38315.161 
  669400    303.11715    -1478.919    518.94151    403.45632   -310.05669    38315.161 
  669500    296.47077   -1452.7998    500.21567    380.95395   -726.33279    38315.161 
  669600    309.71025   -1480.2615    471.24002    384.06832   -654.13246    38315.161 
  669700     301.4177   -1525.8376    499.39704    329.34899   -335.74967    38315.161 
  669800    290.89709    -1541.221     481.5597    248.80616   -501.90708    38315.161 
  669900    300.99945   -1517.1129    477.97438    314.76975   -57.947865    38315.161 
  670000    293.90853   -1572.7845    501.44036    250.66886   -298.46668    38315.161 
  670100    298.92287   -1530.3619    480.89199    295.09781   -39.161384    38315.161 
  670200    311.96851   -1526.2309    514.03395    391.05062    643.93984    38315.161 
  670300     299.7135   -1499.7149    507.41613     355.8253    996.51672    38315.161 
  670400      295.253   -1552.2701     495.4564     271.2468    641.50941    38315.161 
  670500    312.41425   -1550.8918    479.44785    333.80853    441.61787    38315.161 
  670600    297.69037   -1518.9853    506.09544    326.13401   -315.76158    38315.161 
  670700    307.20032   -1527.8623    493.72298    347.66069    74.568535    38315.161 
  670800    305.53731    -1551.001    487.93419    311.25292   -524.23359    38315.161 
  670900    313.03823   -1564.3941    481.50429    325.16946   -31.584243    38315.161 
  671000    296.11346   -1570.8313    491.99286    253.09245   -195.71849    38315.161 
  671100    313.73476    -1508.432    508.74235    411.50263    808.70081    38315.161 
  671200    303.12416   -1522.4469    471.41349    312.43186    378.69322    38315.161 
  671300    303.90302   -1538.7135    500.92673     329.1819   -161.71085    38315.161 
  671400     303.6932   -1516.3376    475.52278    325.21007    4.2899358    38315.161 
  671500    303.40084   -1525.9632    519.78311    358.52971   -235.84171    38315.161 
  671600    301.28957   -1557.4618    469.89301    267.64447   -267.07979    38315.161 
  671700    293.61923   -1597.8748     499.1141    221.95102    -465.8364    38315.161 
  671800    303.10764   -1611.0938    496.59891    248.89616   -669.53824    38315.161 
  671900    302.30806   -1534.7029    475.48033    300.57188    572.32145    38315.161 
  672000    306.58984   -1523.3559    476.12406    331.82222    106.60793    38315.161 
  672100    305.71599   -1573.2767    511.47681    313.32356    193.33048    38315.161 
  672200    299.61728   -1572.6459    476.38854    251.43389    271.19696    38315.161 
  672300    295.76292   -1535.7629    502.27712    296.86833   -298.98845    38315.161 
  672400    296.56915   -1548.8898    521.54985    306.64069    211.26451    38315.161 
  672500    311.44197   -1516.2199    466.84202    351.50128   -141.65289    38315.161 
  672600    304.17304   -1535.5013    498.94047    331.62243   -215.98452    38315.161 
  672700    293.90582   -1533.4131    488.50794    277.09573   -163.19048    38315.161 
  672800    304.33014      -1544.9    491.98533    315.97514   -302.68387    38315.161 
  672900    312.43793   -1524.0136    502.73042    384.07591    275.03433    38315.161 
  673000    299.99638   -1506.2737    500.74292    343.86565    370.83704    38315.161 
  673100    298.82732   -1496.9373    512.59453    359.79523    168.08224    38315.161 
  673200    304.99008    -1492.915    517.69122    396.63449    166.10563    38315.161 
  673300     310.1599   -1506.3692    490.70638    379.44948   -587.20672    38315.161 
  673400    287.78339   -1521.9281    492.08708    264.62087    510.95662    38315.161 
  673500    298.01749   -1496.8148    533.12456    376.80505    189.29649    38315.161 
  673600    292.59929    -1466.099    512.28442    362.30939   -319.23128    38315.161 
  673700    304.57238   -1494.8507    524.13829    399.26704    753.44863    38315.161 
  673800    306.87252   -1480.4581       511.57    411.43748    336.26071    38315.161 
  673900    306.34368   -1528.7023    490.74963    339.99418    110.28386    38315.161 
  674000    293.80583   -1504.9234    520.33875    336.96637    115.91431    38315.161 
  674100    301.98276   -1497.5525    507.91247    368.69122   -418.66792    38315.161 
  674200    307.94161   -1501.2669    482.90812    366.77566    30.831397    38315.161 
  674300    304.30189   -1519.5213    476.62977    325.87128   -386.42014    38315.161 
  674400    299.38375   -1503.9189    500.63471    343.35662   -676.90476    38315.161 
  674500    304.09082   -1515.1909     526.4792    379.10165   -268.80944    38315.161 
  674600    300.64111   -1578.5405    480.64197    254.39792   -68.153274    38315.161 
  674700    297.31017   -1527.4221    483.81917    293.71084    158.49464    38315.161 
  674800    298.99437   -1472.3239    507.81896    380.38435   -277.73348    38315.161 
  674900    305.66199   -1500.8998    490.81264     364.7934   -378.95946    38315.161 
  675000    304.09602   -1501.7097      499.299    365.42608   -396.99678    38315.161 
  675100    300.15235    -1481.134    494.32956    363.29359   -220.83445    38315.161 
  675200    294.89521   -1460.8365    495.12547    360.74015    -1003.621    38315.161 
  675300    300.67759   -1455.7682    501.67476    398.36714   -476.46704    38315.161 
  675400    300.17555   -1474.9993    464.15008    339.35311     45.78305    38315.161 
  675500    289.07732    -1511.014    458.38831    247.65629   -398.75454    38315.161 
  675600    300.40113   -1485.7331    523.37003    388.85397    222.30653    38315.161 
  675700    300.08356   -1479.7319    481.91207    351.96872   -196.53182    38315.161 
  675800    301.50447    -1464.797    497.47443    388.85733    342.89879    38315.161 
  675900    305.30831   -1514.0904    482.33528    341.53456    108.72766    38315.161 
  676000    299.21682   -1476.7214    494.49761    363.66613   -98.099985    38315.161 
  676100    300.98388   -1487.5366    508.42426    374.72589   -24.181072    38315.161 
  676200    305.94257   -1513.7108    513.52513    375.95698    462.25239    38315.161 
  676300    307.60554   -1506.5689    497.88342    374.93732    228.22607    38315.161 
  676400    303.44029   -1476.4751    473.52953    361.94174   -187.41128    38315.161 
  676500    305.52777   -1455.0843    499.52825    418.72083   -70.867317    38315.161 
  676600    301.72546    -1505.205      500.484    352.45291    -208.7334    38315.161 
  676700    292.19472   -1504.4587    478.68383    288.52938    220.72183    38315.161 
  676800      292.753   -1487.1246     530.1709    359.86173    88.108747    38315.161 
  676900    300.45547   -1490.7166     477.9789    338.72375   -591.76935    38315.161 
  677000     298.3899   -1470.2817    511.47139    383.36007    72.922982    38315.161 
  677100    293.01282   -1465.2496    521.21958    373.95402   -477.43446    38315.161 
  677200    306.68183   -1485.4444    501.12779     395.1513   -157.89737    38315.161 
  677300    302.31191   -1542.8334    516.93527    333.91365   -110.84172    38315.161 
  677400    298.22414   -1494.8953    491.16083    337.69039    138.47919    38315.161 
  677500    293.93228    -1477.985    525.02325    369.15808    168.36539    38315.161 
  677600    303.78639   -1494.1854    507.19392    379.45259     379.9575    38315.161 
  677700    302.25377   -1520.2059     492.7143    332.05862   -287.19779    38315.161 
  677800     307.9926   -1528.3054    518.21157    375.26997    578.74455    38315.161 
  677900    297.35422   -1527.6095    492.61196    302.51438    166.91396    38315.161 
  678000    300.09212   -1471.7071    502.28605    380.40607   -1024.6919    38315.161 
  678100    287.75159   -1516.1323    509.55891    287.74541   -1008.6549    38315.161 
  678200    289.02057   -1484.6588    514.83265    330.20062   -291.51512    38315.161 
  678300    302.70285   -1535.3192    472.08229    298.33328   -521.33445    38315.161 
  678400    311.92322   -1515.0913    494.06307    382.01567   -213.69253    38315.161 
  678500    297.64674   -1525.2994    488.68749    302.21574   -692.61954    38315.161 
  678600    298.89903     -1464.73    509.37982    389.11034   -1015.3175    38315.161 
  678700    293.25467   -1497.8511    497.18088     318.4017   -867.03835    38315.161 
  678800    306.37034   -1486.4002    471.04616    362.71276   -768.38983    38315.161 
  678900    295.94679   -1521.4771    523.74414    333.44822   -656.21726    38315.161 
  679000    294.61396   -1540.6908    518.97605    303.47132   -187.08916    38315.161 
  679100    283.94954   -1514.2326    531.75963    294.74405   -116.93017    38315.161 
  679200    303.05461   -1550.9932    534.01164    346.17091   -327.62623    38315.161 
  679300    298.01659   -1519.0849    496.09411     317.5005   -386.08697    38315.161 
  679400    299.21785   -1545.0039    515.63149    316.52219    -271.8964    38315.161 
  679500    307.02263   -1496.5869    499.53649    383.95037    250.55574    38315.161 
  679600    307.79676   -1514.3779    526.53994    396.64485    201.13845    38315.161 
  679700    294.68035   -1534.0148    482.31291    273.78285    423.90754    38315.161 
  679800    303.81483   -1518.1023    484.61828    333.08798   -356.87095    38315.161 
  679900    301.08208   -1537.7158     484.9133    301.47748   -256.43575    38315.161 
  680000    300.99082   -1513.4386    520.53951    360.97032     -608.699    38315.161 
  680100    296.12284   -1546.7405    501.55104    286.78363    301.93971    38315.161 
  680200    299.88835   -1499.8295    513.77051    362.85146    240.44239    38315.161 
  680300    299.58333   -1499.3536     507.4326    355.61746    92.932269    38315.161 
  680400    298.83703    -1530.265    513.14532    327.06198    260.43692    38315.161 
  680500    302.20434   -1527.5019    507.61161    339.43762    762.17792    38315.161 
  680600    284.79414   -1531.4897    470.03818     219.5646    285.90447    38315.161 
  680700    302.27001   -1579.8881    486.79461    266.52982    816.04102    38315.161 
  680800    292.34094   -1577.4856    478.10563      215.582    464.33416    38315.161 
  680900    302.06964   -1546.3619    491.77112    304.13132     131.0564    38315.161 
  681000     294.3222   -1575.7645    473.15981    221.26905    424.64946    38315.161 
  681100    294.42813   -1551.7336    493.97472    266.59136     488.4745    38315.161 
  681200    304.62682      -1580.1    504.55291    294.67729    556.43652    38315.161 
  681300    300.46604   -1574.3234     500.7905    277.97606    385.18425    38315.161 
  681400    294.18613   -1529.9003    494.89939    288.26075    373.73717    38315.161 
  681500    289.02279   -1577.0734    492.30272    215.26603    67.003876    38315.161 
  681600    303.10483   -1518.4799    500.65074    345.54917   -460.71611    38315.161 
  681700    310.43602   -1523.1091    484.85394    358.09919    -381.8311    38315.161 
  681800    305.74016   -1513.5558    487.42889    349.10531     48.26317    38315.161 
  681900    302.38617   -1518.4977    490.32107    331.96915    -319.1257    38315.161 
  682000    305.07244   -1519.4277    507.85484    360.65589   -327.93336    38315.161 
  682100    299.78012   -1547.2863    507.46575    308.60309   -173.57537    38315.161 
  682200    288.47444   -1477.0373    492.06182    312.59475   -220.22288    38315.161 
  682300    289.81232   -1519.5976    506.06135    290.05187   -147.32491    38315.161 
  682400    296.83195   -1458.8277    524.72244    401.05738   -273.29862    38315.161 
  682500    302.67653   -1506.0007    529.90643    385.35761   -505.09034    38315.161 
  682600     311.2785   -1479.7058    499.52961    419.96772    507.79422    38315.161 
  682700     301.0507   -1488.1305    513.80265    379.81098    209.06913    38315.161 
  682800    296.94931   -1550.0153    509.78844    295.46369    314.54696    38315.161 
  682900    293.65684   -1532.1109    495.92309    284.69311    420.05241    38315.161 
  683000    304.14275    -1530.341    484.23979    321.94574    438.74421    38315.161 
  683100    290.66269   -1525.3198    502.01817    284.11141   -86.585307    38315.161 
  683200    307.32561   -1487.2299    501.96207    397.09576    -48.48302    38315.161 
  683300    298.98316   -1478.3864    512.81205    379.26458   -572.92706    38315.161 
  683400    296.15692   -1481.5037    504.27868    354.90142    140.90153    38315.161 
  683500    297.62403   -1465.2437    501.04391    374.52573   -390.27634    38315.161 
  683600    294.34588   -1496.3763    501.57364    329.17759   -60.216926    38315.161 
  683700    303.32992   -1466.3613    493.40097    391.43051   -795.56138    38315.161 
  683800    291.63296   -1469.6814    495.53991    337.63594   -982.10845    38315.161 
  683900     311.0738   -1497.6132    495.30229    396.91219   -725.68672    38315.161 
  684000    303.81043   -1467.5583    500.32907    399.32291   -326.57596    38315.161 
  684100    295.26691   -1477.6747    490.32288    340.77123   -70.833049    38315.161 
  684200     303.8135   -1485.6088    504.95249    385.90972    423.51375    38315.161 
  684300    292.31385   -1490.2412    507.33937    331.93831    278.46739    38315.161 
  684400    295.18251   -1469.5313    508.00964    366.22184    115.53145    38315.161 
  684500    301.22371   -1434.5235    501.11527    421.50882     308.5714    38315.161 
  684600    290.51916   -1445.9053    520.05472    380.91693    265.13586    38315.161 
  684700    295.62727   -1464.0307     524.1978    389.91112    132.01052    38315.161 
  684800    295.02376   -1477.2462    493.07537    342.85854   -114.72816    38315.161 
  684900    303.53821   -1445.1888    500.10979    420.24871   -183.47613    38315.161 
  685000    294.44528   -1469.9463    487.41778    341.89889   -103.29049    38315.161 
  685100    304.14263    -1467.553    499.17147    399.66487    129.30371    38315.161 
  685200    292.78084   -1464.9495    501.57237    353.56349   -245.45093    38315.161 
  685300    294.99555   -1508.2481    487.60022    306.25464   -181.92001    38315.161 
  685400    293.05861   -1471.4012    491.23741    338.02625    -635.2724    38315.161 
  685500    297.37785   -1498.8782    472.60131    311.34123   -669.57459    38315.161 
  685600    300.12254   -1468.3204    507.22418    388.86769   -648.29807    38315.161 
  685700    294.14526   -1470.8325    488.43166    340.67701   -592.56304    38315.161 
  685800    307.11112   -1451.4562     499.4458    429.38847    34.311388    38315.161 
  685900    296.29547   -1444.6053    523.05068    411.19491    222.05112    38315.161 
  686000    300.81753   -1451.8232    486.76487    388.03166     238.2652    38315.161 
  686100    307.50376    -1521.578    492.62353    354.21042    186.12965    38315.161 
  686200    297.48929    -1526.759    488.95618     300.3166   -69.046257    38315.161 
  686300    309.69617   -1589.5422    463.86233    267.34661    96.411246    38315.161 
  686400    313.56923   -1538.7885    496.76813    368.42728    10.275562    38315.161 
  686500    298.04336   -1504.4319    493.87961    330.05937    82.329646    38315.161 
  686600    291.36083   -1511.6101    483.60497    282.54821   -562.77553    38315.161 
  686700     300.1031   -1523.6787    479.94482    306.14253    62.747348    38315.161 
  686800    294.37828   -1501.3354    503.12388    325.91444     351.7546    38315.161 
  686900    316.53814   -1533.2322    508.69441    399.26421    91.403478    38315.161 
  687000    305.83547   -1556.6413    459.33155    278.35118    33.156939    38315.161 
  687100    297.42012    -1525.204    514.59995    327.20429   -157.38354    38315.161 
  687200    296.98665    -1523.317    490.83446    303.37599   -436.31334    38315.161 
  687300    307.68568   -1508.1143    481.46025     357.3292   -346.14556    38315.161 
  687400    310.30569   -1508.3675    491.74374    379.14443    85.361151    38315.161 
  687500    306.49053    -1519.784    484.92653    343.74989    57.805845    38315.161 
  687600    302.79135    -1504.659    483.70678    341.01611    48.056925    38315.161 
  687700    298.66207   -1487.4703    502.82493     358.7493    152.98909    38315.161 
  687800    302.85499    -1501.098    476.53675    337.69339    150.70056    38315.161 
  687900    302.37308   -1524.5262    518.43241     353.9931    1662.5058    38315.161 
  688000    305.67974   -1549.7973    475.13601    300.29913    839.64284    38315.161 
  688100    293.41923   -1527.6697    476.85058    268.99299   -142.90125    38315.161 
  688200    293.81951   -1516.3258    477.09765    282.38443    55.098215    38315.161 
  688300    307.97625   -1536.2144    487.39437    336.47022      363.619    38315.161 
  688400    299.16514   -1516.1339     485.8297    315.35327    405.35749    38315.161 
  688500    301.26177   -1528.5128    476.63935    303.21476    490.61833    38315.161 
  688600    296.90637   -1578.3476    470.81526    227.96506   -98.403558    38315.161 
  688700    298.88789   -1551.6464    482.67908    275.44308   -118.70139    38315.161 
  688800    294.50026   -1531.0218    492.25019    285.90305   -269.54015    38315.161 
  688900     300.2918   -1499.9351     480.4629    331.25302   -307.73931    38315.161 
  689000    297.78216    -1505.753    466.74231    300.42605   -493.82652    38315.161 
  689100    303.94846   -1526.4489    456.36751    297.09163    18.859783    38315.161 
  689200    294.43799   -1535.3668    493.84601    282.87374    296.56885    38315.161 
  689300    301.92415   -1527.7078     482.6822    313.04205    391.91422    38315.161 
  689400    303.58623   -1521.2727    457.81904    302.09002    29.417291    38315.161 
  689500     301.4473   -1479.7718    475.88682    352.03768    339.59309    38315.161 
  689600    305.13528   -1510.0218    471.28304    333.77271    703.43068    38315.161 
  689700    291.52864    -1487.406    468.57572    292.47789   -61.130745    38315.161 
  689800    296.86545   -1499.7266    481.05399    316.64074   -174.23005    38315.161 
  689900    297.47849   -1500.7541    479.85654    317.17325   -212.93659    38315.161 
  690000     302.0192   -1512.9728    475.63913    321.16144   -475.68869    38315.161 
  690100    290.07522   -1499.6674    442.77668    247.87983   -725.54367    38315.161 
  690200    304.01559   -1510.0016    490.38628    347.85965    76.449571    38315.161 
  690300    298.74641   -1489.8244    470.58479    324.53438   -626.98713    38315.161 
  690400    307.53169   -1495.2494    456.94333    344.98456   -389.27382    38315.161 
  690500    310.53922   -1469.2046    484.54616    412.16017   -77.492304    38315.161 
  690600    296.20849   -1469.4037    491.35553    354.31012    173.99868    38315.161 
  690700    298.54913   -1490.2751    487.62451    340.23603     432.1154    38315.161 
  690800    295.49102   -1507.6441    476.42868    297.91575    95.352907    38315.161 
  690900    297.91404   -1499.0388      482.895    323.88622   -387.27351    38315.161 
  691000    298.48313   -1486.8539    477.24458    332.98048   -168.70209    38315.161 
  691100    308.79675   -1514.7709    456.23538    330.44537   -346.76705    38315.161 
  691200    296.35587   -1529.8699    442.14474    245.29609   -22.369019    38315.161 
  691300    301.69318   -1531.1623    483.76125    309.62766    76.721817    38315.161 
  691400    289.05672   -1511.5884     499.5305    288.13148   -457.91612    38315.161 
  691500    303.06194   -1541.8022    444.68207     266.0653   -40.689862    38315.161 
  691600    291.69544   -1500.5167    475.06927      286.611    391.10381    38315.161 
  691700    305.97927   -1541.6717    485.47068    320.10671    305.97969    38315.161 
  691800    306.21357   -1525.9561     479.6131    331.01855    566.43671    38315.161 
  691900    297.99486   -1538.0804    470.19812    272.51118    42.992126    38315.161 
  692000    302.39311   -1522.8558    450.18389    287.50513   -153.92363    38315.161 
  692100    291.53974   -1566.2406    457.83213    202.94969   -601.70541    38315.161 
  692200    297.74032   -1541.6937    487.81427    285.36918   -109.25277    38315.161 
  692300    294.40732    -1513.249    510.68599    321.69354   -213.85533    38315.161 
  692400    298.25966   -1518.5782    463.87951    286.88589    229.79825    38315.161 
  692500    308.28273      -1510.3    505.38997    381.75874    27.780037    38315.161 
  692600    296.35345   -1569.8004    470.88143    234.09139   -75.374976    38315.161 
  692700    306.50914   -1510.2434     482.7679    351.21556    128.76786    38315.161 
  692800    288.67747   -1519.2259    460.90029    240.15785    -543.2082    38315.161 
  692900    302.32265   -1516.4203    457.08838     300.5282   -454.58875    38315.161 
  693000    298.76151   -1542.3228    462.83918    264.35828   -478.03372    38315.161 
  693100    305.23113   -1522.8903    471.40396    321.45624   -454.22737    38315.161 
  693200    301.85485   -1515.3067    478.11176    320.56096   -335.68693    38315.161 
  693300    299.69954   -1529.1248    468.94129    287.87772   -913.68214    38315.161 
  693400    299.58412   -1447.5404    462.88893     362.8906   -617.66785    38315.161 
  693500    298.75058   -1509.3549    476.68034    311.11819   -268.63783    38315.161 
  693600    296.60278   -1512.1265    482.40133    304.40663    226.03925    38315.161 
  693700    296.57795   -1522.9044    480.47355    291.58938    141.42023    38315.161 
  693800    305.93562   -1518.3162    466.82442     324.6196    162.11643    38315.161 
  693900    299.13182   -1544.2951    472.71373    273.92619    339.04942    38315.161 
  694000    302.37386   -1519.8089    490.82022    331.10175    772.80585    38315.161 
  694100    290.05086   -1565.5805    486.60882    225.68938    641.93909    38315.161 
  694200    304.15416   -1548.1198    483.27742    303.25588    185.41137    38315.161 
  694300    303.63412   -1527.4638    480.56589    318.86119    286.25446    38315.161 
  694400    303.49778   -1515.4515    465.31603    315.01038    89.957071    38315.161 
  694500    300.45173   -1505.0578    490.42854    336.81535   -78.156328    38315.161 
  694600    301.58208   -1477.4434     471.6992    350.78475    129.91639    38315.161 
  694700    306.18751   -1490.0209    459.41947    346.64298    538.71445    38315.161 
  694800    295.71911   -1522.7401    509.47823     316.8952   -327.04532    38315.161 
  694900    289.99181   -1464.4739    499.26472    339.18625    86.572386    38315.161 
  695000    296.31442   -1501.8715    475.54119    306.50454   -661.14252    38315.161 
  695100    295.91726   -1469.1247    508.76651    370.69013   -244.19962    38315.161 
  695200     300.1965   -1497.0624    475.00806    328.24223   -315.68664    38315.161 
  695300    296.51921   -1480.4135    464.55909    317.90153   -159.91748    38315.161 
  695400     300.4561   -1519.4875    468.24633    300.22314    411.93573    38315.161 
  695500    301.14534   -1559.0089    513.79219    309.34776    591.17264    38315.161 
  695600    302.48205   -1504.3828    487.38688     343.5812    436.13675    38315.161 
  695700    312.20169   -1541.1811    474.34022    337.45551    232.59295    38315.161 
  695800    307.12944   -1484.5672    467.28573     364.1998    82.350546    38315.161 
  695900    302.44152   -1498.2938    454.90315    317.00416    55.003524    38315.161 
  696000    293.54606   -1519.1846     503.8427    305.04071    384.70688    38315.161 
  696100    305.25364   -1548.0649    473.50278    298.48173    171.60079    38315.161 
  696200    304.50237   -1570.3404     482.8977    282.22181    151.84011    38315.161 
  696300    304.81956   -1526.7437    444.94995    289.29757   -85.599115    38315.161 
  696400    301.58358   -1539.2259    483.31235    300.62213    167.05432    38315.161 
  696500    302.32488   -1546.1635    486.16401    299.87066    359.63165    38315.161 
  696600    296.24099   -1532.1377    439.81216    240.17895    61.317532    38315.161 
  696700    299.25729   -1557.6363    499.17446    287.61012    52.818847    38315.161 
  696800    294.97541   -1528.2965    462.10209    260.61748   -209.10013    38315.161 
  696900     299.7014   -1517.3267    478.66451    309.40738    614.81421    38315.161 
  697000     306.8054   -1548.4386    478.33619    309.92125     30.79038    38315.161 
  697100    292.45365   -1531.5668     472.4466    256.34864    229.56844    38315.161 
  697200    304.35209   -1545.4687    455.56336    279.08326    155.71723    38315.161 
  697300    314.08701   -1514.3205    502.90647    401.36267    215.76006    38315.161 
  697400    299.80069   -1493.6294    487.34007     342.2269    253.31002    38315.161 
  697500    305.68833   -1548.6995    479.11668    305.41619   -496.34916    38315.161 
  697600    298.61358   -1547.5501    500.69944    296.32586   -361.32253    38315.161 
  697700    298.80429   -1568.5318    464.28446    239.78706   -172.68378    38315.161 
  697800    292.21563   -1549.6531    479.65961    244.40481   -457.43149    38315.161 
  697900    299.08791   -1532.7916    469.82513    282.34361   -494.66812    38315.161 
  698000    293.78159   -1515.2531    456.68276     262.8717    312.20766    38315.161 
  698100    295.71798     -1522.42    497.72116    305.45311    367.75448    38315.161 
  698200    297.48782   -1553.6602    470.93451    255.38716    224.10302    38315.161 
  698300    306.59041   -1545.2174    458.97923    292.81847    454.75695    38315.161 
  698400     303.8493   -1519.7197    470.74147    317.74881    479.65232    38315.161 
  698500     299.9443   -1533.9844    496.12485    311.30263   -262.49975    38315.161 
  698600     301.1696   -1528.9013    463.95741    289.72974   -181.17234    38315.161 
  698700    295.81749   -1513.0139    496.54931    314.13505   -164.08986    38315.161 
  698800    295.05024   -1455.2558     481.4099    353.30254   -336.21036    38315.161 
  698900    303.67661   -1480.8508    514.75809    399.85756   -294.89412    38315.161 
  699000    302.46594   -1482.1389    492.90841    371.27416   -425.75297    38315.161 
  699100    308.24695   -1518.3899    485.76146    353.87942    75.402941    38315.161 
  699200    312.94238   -1520.5535    476.98174     364.0563   -123.41367    38315.161 
  699300    295.04836   -1519.1996    487.55053    295.49099   -231.00554    38315.161 
  699400    296.89176   -1494.0829    486.10946    327.45821    -194.8539    38315.161 
  699500    294.29753   -1473.3644    497.45962    347.85795   -510.84958    38315.161 
  699600    296.49121   -1520.1057     477.9045    291.42883    48.541738    38315.161 
  699700    296.10054   -1501.2529    496.36206    326.98195    89.132103    38315.161 
  699800    290.40477   -1500.4938    497.42566     303.1848   -359.22943    38315.161 
  699900    301.93618   -1513.0909    470.58641    315.61722    78.755943    38315.161 
  700000    295.59685   -1519.1414    483.35914    293.82489    594.87092    38315.161 
  700100    297.05967   -1580.6643    483.46845    238.99115    432.22667    38315.161 
  700200    304.48334   -1532.1478    488.91197    326.34314    267.21247    38315.161 
  700300    306.93444   -1537.0154    495.19016     338.7789   -360.98433    38315.161 
  700400    296.19995    -1511.895    477.38593    297.81082    477.92431    38315.161 
  700500    296.26263   -1469.2092    485.12282    348.51553   -240.34627    38315.161 
  700600    305.30398   -1469.3001    490.67427    394.64437   -505.77582    38315.161 
  700700    304.36171    -1496.429    476.51314    349.11604    -807.0488    38315.161 
  700800     302.1444   -1459.5605    472.85541    372.35318   -848.26134    38315.161 
  700900    306.16709   -1492.4533    496.37784    381.07703   -65.264746    38315.161 
  701000    301.05008    -1468.832     479.1417    364.44572   -294.96978    38315.161 
  701100    300.78145   -1485.1894    512.97247    380.71071   -101.33833    38315.161 
  701200    311.47814   -1487.4362    476.12307     389.7287    89.434543    38315.161 
  701300    301.14746   -1478.2712    491.83831    368.14111   -270.23898    38315.161 
  701400    304.20974   -1466.3692    501.61263    403.59173   -641.14017    38315.161 
  701500    295.44354    -1437.456    489.97422    381.43581   -136.98758    38315.161 
  701600     297.5156    -1472.728    461.49324    327.00301    156.78183    38315.161 
  701700    289.67146   -1458.9451    485.35425    329.36366   -85.095375    38315.161 
  701800    303.70532   -1456.5042    495.68239    405.25755    19.720799    38315.161 
  701900    298.34095   -1448.7271    481.46772    374.69085    154.81065    38315.161 
  702000    301.75792   -1482.0068    482.49924    357.81237     474.0857    38315.161 
  702100    293.59232   -1477.2975    472.26979    315.56302   -265.64492    38315.161 
  702200    296.62991   -1454.7458    496.45249     375.9606   -12.219751    38315.161 
  702300    294.13036   -1472.9605    509.88351    359.93378    55.707464    38315.161 
  702400     305.1592   -1490.1174    489.77348    372.27505   -145.39546    38315.161 
  702500    300.71793   -1464.6291    500.87596    388.88888    313.23148    38315.161 
  702600    297.37599   -1521.0738    491.10759    307.64361   -175.57785    38315.161 
  702700    298.31137   -1480.9728    522.25795    383.10233    107.62952    38315.161 
  702800     303.5168   -1486.9691    491.00313    369.26549   -186.06617    38315.161 
  702900    298.44889   -1497.9548    456.92214    301.40307    316.95011    38315.161 
  703000    302.20901   -1505.6499    485.88066    339.57965    160.73319    38315.161 
  703100    296.71305   -1555.9586    469.42724    248.09648    95.892929    38315.161 
  703200     303.2373   -1514.0986    478.91312    328.78872   -213.30198    38315.161 
  703300    293.95072   -1477.3973    480.66186    325.46737   -292.44553    38315.161 
  703400    299.05401   -1488.2887    489.94141    346.81032   -228.25748    38315.161 
  703500    305.17013   -1537.6739    474.95961    309.95383   -320.72421    38315.161 
  703600    307.98409   -1514.3797    466.08186    337.02759    -3.398524    38315.161 
  703700    302.11538   -1530.2675    470.17007    298.83037    217.40889    38315.161 
  703800    296.93282   -1537.4855    471.86948    270.00037    598.39183    38315.161 
  703900    309.20582   -1520.3563    486.43581    356.90043    656.67269    38315.161 
  704000     294.7112   -1488.9859    488.40132    325.03893   -81.439115    38315.161 
  704100    301.25107   -1506.7424    496.12328      344.421   -205.55939    38315.161 
  704200    302.31742   -1484.9655    482.92001    357.79104   -157.33687    38315.161 
  704300    296.46791   -1525.2348    483.83517    292.12553    430.52601    38315.161 
  704400    305.14972   -1511.5445    483.31185    344.34372    220.52764    38315.161 
  704500    300.83475   -1527.0476    480.40419    306.52404    649.17605    38315.161 
  704600    289.08543    -1476.778    470.45072    293.99127    585.55126    38315.161 
  704700    301.14699   -1467.1236    497.97109    385.41944     769.3053    38315.161 
  704800     302.1117   -1495.6304    488.76544    352.04625    526.03238    38315.161 
  704900    295.73703   -1524.3997    450.59078    256.42875   -164.32333    38315.161 
  705000    303.14623   -1437.8191    485.43977    411.18528   -8.7006288    38315.161 
  705100    293.78825   -1451.7982    475.83051    345.50432     -834.486    38315.161 
  705200    289.69376    -1499.573    458.71514    262.19692   -676.67013    38315.161 
  705300    307.67771   -1521.0058    485.01739      347.959    24.307462    38315.161 
  705400    303.64498   -1485.2182    485.82413     366.4139   -95.176669    38315.161 
  705500     296.9652   -1451.2088    482.81723     367.3705   -51.955473    38315.161 
  705600    287.91526    -1478.037    451.15211    268.17018     -45.3404    38315.161 
  705700     308.4257   -1481.4372    502.66373    408.53835   -32.430775    38315.161 
  705800     297.7814   -1453.3501    489.06806    375.15133     150.7493    38315.161 
  705900    281.60499   -1448.1651    480.61401    299.12006    379.88074    38315.161 
  706000     294.4927   -1476.9981    489.05436    336.69688    145.27904    38315.161 
  706100    307.00151   -1452.8485     476.1618    404.21912   -210.51367    38315.161 
  706200    306.31009    -1439.619    491.57972     429.7565   -174.49211    38315.161 
  706300    306.73676   -1436.6947    480.33589    423.35609   -15.586346    38315.161 
  706400    297.56177   -1455.1154    474.42074    357.75081    339.01655    38315.161 
  706500    293.21096    -1465.534    493.91521    347.25652    130.89915    38315.161 
  706600    296.58406    -1479.765    465.89416    320.17687    574.90847    38315.161 
  706700    287.97929   -1471.1565    478.47266    302.65926    307.46688    38315.161 
  706800    299.37455    -1453.606    494.75379     387.7472    575.92071    38315.161 
  706900    291.59222   -1485.0605    461.33058    287.86421    691.52158    38315.161 
  707000    306.61368   -1485.9733    484.65938    377.84738    255.05891    38315.161 
  707100    302.01856   -1526.2982    473.07707    305.27117   -205.77545    38315.161 
  707200    303.62302   -1475.3672    480.33484     370.6768    393.65845    38315.161 
  707300    299.79975   -1481.3396    496.03431    363.20666    316.66208    38315.161 
  707400    295.44101   -1492.7334    468.19746    304.37026   -347.13115    38315.161 
  707500    303.66913   -1511.1846    462.62103    317.35307    159.45059    38315.161 
  707600    300.03827   -1494.0166    463.48183    319.05008     403.6296    38315.161 
  707700     298.2839   -1467.5601    465.50249      339.636     377.4555    38315.161 
  707800    292.51926   -1512.9107    491.53979    294.39311    501.87785    38315.161 
  707900    298.98593   -1475.2732    467.31432     336.8925    1295.9355    38315.161 
  708000    301.33907   -1472.4008    489.73696    372.77206    1516.2396    38315.161 
  708100    291.33797   -1528.6814    476.35205    258.12119    815.30935    38315.161 
  708200    306.85767   -1526.3935    459.86941    313.73469    321.83171    38315.161 
  708300    296.06361   -1440.2619    484.09747     375.5422    800.37581    38315.161 
  708400    309.97194   -1455.9088    470.81368    409.17177    310.63727    38315.161 
  708500    302.00956   -1502.9358    469.10208    324.61808   -52.294107    38315.161 
  708600      305.643   -1481.1987    481.92964    375.52607    -735.7892    38315.161 
  708700    303.90938    -1510.153    459.12098    315.96526   -1024.3948    38315.161 
  708800    295.65325   -1502.8169    464.54907    291.59303    -1003.192    38315.161 
  708900     296.4934   -1502.3966    446.74852    277.99176   -1026.3574    38315.161 
  709000    313.56593   -1479.1092    482.46247    413.78614   -40.844634    38315.161 
  709100     301.5058   -1499.0236    465.53403    322.69625   -634.12473    38315.161 
  709200    294.13501   -1487.8149    471.47522    306.69204   -207.74643    38315.161 
  709300    296.77518   -1530.5094    491.77749    296.17541    8.3059974    38315.161 
  709400    299.62702   -1500.9871    457.94105    304.68904   -235.84691    38315.161 
  709500    307.88877   -1483.1087    456.38383    358.17185   -352.97933    38315.161 
  709600    298.00787    -1496.847    467.06043    310.66551   -872.62419    38315.161 
  709700    305.64672   -1466.8335    474.29356    382.27197   -496.44711    38315.161 
  709800    308.95778   -1445.4271    505.93078    450.20882   -39.716287    38315.161 
  709900    306.18275    -1486.881    481.24101    371.58303    140.26961    38315.161 
  710000    304.25715   -1445.2805    464.23979     387.5209   -172.54835    38315.161 
  710100    305.41985   -1453.1623     490.6947    411.32378   -51.596688    38315.161 
  710200    293.73292   -1480.5906    458.15122    298.78374   -176.25793    38315.161 
  710300    309.42288   -1452.4662    457.09152     396.4225    440.17487    38315.161 
  710400    302.95791   -1483.8348    477.96369    356.84646    673.98337    38315.161 
  710500    304.97567   -1494.7658    468.61919    345.64689    610.46441    38315.161 
  710600    303.62916   -1485.5184    473.14725     353.3657    655.19753    38315.161 
  710700    309.81653   -1487.9181    498.29118    403.94101     152.0532    38315.161 
  710800     294.4645    -1495.347    483.91116    313.07796   -45.023527    38315.161 
  710900    292.55121   -1430.1925    462.73358    348.44882   -800.85443    38315.161 
  711000    293.79666    -1453.313    499.47386    367.67068   -314.69177    38315.161 
  711100    303.39521   -1461.7007    458.62381    361.60761   -170.61494    38315.161 
  711200    305.97667   -1455.5653    461.70247    382.43325   -537.42722    38315.161 
  711300    303.49605   -1416.3083     487.9924    436.82222    115.50444    38315.161 
  711400    296.61164   -1433.5538    476.89492    377.51279    285.81555    38315.161 
  711500    300.36847   -1472.2292    468.59933    347.44029    181.25124    38315.161 
  711600    295.91301   -1462.7311    476.74283    345.04104    49.863117    38315.161 
  711700    302.81927   -1514.3524      468.112    315.85353   -1028.4508    38315.161 
  711800    308.38412   -1504.0209    461.29742    344.40131   -629.92955    38315.161 
  711900    293.27712   -1465.0101    470.34086    324.50372   -943.93182    38315.161 
  712000    299.10202   -1465.2608    499.85744    379.97021   -394.61889    38315.161 
  712100    294.27168   -1450.4328    484.92379    358.13751   -44.231821    38315.161 
  712200    306.36469   -1442.5762    502.88319    438.34827    304.30123    38315.161 
  712300    305.95423   -1451.4139    483.09789    407.87906    126.14838    38315.161 
  712400    306.06408   -1472.6304    464.87583    368.93457   -253.54402    38315.161 
  712500    294.85846    -1494.792     461.5937    293.08758   -46.528052    38315.161 
  712600    306.57605   -1486.3249    473.37984    366.04694    407.87441    38315.161 
  712700    296.46525   -1474.3888    485.11592    344.24038   -56.666766    38315.161 
  712800     298.6085   -1475.1271    471.29726    339.32387   -119.16718    38315.161 
  712900    297.43384   -1432.5881    489.52608    394.80802    244.43678    38315.161 
  713000    305.97318   -1405.5488    477.58636     448.3179    -168.4876    38315.161 
  713100     301.5582   -1482.2138    478.59741    352.80518     549.0539    38315.161 
  713200    306.19907   -1468.3054      468.046    377.03698    355.64573    38315.161 
  713300    301.00592   -1486.6619    468.16128    335.43676    355.20079    38315.161 
  713400    290.48797   -1480.6149    464.43073    290.44302   -64.090443    38315.161 
  713500    300.15827   -1493.5954     476.9247    333.45389   -156.27947    38315.161 
  713600    308.16813   -1496.6624    451.68348    341.17433    406.45037    38315.161 
  713700     298.4111    -1451.326    485.39858    376.33835    78.807315    38315.161 
  713800    310.42347   -1503.2671    489.06212    382.09297    217.28721    38315.161 
  713900    293.22503   -1500.2163    457.87314     276.5955    131.41674    38315.161 
  714000    305.43992    -1484.551    476.80531    366.13603    127.55747    38315.161 
  714100    288.92982   -1460.2931    488.25303    327.57848   -482.12529    38315.161 
  714200    302.06233   -1472.7056    447.65588    333.63949   -467.32923    38315.161 
  714300    308.79191   -1483.2942      477.887    383.55194   -257.50505    38315.161 
  714400      297.099   -1514.2347    479.12857    301.25771   -476.87028    38315.161 
  714500    303.51721    -1476.303     471.3938     360.3241   -289.07032    38315.161 
  714600    288.31505   -1474.8131    482.76236    304.80255   -385.29617    38315.161 
  714700    294.87842   -1471.3341    486.35575    341.39727   -806.66129    38315.161 
  714800    305.01873   -1480.2084      477.693    369.47175   -1075.2538    38315.161 
  714900    290.40712   -1443.0223    472.47029    335.71157   -161.26714    38315.161 
  715000    297.77204   -1478.1814    457.39467    318.60452   -107.16915    38315.161 
  715100    300.88606   -1515.0651    490.35159     328.6847    428.65637    38315.161 
  715200    295.02693   -1542.5655     466.3389    250.81704    767.81333    38315.161 
  715300    296.90873   -1537.7575    476.50001    274.25052    792.32467    38315.161 
  715400    305.56942   -1540.9049     462.2789    295.83819     513.5137    38315.161 
  715500     300.8026   -1570.0999    459.84579    242.76873     437.8839    38315.161 
  715600    294.62062   -1515.3191    484.43916    294.33612   -17.246635    38315.161 
  715700    300.92509   -1521.0435    452.82085    285.35112   -291.70995    38315.161 
  715800    295.18367   -1554.7806     425.8268     198.7949    -725.7755    38315.161 
  715900     296.6398   -1547.3764    482.06745    268.98947   -639.44316    38315.161 
  716000    304.09018   -1564.6429    447.06138    250.22901   -988.91302    38315.161 
  716100    303.70309   -1553.5159    453.30227    265.85569    -294.5563    38315.161 
  716200    301.22214   -1521.1356    449.31007    283.08444    81.150946    38315.161 
  716300    295.72181   -1509.2074    496.22204    317.18392    145.46762    38315.161 
  716400    302.91677   -1528.2048    463.64819    297.97589    73.069906    38315.161 
  716500    308.46507   -1527.6495    465.16399    325.00346    -712.9725    38315.161 
  716600     300.5694   -1534.9729    478.11117    295.11219   -545.99499    38315.161 
  716700    297.12904   -1521.7795    460.50068    275.22021    23.458351    38315.161 
  716800    295.57453   -1502.0778    492.20761     319.6366      551.143    38315.161 
  716900    294.61234   -1535.9815    479.02166    268.21897   -6.5500099    38315.161 
  717000    307.96871   -1521.7158    489.71822    353.25875     218.9695    38315.161 
  717100    308.05864   -1525.2266    484.24492    344.67915    559.76568    38315.161 
  717200    297.39877   -1495.0287    471.05443    313.73801   -141.17908    38315.161 
  717300    298.95447   -1521.9139    491.59217    314.38813    234.20344    38315.161 
  717400    297.20377   -1521.9684    492.53798    307.40476   -274.68297    38315.161 
  717500    302.94414   -1474.5759     490.7208    378.80046    9.9756059    38315.161 
  717600    295.45807   -1481.6707    467.81619    315.12842   -190.03402    38315.161 
  717700    320.97246   -1499.6754    490.33068    434.40303   -176.23273    38315.161 
  717800    310.09218   -1460.4123     462.4826    396.87803   -440.09284    38315.161 
  717900    303.77185   -1441.1451     468.8998    394.13337    378.79856    38315.161 
  718000    296.45435   -1450.0614    497.74742     381.1502    380.69779    38315.161 
  718100    294.00807     -1470.99    523.06867    374.53947    492.18522    38315.161 
  718200    302.10641   -1449.5331    475.95789    385.31224    286.69778    38315.161 
  718300    301.14514   -1473.4228    475.38471    356.52547    408.61195    38315.161 
  718400    297.56033    -1442.569     487.4074     383.2774    731.62741    38315.161 
  718500    294.13914   -1439.5608    504.05006    387.53957     409.3878    38315.161 
  718600    299.18259   -1453.9653    495.51271    387.28342    711.49054    38315.161 
  718700    305.01677   -1449.6485    467.69088    390.02076    312.10248    38315.161 
  718800    294.88646    -1487.456    480.06382    319.01964   -188.10774    38315.161 
  718900    297.09301    -1520.304     469.6578    285.69078   -152.89482    38315.161 
  719000    294.73354    -1492.462    488.98408    322.24601    46.786705    38315.161 
  719100    299.56159   -1486.4734    486.04226     347.0096    103.85965    38315.161 
  719200    299.92331   -1482.0293    478.28204    345.32046    707.67067    38315.161 
  719300    306.10364   -1518.4195    442.73564    301.18331    616.52478    38315.161 
  719400    294.10111   -1518.5925    485.29901    289.58577   -175.30575    38315.161 
  719500    297.53523   -1481.6107    472.93169    329.64701   -49.427128    38315.161 
  719600    293.70404   -1466.5349    494.47713    349.03543     419.8803    38315.161 
  719700    306.62059   -1501.1954    495.62763    373.62463    931.03491    38315.161 
  719800    293.98315   -1512.1528    478.04142    288.23726    644.94988    38315.161 
  719900    307.15429    -1470.917    456.11342    366.78937    566.22206    38315.161 
  720000    305.54622   -1516.5821    491.16546    348.94316    361.69756    38315.161 
  720100    316.71084    -1551.616    462.45473     335.4175   -27.939792    38315.161 
  720200    298.33081     -1481.23    480.72354    341.39818   -534.95311    38315.161 
  720300    293.47901   -1492.9254    467.46845    294.62413   -647.71557    38315.161 
  720400    294.80561   -1559.4944    485.27078    251.82455    168.16833    38315.161 
  720500    300.83932   -1516.9527    451.35882    287.59416    512.28858    38315.161 
  720600    297.75992   -1529.5932    478.67177    288.41527    434.97565    38315.161 
  720700    304.63763   -1519.1895     480.5179    331.60137    376.67722    38315.161 
  720800    293.34178   -1470.2815    498.33205     347.5143    509.22514    38315.161 
  720900    298.03376   -1462.2034    486.54637    364.91144    252.58518    38315.161 
  721000    304.11797   -1474.9538    487.05456    380.03627    103.04862    38315.161 
  721100    308.47998   -1492.9876     474.6962    369.26462   -72.247088    38315.161 
  721200    295.09041    -1505.379    500.08821    322.03837   -219.32102    38315.161 
  721300    297.77922   -1430.7053    485.25309    393.97138   -836.49328    38315.161 
  721400    305.61984   -1439.8868    461.26126    396.06544   -495.03726    38315.161 
  721500    298.81718   -1517.7148    491.89613     318.2737   -398.12992    38315.161 
  721600    297.07748   -1452.5964    483.53527      367.206   -492.36553    38315.161 
  721700    296.10612   -1429.3743    509.99491    412.51848    -403.9061    38315.161 
  721800     297.2803   -1470.6407    492.50975    359.04845    13.474478    38315.161 
  721900    289.42808   -1511.2789    466.84903    257.42989   -359.37063    38315.161 
  722000    302.81948   -1457.1277    494.57312    399.54024   -466.14325    38315.161 
  722100    294.17123    -1502.335    472.67673    293.53639   -897.47769    38315.161 
  722200    300.62848    -1506.379    497.29837    343.15901    271.92663    38315.161 
  722300      308.469   -1503.7064    498.53302    382.33326   -109.60267    38315.161 
  722400    293.45811   -1485.4763    469.70487    304.21554   -54.285631    38315.161 
  722500    302.81636   -1487.4342    486.08494     360.7315   -673.81412    38315.161 
  722600    309.73147   -1492.9419    481.55327     381.7967   -508.33479    38315.161 
  722700    304.62165   -1464.9757    509.54909    414.77446   -71.340532    38315.161 
  722800    306.14281   -1486.5296    480.80739    371.32109      382.486    38315.161 
  722900     308.8354   -1499.6488    465.69768    355.20354   -28.367592    38315.161 
  723000    306.86727   -1496.8918    471.96091    355.37105   -34.324017    38315.161 
  723100    310.08414   -1510.8241     482.8717    366.81921    121.66204    38315.161 
  723200    297.34316   -1520.6517    468.52441    285.33483   -254.13546    38315.161 
  723300     304.0012   -1522.7823    490.19995    334.82794   -274.09555    38315.161 
  723400     298.0107   -1436.9635    497.69061    401.19185   -221.35495    38315.161 
  723500    299.74481   -1468.6655     479.2947    358.89404   -314.86363    38315.161 
  723600     302.5366   -1478.5267    499.22225    381.51799   -407.70831    38315.161 
  723700    303.11155   -1469.2078    492.11191    386.31267   -305.32966    38315.161 
  723800     299.3576   -1451.7511    465.50497    360.27705   -210.87479    38315.161 
  723900    303.63187   -1456.9611    503.77642    412.56436   -339.65918    38315.161 
  724000    309.01863   -1453.7588    491.47203    427.69212    50.651154    38315.161 
  724100    300.91322   -1470.6795     487.8271    370.66804    77.767225    38315.161 
  724200    304.20495   -1471.3983    488.74068    385.66918    296.48623    38315.161 
  724300    289.86153    -1448.795    484.26221     339.2766    52.367339    38315.161 
  724400    311.06495    -1509.353    455.56748    345.39783     140.5259    38315.161 
  724500    299.29391   -1512.8576    468.91566    302.29476    -608.0491    38315.161 
  724600    304.76381   -1471.7631    488.55349    387.63091   -517.80013    38315.161 
  724700     288.7731   -1462.3159    477.27427    313.87206    14.358084    38315.161 
  724800    305.48305    -1464.885    508.32963    417.52034   -92.073413    38315.161 
  724900    297.14267   -1458.6947    466.74872    344.61432   -59.930791    38315.161 
  725000    293.74868    -1455.294    449.17402    315.17405    242.26201    38315.161 
  725100    296.79839   -1476.3107    493.56163    352.26265    255.42357    38315.161 
  725200    307.68444   -1462.7027     459.5054    380.78032    461.91666    38315.161 
  725300    299.53623    -1486.262    471.94046    333.00507     808.1054    38315.161 
  725400    304.19267   -1530.6464     490.4529      328.078    379.74197    38315.161 
  725500    285.69556   -1490.2953    472.72279     267.4982    354.58323    38315.161 
  725600    304.93415   -1468.7868    462.34162    365.16154    436.26242    38315.161 
  725700    298.29315   -1463.5676    443.24661    321.41421    354.84484    38315.161 
  725800    293.58164    -1467.398    481.25952    334.40416     60.63486    38315.161 
  725900    296.13006   -1450.2085    492.89238    374.68942    318.63744    38315.161 
  726000    300.09262   -1421.7711    488.53024    416.58851    112.47658    38315.161 
  726100    294.32734   -1422.9185    494.98255    395.96094    232.92912    38315.161 
  726200    308.54566   -1447.3617    490.41497     430.9047     959.4348    38315.161 
  726300    303.07511   -1461.5958    490.85276    392.50163     868.1277    38315.161 
  726400    307.06254   -1472.0844    475.42744    384.52338     577.1172    38315.161 
  726500    310.56501   -1474.5837    479.19483    401.54566    368.89299    38315.161 
  726600    296.26555   -1477.7405    465.27984    320.15433    398.00363    38315.161 
  726700    308.92023   -1416.8257    494.15752    466.86813    287.01307    38315.161 
  726800    294.49304   -1456.7377     482.7036    350.60805   -356.79346    38315.161 
  726900    298.16009   -1486.1026    472.35503    327.38917   -147.77321    38315.161 
  727000    306.18974   -1490.5013    478.34641    365.09954   -15.523741    38315.161 
  727100    282.97621   -1535.0067    489.17439     227.0067    130.23661    38315.161 
  727200    304.90744   -1478.3241    477.12831    370.29081     32.64886    38315.161 
  727300    306.22185   -1470.8889    457.13862    363.64859   -38.586639    38315.161 
  727400    292.40573   -1523.0308    466.07037    258.29289    54.476471    38315.161 
  727500    305.44221   -1484.1784     460.8565    350.57013    200.00541    38315.161 
  727600    299.46213   -1465.8981    470.50777    351.60296    515.36017    38315.161 
  727700    299.16186   -1490.4489    484.06621    339.25997    36.125247    38315.161 
  727800    304.09992   -1486.6419     478.2836    359.49608   -60.319048    38315.161 
  727900    309.49521   -1445.4897    481.26879     427.9017   -163.83139    38315.161 
  728000    292.49993    -1456.616    471.22107    330.28215   -403.94762    38315.161 
  728100    298.97109   -1484.5503    466.73317    326.96748   -54.763354    38315.161 
  728200    309.42059   -1475.2915    474.54773    391.04319   -210.03715    38315.161 
  728300    296.72142   -1474.0227    471.43133    332.07408   -566.08826    38315.161 
  728400    315.25373   -1465.6577    480.82684    433.19379   -575.01531    38315.161 
  728500    299.66801   -1473.5228    475.96126    350.35785   -839.31915    38315.161 
  728600    294.60705   -1474.9556    442.94631    293.14563   -246.66455    38315.161 
  728700    304.32094   -1474.1315    472.99034    367.70734    283.09934    38315.161 
  728800     294.0776   -1519.3553    487.69787    291.11605    -228.7572    38315.161 
  728900    297.83929   -1485.4178     467.5713    321.84723   -249.41883    38315.161 
  729000     304.1398   -1466.0067    484.01766    386.04464   -212.05631    38315.161 
  729100    291.81783   -1491.5825    460.56017    281.58663   -18.098093    38315.161 
  729200    304.13014   -1437.3624     498.3112    428.93908    550.73562    38315.161 
  729300    299.14319    -1439.935    484.24799    389.87177   -9.8701135    38315.161 
  729400    306.47133   -1462.7726    478.09155    393.83996    319.97194    38315.161 
  729500    297.15758   -1489.7492    459.02529     305.9035    233.02803    38315.161 
  729600    306.10724    -1481.012    474.54726    370.41864   -485.83088    38315.161 
  729700    301.39614   -1455.4517     449.8645    350.10538    -10.78407    38315.161 
  729800    303.64811   -1443.1037    487.67499    410.39338   -173.32369    38315.161 
  729900    300.01469   -1490.9666    479.75273    338.26495    348.38879    38315.161 
  730000    300.26389   -1486.2574    477.00248    341.34482    471.64002    38315.161 
  730100    305.22087   -1483.6907    489.68277    378.88852    588.18482    38315.161 
  730200    295.13638   -1482.0498    434.25362    279.73979    296.00044    38315.161 
  730300     295.6832   -1464.4665    469.84056    335.36959   -678.81856    38315.161 
  730400    306.71827   -1426.6416    488.35874    441.34886    265.71492    38315.161 
  730500    303.94557   -1493.7195    463.82896    337.26954   -150.32447    38315.161 
  730600    299.12345   -1464.3823    479.00162    360.08925    3.6094342    38315.161 
  730700     298.1468   -1470.9336    473.25074     343.3941    -103.3663    38315.161 
  730800    302.25332   -1493.2684    490.95479    357.23457   -342.55719    38315.161 
  730900    305.67935   -1485.6152    471.49728    360.84074   -60.516768    38315.161 
  731000    294.41296   -1520.2276    479.19381    283.24817   -304.87911    38315.161 
  731100    287.50107   -1499.3684    453.70486    247.52845   -581.32339    38315.161 
  731200    290.32824   -1506.6304    482.88875    282.16704   -403.65972    38315.161 
  731300    302.43078   -1473.7286    469.12283    355.74072   -121.36366    38315.161 
  731400    305.88671   -1452.7525    472.57947    395.71828   -239.70596    38315.161 
  731500    299.37306   -1483.7377    473.58027    336.43533    343.16364    38315.161 
  731600    293.70916   -1496.7813    482.60343    306.93837    421.71858    38315.161 
  731700    287.52804    -1469.215    482.70743    306.80572    24.338497    38315.161 
  731800    300.65715   -1438.0217    480.86192    395.20887   -142.89304    38315.161 
  731900    304.34675   -1500.1456    454.92984    323.74885    61.160668    38315.161 
  732000    303.61251   -1526.3993    477.10197     316.3646    105.93556    38315.161 
  732100    294.09203   -1509.1256    486.52607    300.23891   -195.25259    38315.161 
  732200    314.92594   -1487.8748    455.60156    384.27697    189.89015    38315.161 
  732300    298.62153   -1491.4945     443.2385    294.95633    286.57197    38315.161 
  732400    294.75339   -1520.0739    458.18005    263.91942   -317.10685    38315.161 
  732500    301.52413   -1510.7885    478.54604    324.02591   -1.6158422    38315.161 
  732600    296.95716   -1558.7133    451.03395     228.0465    101.28822    38315.161 
  732700    292.23527   -1538.5874    457.07307    232.97232   -28.350006    38315.161 
  732800    298.60724   -1527.1071    455.61588    271.65677   -230.43905    38315.161 
  732900    295.58263   -1492.8257    470.42053    307.13799    319.68457    38315.161 
  733000    292.35071   -1511.3789    489.76301    293.38995   -145.08728    38315.161 
  733100    312.62134    -1492.885    454.37011    367.66917    414.43723    38315.161 
  733200    295.01822   -1538.0397    471.81724    260.78204    82.659012    38315.161 
  733300    304.57987   -1493.7009    494.23441     370.5467    259.39931    38315.161 
  733400    290.05184   -1487.6018    474.58096    291.64463    69.805429    38315.161 
  733500    307.82854   -1515.4707    462.84363    331.99872    778.09243    38315.161 
  733600    301.97103    -1479.761    491.19536    369.71282    307.52575    38315.161 
  733700    309.55921   -1490.0559    453.86476    356.21933    528.21828    38315.161 
  733800    307.33785   -1472.0371    496.36711    406.74866    574.13734    38315.161 
  733900    294.83314   -1501.2561     490.2612    315.17707    462.76157    38315.161 
  734000     298.4623   -1482.5843    474.70134    334.61309   -18.758439    38315.161 
  734100    302.26726   -1430.6078     475.2814    404.28452    578.95667    38315.161 
  734200    305.02087   -1478.9447    489.37615    382.42822   -189.27481    38315.161 
  734300    306.63725    -1484.655    460.53582    355.14818   -209.95543    38315.161 
  734400    302.04379   -1471.1136    474.32755    361.81969    30.349813    38315.161 
  734500    301.69788   -1491.7559    454.52844    319.82235   -354.24811    38315.161 
  734600    290.32325    -1460.696    470.56576    315.75603   -111.34932    38315.161 
  734700    304.12503   -1437.0049    472.24703    403.20936   -55.290166    38315.161 
  734800    297.08864    -1491.546    486.40312    331.17438   -44.694519    38315.161 
  734900    308.15032   -1483.8837    466.77245    368.96198    154.97549    38315.161 
  735000     309.2147   -1477.0448    488.82873    402.64475   -359.91205    38315.161 
  735100    292.85247   -1519.6221    478.47373    276.11443    -533.8285    38315.161 
  735200     292.3899   -1476.1878    485.03041    324.02478   -451.68934    38315.161 
  735300     282.7407   -1468.9462    478.11559    280.94903   -1056.4719    38315.161 
  735400    295.92237   -1464.3697    490.07986    356.78153   -672.70971    38315.161 
  735500    306.78723   -1444.0074    475.70224    411.63677   -916.83907    38315.161 
  735600      285.938   -1487.3647    466.87801    265.67459   -581.97092    38315.161 
  735700    306.24224   -1468.9062    463.46221    372.04656    79.572501    38315.161 
  735800    309.65116   -1503.5869    457.47709    346.71418   -351.39708    38315.161 
  735900    299.56322   -1515.2445    487.25482    319.45833   -109.25201    38315.161 
  736000    308.57733   -1544.7404    451.89938    295.15289    151.53128    38315.161 
  736100    301.94051   -1523.6556    463.19747     297.6831     564.8763    38315.161 
  736200    298.16305    -1513.643     468.0371     295.5442    236.95554    38315.161 
  736300    302.04761   -1502.6096    475.46663    331.47993    350.55785    38315.161 
  736400    300.69863   -1502.7089    487.26792    337.11416   -223.69523    38315.161 
  736500    290.04794   -1481.5735    479.47603     302.5504    221.94973    38315.161 
  736600    293.52365   -1471.7495    528.74812    377.28043    306.91555    38315.161 
  736700    299.65989   -1426.3717     516.9387    438.44989    516.06865    38315.161 
  736800    302.68502   -1445.3522    502.60253    418.74042    338.72457    38315.161 
  736900    296.36645   -1449.7725    457.05755    340.35391    61.275544    38315.161 
  737000    297.10933   -1477.4937    495.85158    354.76825   -91.194885    38315.161 
  737100    291.09161   -1528.3065    444.21837    225.25433    508.35138    38315.161 
  737200    318.02249   -1487.9153     470.0773    412.64064    591.68664    38315.161 
  737300    289.57763   -1496.8032    477.21551    282.94478    191.32036    38315.161 
  737400    303.54585   -1526.0397    475.54248    314.86485    478.86817    38315.161 
  737500      302.278   -1486.4265    487.09154    360.32428    834.52077    38315.161 
  737600    294.83228   -1488.7184    461.74478    299.19449   -54.815336    38315.161 
  737700     304.7739   -1460.4477    465.41973    375.85788    155.14304    38315.161 
  737800    294.70856   -1461.5058    484.73851     348.8443   -116.09868    38315.161 
  737900     303.4151   -1455.7672    463.18858    372.19536   -539.00474    38315.161 
  738000    303.42938   -1449.9984    487.29334     402.1331    -218.6021    38315.161 
  738100    298.58201   -1476.8468    516.75859    382.94632   -45.107919    38315.161 
  738200    293.09808   -1477.7675    477.17752    317.77755    841.95567    38315.161 
  738300    298.84998    -1489.792    482.70749    337.15541    1241.6664    38315.161 
  738400    298.25729    -1542.738    485.46451    284.30048    1011.0487    38315.161 
  738500    303.06656   -1536.2596    491.70942    318.65601    443.00669    38315.161 
  738600    295.57859   -1515.5661    473.81662    287.77553    332.07345    38315.161 
  738700    286.92252   -1510.7592    471.28283    251.11331    65.718269    38315.161 
  738800     303.2309   -1548.0644    452.13501    268.01603   -191.55984    38315.161 
  738900    304.20464   -1530.0966    466.62402     304.8528    221.42764    38315.161 
  739000    301.48383   -1480.1107    494.17051    370.14687    258.34123    38315.161 
  739100    295.02725   -1495.0698    489.94898    321.92422    309.36637    38315.161 
  739200    302.76942   -1526.6113    517.53173     352.7901   -189.91112    38315.161 
  739300    292.87293    -1511.736     472.0213    277.64019   -154.74669    38315.161 
  739400    308.70432   -1510.1373    461.56381    339.99159    385.18482    38315.161 
  739500    305.91707   -1532.8589    469.62425    312.79331    29.831077    38315.161 
  739600     293.2578   -1536.0389    474.51319    257.56028    439.62799    38315.161 
  739700    291.53726   -1498.9492    470.28088    282.67861    484.14709    38315.161 
  739800    306.65306   -1534.7804    465.98629    310.54433    261.20121    38315.161 
  739900      305.943    -1580.854    447.78269    243.07332   -255.18422    38315.161 
  740000    301.27536   -1546.5273    464.73435    273.35638    351.32073    38315.161 
  740100    296.32126    -1547.794      490.202    275.27361   -47.906394    38315.161 
  740200    294.46799   -1578.8232    476.56991    222.27626    714.80532    38315.161 
  740300    304.04265   -1527.7634    473.64284    313.47618    587.03371    38315.161 
  740400    304.29682   -1547.3013    496.47494    317.91356     170.6054    38315.161 
  740500    294.36345    -1533.131     483.8438    274.77211     631.3111    38315.161 
  740600     294.9605   -1517.7585    453.14246    262.12879    358.05588    38315.161 
  740700     293.8422   -1530.0436    478.41994    270.09102   -169.91811    38315.161 
  740800     298.3165   -1492.1016    473.55221    323.29081   -520.08224    38315.161 
  740900    293.94383   -1454.9976    480.27618    347.45041   -544.37159    38315.161 
  741000    292.48215   -1537.4149    457.23145    235.41366   -731.50875    38315.161 
  741100    295.11439   -1529.2796     494.1186    292.27607   -535.36386    38315.161 
  741200    298.35482   -1531.3765    456.64135    267.27749   -694.86192    38315.161 
  741300    306.03855   -1533.4075    493.74055    336.90739   -535.62679    38315.161 
  741400    303.71875   -1517.6033    476.12307    324.65953   -345.64988    38315.161 
  741500    296.78133   -1481.1366     495.7548    349.55315   -733.23831    38315.161 
  741600    298.85084   -1482.8176    450.69736     312.1235   -209.92817    38315.161 
  741700    298.30132   -1516.6663    502.53156    327.63724    -198.7516    38315.161 
  741800    309.24111   -1498.5041    474.37507    366.85058    109.72174    38315.161 
  741900    296.81168    -1496.683    475.47519    313.86371    167.04937    38315.161 
  742000    295.01247   -1490.9551    466.34406    302.36752    602.76738    38315.161 
  742100    301.01924   -1470.4259    495.53584    379.10728   -283.91527    38315.161 
  742200    296.16337     -1462.73    519.84857     389.2739    -218.1754    38315.161 
  742300    294.09998   -1427.8665    485.26539    380.27308   -331.92086    38315.161 
  742400    303.57156   -1452.0815    494.77122    408.16746    46.992327    38315.161 
  742500    296.05558   -1458.8834    477.30395    350.09113   -56.700498    38315.161 
  742600    302.90366    -1474.563    465.27288    353.18335   -205.15161    38315.161 
  742700     307.8076   -1525.0369    469.87477    329.36953     -26.2686    38315.161 
  742800    302.23435    -1515.776    478.79666    322.48357   -681.06789    38315.161 
  742900    295.82193   -1487.8917    482.47892    325.20681   -371.48804    38315.161 
  743000    301.50553   -1481.9435    474.01633    348.25752   -352.27848    38315.161 
  743100    304.51139   -1477.1128    488.55785    381.15018   -270.08511    38315.161 
  743200    297.73548   -1463.9249    477.10308    352.40501   -564.15907    38315.161 
  743300    301.66388   -1490.5305    495.45248    361.81887    1.4626275    38315.161 
  743400    295.80368   -1507.5902     485.0345    307.98175   -72.364305    38315.161 
  743500    292.14325    -1472.657    480.59476    322.01047    70.485933    38315.161 
  743600    286.32746   -1474.3011     500.6755    314.28748   -301.54511    38315.161 
  743700    302.35022   -1490.6207    479.23528    348.59865    84.007183    38315.161 
  743800     303.1932   -1510.5642    489.88415    343.09578    163.91334    38315.161 
  743900    301.61209   -1492.5113    461.56992     325.7226    275.85493    38315.161 
  744000    303.78068   -1509.6825    501.14717    357.88304   -40.102885    38315.161 
  744100    296.82016   -1483.9834    468.55283    319.67911   -426.86288    38315.161 
  744200    300.50325   -1493.9053    483.33066    341.10166   -405.73711    38315.161 
  744300    308.81631   -1456.3334    467.42452    400.15992   -513.13526    38315.161 
  744400    303.92713   -1463.3929    468.74409    372.42833   -395.29316    38315.161 
  744500    295.68232   -1484.4486    493.59085    339.13382   -332.30918    38315.161 
  744600    309.25375   -1478.7801    465.84163    378.09802   -154.39236    38315.161 
  744700    306.08845   -1484.1136    474.03039     366.7156  -0.94775953    38315.161 
  744800    296.13829    -1475.756    456.97548    313.26208   -180.30216    38315.161 
  744900    305.23948   -1492.5176    484.72202     365.1846   -259.12681    38315.161 
  745000     290.7764   -1486.6005    473.61708    294.94115   -268.57169    38315.161 
  745100    312.30977   -1531.7853    452.75474    325.75205   -138.68252    38315.161 
  745200    296.41193   -1505.4117     457.5338    285.39552   -513.69221    38315.161 
  745300    301.35099   -1512.8167    482.92659    325.59943   -695.95504    38315.161 
  745400    304.84282   -1478.3137    463.45821    356.34045   -284.87473    38315.161 
  745500    292.34885   -1491.8758    475.72412    298.84582   -214.76883    38315.161 
  745600    295.89084   -1506.7639     496.9355    321.10113   -385.15822    38315.161 
  745700    293.46045   -1475.9392    501.29531    345.35362    60.186553    38315.161 
  745800    299.21345   -1466.3238    487.21622    366.76721    141.97728    38315.161 
  745900    293.39537   -1480.6676    491.71485    330.75211    94.816842    38315.161 
  746000    311.52961   -1518.2729    483.78629    366.78678    378.16829    38315.161 
  746100    292.99135   -1472.9252    485.47578    330.43809    712.88889    38315.161 
  746200    288.36973   -1509.6902     498.7931    286.20216    19.607613    38315.161 
  746300    291.45015   -1507.1404    469.00593    272.82064   -296.19482    38315.161 
  746400    303.28093   -1514.2127    504.62588    354.58363   -366.23453    38315.161 
  746500    301.20656   -1543.1736    466.23441    277.90069   -173.81569    38315.161 
  746600    312.16521     -1553.13    488.41327     339.4156    786.38118    38315.161 
  746700    306.19291   -1557.0704    486.07822    306.27645    253.16953    38315.161 
  746800     293.8836   -1569.7214    476.97806    229.15755    583.22591    38315.161 
  746900     297.2184   -1545.7834    468.49116    259.60869     152.6243    38315.161 
  747000    298.83929   -1517.8729    483.18689    309.50577   -123.40805    38315.161 
  747100    302.54636   -1534.0974    471.32153    298.09048    370.57969    38315.161 
  747200    295.48146   -1503.2247    483.82456    309.68802    563.55318    38315.161 
  747300    301.05158   -1526.7999    466.55882    293.90171     643.8892    38315.161 
  747400    297.24207   -1563.8578    486.35625    259.50584     199.6366    38315.161 
  747500    300.53244   -1515.4225    494.97383    331.35899   -180.83555    38315.161 
  747600    296.67674   -1543.5982    485.03166      275.898    395.69632    38315.161 
  747700    291.51244   -1581.7553    476.64155    206.12152   -593.76809    38315.161 
  747800    289.72448   -1550.8358     460.8524    213.20958   -679.79695    38315.161 
  747900    290.73201   -1553.5321    487.94266     242.1355   -490.52099    38315.161 
  748000    303.72763   -1564.3543    467.60035    269.42582    -247.9744    38315.161 
  748100    293.31629   -1587.7185    461.07203    192.70261   -395.87328    38315.161 
  748200     287.3731   -1620.3588    491.92456    164.18219   -336.65604    38315.161 
  748300     304.4561   -1552.3912    500.60701     317.6723    2.3145716    38315.161 
  748400    304.09197   -1557.8081    466.25753      276.268   -298.53306    38315.161 
  748500    296.05213   -1594.1352    477.40356     214.9234   -765.22474    38315.161 
  748600    307.80294   -1570.5002    499.95141    313.96193   -447.09021    38315.161 
  748700    297.84574   -1553.6851    465.20041    251.23808   -662.46917    38315.161 
  748800    291.93388   -1533.0885    483.51578     263.5582   -143.65415    38315.161 
  748900    307.88018   -1526.9607    509.89425    367.79169    -93.44743    38315.161 
  749000     306.2092   -1586.5355    454.10158    244.90808   -84.665919    38315.161 
  749100    308.71355   -1541.6951    511.04567    357.95723   -15.171326    38315.161 
  749200     293.8148   -1505.9301    510.65854    326.31988   -105.20647    38315.161 
  749300    294.07713   -1507.2407    498.44933    313.97999   -629.66415    38315.161 
  749400    303.34888   -1517.8166    507.99129    354.65077   -187.04014    38315.161 
  749500    302.61816   -1511.0582    498.60888    348.73994    205.41592    38315.161 
  749600    305.73376   -1529.5223    495.98504    341.66609    418.76721    38315.161 
  749700     308.2102   -1507.2839    489.32797    368.38665    436.45661    38315.161 
  749800    291.37632   -1513.3661    501.49509    298.75202   -55.740027    38315.161 
  749900    299.50753   -1480.4056    513.85979    380.65175   -48.718378    38315.161 
  750000    299.05788   -1531.5515    530.82398    344.44751   -90.432294    38315.161 
  750100    303.55028   -1486.7997    487.88621     366.4686   -355.34009    38315.161 
  750200     298.5627   -1435.1729    491.31617     399.0909    429.32243    38315.161 
  750300     301.0072   -1467.9934    502.33793    388.28766    167.07769    38315.161 
  750400    293.93905   -1468.9641    528.21535    381.40153    673.31013    38315.161 
  750500    301.89485   -1413.0297    481.85186      426.758    7.6627509    38315.161 
  750600    292.46094   -1451.5017    506.20909    370.20912   -358.87987    38315.161 
  750700    298.72365   -1449.1702    488.88652    383.38791    17.180036    38315.161 
  750800    306.20864    -1471.616    527.17989    432.90332   -817.39397    38315.161 
  750900    308.97407    -1474.013    484.54981    400.31521   -552.95833    38315.161 
  751000    299.18757   -1482.1362    497.56264    361.18483    -728.0202    38315.161 
  751100    302.12802   -1506.1012    482.66926     335.5527   -297.25655    38315.161 
  751200    297.48903   -1518.0838    478.23984     298.2743    54.965677    38315.161 
  751300    292.26932   -1534.6879    500.37883    280.33076    220.67292    38315.161 
  751400    290.86492   -1511.6735    526.45171    323.10095     817.1915    38315.161 
  751500    301.96009   -1517.6157    491.03187     331.6454    815.64398    38315.161 
  751600    312.84439   -1551.5831    491.32227    346.92653    768.84812    38315.161 
  751700    310.37451   -1481.5911    488.26557     402.7521    594.35829    38315.161 
  751800    312.49399   -1516.1472    482.72299    372.18698     173.2663    38315.161 
  751900    303.93625   -1455.6586    491.87616    403.33566   -89.238601    38315.161 
  752000    305.28214   -1485.5346    478.02241    365.65982   -254.20721    38315.161 
  752100    302.69282   -1513.6889    506.97415     354.8104   -577.74006    38315.161 
  752200    305.83537   -1506.1708    499.52504    369.01467   -200.22061    38315.161 
  752300    292.64788     -1506.75    476.89467    286.48725    286.28134    38315.161 
  752400     290.2056   -1467.3402    486.34151    324.35838    197.89648    38315.161 
  752500    304.62714   -1487.4279    503.19918    385.99708    127.80351    38315.161 
  752600    296.39409   -1507.2874    497.08383    322.98962     81.36544    38315.161 
  752700    308.95553   -1502.4478    509.18173    396.42902    321.07721    38315.161 
  752800    306.65151   -1494.4137    482.10846    367.02627   -232.42369    38315.161 
  752900    310.61483   -1496.5464    494.87721    395.48946   -441.75242    38315.161 
  753000    298.42308   -1520.7415    486.23182    307.81001   -485.93414    38315.161 
  753100    300.84538   -1438.3057    503.78812    418.69765   -465.19586    38315.161 
  753200    294.82651   -1517.9692    516.77731    324.95026     -697.607    38315.161 
  753300    297.20895   -1513.8651    467.80151    290.79484   -481.62435    38315.161 
  753400    295.35026   -1517.3609    522.88492    334.02202   -598.48973    38315.161 
  753500    296.34161   -1441.1596    492.39172    384.18925   -830.04091    38315.161 
  753600    303.40712   -1502.6941    484.25099    346.29499   -11.743551    38315.161 
  753700    301.71596    -1524.466    488.17014    320.83536    65.791427    38315.161 
  753800    303.34675   -1499.5343    480.83637    345.76863    388.36007    38315.161 
  753900    306.64634   -1520.2058    507.93787    367.04032    77.614462    38315.161 
  754000    303.32904   -1526.4229    468.00142    305.96537     631.8064    38315.161 
  754100    298.10418   -1530.6033    503.42809       313.71    724.08297    38315.161 
  754200    301.66028   -1489.2002    498.05135    365.73188    547.42914    38315.161 
  754300    310.30586   -1457.5733    466.60209    404.79767    283.92598    38315.161 
  754400    302.89338   -1523.6287    487.56119    326.35972    466.66606    38315.161 
  754500     292.5209   -1517.2086    512.35848    310.92134    386.60636    38315.161 
  754600    306.01754   -1529.2033    501.60513    348.88172    400.49505    38315.161 
  754700    299.67843   -1509.1281    482.96975    321.80794    202.23914    38315.161 
  754800    296.42934   -1500.3576    480.23793    313.23209    96.196734    38315.161 
  754900    306.85406   -1459.6171    492.37283    412.99833    148.07007    38315.161 
  755000    310.48246   -1459.2827    481.37982    418.66035    7.4812171    38315.161 
  755100     297.5298   -1478.1984    485.66814    345.77138    397.26897    38315.161 
  755200    299.38388   -1486.9104    479.22917    338.96013    309.89635    38315.161 
  755300    305.05988   -1492.2248    508.04803    387.99551      461.531    38315.161 
  755400    293.30291   -1480.8805    486.65223    325.06064    99.022738    38315.161 
  755500    300.98603   -1485.4341    463.38738    331.80116   -638.22757    38315.161 
  755600    296.27561   -1447.6169     493.4239    378.46719   -519.98173    38315.161 
  755700    301.54461   -1507.6769    470.35474    319.03827   -436.53603    38315.161 
  755800    309.32494   -1498.9022    490.65409    383.10851    57.330818    38315.161 
  755900    301.25234   -1520.7627    482.32646    316.60951    -57.33769    38315.161 
  756000       300.86   -1485.5948    476.28077    343.96699   -460.54335    38315.161 
  756100    297.63196   -1493.1578    505.42314    351.02648   -23.086508    38315.161 
  756200    299.26386   -1518.3806    479.41422    307.13516   -225.66832    38315.161 
  756300    297.23831   -1502.4141    499.32574     333.9022   -54.419935    38315.161 
  756400    305.97823    -1544.904    488.90696    320.30602     85.18058    38315.161 
  756500    303.71286   -1533.4057    454.77334    287.48092   -131.45389    38315.161 
  756600    300.34274    -1463.743    499.13504     386.3464      642.253    38315.161 
  756700    304.03977   -1457.4716     517.0207    427.13289     640.6228    38315.161 
  756800    300.54103   -1489.7355    502.44597    364.55672    679.56275    38315.161 
  756900    302.28715    -1496.278    469.49446    332.91685    575.01185    38315.161 
  757000    314.97835   -1515.2227    466.34724    367.91054    -57.68561    38315.161 
  757100    287.93402   -1484.6295    464.93051    275.44049   -660.04443    38315.161 
  757200    308.00167    -1489.039    478.66385    375.02938   -265.30619    38315.161 
  757300    298.24729    -1536.473    473.76262    278.81859   -789.54786    38315.161 
  757400    307.87703   -1498.5507    490.04024    376.33345   -584.05724    38315.161 
  757500    305.15207   -1520.2394    493.71669     346.0643   -436.01804    38315.161 
  757600    295.04803   -1548.6576    473.22285    251.70382   -539.12605    38315.161 
  757700    293.60288   -1555.4656    480.22875    245.40137   -597.36969    38315.161 
  757800    300.81839    -1508.589    494.05007    338.55498   -590.56645    38315.161 
  757900     306.8073   -1541.1749    468.05676    306.91406   -408.03258    38315.161 
  758000    289.83328   -1571.8177    476.49633    208.36105   -245.36678    38315.161 
  758100    294.69772   -1597.7623    460.52759    188.32814   -388.68197    38315.161 
  758200    305.66098   -1525.3677    465.36712    314.87541     10.89303    38315.161 
  758300     304.8334   -1556.1039    498.58508    313.63472    519.10903    38315.161 
  758400    299.19484   -1560.4486    476.22452      261.567    303.47153    38315.161 
  758500    303.59481   -1570.0919     480.4697    275.96014   -630.34117    38315.161 
  758600    310.03905   -1500.7523    499.22607    393.04257   -621.88462    38315.161 
  758700    300.06728   -1531.3331    487.39719    305.77943   -274.95652    38315.161 
  758800    291.83238   -1481.1934    473.69203    305.17306   -373.18653    38315.161 
  758900    301.12445   -1460.0564    478.42105    372.83516   -330.91788    38315.161 
  759000    299.23835   -1546.9688    468.73655     267.7545   -487.73266    38315.161 
  759100    290.25256   -1518.9872    496.70604    283.28716     514.3052    38315.161 
  759200    299.12817   -1495.3233    475.60555    325.77338    362.22314    38315.161 
  759300    306.60898   -1510.4899     495.6022    364.25254    478.81055    38315.161 
  759400     300.9023   -1494.0067    498.21525    357.67986    186.67162    38315.161 
  759500    300.93781    -1519.248    482.36419    316.74722   -15.084168    38315.161 
  759600    294.12422   -1511.8874    506.40559    317.50141    387.11782    38315.161 
  759700    304.61637   -1533.4925    464.97357    301.65838     210.8314    38315.161 
  759800    304.68367   -1543.9978    479.30298    305.78517    424.19019    38315.161 
  759900     299.7983   -1530.5938     506.2959    324.20753    510.98646    38315.161 
  760000    294.60444   -1548.3709    485.46654    262.23893     515.4096    38315.161 
  760100    302.91695   -1543.6645    471.15238    290.02114   -290.61823    38315.161 
  760200    283.62803   -1543.3721      495.788    228.18678   -359.38242    38315.161 
  760300    285.63998   -1526.3965    483.18044    241.60468   -157.32562    38315.161 
  760400    303.83858    -1536.637    458.94009    288.98193    71.431171    38315.161 
  760500    295.05891   -1489.5556     503.9109     341.5428    379.05529    38315.161 
  760600    302.55294   -1533.9092    479.61628      306.603    555.77677    38315.161 
  760700    305.19405   -1516.9367    475.57862    331.41774   -17.590157    38315.161 
  760800    299.89441   -1533.4427    481.35227    296.84738   -529.72674    38315.161 
  760900    307.40113   -1534.0556    490.44631    339.09403    342.00674    38315.161 
  761000    304.28598   -1538.5657    501.10581    331.23128    304.84443    38315.161 
  761100    288.81241   -1585.1107    461.65443    175.63418   -119.74134    38315.161 
  761200    299.44074    -1555.048    480.01253    271.86171    111.65977    38315.161 
  761300     304.3797   -1557.3784     494.6862    306.42061    499.33682    38315.161 
  761400    308.93421   -1526.6431    469.02586    331.98188    289.16035    38315.161 
  761500    301.52371   -1496.5295    504.73393    364.47086   -151.22803    38315.161 
  761600    303.47141   -1515.8127    483.44121    332.65576   -46.188259    38315.161 
  761700    305.96975    -1493.303    502.61177    385.57366    331.52073    38315.161 
  761800    303.68476   -1446.7759    500.34903    419.56003    323.26889    38315.161 
  761900    296.11125   -1442.2703     504.1122    393.76281   -72.149323    38315.161 
  762000    302.79824   -1479.1276    498.07212    380.94385    143.85059    38315.161 
  762100    299.76926   -1453.1652    527.62097    422.83059    765.74643    38315.161 
  762200    309.72918   -1486.9451    498.76124    404.99106    663.51052    38315.161 
  762300    305.37692   -1473.6464    503.69864    403.65056    654.76163    38315.161 
  762400    308.83807     -1512.18    512.77616    389.76292    526.80558    38315.161 
  762500    290.86066   -1489.4293    479.07355    297.94783    54.599869    38315.161 
  762600    291.25651   -1505.0219    521.11605    326.17828   -72.362068    38315.161 
  762700    297.21069   -1475.3977    481.74516    343.21378    12.975947    38315.161 
  762800    304.65807   -1491.3726    481.95411     360.9464   -312.25335    38315.161 
  762900    309.13691   -1519.8437    473.08065    343.74786   -130.39448    38315.161 
  763000    295.36357   -1511.0014      514.339    331.89542   -415.58908    38315.161 
  763100    299.80062   -1486.0206      481.666    344.16128   -1133.2102    38315.161 
  763200    294.94279    -1481.002    468.38224    314.04539    -844.7307    38315.161 
  763300    311.42377   -1456.1889    484.40513    429.01349    -132.0578    38315.161 
  763400    306.30706   -1477.7546    495.53119     395.5587   -495.17454    38315.161 
  763500    290.69819   -1497.3755     488.1062     298.3035    286.41411    38315.161 
  763600    290.74279   -1532.4351    479.45489    254.79322   -110.37737    38315.161 
  763700    301.16312   -1508.6052    492.35357    338.39283    493.29867    38315.161 
  763800    311.15171   -1527.6758    492.80398    364.70175    91.921684    38315.161 
  763900    302.54669   -1519.1556    481.38864    323.10089    338.67963    38315.161 
  764000    300.74904   -1528.6747    479.07742    303.18461    500.25091    38315.161 
  764100    297.10831    -1564.352    483.43553    255.48926    1087.7375    38315.161 
  764200    300.73998    -1583.473    502.54115    271.80934    693.53131    38315.161 
  764300    291.41339   -1555.8604    490.53175    245.46109    112.61521    38315.161 
  764400    306.57642   -1527.9024    474.37111    325.46242    763.17603    38315.161 
  764500    304.42186    -1542.805    487.62374    314.12121    603.73735    38315.161 
  764600     310.7523   -1507.2385    468.04048    358.57904    410.76719    38315.161 
  764700    315.01893   -1524.0431     487.4898     380.4152     326.1943    38315.161 
  764800    295.00864   -1530.8226    511.08202    307.22081    178.58931    38315.161 
  764900    298.17436   -1535.7467    494.04348    299.49769   -48.500182    38315.161 
  765000    309.33465    -1533.025    474.51856    332.89396    14.968114    38315.161 
  765100    301.59206   -1519.0598    507.54335    345.05739    -24.50653    38315.161 
  765200    293.49445   -1506.2291    481.33067    295.25203     -27.0493    38315.161 
  765300    295.96119   -1520.1254    503.77446    314.89506   -318.54119    38315.161 
  765400     291.7943   -1498.4862    480.69037    294.70729   -198.36801    38315.161 
  765500    301.79291   -1510.3224    464.08953    311.24439   -361.47651    38315.161 
  765600    302.82374   -1465.9038    487.85326    384.06349    -337.2325    38315.161 
  765700    297.87135   -1510.5779    467.25762    296.51766   -204.97272    38315.161 
  765800    291.80968   -1523.4561    477.46314    266.57936   -79.681341    38315.161 
  765900    299.34143   -1536.1373    497.13001    307.44314    428.10933    38315.161 
  766000    303.13721   -1568.2746    480.86604    276.11541    385.09702    38315.161 
  766100    301.07581   -1554.2649    498.84058    298.82746    188.73722    38315.161 
  766200    304.42693    -1558.716    490.60739    301.21659    925.98965    38315.161 
  766300    297.66614    -1577.298    468.11724    229.73412    450.96613    38315.161 
  766400    303.20523   -1523.2325    493.74663    334.34404    710.74249    38315.161 
  766500    300.81281   -1535.7556    496.03707    313.35019    332.01911    38315.161 
  766600    299.64845    -1581.842    463.20942    229.19886    246.68584    38315.161 
  766700    297.62648    -1518.894    493.03617     312.8787   -246.85238    38315.161 
  766800    293.70162   -1510.8516    469.48079    279.71147    68.878214    38315.161 
  766900    305.85304   -1524.5885    472.25399    323.40541    628.05579    38315.161 
  767000    308.64668   -1490.1285    489.44478    387.62218    163.71157    38315.161 
  767100     318.7977   -1512.8978    458.64614    379.71392   -185.63191    38315.161 
  767200    302.74563   -1495.1531    487.38547    353.99504   -105.91648    38315.161 
  767300    297.37395   -1506.8141     483.7762    314.56277    263.12468    38315.161 
  767400    300.88693   -1513.2312    474.09442    314.26534   -26.025362    38315.161 
  767500    295.84068    -1535.192     474.4268    269.93871    112.93474    38315.161 
  767600    302.58707   -1539.5271    509.04145    330.56386    270.51654    38315.161 
  767700    299.27171   -1532.4188    473.36469     287.0827   -370.71165    38315.161 
  767800    297.67237   -1546.5182    473.80663    266.23137   -39.402778    38315.161 
  767900    300.74218   -1534.5275     481.3826    299.60623    88.708733    38315.161 
  768000    300.78721   -1517.2026    498.48507     334.2361   -37.264069    38315.161 
  768100    302.46635   -1519.8292    471.76337    312.44058    124.30284    38315.161 
  768200    303.05016   -1506.5749    500.92396    357.48158    165.27084    38315.161 
  768300    311.22138   -1483.0861    499.44661    416.24749    387.14702    38315.161 
  768400    282.39772   -1528.5901    490.79258    232.43943    23.946817    38315.161 
  768500     293.6772   -1544.8584    477.08733    253.20136   -141.67766    38315.161 
  768600    296.30007   -1528.9537    497.54584    301.36241   -265.43101    38315.161 
  768700    294.45877   -1556.1808    462.66696    230.97422   -77.866895    38315.161 
  768800    296.26465   -1514.5063     497.6501    315.75474   -167.23268    38315.161 
  768900    295.49132   -1551.2503    478.17751    256.05965   -368.18823    38315.161 
  769000     310.2621   -1555.0953    455.34873    295.82546   -144.75967    38315.161 
  769100    298.69237   -1530.3498    487.98804    301.16918   -439.84997    38315.161 
  769200    287.26635   -1537.5277    514.39765    269.00617    52.912143    38315.161 
  769300    308.43703   -1549.3257    494.79045    332.82756    181.90155    38315.161 
  769400    299.47453   -1516.3193    483.53692    314.26675    -321.4587    38315.161 
  769500    302.70599   -1486.6214    500.43624    375.39922   -236.00979    38315.161 
  769600    290.04347   -1458.1489    484.61209    331.09103   -305.78863    38315.161 
  769700    301.90749   -1518.8177    481.92471    321.09973   0.69516779    38315.161 
  769800    310.76937   -1502.2824    487.18226    382.75368    -39.85779    38315.161 
  769900    300.21935   -1473.2488    507.24028    384.39087   -351.82137    38315.161 
  770000    305.22715   -1502.2449    469.09178    339.77157   -477.58838    38315.161 
  770100    294.50496    -1539.952    500.25222    284.99594   -528.89679    38315.161 
  770200    286.86862   -1507.4981     511.9616    294.81071   -602.14625    38315.161 
  770300    297.82757   -1503.0545    482.09221    318.67871   -72.633878    38315.161 
  770400    292.46336   -1545.9866    486.43045    255.95647   -272.03698    38315.161 
  770500     289.9195   -1553.4405    494.56161    245.19128    718.43265    38315.161 
  770600    294.60837   -1501.6572    494.04879    317.55253    646.72926    38315.161 
  770700    310.71463   -1521.4407    498.59029    374.75718    933.51346    38315.161 
  770800    313.02749   -1506.4075    503.82502    405.42849    563.00134    38315.161 
  770900      292.148   -1523.8157    496.75652    287.03486    946.65761    38315.161 
  771000    309.64927   -1523.5899    479.05045    348.27611    725.98082    38315.161 
  771100    290.59051    -1522.811    479.95874    264.23619    182.44246    38315.161 
  771200     304.9954   -1570.5396     475.2029     276.5455    506.35961    38315.161 
  771300    296.33349   -1491.2168    471.00729    312.71113    274.75673    38315.161 
  771400     307.3498   -1508.0641    475.20471    349.61305   -18.392184    38315.161 
  771500    291.16524   -1465.8399    498.68564    342.51936   -4.9258001    38315.161 
  771600    294.39762   -1493.8679    497.83171     328.1768   -9.7179427    38315.161 
  771700      309.399   -1509.5826     506.1009    388.20811    271.21625    38315.161 
  771800     296.6417   -1457.5615    480.93298    357.67842    40.398745    38315.161 
  771900    302.20591   -1468.7118    492.65611    383.27932   -147.13362    38315.161 
  772000    296.13687   -1452.8614    498.56966    377.74448   -111.31169    38315.161 
  772100    308.15023   -1466.5553     464.9751    384.49255   -750.34301    38315.161 
  772200    297.36538   -1470.6558    480.70258     347.6088   -323.85487    38315.161 
  772300    295.29829   -1441.5408    489.71174    376.43512    40.906849    38315.161 
  772400    301.93828   -1474.3732    478.12411    361.88205   -127.24575    38315.161 
  772500    301.18969   -1457.1265    491.25401    388.89148   -183.78376    38315.161 
  772600    291.07646   -1486.0966    482.23013    305.40782   -601.39931    38315.161 
  772700    306.72004   -1500.7421    487.30185    366.19945   -679.42168    38315.161 
  772800    293.34211   -1527.6856    466.47758    258.25727   -115.83477    38315.161 
  772900    302.98314   -1517.3206    498.90858    344.41899   -194.73291    38315.161 
  773000    304.93732   -1477.9782     483.9386    377.58133     321.5351    38315.161 
  773100    301.44427    -1484.645    461.70182    332.96589   -83.161807    38315.161 
  773200    296.50127   -1481.9566    498.72658    350.44531   -133.75429    38315.161 
  773300    305.57744   -1466.8119    491.28885    398.97724    -588.0863    38315.161 
  773400    301.49178   -1494.2889    486.59746    348.43137    -51.44513    38315.161 
  773500    301.86822   -1473.6008    484.78053    368.99579   -24.743432    38315.161 
  773600    301.30175   -1489.0825    485.47973    351.66526    200.90636    38315.161 
  773700    299.78719   -1444.7563    488.62589    392.32504    5.2694262    38315.161 
  773800    298.56834   -1491.7502    478.25865    329.48149   -22.211725    38315.161 
  773900    302.64613   -1480.0592     452.6053    333.86128   -323.82185    38315.161 
  774000    302.80487   -1483.0986    495.13822    374.06881     -138.663    38315.161 
  774100    299.73534   -1492.5475    493.94543    349.62016    234.44484    38315.161 
  774200    307.78992   -1504.6879    489.38831    369.15253   -133.51425    38315.161 
  774300    291.98126   -1482.6526    473.40602    304.09754   -116.88476    38315.161 
  774400    297.68568   -1493.0698    498.43082    344.36387     233.0311    38315.161 
  774500    288.91665     -1493.95    506.35897    311.96824    319.50607    38315.161 
  774600     300.0573   -1534.1457      469.527    285.05176    -749.8795    38315.161 
  774700    303.69381   -1475.7928    513.14512    403.37991   -712.54187    38315.161 
  774800    295.04466   -1514.5958    471.49493     284.0225   -943.14208    38315.161 
  774900    313.28936   -1495.1902    490.02494    404.02352   -131.13674    38315.161 
  775000     304.6315   -1511.0821    510.52682    369.69007   -290.04703    38315.161 
  775100    304.51834   -1524.0985    526.77389    372.41181    378.80374    38315.161 
  775200    316.75074   -1545.7676    494.98422    373.97487    673.79636    38315.161 
  775300    311.50231   -1507.1132    514.76684    408.80425    794.91857    38315.161 
  775400    303.16976   -1494.4692    494.24174    363.44295     492.6107    38315.161 
  775500    303.70013   -1486.2108    486.77117    366.61641    413.64561    38315.161 
  775600    293.12843   -1527.0044    493.13373    284.63337    193.97584    38315.161 
  775700     286.4115   -1490.3493    500.85538    298.79716   -206.36344    38315.161 
  775800    290.55454   -1482.3203    502.18486    326.79118   -293.61316    38315.161 
  775900    302.79841   -1506.1797    497.78483     353.6052   -796.63839    38315.161 
  776000    301.62139   -1512.9314    499.16772    342.94214     -132.673    38315.161 
  776100    295.54571   -1536.5516    467.02823    259.85373    25.308849    38315.161 
  776200    305.70642   -1510.8002     494.0247    358.30496   -214.15864    38315.161 
  776300    286.47595   -1504.0568    463.67669    248.20088   -434.31805    38315.161 
  776400    311.97803   -1454.7168    502.44437    451.01793    104.74056    38315.161 
  776500    299.01405   -1492.9528    476.78296    328.80806    371.00898    38315.161 
  776600    304.02027   -1480.5644    501.42535    388.35699    -621.3376    38315.161 
  776700    290.35749   -1511.3023    479.28472    274.02267   -539.81869    38315.161 
  776800    304.11032   -1522.8281     488.2379    333.31088   -63.635895    38315.161 
  776900    303.25808   -1517.6625    490.44554    336.85068   -352.15252    38315.161 
  777000    301.56495   -1494.1616    487.40796     349.6983    -119.9471    38315.161 
  777100    305.55845   -1514.7405     506.1577    365.83205   -273.58408    38315.161 
  777200    301.33902   -1511.5667    487.16673    331.03574   -217.93731    38315.161 
  777300    307.26219   -1481.7241    502.76012    403.11438    99.058547    38315.161 
  777400    289.93852   -1470.1626    493.68692    327.68008   -448.65397    38315.161 
  777500    302.44244   -1515.7139    482.99759    327.68256   -398.72638    38315.161 
  777600    292.15717   -1546.1045    473.99387     242.0247   -702.36527    38315.161 
  777700    304.87895   -1502.6946    501.27154    369.93541    -424.3321    38315.161 
  777800    310.54591   -1509.1812    481.09221    368.75969   -532.22558    38315.161 
  777900    292.62706   -1524.4886    489.68963    281.44999   -1089.6453    38315.161 
  778000      306.983   -1511.4121    510.64509    380.05555   -879.74354    38315.161 
  778100     307.8294   -1529.2853    486.90427    342.24869   -596.70839    38315.161 
  778200    305.65573   -1499.3627    475.22396    350.71369    -164.5657    38315.161 
  778300    305.96096   -1505.7791    483.80088    354.24711   -40.973412    38315.161 
  778400    294.33209   -1533.3783    496.39667    286.93661   -191.36918    38315.161 
  778500    303.50293   -1535.0754    490.77491    320.86851    118.57628    38315.161 
  778600    315.83565   -1545.1766    499.97751    375.44309    632.94045    38315.161 
  778700    300.65238   -1543.7235    502.66941    311.29303    261.52115    38315.161 
  778800    307.31073   -1529.1007    503.46238    356.65835    329.02656    38315.161 
  778900    296.36838   -1535.1917    474.74162    272.62741    558.40048    38315.161 
  779000    303.92431   -1520.1389    490.82448    337.74999    310.48926    38315.161 
  779100    294.48982   -1534.8195    473.67634    263.48456    319.11643    38315.161 
  779200    301.65695   -1527.9234    482.86438    311.80674   -130.51499    38315.161 
  779300    297.82634   -1518.5627    524.77357     345.8464     -397.523    38315.161 
  779400    287.62193   -1503.6689    468.42413    258.49092   -415.46949    38315.161 
  779500    303.17319   -1530.3037    516.27668    349.65886    316.36882    38315.161 
  779600    296.53972   -1551.2626    481.79511    264.38076    367.64163    38315.161 
  779700    292.82042   -1512.9682    495.58618    299.73664   -91.081277    38315.161 
  779800    295.73925   -1490.4721    504.89438    344.66994   -130.28043    38315.161 
  779900    307.46704   -1504.1779    473.63926    352.46113   -67.119983    38315.161 
  780000    297.42083   -1495.6671    453.04848    295.19287    173.22361    38315.161 
  780100    293.38326   -1476.5869     497.6572    340.72062   -47.130274    38315.161 
  780200     290.8686   -1486.4245    487.84603    309.76081    270.07329    38315.161 
  780300    303.26297   -1462.5819     486.1913     387.6991   -260.28134    38315.161 
  780400    304.40168   -1496.5206    495.05186    367.74287   -92.448018    38315.161 
  780500    309.41108   -1498.0692    492.22678    385.90176    -132.4282    38315.161 
  780600    303.10156   -1526.7818    482.49207    319.07393   -335.99021    38315.161 
  780700    306.59873   -1450.7797    500.52975     428.8441   -129.12087    38315.161 
  780800    306.77243   -1468.2653    465.40667    377.01676    94.568947    38315.161 
  780900    289.05291   -1449.9963    463.12294     313.2989   -68.436384    38315.161 
  781000    300.80169   -1465.5223    500.36238    387.85885   -431.75053    38315.161 
  781100    293.36848   -1492.8063    468.83089    295.60847   -343.26766    38315.161 
  781200    302.48285   -1484.9602    500.24466    375.86517    -191.7128    38315.161 
  781300    288.80863   -1449.6786    525.41857    374.81347   -944.94433    38315.161 
  781400    293.30281   -1475.9331    465.74271    309.09804    -656.0819    38315.161 
  781500    291.38801   -1534.6959    464.20926    240.18899   -505.85593    38315.161 
  781600    299.19775    -1526.781    470.38637    289.40953   -120.09513    38315.161 
  781700    302.46775   -1516.7013    503.43826     347.2497    768.84942    38315.161 
  781800    297.06292   -1508.9725    469.79996    297.02905    869.55049    38315.161 
  781900    287.22496   -1527.7126    478.13984    242.37729    738.19612    38315.161 
  782000    299.93676   -1484.0591    496.10018    361.16933    302.38208    38315.161 
  782100    289.15115   -1508.6867    494.95787    286.88529    172.78398    38315.161 
  782200    289.84809   -1477.6725     479.4007    305.47722    62.868072    38315.161 
  782300    311.20781   -1531.4298    498.71275    367.10884    176.97957    38315.161 
  782400    301.82955    -1517.509    472.08618    312.21931    187.55355    38315.161 
  782500    309.52674   -1539.2867    463.35846    316.33611   -430.36371    38315.161 
  782600    295.60182   -1499.1725    501.05609    331.51312    191.00995    38315.161 
  782700    294.97477   -1519.7059    450.47115    257.57431    270.52114    38315.161 
  782800     307.3546   -1494.5392    476.86091    364.81571    270.07385    38315.161 
  782900    297.13045   -1502.5933     479.8222    313.73428    490.91206    38315.161 
  783000      293.934   -1495.3313    483.16244    309.95874    383.05152    38315.161 
  783100    291.63766   -1515.3623     491.4645    287.90072   -26.628529    38315.161 
  783200    284.83638   -1484.8592    474.53918     270.8861    370.82236    38315.161 
  783300    305.18328   -1471.1717    500.57981    402.13542    96.632678    38315.161 
  783400    308.84191   -1482.6446     465.5146    372.05396    492.87779    38315.161 
  783500    300.44558   -1533.2604    483.63657     301.7931    119.70071    38315.161 
  783600    290.29033   -1495.4451    508.09911    318.39219     21.79359    38315.161 
  783700    291.00144   -1528.3321    502.54691    283.15167    326.93918    38315.161 
  783800    291.38915   -1520.7443    472.56123    262.49764    265.67913    38315.161 
  783900    302.16401   -1532.9367    492.94398    319.15383    416.30293    38315.161 
  784000    294.94343   -1537.2854    480.95424    270.33688    310.68396    38315.161 
  784100    303.77676   -1505.2785    498.14096    359.26317    353.02551    38315.161 
  784200     300.5103   -1494.2772     477.6067    335.03753  -0.23238063    38315.161 
  784300    294.62025   -1488.8651    467.13754    303.48681    478.21234    38315.161 
  784400    297.19826   -1508.6251    506.74306    334.92836    956.74498    38315.161 
  784500    286.37727   -1521.4452     471.8598    238.55167     1035.164    38315.161 
  784600    298.58422   -1500.7122    461.28577    303.61802     214.7843    38315.161 
  784700    304.08494   -1508.5481    467.79679    327.03564   -114.62398    38315.161 
  784800    310.23432    -1479.206    472.37476    388.61589   -514.37809    38315.161 
  784900    292.13736   -1478.0975    475.53516    311.48392   -164.29861    38315.161 
  785000     291.4346   -1535.3891    455.47376    230.96979   -454.81551    38315.161 
  785100     296.5816   -1513.5233    492.69945    313.21273   -258.33111    38315.161 
  785200    308.63478   -1533.5341    494.98688    349.70507    452.83204    38315.161 
  785300    305.10461   -1526.6908     476.2183    321.90093    194.21254    38315.161 
  785400    303.73226   -1532.0616    474.98208    309.12108    130.31674    38315.161 
  785500    290.80458   -1473.3917    485.97311    320.63269   -497.38814    38315.161 
  785600    302.21258   -1534.0712    479.90481    305.19866    389.34348    38315.161 
  785700    300.38518   -1493.0146     498.0528    356.18345   -144.07454    38315.161 
  785800    308.11848   -1494.8307    477.59816    368.69739    161.12506    38315.161 
  785900     301.7301   -1499.6372    493.62572    351.18326   -267.32271    38315.161 
  786000     289.4677   -1459.9318    463.99137    306.09759   -66.502206    38315.161 
  786100     302.5282   -1434.4571    515.15208     441.4796   -5.2106866    38315.161 
  786200    296.36176   -1444.2075     492.1975    381.03773   -7.3400373    38315.161 
  786300     305.7148   -1472.1233    488.25322    391.24803    48.596373    38315.161 
  786400    288.66706   -1427.8529    507.71811    378.30193    117.24876    38315.161 
  786500    297.40141   -1442.1648    500.02495    395.58431   -91.273312    38315.161 
  786600    307.20076   -1410.9054     469.1134       440.01   -249.36276    38315.161 
  786700     296.1827   -1451.1106    485.72994    366.86172    183.55029    38315.161 
  786800    299.17331   -1476.3393    472.03224    341.38712    375.38852    38315.161 
  786900    311.73279   -1464.5548    491.59087    429.22334     170.4672    38315.161 
  787000    302.91996   -1465.5882    458.05751    355.01616   -168.73819    38315.161 
  787100    302.20371   -1409.0226    536.74406    487.04654    175.12409    38315.161 
  787200    313.82744   -1449.3458    474.15757    436.42093     181.2015    38315.161 
  787300    300.22419   -1474.4228    478.99311    354.99142    553.28162    38315.161 
  787400    307.05468   -1516.3899    483.84563    348.60065    271.67839    38315.161 
  787500    292.26135   -1526.8581    478.54807    266.29387    251.29261    38315.161 
  787600    307.68504   -1514.8813    472.91758    342.01663    354.15852    38315.161 
  787700    313.12584   -1492.1479    519.14641    435.45177    448.76202    38315.161 
  787800    309.82269   -1478.5616     462.2798    377.31376    92.863916    38315.161 
  787900    307.37384   -1530.0937    478.84369     331.3305    325.67065    38315.161 
  788000    310.82769   -1512.9607     468.4587    353.61412    470.82656    38315.161 
  788100    292.49404   -1489.8768    473.03973    298.81355   -102.11976    38315.161 
  788200     305.3625   -1517.8826    500.06475    355.71559    309.85738    38315.161 
  788300    306.00773   -1488.1232    469.96136    358.27391   -335.71999    38315.161 
  788400    288.68353   -1462.6889    510.30555    346.12743   -400.95306    38315.161 
  788500     297.8873   -1540.2697    458.51346    258.15348   -791.04467    38315.161 
  788600    304.03056   -1536.7527    456.46632    287.25595   -115.81879    38315.161 
  788700    304.68015   -1479.5808    477.79012    368.67354    280.30318    38315.161 
  788800      300.661   -1482.6186    465.89599    335.66329    17.026914    38315.161 
  788900    308.78027   -1505.0673    465.91622    349.75561   -66.661036    38315.161 
  789000     293.2725   -1558.0729    484.98507    246.06427   -343.09505    38315.161 
  789100    291.23758   -1560.7758    474.00682    223.22994   -223.92197    38315.161 
  789200    304.56329   -1518.1456    489.08364    340.87665    695.06959    38315.161 
  789300    301.62273   -1534.2789    458.06964    280.50256    475.19633    38315.161 
  789400    311.18388   -1492.2935    480.81932    388.24405    140.76589    38315.161 
  789500     308.1773   -1481.2061    470.24231    375.23074   -526.19455    38315.161 
  789600    288.65774   -1475.9737     504.3986    326.81964    -245.1354    38315.161 
  789700    295.23804    -1540.788    493.24956    280.45476    160.99456    38315.161 
  789800    292.67515   -1487.4194    478.90893    307.95477    661.28601    38315.161 
  789900    291.96402   -1499.7396    501.31309    314.83996    131.62806    38315.161 
  790000    304.13762   -1496.6769    499.48237    370.82933    127.69111    38315.161 
  790100    298.09363   -1495.7796     475.6406    320.69879    10.379951    38315.161 
  790200    292.21171   -1463.1635    495.81465     347.0318    210.17209    38315.161 
  790300    302.21294   -1452.5107    483.65762    390.51355   -256.94169    38315.161 
  790400    291.47233   -1475.3007    481.12825    316.88243   -356.18115    38315.161 
  790500    294.41039   -1490.3868    488.49764    322.38129   -67.348607    38315.161 
  790600    305.21931   -1510.1927    486.51239    349.20903   -57.878081    38315.161 
  790700    305.37862   -1466.3288    478.26599    385.54315   -58.700805    38315.161 
  790800    303.37051   -1473.8026    490.92981    381.70058     367.6941    38315.161 
  790900    295.01453   -1475.2363    512.42444    364.17596    368.27928    38315.161 
  791000    300.33738   -1491.2043    492.84935    352.57532    894.04261    38315.161 
  791100    300.53607   -1454.3963    504.33162    401.75928    362.84585    38315.161 
  791200    304.33826   -1440.3962    490.38718    418.91739    635.84327    38315.161 
  791300    294.52878   -1455.9517    478.65572    347.50697    132.83647    38315.161 
  791400    301.10246   -1482.0725    493.91019    366.20926    65.038498    38315.161 
  791500    303.15165   -1430.5255    522.54182    455.60524   -154.38623    38315.161 
  791600    302.39816   -1452.5702    474.46697     382.0965    27.102165    38315.161 
  791700    301.12481   -1484.4028    518.33294    388.40234   -160.33242    38315.161 
  791800    291.64911   -1407.9295    485.82012    389.74069   -44.385187    38315.161 
  791900    301.24724   -1472.7088    487.92662    370.24066    268.09573    38315.161 
  792000     296.8677    -1468.964    484.79729    351.15679    466.38158    38315.161 
  792100    295.39832   -1498.4501    479.73412    309.99814   -178.29379    38315.161 
  792200    301.13813   -1463.7496    477.24624    368.02874    544.12027    38315.161 
  792300    300.33953   -1492.2212    518.74644    377.46521     305.7134    38315.161 
  792400     306.3292   -1493.5702    488.67956    372.99109    704.38915    38315.161 
  792500    306.10108   -1506.2523    492.37924    362.98259     1437.161    38315.161 
  792600    302.58123   -1462.5114    493.09681    391.60863     1028.977    38315.161 
  792700    307.61935   -1468.6529          512    427.03196    503.68914    38315.161 
  792800    302.30945   -1479.8647    511.26437    391.20035    289.52226    38315.161 
  792900    301.53949   -1519.6915    514.79688    351.44279     309.1747    38315.161 
  793000    296.34336   -1500.3184    499.81728    332.46387    224.78034    38315.161 
  793100    304.49245   -1487.9248    503.78206    385.47724    -383.8603    38315.161 
  793200    309.75836   -1444.4801    520.02237    468.84846   -130.05738    38315.161 
  793300    304.84314   -1443.3435    494.29801    422.15189   -395.11896    38315.161 
  793400    285.83732   -1449.7253    487.09274    323.07577   -533.89285    38315.161 
  793500    304.62873   -1455.3594    506.62393    421.49749   -271.84664    38315.161 
  793600    295.08543   -1457.6042     495.8871    365.58967   -930.97632    38315.161 
  793700    306.13284   -1498.2186    492.03591    370.81576   -449.52514    38315.161 
  793800    305.04341   -1472.5076    483.68014    383.27073    462.68343    38315.161 
  793900    298.94557   -1486.9248    494.11442    351.85948    5.3036939    38315.161 
  794000    296.25941   -1511.4001    495.56786    316.75509   -101.34704    38315.161 
  794100    307.00537   -1568.3123    482.13823    294.74906    228.87969    38315.161 
  794200    296.78774   -1527.1903    476.10109    283.87461   -59.212847    38315.161 
  794300    298.44975   -1513.4342    498.90197    327.90736    486.47133    38315.161 
  794400    295.54245   -1524.0803    494.66403    299.94623    670.46845    38315.161 
  794500    301.54442   -1548.6672    474.22352    281.91593    424.77991    38315.161 
  794600    304.48446    -1537.261    473.69016    306.01314    321.49263    38315.161 
  794700    307.30077   -1563.2654    503.38069    322.36718    619.08811    38315.161 
  794800    303.00092     -1540.24    481.07027    303.74118    1091.9092    38315.161 
  794900    294.54544   -1578.3463    488.44873    234.98035    1043.5355    38315.161 
  795000    293.54962   -1499.5414    502.48039    323.33765    638.16843    38315.161 
  795100    292.16645   -1509.4733    493.19231    297.89605    249.79892    38315.161 
  795200    299.26062   -1522.2852    519.41325    343.21502    511.17549    38315.161 
  795300    307.10351   -1531.5247    449.85259    299.69245    14.973859    38315.161 
  795400    298.32531    -1516.957    495.11598    320.03885   -511.25506    38315.161 
  795500    297.30881   -1531.1361    503.60465    309.77618    130.07937    38315.161 
  795600    294.37026    -1517.327    479.40158    286.16452   -452.05368    38315.161 
  795700    294.68953   -1505.6257    490.17243    310.07274   -64.313981    38315.161 
  795800    302.79441   -1508.4892    504.29775    357.79065    406.98028    38315.161 
  795900    294.97411   -1512.2757    491.91503    306.44537    477.01797    38315.161 
  796000    305.40808   -1515.5932    488.58306     346.7283    489.65222    38315.161 
  796100    295.36164   -1466.6463    510.44071    372.34361    706.34528    38315.161 
  796200    305.46797   -1439.0666    485.79875    420.73998    -258.1734    38315.161 
  796300    297.32742   -1486.6384    486.82004    337.57295    173.24429    38315.161 
  796400    299.81274   -1501.6093    462.62534    309.58641   -255.68493    38315.161 
  796500    303.09979   -1501.5416    447.57165     309.3857   -234.21906    38315.161 
  796600    298.65697   -1486.1548    500.56976    357.78671    109.27138    38315.161 
  796700     295.5225   -1492.1639    465.42822    302.53702    183.67589    38315.161 
  796800    314.16114   -1483.9678    506.78304    435.92541     505.1286    38315.161 
  796900    302.85198   -1462.0382    462.67361    362.87644   -302.55634    38315.161 
  797000    309.12159   -1461.7804    483.74763    412.40926   -442.70373    38315.161 
  797100    297.46661   -1461.4289    503.31562    379.90414   -82.144476    38315.161 
  797200    297.11101   -1496.4881    471.73478    311.66458    137.09752    38315.161 
  797300    289.71395   -1475.3526    501.63579    329.42888    266.00492    38315.161 
  797400    305.40246   -1450.0055    475.68204    399.38979    390.94371    38315.161 
  797500    298.28459   -1480.7964    471.85021    332.75054    -86.75902    38315.161 
  797600    292.96026   -1464.7664    478.64073    331.62202    46.577872    38315.161 
  797700     300.7246   -1484.7512     461.4323    329.35305    308.18548    38315.161 
  797800    312.37307   -1486.4659    478.17267    396.77411    38.886558    38315.161 
  797900    304.04594    -1478.106     483.2692    372.77476     537.7662    38315.161 
  798000    298.48624   -1510.1287    497.74226    330.21732    666.95805    38315.161 
  798100    293.64016    -1503.544    461.22211    278.48398    44.790307    38315.161 
  798200    299.13053   -1481.4679    468.17165    332.20558    22.525211    38315.161 
  798300    302.57641   -1540.9223    477.17594    297.25518    -115.3671    38315.161 
  798400    300.87968   -1520.6936     479.6683    312.34427    539.20623    38315.161 
  798500    305.38243   -1530.0491    457.05705    300.63101    -317.8874    38315.161 
  798600    298.85978   -1507.3138    457.58649     294.5566   -201.55335    38315.161 
  798700    296.96587    -1540.916    460.48348    255.33248   -231.87619    38315.161 
  798800    295.02226   -1520.4365    461.98212    268.56823     45.84172    38315.161 
  798900    306.59067   -1497.4602    477.36026    358.95787    253.14274    38315.161 
  799000    297.25959   -1471.6424    497.66187    363.10571    461.77726    38315.161 
  799100    303.91137   -1485.1985    496.92024    378.72792    383.29424    38315.161 
  799200    300.72806   -1497.3804    464.51766    319.82488    224.39132    38315.161 
  799300    295.22506   -1481.8172    470.62807    316.74566    373.68548    38315.161 
  799400    291.35385   -1509.1972    484.74121    286.06592    368.13964    38315.161 
  799500    312.12744   -1508.0989    470.82169    366.68525    718.66813    38315.161 
  799600    292.93442    -1482.688    484.33198    319.27541    487.29331    38315.161 
  799700    299.16588   -1493.5792    502.76889    354.85054   -300.94262    38315.161 
  799800    300.50027   -1467.7154    447.86687     331.8144     -43.1575    38315.161 
  799900    295.56967   -1479.3115    489.19554    339.36894    -166.7086    38315.161 
  800000    290.16452   -1446.3259    505.87731     364.7237   -381.71367    38315.161 
  800100    300.70045    -1481.983    470.98634    341.56674   -314.26522    38315.161 
  800200    306.17408   -1497.1025    470.94939    351.03088   -646.18259    38315.161 
  800300     299.4313    -1456.575    510.48806    400.76771     12.84653    38315.161 
  800400     302.9505   -1471.2411    459.39236    350.83542    837.57152    38315.161 
  800500    291.55347    -1456.484    507.77416       362.71    122.95698    38315.161 
  800600    294.20902   -1475.2819    489.86148    337.94421    428.69052    38315.161 
  800700    290.65772   -1509.0232    483.41434    281.78185    864.34945    38315.161 
  800800    288.56468   -1456.4379    512.33678    353.87501   -19.292814    38315.161 
  800900    297.05266   -1433.2364    476.79852    379.71755    -4.330413    38315.161 
  801000    306.06781   -1451.8075    475.94319    400.84172   -42.945058    38315.161 
  801100    303.10455   -1433.1861    500.03435    430.22533    322.08663    38315.161 
  801200    295.62565   -1456.3811    479.57812    352.93372    206.84674    38315.161 
  801300    296.01248   -1484.4526    505.73836     352.7625    300.21468    38315.161 
  801400    291.72705   -1500.3484    480.10443    291.95665   -293.96648    38315.161 
  801500    296.17295   -1483.5762    477.40752    326.02981   -95.302286    38315.161 
  801600    303.20866   -1471.2408    492.65001    385.25464   -223.70623    38315.161 
  801700    299.90485   -1460.7265    485.44557    373.70377   -867.28035    38315.161 
  801800    308.21906   -1461.8812    478.26619    402.76735   -180.87549    38315.161 
  801900     307.1825   -1458.5254    470.17741    393.37193   -500.40332    38315.161 
  802000    295.29031   -1461.5156    459.99786     326.7106   -583.86324    38315.161 
  802100    297.24309    -1455.699     462.8266    344.13963   -166.15155    38315.161 
  802200    301.11516   -1503.8499    491.09708    341.67595   -361.27753    38315.161 
  802300    301.35826   -1452.5438    462.64849    365.62686   -277.23775    38315.161 
  802400    301.87727   -1476.8161     471.3621    352.40273    130.96785    38315.161 
  802500    305.99332   -1508.6067    492.02177    359.78599    60.064238    38315.161 
  802600    308.95965   -1493.3628    465.88008    362.23088    401.08265    38315.161 
  802700    310.92184   -1514.9362    481.40278    365.00621    28.585322    38315.161 
  802800    314.86607   -1469.9524    496.05875    442.38732    5.5765489    38315.161 
  802900    310.81153   -1476.1901    471.25417    393.10752    13.994736    38315.161 
  803000    292.95406   -1460.6982    506.85416    363.87569   -216.66909    38315.161 
  803100    297.47784   -1489.3581    461.09766    309.80747   -232.03611    38315.161 
  803200    302.59536   -1474.2402    498.11215    384.95865   -40.203781    38315.161 
  803300    305.53554   -1482.5167    488.15282    379.94791   -439.22988    38315.161 
  803400    299.81713   -1507.3509    484.90576      326.145   -165.78455    38315.161 
  803500    294.13872   -1515.9963    455.03711    262.08926    -622.7855    38315.161 
  803600    291.06814   -1464.1375    477.30668    322.40603    -769.8508    38315.161 
  803700    312.08591   -1437.8469    449.40864    415.33741   -887.85779    38315.161 
  803800    298.00819   -1447.8883    479.18113    371.74629   -219.10376    38315.161 
  803900    304.69436   -1513.3518    464.07133    321.24771    58.159494    38315.161 
  804000     303.4773   -1503.9105    495.48633    356.62959   -139.81161    38315.161 
  804100    301.68171   -1534.3864    476.27742    298.86816    89.833025    38315.161 
  804200    296.29827    -1472.456    442.78224    303.08843    148.99499    38315.161 
  804300    305.11131   -1438.2871    458.35592     392.4724   -227.50177    38315.161 
  804400    301.40451   -1475.9451    477.57871    357.36382   -564.04775    38315.161 
  804500    298.55153   -1519.7358    449.19796    272.35953    -49.87346    38315.161 
  804600    297.42874   -1506.3976    450.05601    281.50549   -119.79644    38315.161 
  804700    308.13673   -1493.0125    462.98414    355.98367    18.195086    38315.161 
  804800    302.77078   -1517.6946    495.98912    340.17029    176.48968    38315.161 
  804900    292.70097   -1479.9196    475.01161    311.67339    721.29497    38315.161 
  805000     292.1114    -1496.971    465.73896    282.69744     -148.144    38315.161 
  805100     296.3922   -1508.2162    490.38915    315.35765   -265.95612    38315.161 
  805200    301.29277   -1482.6165    488.83084    361.44196   -190.53371    38315.161 
  805300     303.7204   -1472.9808    454.67489    347.84136    104.34865    38315.161 
  805400    302.21739    -1451.439    504.88917    412.83681   -969.41277    38315.161 
  805500    300.85753   -1461.0045    498.52944    390.79486   -1075.7952    38315.161 
  805600    293.65427    -1446.568    471.63978    345.94116   -935.78325    38315.161 
  805700    294.66797   -1482.9304    486.92078    329.41944   -1216.2771    38315.161 
  805800    292.52856   -1465.9093    476.75373    326.65024   -726.81606    38315.161 
  805900    293.83213   -1495.0174    483.17252    309.82453   -888.56289    38315.161 
  806000    300.49195   -1512.4162    470.55191    309.76126   -659.33719    38315.161 
  806100    293.81635   -1545.2389    495.04148    271.40097   -167.38871    38315.161 
  806200    296.13746   -1551.5388    436.37486    216.87496   -625.10128    38315.161 
  806300    302.36805   -1509.1248    480.13821    331.07769   -760.25769    38315.161 
  806400    313.68068   -1489.0252     483.2955    405.21927    258.07608    38315.161 
  806500    292.15712   -1524.6079    480.21119    269.73842    108.89258    38315.161 
  806600    297.09125    -1502.853    456.43026    289.90631    177.03299    38315.161 
  806700    300.20424   -1512.9517    483.96623    321.34592    210.27536    38315.161 
  806800    293.85898   -1515.7484    483.38717    289.42891    276.78813    38315.161 
  806900    294.06557   -1440.1212    506.09153    388.68975    83.901781    38315.161 
  807000    299.83014   -1453.3978    513.69269     408.9436   -281.62228    38315.161 
  807100    293.53395   -1455.8658    494.74437    359.20665   -218.58657    38315.161 
  807200    290.09557    -1474.629    489.23653    319.46963   -117.68364    38315.161 
  807300    298.14524   -1445.8561    482.13384    377.34771   -153.22036    38315.161 
  807400     285.9984   -1466.4229    471.10775    291.11774     156.9567    38315.161 
  807500    303.17634   -1467.5351    481.14388    377.30878   -326.19018    38315.161 
  807600    302.61392   -1421.1712    499.64635    439.64533   -325.51674    38315.161 
  807700    296.16434   -1447.2899    469.64465    354.51445    121.52063    38315.161 
  807800    306.69627   -1445.6389    497.52566    431.41962   -147.47962    38315.161 
  807900    294.67326   -1435.9724    484.49904    373.97945   -96.245961    38315.161 
  808000      305.994    -1426.091    475.06805    425.35102   -179.89736    38315.161 
  808100    288.82561   -1449.3909    485.26492    335.02382   -844.18773    38315.161 
  808200    307.01285   -1470.0406    527.07774    437.99399   -152.75301    38315.161 
  808300    298.25767   -1438.0469     500.5279    404.05659   -218.34848    38315.161 
  808400    300.67324   -1479.3089    484.85085    357.98293    6.8967369    38315.161 
  808500    308.01777    -1481.487    489.39012    393.38006    24.956807    38315.161 
  808600    308.79924   -1481.4816     482.1116    389.62207    127.57943    38315.161 
  808700    296.67635   -1469.3533    482.81056    347.92005     517.7876    38315.161 
  808800    305.90932   -1462.1316    497.50839    411.36987   -252.70597    38315.161 
  808900    302.47998   -1480.7348    472.62208    352.45502     275.3506    38315.161 
  809000    309.25173   -1497.3712    466.58698    360.24316   -116.62693    38315.161 
  809100    289.14948   -1515.3195    466.71129     251.9984    251.98078    38315.161 
  809200    306.16108   -1501.5388    491.86646    367.45317    93.054337    38315.161 
  809300    298.35555   -1531.0075    485.00189    296.01029    45.932934    38315.161 
  809400    297.04785   -1524.2675    498.40406    310.27035   -93.569292    38315.161 
  809500    291.26396   -1488.4953    492.03362    313.65594    617.00831    38315.161 
  809600    296.44231   -1497.6257    463.04621    298.83063    302.48052    38315.161 
  809700    304.62088   -1511.6393    485.28596    343.84427    614.35673    38315.161 
  809800    299.54636   -1527.8819    501.96516     321.4555    571.83141    38315.161 
  809900    304.74499   -1483.4402    475.24918    362.56486    525.68751    38315.161 
  810000    296.97562   -1491.9766    496.63739    340.46968   -94.077458    38315.161 
  810100    293.77515   -1483.8287    481.45527    319.03969    169.81466    38315.161 
  810200     301.7683   -1471.6619    521.38151    407.08621   -103.95793    38315.161 
  810300     297.7553   -1536.4048     506.1527    309.06385    -180.3604    38315.161 
  810400    298.88777   -1507.9519    488.51255    324.97051   -859.24855    38315.161 
  810500    300.32417   -1469.6606      509.269    390.47925   -394.26282    38315.161 
  810600    292.21491   -1464.7902    496.62635    346.23121    -465.9717    38315.161 
  810700    300.83225   -1489.4091    523.57239    387.31952   -245.74693    38315.161 
  810800    300.62246   -1556.5058    493.39479    289.10159   -354.04699    38315.161 
  810900    304.36594   -1532.0543    466.78587    303.78246   -470.54193    38315.161 
  811000    293.86327   -1518.6867    514.69322    317.81596   -786.48104    38315.161 
  811100    294.13314   -1527.8036    485.63947    280.85922   -79.918254    38315.161 
  811200    300.78257   -1516.7429    513.67903     349.8689   -87.339693    38315.161 
  811300    305.62323   -1460.8638    522.35115    436.19359   -89.631011    38315.161 
  811400    296.38487   -1487.6075    505.70273    351.24691   -156.43627    38315.161 
  811500     312.9905   -1520.3276    480.40946     367.9264     366.3748    38315.161 
  811600    308.73514   -1501.9028    517.72201    404.52293   -122.09687    38315.161 
  811700    302.47781   -1512.2642     502.9396    351.23336    627.20283    38315.161 
  811800    297.82445   -1496.4585      484.254    327.42249    368.51986    38315.161 
  811900    294.87223   -1507.2006    502.57533    321.72248    59.426467    38315.161 
  812000    308.78747   -1506.8854     501.8341    383.88784    84.860264    38315.161 
  812100    289.11596   -1497.4394    506.76131    309.77775    -506.8703    38315.161 
  812200    303.30339   -1516.7157    506.25303    353.80888    164.79889    38315.161 
  812300    308.24474   -1502.4143    500.39569    384.47934   -50.172541    38315.161 
  812400    305.44573   -1484.3869     478.2648    367.78575   -543.26486    38315.161 
  812500    301.41649   -1467.7734      486.107     374.1177   -223.78796    38315.161 
  812600    306.79109   -1472.7868    527.56633    434.73888   -251.46155    38315.161 
  812700     297.1082   -1466.2935    494.88013    364.99193   -353.12057    38315.161 
  812800     298.4003   -1482.8136    497.41738    356.82095    -907.4194    38315.161 
  812900     288.4525   -1480.4502    490.18696    307.20835   -607.00331    38315.161 
  813000    306.42642    -1539.075    504.57384    343.81783   -427.32475    38315.161 
  813100    298.56001   -1511.2962    475.97504    307.61439    283.35488    38315.161 
  813200    295.07693   -1506.7963     512.9341    333.40638    430.82249    38315.161 
  813300    298.79088   -1493.1007    473.74463    324.61797    491.04034    38315.161 
  813400    295.92284   -1434.0338    491.27431    388.31398    383.33669    38315.161 
  813500    296.74576   -1455.9334    506.14976    384.99134    291.36533    38315.161 
  813600    303.30157   -1507.6216    479.97954    336.62129    317.06813    38315.161 
  813700    285.64636   -1512.3115    504.86764    277.40552    212.42768    38315.161 
  813800    306.50853   -1515.9891     516.5171    379.21642    358.18548    38315.161 
  813900    302.27618   -1488.7417    491.75075    362.66014   -52.162758    38315.161 
  814000     293.8466   -1527.0234    494.62923    289.34031   -835.38793    38315.161 
  814100    301.55263   -1477.7754    493.46027    372.08133   -382.23191    38315.161 
  814200    285.20481   -1496.8165    476.63904    262.68588   -939.08522    38315.161 
  814300    305.58175   -1475.6342    480.99427    379.87971   -649.34208    38315.161 
  814400    300.20093   -1431.9079    509.18603    427.59462    -571.3528    38315.161 
  814500    298.44918   -1477.0965     515.3411    380.68165   -243.54578    38315.161 
  814600    295.97589   -1466.2348    488.58405    353.66135   -379.69294    38315.161 
  814700    306.44387   -1488.3923    479.24667    369.25187   -121.62323    38315.161 
  814800     297.0492   -1495.0934    494.88535    335.93183   -22.881835    38315.161 
  814900    295.48344   -1456.3436    492.61123    365.36467    750.87665    38315.161 
  815000    294.26967   -1480.7854     500.2282    343.08027    584.20755    38315.161 
  815100    295.12717   -1498.2146    477.75502    307.03494    634.01363    38315.161 
  815200    305.00452   -1466.7838    496.35307    401.49253     313.9185    38315.161 
  815300    293.13216   -1468.9273    496.04012    345.63374     164.3841    38315.161 
  815400    299.93959   -1518.2734    502.40269    333.27029    243.28178    38315.161 
  815500    300.71076   -1491.6486    461.44552    322.40667    419.63313    38315.161 
  815600    298.42179    -1487.787    477.91773    332.44459   -124.74943    38315.161 
  815700    311.10947   -1523.8241     481.9892     357.5487    463.12969    38315.161 
  815800    310.52783   -1476.1219    481.77143    402.41689    83.702895    38315.161 
  815900    297.99923   -1479.6122    507.60512    368.40606   -547.38314    38315.161 
  816000    304.62718   -1498.1106    503.17936    375.29476   -131.89482    38315.161 
  816100    300.86862    -1498.982    480.90288    335.24074   -327.10273    38315.161 
  816200     299.2297   -1495.1801    491.70457    342.47238 -0.060566515    38315.161 
  816300    305.55984   -1476.3837    506.46222    404.49967    67.139423    38315.161 
  816400    296.82613   -1522.8155    474.55954    286.88053    214.95554    38315.161 
  816500    304.18311   -1473.4115    465.71449    360.53149    -220.9717    38315.161 
  816600    291.28305   -1486.6989     491.7697    315.27426   -420.88595    38315.161 
  816700    308.03834   -1458.6314    487.30798    414.24613   -415.80514    38315.161 
  816800    293.72023   -1486.2836    498.15985    333.04232   -450.22027    38315.161 
  816900    294.24007    -1473.916    490.16477    339.75311   -619.09502    38315.161 
  817000    305.07603   -1487.4652    489.20121    373.98093   -324.54727    38315.161 
  817100    293.72418   -1490.9829    483.13189    313.33286   -738.97104    38315.161 
  817200    306.89255   -1436.9226    491.37854    434.87165   -237.30753    38315.161 
  817300    298.61534   -1458.5551    471.95357    356.58289   -140.18443    38315.161 
  817400    306.35945   -1457.8074    506.65474    426.86517    139.75818    38315.161 
  817500    307.04442   -1470.0456    449.42535    360.47854   -146.45723    38315.161 
  817600    294.58734   -1459.0901    491.55895    357.53518   -181.72634    38315.161 
  817700    298.44749   -1459.4421    487.42864    370.41597   -161.39313    38315.161 
  817800    298.24209    -1432.258    487.78294    397.03047    -61.67329    38315.161 
  817900     295.7862   -1468.9013     476.5178     338.0753    388.95434    38315.161 
  818000    291.47431   -1452.5644    475.40141    333.90076   -149.54939    38315.161 
  818100    286.07844   -1428.3314    500.80769    359.26919   -346.22137    38315.161 
  818200    296.76606   -1396.4456    472.64191    411.06266   -706.02288    38315.161 
  818300    309.11211    -1417.887    494.82921    467.34156   -936.01243    38315.161 
  818400    296.96901   -1422.3284    488.42468    401.87544   -452.19872    38315.161 
  818500    308.74797   -1463.2925     484.0369    409.50588    366.86803    38315.161 
  818600    297.82987   -1492.3003     473.2826    320.63363   -258.40594    38315.161 
  818700    295.91756   -1514.6294    460.74184    277.16216   -431.87002    38315.161 
  818800     302.6759   -1486.6291     476.0217    350.84165     41.81454    38315.161 
  818900    297.77939   -1517.3435    486.13404    308.21482   -114.81933    38315.161 
  819000    295.33322   -1484.7049    462.86895    306.58541    128.04269    38315.161 
  819100    305.60885   -1515.7989    471.52532    330.36793     242.0148    38315.161 
  819200     301.1506   -1496.5015    498.34289    356.42958    528.23141    38315.161 
  819300    304.39281   -1495.6595    479.86576    353.37802   -92.229589    38315.161 
  819400    298.68759   -1483.3693    464.27607    324.41623    225.08883    38315.161 
  819500    299.27313   -1493.9731    501.18184    353.35193    60.771013    38315.161 
  819600    296.68652   -1471.7621    466.76552    329.51198    2.7884901    38315.161 
  819700    292.37663    -1523.003     489.4743    281.59381   -353.77848    38315.161 
  819800    307.10614   -1477.1688    497.28275    401.49042    248.87981    38315.161 
  819900    297.78384   -1450.2321    489.83344    379.04565   -331.34545    38315.161 
  820000     302.9034   -1463.7431     499.8398    398.56908   -155.11381    38315.161 
  820100    302.19866   -1497.8789    472.88677    334.31027   -251.60106    38315.161 
  820200    290.95539   -1504.9932    487.17261     290.9091   -384.34812    38315.161 
  820300     298.8735   -1502.5434    475.83141    317.63361   -311.10237    38315.161 
  820400    293.57832   -1509.7001    485.41196    296.23957    115.59648    38315.161 
  820500    297.15084   -1509.1451    482.64756     310.0995    308.10568    38315.161 
  820600    315.48314   -1446.8265    480.88522    453.11529     732.0621    38315.161 
  820700    302.41662   -1464.5028    506.46485    402.24485     843.2801    38315.161 
  820800    311.03403   -1531.1285    481.09325    349.00894    166.29746    38315.161 
  820900    290.11281   -1494.5676    499.94084      310.313    536.75747    38315.161 
  821000    299.06581   -1547.8662    481.84783    279.19231   -119.04336    38315.161 
  821100    301.31284   -1487.8099    520.35622    387.86429   -434.58548    38315.161 
  821200    311.33783   -1517.9677      484.312    366.75502    -697.2759    38315.161 
  821300    295.71949   -1522.4565     472.7991    280.50142   -664.50383    38315.161 
  821400     297.4414   -1528.9344    478.83928    287.80892   -701.92085    38315.161 
  821500    301.54507   -1501.5671    480.89432     335.6897   -359.56853    38315.161 
  821600    296.87747   -1505.2974    471.77867    301.84868   -651.25079    38315.161 
  821700    290.87996   -1466.0072    486.04342    328.42658   -161.34908    38315.161 
  821800    308.56557   -1489.2853    489.49057    388.14625   -112.58733    38315.161 
  821900    299.46571   -1469.9561    507.28937    384.34277   -99.627763    38315.161 
  822000    302.87984    -1482.222    476.41756    356.56196   -584.83416    38315.161 
  822100    298.35561   -1505.9761    482.34931    318.38934   -175.58536    38315.161 
  822200    297.49754   -1510.6908    496.42164    323.88739    233.13004    38315.161 
  822300    295.98205   -1554.6099    497.26569    273.99555    81.147593    38315.161 
  822400    294.51995    -1509.352    464.37226     279.7835    186.66989    38315.161 
  822500    302.32807   -1495.7099    531.56407    395.73862   -288.88509    38315.161 
  822600    303.14712   -1526.0013    469.63067    307.19799   -617.83399    38315.161 
  822700    306.51421   -1496.5079    486.64872    368.85474    355.38521    38315.161 
  822800    292.51658   -1469.4603    501.53871     347.8304   -264.98428    38315.161 
  822900    310.30282   -1497.1918    486.03883    384.60224    116.53848    38315.161 
  823000     304.6908    -1501.742    477.46909    346.23922   -127.61447    38315.161 
  823100    295.73774   -1463.6684    475.34449    341.91691    43.837063    38315.161 
  823200    295.05649   -1476.7241    501.60187    352.05433   -93.026044    38315.161 
  823300    302.70697   -1466.5968     492.4907    387.48267    395.37859    38315.161 
  823400    303.67286   -1457.4931    539.68055    448.12084    607.06322    38315.161 
  823500    300.28862   -1481.5553    480.99174    350.14738    880.28596    38315.161 
  823600    306.40274   -1477.2608    524.83052    425.78219    887.35484    38315.161 
  823700    300.01742   -1469.2549    497.27347    377.50965     782.2313    38315.161 
  823800    295.95535   -1501.7546    494.35455    323.81963    428.73995    38315.161 
  823900    282.74418   -1505.2968    503.22579     269.7243    62.060312    38315.161 
  824000    298.35368   -1510.5048    533.60966    365.11232    890.14186    38315.161 
  824100    292.71038   -1516.3508    487.39459    287.66752    262.68311    38315.161 
  824200    287.90737   -1490.7049    500.69761    305.01225    292.70105    38315.161 
  824300    294.06655   -1478.9162    493.76484    337.57248    623.58543    38315.161 
  824400    304.09402   -1456.9233    497.21525    408.11972   -50.065021    38315.161 
  824500    301.21409    -1465.216    539.08026    428.73802    72.988561    38315.161 
  824600    291.77217    -1474.364    485.29283    323.33243    279.10695    38315.161 
  824700    307.88977   -1496.0782    478.97745    367.80045   -230.47791    38315.161 
  824800    301.72104   -1486.3656    515.74025     386.5287    33.274548    38315.161 
  824900    297.99882   -1488.0392    489.24466    341.61678    163.30902    38315.161 
  825000    304.83742   -1499.4583    523.53881    395.25214   -166.90444    38315.161 
  825100    303.71396   -1517.9521    505.04192    353.20808    750.41423    38315.161 
  825200      300.612   -1525.1669    495.92891    322.92747     1058.425    38315.161 
  825300    296.70583   -1478.9224    514.99119    370.66422    364.97559    38315.161 
  825400    302.70008   -1504.0421    500.53483    358.05047    84.038279    38315.161 
  825500    299.24095   -1475.2773    471.10566    341.82681   -88.767358    38315.161 
  825600    306.65377    -1499.396    487.43292    367.37853   -542.70775    38315.161 
  825700    295.79505   -1477.7572    496.83439    349.57582   -666.44439    38315.161 
  825800    294.50882   -1499.3204    502.35768    327.75046   -348.38938    38315.161 
  825900    289.62772   -1478.8614    485.27582    309.17218    400.01988    38315.161 
  826000    311.32769   -1490.9612    486.07766    395.48165    507.25317    38315.161 
  826100    306.82352   -1488.5993    486.06179    377.56765    468.57449    38315.161 
  826200    296.54238   -1537.2322    487.27657    283.90456    789.24716    38315.161 
  826300    307.15091   -1507.9283    509.89116    383.54066    537.75244    38315.161 
  826400       309.56   -1506.7918    467.59707    353.21929    430.15491    38315.161 
  826500       306.85   -1453.4947    483.22407    409.95369    345.03681    38315.161 
  826600    294.55285   -1459.2427    471.65152    337.31997    289.95101    38315.161 
  826700    303.72526   -1513.7059     467.0431    319.50625    -243.1814    38315.161 
  826800     298.5683   -1484.8989    474.70539    332.77939   -214.26623    38315.161 
  826900    297.11373   -1509.7114    522.62382    349.34254   -198.96406    38315.161 
  827000    302.04071    -1489.749    502.60524    371.44818   -128.84099    38315.161 
  827100    295.70715    -1481.288    491.16922    339.98453   -30.127081    38315.161 
  827200    296.23009   -1474.7444    485.78565    343.49678    172.12194    38315.161 
  827300    313.06069   -1481.6396    493.18636    419.70699    9.8716841    38315.161 
  827400    287.98899   -1453.8192    492.75876    334.32624    -473.0942    38315.161 
  827500    302.21566   -1445.2681    470.73404    384.84476    -406.9211    38315.161 
  827600    314.03326   -1450.3509    461.64614    423.83008   -712.86229    38315.161 
  827700    296.29217   -1411.5793    510.25458    431.41002   -731.87779    38315.161 
  827800    295.06418   -1424.0491    470.25274    373.41489   -217.81715    38315.161 
  827900    310.25293   -1423.0464    500.97453      473.459    301.26066    38315.161 
  828000    298.45662   -1437.6198    483.74575    388.59649     345.5094    38315.161 
  828100     301.2634   -1467.8863      485.871    373.08021    132.97682    38315.161 
  828200    303.85782    -1460.719    500.64555    406.69194   -485.84124    38315.161 
  828300    304.99766   -1448.8762    458.98624    382.00242   -120.06131    38315.161 
  828400     296.0387   -1454.4358    468.31108    345.46995   -548.81137    38315.161 
  828500    297.87975   -1461.4109     492.5334    370.99827   -208.90657    38315.161 
  828600     291.2233   -1417.8055    508.29298    400.42221   -370.57081    38315.161 
  828700    310.58426   -1451.0027    496.42502     442.4435   -382.25863    38315.161 
  828800    295.08247   -1410.5792    491.85268    408.56696    -251.3134    38315.161 
  828900    298.66587   -1407.6912    487.27621    422.99669   -361.05184    38315.161 
  829000    304.96826   -1466.5672    483.58488    388.77786   -603.17052    38315.161 
  829100    288.82403   -1471.8304    470.22966    297.54196   -476.01855    38315.161 
  829200    309.96225    -1414.536    488.53898    468.22628   -27.823856    38315.161 
  829300     292.3861   -1470.6161    512.14279    356.69176     49.70539    38315.161 
  829400    306.31129   -1453.0151    489.80749    414.59354   -300.51502    38315.161 
  829500    301.26571   -1447.6919    507.32472    414.73879   -58.206012    38315.161 
  829600    296.66748   -1476.9668    480.86995    338.32608   -410.20224    38315.161 
  829700    293.35925   -1446.1459     473.0606    346.45705    -223.8197    38315.161 
  829800    292.69192     -1457.07    498.49678    357.96745   -580.41478    38315.161 
  829900    302.14969   -1459.4362    471.07111    370.71707   -716.51363    38315.161 
  830000    293.27311    -1446.969     498.4416     370.6275   -768.26677    38315.161 
  830100    290.46564   -1455.0865    475.40845    326.84872   -844.32813    38315.161 
  830200    300.64636   -1456.8301    484.44636    379.93629   -128.55531    38315.161 
  830300    297.85078   -1472.7769    498.55649    365.52506   -89.099824    38315.161 
  830400    297.63666   -1464.7807    468.09052    342.09213   -26.714524    38315.161 
  830500    295.44815   -1515.2314    490.01375    303.72063    219.07853    38315.161 
  830600    301.11513   -1486.4284    464.20489    332.20512   -105.44173    38315.161 
  830700    296.01283    -1493.114    469.20229    307.56651    266.07909    38315.161 
  830800    288.11925   -1482.2524    481.94641    295.66663    369.98939    38315.161 
  830900    304.55684   -1550.9773    481.03321    299.96546   -302.91786    38315.161 
  831000    303.45484     -1494.96    466.82316    336.81593   -191.42897    38315.161 
  831100    295.34422   -1444.7729    469.27812      352.976    -287.4087    38315.161 
  831200    298.15703    -1442.263    524.95474    423.81473    80.985895    38315.161 
  831300    293.03179   -1486.4294    457.69935    289.33941   -384.33875    38315.161 
  831400    310.12528    -1501.656    499.06211    392.36275   -143.30808    38315.161 
  831500    301.38785   -1510.5342    483.38621    328.50733   -239.14725    38315.161 
  831600     295.9992   -1555.0164    457.01546    233.41602   -173.31622    38315.161 
  831700    299.83677   -1534.1997    483.73863    298.21746   -129.89854    38315.161 
  831800    302.37522   -1495.8572    488.79735    353.03669    144.59382    38315.161 
  831900    301.16602   -1483.4937    472.65967    343.82352    205.78928    38315.161 
  832000     292.5103   -1525.2961     493.0181    283.44571    97.313817    38315.161 
  832100    302.34575   -1543.4911    440.81929    257.29219    341.44705    38315.161 
  832200     290.0702   -1521.6662    484.76162    267.84343    297.21767    38315.161 
  832300    293.58302   -1522.3141    492.59481    290.82954    22.364201    38315.161 
  832400    296.81519    -1520.117    467.55513     282.5254   -424.54666    38315.161 
  832500    303.22317    -1512.582    453.01615    304.34484   -378.11805    38315.161 
  832600    299.26226   -1504.3882    487.60778    329.31389   -313.63595    38315.161 
  832700    307.88045   -1461.2959    471.79021    395.35363   -300.20379    38315.161 
  832800    318.39273   -1528.2779    469.39765    373.26375    -486.4066    38315.161 
  832900    300.95789   -1528.3322    475.68629    301.07545   -125.37422    38315.161 
  833000    293.90227   -1503.4768    492.63602    311.14413   -158.92409    38315.161 
  833100    295.18909   -1504.3044    460.57902    284.04763   -90.743708    38315.161 
  833200    297.81148   -1487.6632    486.28668    338.19213   -360.90681    38315.161 
  833300    303.45759   -1488.2749    442.02978    318.71997   -1.2623607    38315.161 
  833400    301.04809   -1491.4622    475.57795    338.24284    86.238776    38315.161 
  833500    308.91683   -1485.1074    487.87012    392.28366     91.21952    38315.161 
  833600     299.4522   -1466.7624    476.24304    356.42934    241.80278    38315.161 
  833700    299.36192   -1500.3615    473.98148    320.16256    308.94249    38315.161 
  833800    294.65151   -1491.7835    498.02052    331.59199    157.16125    38315.161 
  833900    311.72073   -1526.1409    465.34876    341.34087    350.14391    38315.161 
  834000    303.42673   -1499.4078    467.73601     333.1545   -69.618428    38315.161 
  834100    306.34939   -1510.3736    471.61021    339.20914    369.53117    38315.161 
  834200    304.03296   -1521.0281    494.17887    340.70392    -251.3019    38315.161 
  834300    306.68119   -1545.1677     479.3824    313.67964    364.85403    38315.161 
  834400    301.51224    -1539.406    472.53996    289.34878   -173.27896    38315.161 
  834500    302.60172   -1487.6753    470.79476    344.23483     653.6889    38315.161 
  834600     290.8884   -1518.7039    474.88571    264.61013    195.23336    38315.161 
  834700    292.18531   -1508.0209    511.82519    318.06619    78.278218    38315.161 
  834800    308.16161   -1521.1341     474.2541    339.24399    287.76061    38315.161 
  834900    297.79736   -1535.1979    487.76515    292.07242   -21.203613    38315.161 
  835000    300.34702   -1507.0544    458.86691    302.78611   -370.55478    38315.161 
  835100    295.30103   -1517.4187    470.31964    281.17747   -633.04584    38315.161 
  835200     292.7392   -1531.4825    479.40001     264.6708   -446.04886    38315.161 
  835300    296.33927   -1528.6929    468.65069    272.90438   -603.57541    38315.161 
  835400    299.88711   -1492.9979    456.04354    311.95056    171.51576    38315.161 
  835500    314.61269    -1529.371    478.42576    364.19591   -200.61313    38315.161 
  835600    290.08863   -1487.6073    473.31637    290.54005   -204.54483    38315.161 
  835700    294.53225   -1535.7847    445.28063    234.31449    206.31175    38315.161 
  835800     295.9218   -1535.9364     463.6525    258.78487    3.0849122    38315.161 
  835900    295.24206   -1533.0223     480.5141    275.50308   -273.01628    38315.161 
  836000    293.11068   -1543.9613    475.19535    249.65827    240.04301    38315.161 
  836100    306.63441   -1527.7946     474.9924    326.45237    297.87438    38315.161 
  836200    295.24931   -1506.5033    485.16442    306.70501    60.954452    38315.161 
  836300    290.36376   -1482.8517    464.44202    287.65879   -301.15041    38315.161 
  836400    297.48306   -1493.3445    477.49955    322.24648   -672.83452    38315.161 
  836500    303.72886   -1454.8686    469.10299    380.41971   -685.64405    38315.161 
  836600     301.9637   -1460.0458    483.84699     382.0467   -465.28815    38315.161 
  836700    295.13134   -1490.4951    490.68653    327.70467   -371.63793    38315.161 
  836800     307.6998   -1469.8415    485.58262    399.78785   -533.05571    38315.161 
  836900    293.35525   -1455.8659    511.40383    375.06228   -116.26686    38315.161 
  837000    296.68821   -1458.1361    492.52356    368.90357   -21.643617    38315.161 
  837100    291.83197   -1435.1576    478.22782    355.74273   -581.70871    38315.161 
  837200    298.22266   -1509.1373    480.78726    313.06814   -103.52792    38315.161 
  837300    300.82374   -1487.6701    480.95798    346.40579     835.0529    38315.161 
  837400    298.11448    -1487.985    505.69023    358.63676    627.86265    38315.161 
  837500    300.55333     -1493.67    526.36818    384.59984    942.89365    38315.161 
  837600     292.9048   -1464.9033    469.11458    321.70948    190.45443    38315.161 
  837700     295.1604   -1468.5943    485.38873    344.43838   -187.42616    38315.161 
  837800    304.36056   -1483.9341    490.58101    375.67359    166.09757    38315.161 
  837900    309.06816   -1498.4404     460.2043    351.96559   -164.79108    38315.161 
  838000    288.73131    -1460.171     472.5709    311.12553   -174.67866    38315.161 
  838100    300.54962    -1478.834    504.43575    377.48669    288.00762    38315.161 
  838200    301.74099   -1486.0801    484.15365    355.31731   -87.596917    38315.161 
  838300    295.65992   -1473.2463    495.17358    351.81817     875.4618    38315.161 
  838400    293.03531   -1523.2947    485.74881    280.53932    219.58825    38315.161 
  838500    298.92498   -1529.5194    484.74338    299.80125    44.701553    38315.161 
  838600    302.83303   -1501.9146    478.47745    338.71863    177.61598    38315.161 
  838700    293.68724   -1513.9952    468.51346    275.53584    105.85939    38315.161 
  838800    294.93752   -1518.2801     489.0824    297.44375    418.35554    38315.161 
  838900    295.20143   -1536.5346    478.64857    269.94254    78.903912    38315.161 
  839000    296.97996   -1522.7058    482.17807    295.30077    631.12911    38315.161 
  839100     301.3546   -1570.2382    463.56871    248.83629    72.269921    38315.161 
  839200    308.72794   -1560.7198    488.07074    316.02231    332.40913    38315.161 
  839300    312.04835   -1530.1256    469.08811    342.56925     343.8045    38315.161 
  839400     296.5981   -1510.1705    486.37011     310.3104    553.71474    38315.161 
  839500    304.21867   -1519.9155    504.06452    352.53748    23.824772    38315.161 
  839600    296.46729   -1499.7069    471.49153      305.307   -67.400407    38315.161 
  839700    295.14172   -1485.6352     481.3466    323.27132    265.45275    38315.161 
  839800    294.70391   -1468.1076     486.5045    343.98753    164.56008    38315.161 
  839900    296.69019   -1477.5114    486.55605    343.56972   -272.18128    38315.161 
  840000    311.57626   -1517.6379    459.61164    343.45692   -23.835986    38315.161 
  840100    292.79971   -1528.3931    465.97628    254.60862     99.40712    38315.161 
  840200    306.66574   -1483.7106     468.5409    364.22583    74.299764    38315.161 
  840300    305.86513    -1521.338    471.09257    325.54883     26.88544    38315.161 
  840400    306.42125     -1503.14    514.36032    389.51606   -177.87712    38315.161 
  840500    297.79007   -1447.2362    481.25845    373.49457      33.0116    38315.161 
  840600    298.89897   -1477.9751     499.1743     365.6594   -418.03478    38315.161 
  840700    294.03927     -1476.36    482.53601    328.77713   -61.077602    38315.161 
  840800    304.14747   -1563.0381    469.40391      274.434   -111.18822    38315.161 
  840900    298.22659    -1546.176    469.26699    264.52684    181.15704    38315.161 
  841000    297.42119   -1510.7602    512.52243    339.57536    190.23949    38315.161 
  841100    307.07817   -1548.1765    480.77431    313.84846    281.14525    38315.161 
  841200    297.57448   -1506.3577    478.36219     310.5071    378.25932    38315.161 
  841300    298.01385   -1500.2289    476.53708    316.78713    74.593389    38315.161 
  841400     298.3762   -1515.0128    467.46896    294.56502    267.12481    38315.161 
  841500    296.21893   -1542.1871     468.1956    258.41378   -419.59115    38315.161 
  841600    302.61527   -1533.1662    495.62355    323.63367   -19.255135    38315.161 
  841700     304.5982   -1498.5748    477.63498    349.15576    247.77472    38315.161 
  841800    290.61662   -1522.4662    468.64874    253.38838   -572.46576    38315.161 
  841900    299.68942   -1532.6319    471.40532    286.78915   -286.90687    38315.161 
  842000    287.72863   -1534.1436    486.65364    246.72564   -278.70769    38315.161 
  842100    297.51508   -1484.5799    485.52594    339.18142   -165.55147    38315.161 
  842200    306.68481   -1495.2997    493.67521    377.85678    74.338694    38315.161 
  842300    296.43836   -1531.5526    494.65461    296.49434     802.0952    38315.161 
  842400    301.25844   -1545.0606    475.54328    285.55587   -131.16458    38315.161 
  842500    301.46675   -1525.3026    454.96009    285.66767   -538.06866    38315.161 
  842600    306.25895   -1524.0529    494.89502     348.4078   -473.03564    38315.161 
  842700    298.34216   -1560.0018    489.72985    271.68371   -492.91962    38315.161 
  842800    296.20362   -1514.5847    467.79377    285.54547   -417.23169    38315.161 
  842900    302.90336   -1553.5466    516.91267    325.83821    81.896167    38315.161 
  843000    302.77912     -1528.65    463.84582    297.10909    561.78254    38315.161 
  843100    299.90026   -1566.7896    490.06869    272.24317    665.58922    38315.161 
  843200    290.29287   -1540.1958    489.69585    255.24966    122.56749    38315.161 
  843300    306.22773   -1564.1225    495.02198    308.32477    856.32653    38315.161 
  843400     295.4165    -1544.636    501.27402    285.43402    565.31353    38315.161 
  843500    294.27481   -1549.1112    460.26587    234.81519    456.95506    38315.161 
  843600     295.2655   -1570.3418    498.98303    256.75795    636.77887    38315.161 
  843700     295.5432    -1556.416    499.25649    272.20632    3.4788841    38315.161 
  843800    300.87841   -1522.7225    481.42259    312.06396    113.73665    38315.161 
  843900    291.21837   -1544.9098    475.48803    240.49076   -339.60275    38315.161 
  844000    302.84745   -1553.9078    502.31166    310.62452    41.482147    38315.161 
  844100    306.69039   -1519.2224    475.29524     335.5792   -99.613463    38315.161 
  844200    305.43918   -1551.1148      477.159     299.9225   -181.52594    38315.161 
  844300    289.71272   -1550.7032    506.27213      258.709   -13.906152    38315.161 
  844400     299.2479   -1564.1442    463.69067    245.57615   -12.532995    38315.161 
  844500    301.79449   -1527.8229    482.10009    311.76162   -163.52229    38315.161 
  844600     292.8664   -1514.2627    492.45958    295.52234    48.309072    38315.161 
  844700      295.146   -1527.0116    482.64904    283.21669    441.76636    38315.161 
  844800    308.40426   -1538.7984    517.95607    366.37309    900.59083    38315.161 
  844900    293.67529   -1526.3857    456.31417    250.89236     833.2915    38315.161 
  845000    305.66284   -1526.7045     491.0435    339.22343   -39.538884    38315.161 
  845100     288.9205   -1534.9517    480.79779    245.42274    67.488456    38315.161 
  845200    300.70256   -1550.4772    474.07185    276.16754    465.07519    38315.161 
  845300    299.02223     -1552.43    478.34138    270.92605    535.52131    38315.161 
  845400    307.23782    -1557.109      498.778    323.63773     420.0983    38315.161 
  845500      303.079   -1612.7369    456.87073      207.396    49.166164    38315.161 
  845600    292.57488   -1577.5267    451.27967    189.76715   -309.19467    38315.161 
  845700    304.86071   -1575.2771    481.97651    277.97581    620.68727    38315.161 
  845800    307.54047   -1591.0346    496.06195    288.35741    902.36011    38315.161 
  845900    306.83496   -1568.8437    491.28023    302.59319     156.8761    38315.161 
  846000    298.79427   -1571.4718    468.97361    241.49106    766.06767    38315.161 
  846100    307.35439   -1546.3014    486.51431    322.70597    176.73773    38315.161 
  846200     302.9803   -1591.0756    474.56027    246.30288    295.83291    38315.161 
  846300    303.80438   -1549.9929    454.34149     270.8735    311.77391    38315.161 
  846400    306.44445   -1527.7387    523.64783    374.30926    445.78687    38315.161 
  846500     297.6441   -1565.7967    453.69625    226.71536    179.54827    38315.161 
  846600    296.21899   -1558.1989    507.05705    281.26367   -140.22666    38315.161 
  846700    294.43834   -1550.0146    469.38536     243.7669   -264.23721    38315.161 
  846800    307.17772     -1525.06    468.31028    324.94871    355.69372    38315.161 
  846900    293.48394   -1507.9896    510.38771    322.50129    182.20801    38315.161 
  847000    294.30995    -1481.784    488.48677    330.52144   -214.23334    38315.161 
  847100    299.69243   -1524.9867    456.28144    279.32393   -624.11495    38315.161 
  847200    299.51198   -1479.3767    472.39672     340.2376   -521.10031    38315.161 
  847300    294.63569   -1523.1748    507.41578    309.52484   -410.84743    38315.161 
  847400     305.3702   -1523.1738    487.11662    337.51091    -147.5205    38315.161 
  847500    294.02974   -1517.3838    469.85154    275.02594    46.341116    38315.161 
  847600    287.07282   -1476.9428     509.1511    323.47403    38.576722    38315.161 
  847700    306.85632    -1532.505    503.01153    350.75922    254.07512    38315.161 
  847800    300.24487    -1559.167    503.61618    294.96329    428.63974    38315.161 
  847900    287.87044   -1514.0261    474.88477    255.71209    552.70472    38315.161 
  848000     300.4163   -1512.4517    485.12229    323.95583    184.98981    38315.161 
  848100    296.16045   -1495.7883    492.26641    328.62032    240.41156    38315.161 
  848200    302.46316   -1512.4148    480.14734    328.22468   -269.58148    38315.161 
  848300    296.56881   -1483.1549    502.27315    353.09736   -344.85108    38315.161 
  848400    305.88523   -1519.7973    476.25436    332.34179   -477.16395    38315.161 
  848500    295.89336   -1495.1319      462.449    298.25792   -498.18018    38315.161 
  848600     291.2623   -1493.9711    478.31156    294.45067   -472.79153    38315.161 
  848700    304.31902   -1477.6471    498.77183    389.96458    99.328014    38315.161 
  848800    292.69322   -1499.6524    470.76282    287.65692   -132.96383    38315.161 
  848900    293.54843     -1510.83    485.11769    294.68097   -277.61644    38315.161 
  849000    302.11284   -1536.4865    478.88118    301.31104   -153.09446    38315.161 
  849100    297.74862    -1522.429     499.5778    316.43477   -302.37418    38315.161 
  849200    305.25025   -1530.6597    471.25517    313.62407    -453.4899    38315.161 
  849300    304.62177   -1489.9043    493.58947    373.88676   -563.80535    38315.161 
  849400    307.61572   -1502.3061    466.25987    347.62226   -571.51947    38315.161 
  849500    300.07629   -1497.6667    507.71049    359.79966    210.81066    38315.161 
  849600    297.88804   -1544.2774    488.41406    284.04964   -170.68363    38315.161 
  849700    300.03155   -1520.5754    492.83737    321.81658   -6.5990181    38315.161 
  849800    297.95279   -1509.2935    465.21039    296.12122   -439.23416    38315.161 
  849900    297.11449   -1497.9626    481.09954    319.57049    155.22714    38315.161 
  850000    301.18702   -1479.2593    504.52774    380.02038    178.40521    38315.161 
  850100    293.36942   -1495.3669    484.46937    308.69051   -20.518575    38315.161 
  850200    304.42678   -1523.2292     494.8598    340.95511    374.44119    38315.161 
  850300    300.87429    -1493.021    499.50268    359.82696    487.14648    38315.161 
  850400    291.27606   -1530.7897    469.79955    249.18193    249.61291    38315.161 
  850500    310.69062    -1514.069    499.60144    383.03198    577.04021    38315.161 
  850600    294.67611   -1481.3437    481.88957    326.01151   -475.13245    38315.161 
  850700    289.94791   -1502.6647    486.92094    288.45423    -101.9167    38315.161 
  850800    304.20047   -1441.9309    509.13842    435.51409    301.81674    38315.161 
  850900    304.34691   -1492.3803    486.74597    363.33094    155.40505    38315.161 
  851000    296.04847   -1490.9533    515.46068    356.14595    54.348712    38315.161 
  851100    297.44218   -1518.2149    493.18282    312.87546    475.44623    38315.161 
  851200    309.30324   -1491.4339    472.12482    371.94997    21.102262    38315.161 
  851300    304.62111    -1485.388    503.05537    387.86604   -235.45365    38315.161 
  851400    298.59323    -1491.045    483.77346    335.81343   -252.73765    38315.161 
  851500    302.85711   -1475.1467    453.70876    340.82613   -288.71875    38315.161 
  851600    298.04037   -1473.4519    513.73233    380.87865   -37.847844    38315.161 
  851700    297.42276   -1465.4056     459.4598    331.87437   -426.29617    38315.161 
  851800     302.3436   -1461.3707    490.87549    389.45914   -195.45851    38315.161 
  851900    297.97934   -1477.1133    490.73259    353.94299    115.20801    38315.161 
  852000    301.21833   -1481.4756    496.11163    369.52879    43.165088    38315.161 
  852100    295.86964   -1494.3081    498.27943    334.80554    123.74805    38315.161 
  852200    295.04389   -1489.2432    504.37456    342.25128    364.18695    38315.161 
  852300    295.41155   -1496.4245    491.80564    324.15479    447.22099    38315.161 
  852400    295.88027   -1523.4856    499.94558    307.34191    954.37747    38315.161 
  852500    291.71255    -1523.022    495.94201    285.05541    238.04808    38315.161 
  852600    294.72726   -1531.1279    492.30763    286.87542   -681.15046    38315.161 
  852700    298.94352    -1497.504    448.89793     296.0545   -453.79902    38315.161 
  852800    296.68786   -1487.3074     473.9617    321.16886     21.68497    38315.161 
  852900    298.19404    -1490.442    488.44993    339.29737   -207.53952    38315.161 
  853000    289.03962   -1526.3986     488.5834    262.29729   -235.85712    38315.161 
  853100     303.5158   -1537.4541    475.05237    302.82526   -82.469818    38315.161 
  853200    293.02775   -1493.5532     500.2012    324.69928   -227.96592    38315.161 
  853300    292.11598   -1517.8519    465.79277    261.89091   -233.20433    38315.161 
  853400     288.6429   -1553.9311    477.41002    221.80691   -180.04152    38315.161 
  853500    299.84385   -1509.1375    499.28913    338.86197   -546.28729    38315.161 
  853600    306.67107   -1490.1916    481.49484    370.72265    -492.1622    38315.161 
  853700    293.40587   -1491.0457    482.40562    311.11191   -198.53711    38315.161 
  853800    299.57805   -1510.6116    466.10213    303.00529   -480.38281    38315.161 
  853900    298.25007    -1496.471    480.80917    325.87964   -85.953031    38315.161 
  854000    304.09556   -1514.2903    497.54958    351.09396    -17.44266    38315.161 
  854100    301.05709   -1543.7685     468.1138    278.51284   -491.73569    38315.161 
  854200    301.85477   -1500.3005    474.59623    332.05122   -759.54999    38315.161 
  854300    303.13925   -1508.0134    464.44392    319.96368    -336.0756    38315.161 
  854400    309.78913   -1526.7321     453.0794    319.79191    326.53511    38315.161 
  854500    305.13973   -1544.9074    464.09616    291.72018    207.97609    38315.161 
  854600    310.60305   -1562.3157     464.4546    299.24457     296.7127    38315.161 
  854700    285.08381   -1560.1313    491.29555    213.48329   -492.90878    38315.161 
  854800     291.2093   -1522.1008    480.24009    268.01108   -193.50132    38315.161 
  854900    290.21802   -1525.4109    468.99636    248.99844   -354.13217    38315.161 
  855000    298.94145   -1494.1319    501.78647    352.30591   -851.80246    38315.161 
  855100    301.51914    -1514.815    484.91107    326.34194   -541.68062    38315.161 
  855200    306.14511   -1514.9769     487.5487     349.6255   -156.70878    38315.161 
  855300    295.60214   -1535.3457    499.64442    293.92971   -52.773009    38315.161 
  855400    301.45743   -1532.3858    479.30067     302.8832   -303.19023    38315.161 
  855500    303.15237   -1494.4205    473.07481    342.24651    -17.16071    38315.161 
  855600    290.33917   -1513.8708    508.68622    300.77331    258.56602    38315.161 
  855700    316.41783   -1503.6489    489.58237    409.19429    509.53871    38315.161 
  855800    290.92929   -1516.3821    522.97236    315.20253   -384.89959    38315.161 
  855900    302.22853   -1522.7076    502.57058    339.29971   -169.32603    38315.161 
  856000    301.27969   -1529.7347    490.13718    315.57125   -46.586615    38315.161 
  856100    303.52112   -1527.4504    491.76899    329.56941   -40.062561    38315.161 
  856200    297.95454   -1528.9969    491.17126    302.38646   -494.29685    38315.161 
  856300    301.30884   -1544.0866    471.86119    283.07451   -591.01697    38315.161 
  856400    304.37811   -1513.1941    482.94502    338.85659   -240.10026    38315.161 
  856500     305.3895   -1517.6699    496.59125    352.57627    544.53331    38315.161 
  856600    293.07461   -1544.5021    484.20306    257.96292   -219.60516    38315.161 
  856700    294.85266   -1496.1115    507.27382    337.42204    392.15511    38315.161 
  856800    308.67722   -1472.8733    500.61437    416.18425    273.06937    38315.161 
  856900    292.99903   -1492.1521    490.52471    316.29462   -134.78769    38315.161 
  857000    298.02832   -1474.2421    502.06716    368.36905   -43.659992    38315.161 
  857100    307.57648   -1546.8965    502.04627    338.64181   -589.87682    38315.161 
  857200    305.29398   -1487.3349    504.38339    390.27376    86.276837    38315.161 
  857300    305.62497   -1501.3176    499.95479    373.35126   -471.18645    38315.161 
  857400    299.86812   -1550.6528    477.52997     275.6967   -654.66388    38315.161 
  857500    294.32312   -1577.4313    501.93542    248.38202   -967.42797    38315.161 
  857600    302.57703   -1497.6809    506.17807    369.50148   -1003.3146    38315.161 
  857700    298.71184   -1477.2898    492.77693    359.10561    116.63456    38315.161 
  857800    303.55373   -1487.9519    512.61884     390.0645    -177.2135    38315.161 
  857900     301.0336   -1518.8002     493.7645    329.02615    224.82165    38315.161 
  858000    307.09716   -1512.4488     535.8515     404.7387   -85.525525    38315.161 
  858100    302.89076   -1550.2581    459.03472     271.1921    539.17362    38315.161 
  858200      289.334    -1501.681    497.04787     296.8034   0.73485281    38315.161 
  858300    305.25014   -1532.1905    489.02201    329.85962    149.82391    38315.161 
  858400    303.66877   -1534.7558    489.79508    320.95432    419.21795    38315.161 
  858500    304.63997   -1515.9979    499.03585    353.32147   -342.57421    38315.161 
  858600    303.93967    -1531.186    518.99646      354.944    153.20083    38315.161 
  858700    300.22661   -1565.3007    476.64581     261.7771   -219.65707    38315.161 
  858800    299.93327   -1547.8298      494.178    295.46077   -208.39772    38315.161 
  858900    308.44554   -1530.1917    490.25243    347.46188   -378.08816    38315.161 
  859000    294.64126   -1512.3499    512.88472    325.84374   -1153.5842    38315.161 
  859100    293.99266   -1521.9735    507.62322    308.04122   -679.85821    38315.161 
  859200    304.67382   -1541.2812    480.72554    309.88005   -555.07422    38315.161 
  859300    295.16579   -1499.3977    496.73871     325.0092   -192.32551    38315.161 
  859400    294.32763   -1498.0351    507.72049    333.58355   -396.02554    38315.161 
  859500    290.23916   -1555.2616    491.57654    241.82298    133.54316    38315.161 
  859600    305.44009   -1529.5961    518.78709    363.07352   -40.904432    38315.161 
  859700    295.04121   -1555.8169     467.6125    238.90352     -62.5069    38315.161 
  859800     311.1854   -1518.6269    494.42898    375.52713   -196.76604    38315.161 
  859900    298.01879   -1491.0238    487.07972    336.55704    26.481542    38315.161 
  860000    317.15326   -1529.1961     501.0351    398.40774    587.04412    38315.161 
  860100    307.42316   -1517.4957    506.74987    372.05662     521.3364    38315.161 
  860200    297.69346   -1521.7765    486.34816    303.60944    260.02087    38315.161 
  860300    303.61205     -1533.74    515.38354    347.30343    549.38519    38315.161 
  860400    303.98617   -1505.4549    475.31963    337.20744    89.690786    38315.161 
  860500    308.91072   -1520.7087    515.30796    384.09275     -236.561    38315.161 
  860600    294.27171   -1556.8226    492.81702    259.64102   -143.72926    38315.161 
  860700    301.13206   -1590.6285    479.76542    243.64167   -364.88197    38315.161 
  860800    297.29706   -1592.5843    498.36624    243.03668    172.44774    38315.161 
  860900    301.98037   -1605.4884    455.83933    208.67144    152.68427    38315.161 
  861000    288.46501   -1567.4097    470.97348    201.09159     164.0763    38315.161 
  861100    299.52563   -1588.4158    470.92316    229.78639    23.341166    38315.161 
  861200    304.94675   -1596.2972    496.40418    271.77033   -107.16833    38315.161 
  861300    290.14374   -1543.5847    463.19864    224.69282    576.43004    38315.161 
  861400    308.63874   -1520.7754    523.73666    391.23133    624.52672    38315.161 
  861500    303.71609   -1521.1033    492.67983    337.70441    542.81988    38315.161 
  861600     311.3106   -1527.4422    482.26866    355.11477    534.08467    38315.161 
  861700    302.04861   -1495.4148    498.60449    361.81716   -17.834307    38315.161 
  861800    292.15948   -1520.0989    489.03562    283.08242    431.05221    38315.161 
  861900    304.71751   -1482.0908    501.71516    390.25668    293.74287    38315.161 
  862000    294.12526   -1498.6807    504.96168    329.26892    413.85119    38315.161 
  862100    309.70073   -1504.2865    518.20183    406.96232    680.87597    38315.161 
  862200    295.97765     -1527.89    490.57678    294.00681    218.55376    38315.161 
  862300    293.25592     -1489.11    483.02335    312.99089   -132.80368    38315.161 
  862400    311.28499   -1482.2499    506.60168    424.52483    159.76253    38315.161 
  862500     294.0093   -1500.6194    500.07682    321.92366   -223.16431    38315.161 
  862600    302.10126   -1506.9052    476.66373    328.62275    44.521331    38315.161 
  862700    292.25585   -1494.4389    501.81605    321.95629    -27.32245    38315.161 
  862800    304.14571   -1501.0259    486.28395    353.31836    199.30448    38315.161 
  862900    298.22246   -1503.5195    490.76219    328.65989    -156.0019    38315.161 
  863000    293.48431   -1518.9898    472.65513    273.77023   -391.06607    38315.161 
  863100    292.68587   -1521.5141    484.89109    279.89041   -56.136679    38315.161 
  863200    302.14821   -1509.0589    475.62708    325.64366    663.61772    38315.161 
  863300    292.29945   -1510.3969    489.36735    293.74577   -227.91552    38315.161 
  863400    300.47949   -1537.1826    490.88466    305.27155    87.566415    38315.161 
  863500     299.4845   -1578.6494    498.02563    266.47016    523.80086    38315.161 
  863600     290.4152   -1547.9607    478.92556    237.26478    97.650028    38315.161 
  863700    303.17811   -1532.3401    476.47882    307.84672     149.6678    38315.161 
  863800    303.60189   -1534.4908    485.80779    316.93118   -217.04046    38315.161 
  863900    301.12728   -1525.0378    480.05828    309.50377    65.434356    38315.161 
  864000     291.5583   -1468.7619    473.28737    315.96701   -93.518676    38315.161 
  864100    301.24529    -1528.891     490.4893    316.61238   -214.87729    38315.161 
  864200    306.55205   -1537.5223     483.4571    324.81888    418.24094    38315.161 
  864300    288.11268   -1536.4097    500.12681    259.66015    309.47204    38315.161 
  864400    299.25445   -1542.2284    480.06566     283.8964   -79.806898    38315.161 
  864500    300.42307   -1497.7976    513.58737     367.1055   -322.38888    38315.161 
  864600    299.19612   -1541.7421    445.37955    249.43424   -220.67663    38315.161 
  864700    296.01486   -1540.9436     482.2154    272.75915    525.88793    38315.161 
  864800    306.66604   -1455.2095    525.42217     449.6095    541.84157    38315.161 
  864900     308.0145   -1462.2079    502.52904    425.78335   -13.561484    38315.161 
  865000     296.3896   -1484.1991    506.09814    355.07201   -494.00413    38315.161 
  865100    313.60661   -1480.7443    489.02122    418.89271    35.730507    38315.161 
  865200    296.74274   -1478.0206    498.93322    355.67407    113.36919    38315.161 
  865300    306.72434   -1495.6667    507.76232    391.75465    459.80702    38315.161 
  865400    294.45155   -1500.4675    515.03575    339.02373    463.97797    38315.161 
  865500    299.74638   -1505.7705    511.19949    353.70092    387.09894    38315.161 
  865600    304.13909   -1531.3749    513.94522    350.60086    239.50346    38315.161 
  865700    290.27233   -1527.6984    499.28878    277.24768    44.197104    38315.161 
  865800    289.42862   -1494.4608    477.30509    284.70648    44.160411    38315.161 
  865900     296.2602   -1534.7544    500.84068    298.67724    470.22935    38315.161 
  866000    305.42149   -1539.6573    510.52421    344.66566     548.0771    38315.161 
  866100    298.76178   -1524.6685    501.36458    320.53924    274.14975    38315.161 
  866200    301.25097   -1538.0529    483.92805    300.91483   -242.62451    38315.161 
  866300    298.20355   -1532.5525    489.67642    298.45611    53.327244    38315.161 
  866400    307.78193   -1529.3485    492.11075    347.17847   -388.29883    38315.161 
  866500    308.50364   -1528.1181    476.33826    335.88262     85.55963    38315.161 
  866600    289.29088   -1518.2051    498.56792    281.60549   -523.67127    38315.161 
  866700    298.39377   -1530.5544    481.73735    293.37082   -823.95636    38315.161 
  866800    295.93763   -1488.2911    488.11104     330.9599   -915.74584    38315.161 
  866900    299.73574   -1489.8844    479.26544    337.60513    283.36356    38315.161 
  867000    306.46807   -1503.9959    508.25675    382.76721    599.35058    38315.161 
  867100    292.12002   -1518.8452    502.23608    297.35913    109.98996    38315.161 
  867200    297.26886   -1517.6346    523.62634    343.11969    321.29956    38315.161 
  867300    292.96419   -1542.1561    498.28508    273.89434    253.14902    38315.161 
  867400      308.802   -1555.5522    487.85869    321.31098     874.0507    38315.161 
  867500    299.11023   -1548.3452    473.65302    270.71827    514.36562    38315.161 
  867600    301.82886   -1560.6351    495.11389    292.11775    153.42934    38315.161 
  867700    307.03458   -1548.1617    494.17014    327.06299    270.52374    38315.161 
  867800    288.63403   -1529.6377    499.78528    268.43567    89.801918    38315.161 
  867900    298.83551   -1503.5279    506.15452     346.8014   -510.63229    38315.161 
  868000      298.355   -1513.0695    510.24004    339.18399   -45.131252    38315.161 
  868100    304.78366   -1492.4276    501.76471    380.26692   -579.07117    38315.161 
  868200    300.37658    -1467.007    508.47767    392.57724   -623.51724    38315.161 
  868300    297.85666   -1507.2043    480.24974    312.81737   -642.91633    38315.161 
  868400      292.205   -1490.5968    521.97856    345.73219   -744.98499    38315.161 
  868500    302.06592   -1477.4551    534.95034    416.20054   -118.46805    38315.161 
  868600     293.6596   -1517.4994    502.29395    305.68783   -315.41084    38315.161 
  868700    290.53128   -1514.9533    514.05577    305.92449    36.977025    38315.161 
  868800    304.07433   -1491.0271    519.15972     395.8718    221.22289    38315.161 
  868900    305.66911   -1544.8421    501.72068    331.79118    -262.7375    38315.161 
  869000    306.63411   -1558.5057    490.08995    310.83741    33.352192    38315.161 
  869100     305.3967   -1530.1368    482.59286    326.14335   -635.35746    38315.161 
  869200    297.67219   -1579.7991     483.7763    242.91936   -278.83611    38315.161 
  869300    300.60016   -1544.0107    483.35005    291.45162   -933.97685    38315.161 
  869400    296.13674   -1547.6509    502.81607    287.20078    -316.6556    38315.161 
  869500    293.94229   -1482.2565    511.22878    351.13713   -265.26154    38315.161 
  869600    304.01042   -1499.6801    503.07141    370.84307    -258.4802    38315.161 
  869700    294.91214   -1540.3592    479.58194    265.75005   -404.10444    38315.161 
  869800    289.99889   -1527.9198    509.19877     285.7062   -202.22375    38315.161 
  869900    292.72873   -1540.4857    513.31946    289.54001   -25.790358    38315.161 
  870000    290.70075   -1545.9826    522.30224    283.90391    181.44778    38315.161 
  870100    302.63939   -1515.8389    478.34524    323.79114    242.37721    38315.161 
  870200    305.24489   -1487.1391    526.24973     412.1151    167.24423    38315.161 
  870300    295.98852   -1528.7414    478.72055      281.348    385.94604    38315.161 
  870400    308.22166   -1504.4894    506.47423    388.37892    130.80868    38315.161 
  870500    297.02603   -1558.5126    510.90305    288.42607    583.79072    38315.161 
  870600     312.8743   -1539.7042     476.6894    344.30709    701.86046    38315.161 
  870700    295.53567    -1539.492    506.53807    296.37806    162.87207    38315.161 
  870800    303.10161   -1548.7129    507.04693    321.69793     335.2569    38315.161 
  870900    294.74537   -1508.2203     480.0933    297.65018   -54.382256    38315.161 
  871000    306.66071   -1522.4566    535.60263    392.51888   -695.25748    38315.161 
  871100    288.08214   -1538.5895    493.46521    250.68138   -1043.5416    38315.161 
  871200     298.8693   -1537.5829    470.90427    277.64814   -767.84266    38315.161 
  871300    300.02697   -1526.2488    496.33228    319.61747   -386.68417    38315.161 
  871400    309.95293   -1571.6455    492.60584    315.14178    191.87112    38315.161 
  871500    300.57916   -1595.3215    490.19067    246.88696    660.43976    38315.161 
  871600    307.91272   -1597.9204    495.55882    282.64283    237.70025    38315.161 
  871700     295.4619    -1601.941    509.48418    236.54329    238.17591    38315.161 
  871800    296.98313   -1641.2601    520.85832    215.44086    110.86215    38315.161 
  871900    301.16967   -1565.6744    489.71244    278.71202    267.34508    38315.161 
  872000    286.96966   -1555.6846    508.63171    243.74878    137.57964    38315.161 
  872100    308.30203   -1536.0228    501.70848    352.44127    137.47799    38315.161 
  872200    304.50959   -1548.8859    481.17886    301.99005   -9.3237529    38315.161 
  872300    294.37805   -1529.0895    496.42548    291.46094   -506.62377    38315.161 
  872400    305.79005   -1530.0178    518.65238    364.09124   -70.203983    38315.161 
  872500    298.25421   -1536.5563    481.04904    286.05282   -282.10992    38315.161 
  872600    305.13451   -1522.7884    495.90099    345.62056    50.133296    38315.161 
  872700    303.93918   -1547.6276    490.35691    309.86062    507.51941    38315.161 
  872800     302.3259    -1526.175    500.02678    333.72646    340.42132    38315.161 
  872900    289.44448   -1550.0484    482.52308    234.40823    14.841119    38315.161 
  873000    305.21117   -1534.9745    507.77492    345.65322    509.76936    38315.161 
  873100    295.86829   -1494.8932    509.96648    345.90137    783.44853    38315.161 
  873200    297.12495   -1534.1072    496.56696    298.94036   -364.89964    38315.161 
  873300    296.99531   -1540.5933    474.25422    269.55838    20.126112    38315.161 
  873400    302.23141   -1523.4596    498.30639    334.29645   -223.59473    38315.161 
  873500     305.3947   -1491.6101    510.62256    392.69074    185.29059    38315.161 
  873600    299.01415   -1533.7631    515.87551    327.09075     541.1912    38315.161 
  873700     301.5863   -1505.5786    482.30871    333.27809    351.38946    38315.161 
  873800    298.57813   -1486.1962    508.59879    365.41969    540.73772    38315.161 
  873900    303.58431   -1511.4538    491.53845    345.61969    394.74812    38315.161 
  874000    305.18947   -1476.1375     528.3286    424.94629   -282.16081    38315.161 
  874100    314.20286   -1483.8402    485.02623    414.48381   -10.818792    38315.161 
  874200     295.4303    -1472.451    476.94709    333.35411   -590.50136    38315.161 
  874300    292.79583   -1502.5284    486.43534      300.915    -798.7616    38315.161 
  874400     305.7904   -1528.9636    474.73735    321.23193   -590.96402    38315.161 
  874500    306.94143   -1506.1126    493.32194     367.8449   -394.68392    38315.161 
  874600    305.28681   -1491.9394    518.18873    399.44238    62.253672    38315.161 
  874700    297.13925   -1531.9257    481.06451     285.6838    572.16641    38315.161 
  874800     297.3942    -1533.612    515.61571    319.69539    271.03991    38315.161 
  874900    304.09168   -1537.5851    489.49356    319.72573    34.300116    38315.161 
  875000    304.38805   -1511.4749     481.1003    338.77576    32.231187    38315.161 
  875100    306.40452   -1549.9349    476.03459     304.3202    -65.04006    38315.161 
  875200    281.26926   -1527.7098    477.73626    215.18748   -534.19045    38315.161 
  875300    299.66534   -1500.0812    495.38858    343.21479   -300.66188    38315.161 
  875400    301.83852   -1493.3784    497.92945    362.23353   -460.58414    38315.161 
  875500    295.86665    -1524.927    474.29101    280.18469    -108.2962    38315.161 
  875600    302.92429   -1553.4232    481.27564    290.41873   -207.57312    38315.161 
  875700    304.02613   -1549.7915    479.15093     296.8818    -45.74269    38315.161 
  875800    293.28688   -1506.3438    488.65449    301.52747   -747.05746    38315.161 
  875900    295.07144   -1502.9167    489.88673    314.21386   -663.87191    38315.161 
  876000    311.38862   -1549.5731    473.27953    324.34565    103.71832    38315.161 
  876100    297.24764   -1581.0573    497.85657    253.83173    166.37634    38315.161 
  876200    302.09096   -1596.5173    501.23848    263.53909   -202.80523    38315.161 
  876300     288.7322   -1607.5304    487.08537    178.28465    394.00272    38315.161 
  876400    296.58578   -1544.3855      512.713    302.38292   -60.338602    38315.161 
  876500    309.80006   -1544.1821    470.31574    319.62747    466.61014    38315.161 
  876600    304.26438   -1587.2194    510.91136      292.286    -432.7642    38315.161 
  876700    295.07136   -1582.9524    479.23123    223.52231   -642.80365    38315.161 
  876800    300.91233   -1588.4744    462.27789    227.31989   -201.69791    38315.161 
  876900    305.42995   -1598.7306    486.53988    261.64613   -579.66366    38315.161 
  877000    310.44695   -1559.4637    461.82216    298.76195   -580.81085    38315.161 
  877100     292.2514   -1541.4127    478.25134    251.39783   -284.10461    38315.161 
  877200    302.31704   -1542.1315    474.38846    292.09181   -691.97543    38315.161 
  877300    294.74859   -1529.0908    503.27894    299.97978   -358.58744    38315.161 
  877400    297.91191   -1541.6797    475.45607    273.79679   -51.008509    38315.161 
  877500    304.42586   -1508.6689    511.49172    372.14319    15.039842    38315.161 
  877600    298.72403   -1555.2674    485.21642    273.62235    1.7359157    38315.161 
  877700    299.95385   -1551.7085    494.59687    292.09353   -130.37278    38315.161 
  877800    301.41315   -1516.3504    500.44199    339.86066   -401.75227    38315.161 
  877900    297.27649   -1587.8912     469.3728    218.64389   -257.62062    38315.161 
  878000    294.06686   -1575.5024     493.2882    240.51099    491.10171    38315.161 
  878100    309.70587   -1587.2542    467.23735     273.0533    298.20345    38315.161 
  878200    298.00809   -1579.4409    483.87613    244.88825    227.51545    38315.161 
  878300    300.84407     -1543.64    498.02702    307.59637   -333.95225    38315.161 
  878400     302.3095   -1527.0677    465.29945    298.03264   -249.84288    38315.161 
  878500    305.23143   -1579.2491    515.81323    309.50802   -33.754301    38315.161 
  878600    298.31867   -1552.9809     533.0723    321.94143   -30.473858    38315.161 
  878700    316.36525    -1542.925    531.58632    411.68564    189.98343    38315.161 
  878800    307.37275   -1587.5269    494.38971    289.43848    368.07814    38315.161 
  878900     294.5676   -1565.3289    496.07104    255.71971   -28.936233    38315.161 
  879000    304.41583   -1565.2565    506.44887    310.46771   -363.34087    38315.161 
  879100    310.82801   -1528.2204    490.29039    360.18757    -677.8482    38315.161 
  879200    299.95231   -1580.0164    484.67912    253.86089   -663.63127    38315.161 
  879300    290.57035   -1572.4854    473.51236    208.02473   -1126.1076    38315.161 
  879400    311.85742    -1584.515    473.77763    292.01051   -890.01576    38315.161 
  879500     289.7245   -1553.7362    481.66169    231.11859   -561.32331    38315.161 
  879600    287.27554   -1598.5831    465.54056    159.13499   -207.34291    38315.161 
  879700    306.82555   -1571.0584    490.41369    299.46961   -24.663483    38315.161 
  879800    297.30307   -1550.4333    499.70568    286.55424    299.27335    38315.161 
  879900    295.61653   -1585.8027    471.26496    215.15793    14.694611    38315.161 
  880000    296.25849   -1576.6072    488.84423    244.82025    344.17149    38315.161 
  880100    296.26382   -1562.8268    494.88178     264.6622    445.80968    38315.161 
  880200    304.94684   -1569.9112    514.41344     316.1661    307.09273    38315.161 
  880300    297.86644   -1562.8051    496.00859    273.01938    44.874107    38315.161 
  880400    300.44369    -1545.979    474.35026    279.77971   -75.358486    38315.161 
  880500    306.08149   -1535.5555    477.95155    319.16361   -428.22368    38315.161 
  880600    288.47848   -1559.4573    500.77979     238.9109   -234.89166    38315.161 
  880700    287.16253   -1517.8464    520.75889    294.58166   -452.28171    38315.161 
  880800    304.41798   -1524.0913    520.01551     365.2092   -404.20333    38315.161 
  880900     288.6324   -1516.5256    501.37602    283.13116   -481.93807    38315.161 
  881000    297.64035   -1521.4418    507.08533    324.44241   -319.22666    38315.161 
  881100    304.83987   -1532.1852    499.49899    338.49641   -309.80032    38315.161 
  881200    294.09012   -1526.2563    509.02682     305.6004   -93.448994    38315.161 
  881300    305.34967   -1553.4949    526.36482    346.34569    759.73014    38315.161 
  881400    289.19363   -1501.4328    516.99136    316.36375    57.510935    38315.161 
  881500    307.85505   -1490.0485    539.15465    433.85122   -99.830495    38315.161 
  881600    299.01737   -1466.3011    484.25258    362.94427    104.28102    38315.161 
  881700    305.87275   -1532.3957    482.13617    325.56907    164.03872    38315.161 
  881800    304.62801   -1479.9999    524.61102     414.8408   -393.08985    38315.161 
  881900    296.42776   -1494.3597    522.16498    361.14993   -401.25537    38315.161 
  882000    303.13489   -1516.2576    494.79617    342.05217   -166.50758    38315.161 
  882100    294.96168   -1497.5579    490.98644    320.17868   -176.76802    38315.161 
  882200    297.19128   -1498.1841    499.45688    338.05175   -191.87747    38315.161 
  882300    315.92019   -1523.0888    529.11951    427.05306    206.29799    38315.161 
  882400    298.77581    -1520.958    520.75788    343.70611    195.41994    38315.161 
  882500    305.20167    -1516.431    501.79433    358.17337    -94.11048    38315.161 
  882600    308.43846   -1485.2956    522.53904    424.61271    -166.5662    38315.161 
  882700    306.69781     -1501.06    513.10827    391.58805    183.81854    38315.161 
  882800    286.77371   -1512.6722    503.54743    280.79552    -415.5765    38315.161 
  882900    306.31367   -1488.4955    527.93439    417.25076    340.27127    38315.161 
  883000      300.422   -1503.2323    515.85216    363.93073     91.91472    38315.161 
  883100     308.1038   -1473.1064    511.42366    424.18121    502.35791    38315.161 
  883200    291.28525   -1485.8771     484.1968    308.53312    261.46805    38315.161 
  883300    302.54864   -1545.1922    510.71606    326.40041    566.97235    38315.161 
  883400    302.68558   -1545.0297    526.23045     342.6933    420.97585    38315.161 
  883500    297.50924    -1558.286     516.6648    296.58793    -216.3591    38315.161 
  883600    309.85771   -1545.0629    483.02699    331.71721    249.89164    38315.161 
  883700     295.4835   -1556.3507    462.23227    234.97892   -357.38503    38315.161 
  883800    307.22036   -1536.9704    507.56922    352.48899   -40.520264    38315.161 
  883900    304.73235   -1535.9219    506.88371    341.66077    -502.7313    38315.161 
  884000    295.83358   -1562.1937    477.62596    246.10421   -543.15018    38315.161 
  884100    303.92335   -1580.8822    493.56318    279.74106    403.19822    38315.161 
  884200    298.35625   -1549.7782    495.16605    287.40687   -172.97638    38315.161 
  884300    308.21285    -1556.752    499.88717    329.48967    449.83757    38315.161 
  884400    295.25306   -1532.0834    501.31238    297.28969    487.78935    38315.161 
  884500    300.78931   -1548.8983    508.75632    312.82106    293.23891    38315.161 
  884600    295.52125   -1577.8156    487.78206    239.23361    239.59602    38315.161 
  884700    297.62025   -1606.3228    501.11953    233.50526    531.91118    38315.161 
  884800    306.27774   -1559.2212    491.18854    309.61757    658.71604    38315.161 
  884900    293.40124   -1540.3027    477.64313    257.07169    698.61619    38315.161 
  885000    304.41684   -1553.1847    488.66263    304.75776    699.15284    38315.161 
  885100    306.71497    -1530.592    509.99108    359.01606    299.95007    38315.161 
  885200    296.45882    -1552.297    486.29204    267.47939    77.452384    38315.161 
  885300    295.86246   -1553.9363    508.82215    285.68775   -430.38239    38315.161 
  885400    303.15758   -1514.2215    480.04027    329.43438   -537.33488    38315.161 
  885500    312.56707   -1533.5914    497.99428    370.34282    182.13292    38315.161 
  885600    303.34019   -1550.7466    529.78385    343.47424   -339.62252    38315.161 
  885700    307.69013   -1537.8219    493.38582     339.5672   -301.60003    38315.161 
  885800    297.58183   -1558.0896     473.5968    254.04285    -188.2648    38315.161 
  885900    297.50867   -1578.8243    465.14031    224.52266   -563.86214    38315.161 
  886000    303.56404    -1529.018    502.19093    338.61686   -198.49017    38315.161 
  886100    310.20612   -1582.4153    495.72323     308.6282   -6.7070069    38315.161 
  886200    298.00947   -1530.5637    486.96589    296.86144   -216.10588    38315.161 
  886300    292.61314   -1542.6667    493.82859    267.34817    237.41663    38315.161 
  886400    302.79132   -1562.5276    494.81533    294.25595    733.54296    38315.161 
  886500    299.77802   -1568.9791    510.04515    289.48022     579.9388    38315.161 
  886600    299.83279   -1624.8655    463.73509    187.53013    402.79644    38315.161 
  886700    302.65349   -1589.9837    482.47215    253.83671   -295.87365    38315.161 
  886800    301.52141   -1544.7442    496.26713    307.77896   -311.32064    38315.161 
  886900    301.56617   -1611.7444    492.49954    237.21254   -220.73557    38315.161 
  887000    294.74303   -1616.7483    474.92224    183.94053    282.57383    38315.161 
  887100    298.53823    -1612.821    476.98526    207.00184    393.43972    38315.161 
  887200    295.19853   -1591.5107    466.80493    203.10969    33.982108    38315.161 
  887300    302.17743   -1556.9305    484.07018    286.34661     277.2841    38315.161 
  887400    296.27937   -1551.3193    533.37869    314.73657    333.81933    38315.161 
  887500    306.74684   -1560.0609    499.37572    319.07509    162.39819    38315.161 
  887600    303.90033   -1567.0047     477.2493    277.20114   -460.98224    38315.161 
  887700    298.76208   -1534.5181    492.53876    301.86521   -141.93677    38315.161 
  887800    292.47187   -1554.5865    507.41071    268.37508   -701.46423    38315.161 
  887900    305.51794    -1562.706    464.94112     276.4678    -216.7994    38315.161 
  888000    310.32465   -1569.8295    478.95776    304.98173   -227.20687    38315.161 
  888100    308.74115    -1577.716    469.51177    280.52653   -262.04594    38315.161 
  888200    295.08177    -1620.099    514.52272    221.71399    177.44447    38315.161 
  888300     310.6752   -1582.5785    487.35715    302.20887    303.46376    38315.161 
  888400     296.3907   -1609.5419    464.36857    188.00462    8.5932834    38315.161 
  888500    293.11066   -1607.0447    500.11752      211.497   -181.94554    38315.161 
  888600    301.72006   -1569.4885    476.77064     264.4318   -82.851519    38315.161 
  888700    303.30407   -1575.0987    481.79214    270.96803   -244.11803    38315.161 
  888800    293.25655   -1544.7405    518.36589    292.70579   -364.51839    38315.161 
  888900    314.53483   -1554.4656    490.39195    350.71731   -242.68148    38315.161 
  889000     297.9257   -1525.5944    506.37183    320.85986    -249.2386    38315.161 
  889100    297.51202   -1546.9931    476.59985    267.82839   -151.45557    38315.161 
  889200    312.18934   -1561.3017     495.5747    338.51386   -143.02666    38315.161 
  889300     310.6942   -1607.6035    494.98075    284.89291    360.56043    38315.161 
  889400    310.39932   -1597.5461    476.29566    274.93885    265.16914    38315.161 
  889500    293.59769   -1578.0562    491.34475    233.90338    267.77871    38315.161 
  889600    303.91654   -1531.8195    492.91523    328.12526    267.79394    38315.161 
  889700    302.56878   -1521.6871    492.64526    331.92536   -124.33094    38315.161 
  889800    304.95095   -1510.9839    493.67408    354.37244    -40.28726    38315.161 
  889900    291.51408   -1540.2799    474.15031    245.11307   -238.02966    38315.161 
  890000     306.9542   -1580.9072    507.17774    306.96357    200.59607    38315.161 
  890100    301.75246   -1586.0161    509.24441    280.52364   -69.335213    38315.161 
  890200    293.59493   -1603.2724    474.86419    192.19429     102.3568    38315.161 
  890300    296.47158   -1551.5029    483.23202    265.27089    641.39236    38315.161 
  890400    305.40561   -1542.8353    501.60834     332.5004    1313.9787    38315.161 
  890500    297.13139   -1541.3527    470.84027    265.99713    30.864862    38315.161 
  890600    297.26278     -1497.21    475.90791    315.79852   -243.48685    38315.161 
  890700    299.93857   -1454.7381    502.75324    397.15154   -633.36806    38315.161 
  890800    294.14722   -1495.2076    506.65301    334.53209   -881.71589    38315.161 
  890900    293.89062   -1504.1483    445.64142    263.42556    36.497327    38315.161 
  891000    297.36558   -1555.8633    517.16525    298.86495    -113.7348    38315.161 
  891100    299.58335   -1556.5283    499.42161    290.43192   -144.66043    38315.161 
  891200    288.57973   -1541.2685    468.22727    225.00263    308.76397    38315.161 
  891300    304.46511   -1503.8167    524.89572    390.57601   -192.66853    38315.161 
  891400    291.37012    -1507.059     469.0561     272.5923    416.12524    38315.161 
  891500    293.27808   -1501.1337    493.98716    312.03072    305.31028    38315.161 
  891600    297.50794   -1526.6555    503.81107    315.35889    868.02633    38315.161 
  891700    313.52107   -1471.8894    461.10781    399.44946     564.6231    38315.161 
  891800    314.97025   -1482.8899    507.62211    441.48174    262.76849    38315.161 
  891900     292.4294   -1508.8188    501.46957    308.01057    379.53851    38315.161 
  892000    294.35687   -1534.0795    478.32262    268.27277     581.4968    38315.161 
  892100    304.64447   -1515.1344    516.68268    371.85203    490.54379    38315.161 
  892200    306.06626   -1538.0196    473.69845    312.37784    380.72132    38315.161 
  892300    301.99649   -1552.3045    464.45151    270.54006     228.6712    38315.161 
  892400    299.49943   -1559.8592    483.53969    270.84162   -162.51345    38315.161 
  892500    303.24799   -1545.2626    523.75038    342.51008   -232.88529    38315.161 
  892600    303.11761   -1553.6968    452.70346    262.44251   -395.09741    38315.161 
  892700    308.56097   -1546.2377    462.05123    303.73384   -63.462712    38315.161 
  892800    301.02006    -1582.709    477.75172    249.04371   -295.82531    38315.161 
  892900    302.83428   -1595.7757    483.77991    250.16564   -718.90271    38315.161 
  893000    307.06921   -1560.6406    464.57775    285.14745   -305.56296    38315.161 
  893100    297.17941   -1592.6977    465.50592    209.53376   -952.58095    38315.161 
  893200    296.59782   -1565.6394    469.48484    237.95502   -719.69992    38315.161 
  893300    293.02025   -1565.7001    483.87927    236.19668   -768.93369    38315.161 
  893400    291.26785   -1537.3845    488.31999    261.07061   -725.55121    38315.161 
  893500    302.77497   -1566.4119    491.13827    286.62099   -1142.5029    38315.161 
  893600    296.73743   -1520.1777    503.24994    317.80971   -738.32606    38315.161 
  893700    300.09651   -1530.7269    475.63749    294.75739    -517.0011    38315.161 
  893800    300.71679    -1549.185     488.6175    292.06935   -76.390964    38315.161 
  893900    295.75271   -1567.0788    467.49328    230.72264   -518.29215    38315.161 
  894000    299.43475   -1562.6303    486.22804     270.4679   -474.21226    38315.161 
  894100    301.09947   -1527.1543     494.0899    321.29374   -606.11984    38315.161 
  894200     298.9456   -1531.3896    516.70082    329.98123   -319.59525    38315.161 
  894300    295.26881   -1567.2445    484.13702    245.02411     52.51792    38315.161 
  894400    300.75384   -1579.8105    486.81616    259.80919   -156.98099    38315.161 
  894500    300.98919   -1557.2735     493.6439    290.23248    -554.5148    38315.161 
  894600    297.32276   -1548.6084    469.57719    258.33914    -524.8464    38315.161 
  894700    307.16577     -1509.77    495.08999    366.96466   -464.81816    38315.161 
  894800    290.69626   -1488.4742    506.67433    325.76424   -555.87696    38315.161 
  894900    298.14272   -1513.2471    494.28491    322.09638   -606.41422    38315.161 
  895000    297.45914   -1543.1522    484.68021    279.51185   -305.09418    38315.161 
  895100    293.89578   -1533.4092    462.32884    250.87525    -214.4989    38315.161 
  895200    298.31546   -1529.1471    507.75103    320.43953    -300.5866    38315.161 
  895300    300.92491   -1475.0774    471.52724    350.02285   -391.26546    38315.161 
  895400    292.02051   -1473.9549    499.23861    338.80434   -480.90045    38315.161 
  895500     301.8055   -1507.7931    496.28447    346.02532    97.348419    38315.161 
  895600     296.7418   -1485.4963    477.91778    327.17872   -147.73255    38315.161 
  895700    301.52736    -1485.641    494.37089    365.01274   -310.66661    38315.161 
  895800    294.71469   -1491.4709    470.69131    304.85959   -160.89609    38315.161 
  895900    311.57116   -1474.8295    493.50324    420.13405    464.17898    38315.161 
  896000    298.27906   -1492.9289    484.72281     333.4657   -268.44691    38315.161 
  896100    301.79993   -1488.4105    513.54347    382.64186    385.30299    38315.161 
  896200    292.72512    -1482.446       486.85    321.09395    132.21534    38315.161 
  896300    305.89626     -1459.03     524.4626    441.36691   -221.05576    38315.161 
  896400      300.144    -1509.787    486.12379    326.39722    168.27761    38315.161 
  896500    303.38319   -1515.1459    504.02621     353.5108    655.61458    38315.161 
  896600    302.02645   -1514.9327    490.17618     333.7713    84.708869    38315.161 
  896700    285.41984   -1503.9594    489.88697    269.75814    1.1312222    38315.161 
  896800    300.83944   -1469.4022    495.40483    379.19117   -552.76108    38315.161 
  896900    299.59379   -1433.7604    479.25147     393.0766   -194.24062    38315.161 
  897000    307.46157   -1450.8685    491.41823    423.52494     187.3033    38315.161 
  897100    311.31009   -1464.8742    487.18366    422.59544   -475.75004    38315.161 
  897200    299.73086   -1498.7836     494.9618    344.38028    -433.5528    38315.161 
  897300    303.47272   -1503.9103     471.9043     333.0271    60.028735    38315.161 
  897400    306.14514   -1498.1434    492.52281     371.4332   -120.38065    38315.161 
  897500    318.02021   -1490.8707    518.53459     458.1322    422.96474    38315.161 
  897600    307.44201   -1509.9551    498.21495    371.14704    293.68565    38315.161 
  897700    295.17722    -1500.444    488.11213     315.3878    -84.73993    38315.161 
  897800     294.2793   -1528.2033     485.6542    281.13168   -556.35701    38315.161 
  897900     312.7637   -1515.3096    478.55577    370.07055   -647.94604    38315.161 
  898000    303.21366   -1462.8217    486.62093    387.66717   -970.08289    38315.161 
  898100    306.93694   -1452.6214    502.23604    430.23001    -600.4551    38315.161 
  898200    308.17046   -1460.0381    497.56028    423.68602    -146.7146    38315.161 
  898300    293.41619   -1456.2929    494.58703    358.09256   -86.324373    38315.161 
  898400    307.93341    -1440.864    499.35697    443.59051   -439.95826    38315.161 
  898500    295.45902   -1488.3385    485.71546    326.36421   -204.49918    38315.161 
  898600    303.26045   -1489.6294    492.38961    366.83859   -39.735612    38315.161 
  898700    307.14902   -1493.6008    477.66259    365.63107    510.00236    38315.161 
  898800    298.66929   -1517.6691    492.63019    318.38816    136.73955    38315.161 
  898900    307.12491   -1527.8152    486.17384    339.81948   -295.11117    38315.161 
  899000    303.79807   -1540.5907    484.75458    310.66051   -232.54042    38315.161 
  899100    304.14777   -1524.8158    475.30913    318.56289    -152.8266    38315.161 
  899200    300.50083    -1530.713    488.48557    309.43801    415.60034    38315.161 
  899300     286.8979    -1549.163    481.95292    223.26881   -100.41825    38315.161 
  899400    300.80133   -1522.7051    503.29648    333.60847    183.32577    38315.161 
  899500    295.37722   -1533.9766    452.94176    247.58436    372.33506    38315.161 
  899600     294.6142   -1543.8488    475.85648    257.19487   -85.407102    38315.161 
  899700    304.83199   -1500.5587    470.69283    341.28136   -349.51084    38315.161 
  899800    294.64544   -1487.6517    509.81727     347.4932    296.36394    38315.161 
  899900    282.47223   -1520.6322    482.81209    232.75198    569.17283    38315.161 
  900000    305.35248   -1516.1589    460.74335    318.07285    538.42077    38315.161 
  900100    313.26665   -1491.7784    508.23922    425.54752    946.14569    38315.161 
  900200    311.52101   -1498.7658    482.78093    385.24984    818.58242    38315.161 
  900300    293.95512   -1507.8947    476.14729    290.47515    195.86946    38315.161 
  900400    305.12278     -1571.88    472.83633    273.41154    41.618503    38315.161 
  900500    299.85695   -1534.0243    481.24089    295.98586    432.84137    38315.161 
  900600    300.06449   -1549.6342    484.12782    284.19638   -251.70804    38315.161 
  900700     298.2697   -1493.2399    510.11666    358.50655    137.74585    38315.161 
  900800    300.17302   -1491.7497    491.39314    349.83435   -261.78747    38315.161 
  900900    303.44228   -1506.2504    490.67232    349.31813   -249.81105    38315.161 
  901000    298.17802   -1479.8459    501.22162    362.59313   -445.30293    38315.161 
  901100    306.28699   -1501.2371    458.64725    335.10199   -581.64204    38315.161 
  901200    311.23253   -1532.7527    494.03175    361.21617   -71.183492    38315.161 
  901300     297.2527   -1487.0482    509.77956    359.78663   -590.87274    38315.161 
  901400    303.41745   -1481.8953    501.92472    384.81393   -444.98507    38315.161 
  901500    295.25158   -1537.1312     492.0563    282.97915    22.487634    38315.161 
  901600     294.8476   -1502.6902    483.06713    306.61395    120.49354    38315.161 
  901700    297.94804   -1499.2591    510.48609    351.40992    104.04022    38315.161 
  901800    301.87808   -1483.4175    495.58662    370.02955    991.37695    38315.161 
  901900    306.80723   -1498.4901    487.41185    368.95365     1211.533    38315.161 
  902000    303.83376   -1515.6274    512.84025    363.87001    987.29293    38315.161 
  902100    295.23467    -1553.439    462.02559    236.56464   -8.9535983    38315.161 
  902200    293.57291   -1553.1987    479.09473    246.39941    113.21934    38315.161 
  902300    291.91148   -1541.9826    502.01764    273.06527    -342.3563    38315.161 
  902400    302.00006   -1509.5357    508.84281    357.71621   -220.88619    38315.161 
  902500    294.55206   -1547.9692    492.11523    269.05363   -443.76998    38315.161 
  902600    300.37894   -1539.8315    487.37842    298.66407   -553.87835    38315.161 
  902700    300.87535   -1507.8294    510.79336    356.31403   -410.99089    38315.161 
  902800     302.5479   -1516.5817    487.81731    332.10893   -177.45592    38315.161 
  902900    305.68219   -1518.2085    496.53887    353.30183   -25.390653    38315.161 
  903000    302.77528   -1522.0518    483.33746    323.18173   -197.18727    38315.161 
  903100     296.1965   -1475.1642     470.5734    327.71359   -401.56644    38315.161 
  903200    305.32141   -1480.0775     514.0126    407.28378   -2.1855352    38315.161 
  903300    308.96672   -1536.3231    483.33959    336.76186   -53.343161    38315.161 
  903400    283.07577   -1499.6349    492.50463    266.15654    275.71499    38315.161 
  903500    297.59542   -1479.7239    494.30043    353.17336    331.39192    38315.161 
  903600    301.22939   -1552.6112    510.33669    312.66804     341.5434    38315.161 
  903700    300.45852   -1525.6101    479.77105     305.6361    570.42667    38315.161 
  903800    307.44265    -1525.652    499.21499    356.45307    158.43132    38315.161 
  903900    298.21976   -1512.7017    484.08219    312.78557    104.14977    38315.161 
  904000    299.76972   -1474.9036    492.04063    365.51388   -67.359398    38315.161 
  904100    309.36608    -1478.781    527.54124    440.30203    72.342232    38315.161 
  904200    299.94699   -1502.5529    488.25181    334.87321   -105.90921    38315.161 
  904300    304.55203   -1500.0873    510.54999    380.35064    78.143295    38315.161 
  904400    301.32268   -1488.0199    509.74817     377.0904   -27.256535    38315.161 
  904500    301.90547   -1511.5745    507.00347    353.41255    403.66585    38315.161 
  904600    308.45749   -1488.7961    513.79013    412.44892    49.144698    38315.161 
  904700    304.59774   -1497.2274    501.60849    374.47463    284.86213    38315.161 
  904800    290.49239   -1544.2334    474.83507    237.24871   -572.45429    38315.161 
  904900    286.23776   -1564.3094    488.53568    211.73584   -534.30472    38315.161 
  905000    292.56578   -1516.9865    477.28352     276.2703   -184.67765    38315.161 
  905100    294.61569   -1502.9311    503.58593    325.84866   -268.15832    38315.161 
  905200    298.52479   -1542.7736    475.60888    275.61247   -271.67318    38315.161 
  905300    303.80958   -1567.1889    492.26395    291.62338   -407.56498    38315.161 
  905400     304.9004   -1516.8409    484.79558    339.40963   -148.76728    38315.161 
  905500     298.1162   -1578.9864    477.34853    239.30141   -195.43034    38315.161 
  905600    295.97255   -1560.9052    492.46333    262.85522   -551.53449    38315.161 
  905700    311.81953    -1538.372    488.07984     352.2853    -137.0372    38315.161 
  905800     296.7433   -1578.4055    486.06185    242.42024    228.12042    38315.161 
  905900    294.58869   -1573.4794    473.31954    224.91256    231.41818    38315.161 
  906000    297.75073   -1606.1463    490.53868    223.68773    359.96394    38315.161 
  906100    304.67311   -1562.1694     488.9424    297.20552      567.309    38315.161 
  906200     287.0855   -1554.8404    490.90464    227.38694    191.74684    38315.161 
  906300    298.57831    -1535.152     499.8201    307.68599    467.89893    38315.161 
  906400    300.81598   -1599.9072    491.58508    244.76093   -203.03748    38315.161 
  906500    303.31931   -1577.4223    465.69391    252.61467   -281.33081    38315.161 
  906600    295.44275   -1594.2413     470.4613    205.13398    -397.1694    38315.161 
  906700    303.94439   -1579.0784    474.03216    262.10846   -428.71797    38315.161 
  906800    302.65821   -1531.4669    502.22038    332.12299   -151.53052    38315.161 
  906900    305.33716   -1538.9328    486.92602    321.41275   -199.67248    38315.161 
  907000    302.39508   -1576.5302    465.18151     248.8372    -537.5252    38315.161 
  907100    295.86382   -1554.4713     470.4871    246.82379    97.148177    38315.161 
  907200    288.75821   -1490.1092    508.12619    316.86367     -746.599    38315.161 
  907300    294.05821   -1532.4337      484.055    274.30761   -915.38967    38315.161 
  907400     296.3288   -1514.3529    480.11741    298.66403   -542.23389    38315.161 
  907500    298.52891   -1561.2928    521.84651    303.34944   -896.67511    38315.161 
  907600    300.55449   -1517.9292     449.7133    283.69092   -331.48757    38315.161 
  907700     305.8956   -1566.4425    488.05415    297.54305   -686.75946    38315.161 
  907800    296.62271   -1571.8448    469.12111    231.49784   -95.205929    38315.161 
  907900    291.36945    -1579.863    489.96505     220.6942    -170.7129    38315.161 
  908000    303.92824   -1561.2061    481.61332    287.48937    56.825129    38315.161 
  908100    295.87433   -1565.9946    488.02658    252.88723    85.962685    38315.161 
  908200    286.56565   -1545.6208    489.24395    232.60756    39.804271    38315.161 
  908300    299.94632   -1486.4406    489.98756    352.71821    359.87387    38315.161 
  908400    300.02221    -1503.611    491.94526     337.8469    151.70452    38315.161 
  908500    299.58221   -1515.5018    499.27936    331.31102   -203.18932    38315.161 
  908600    301.05589   -1465.5448    461.06703    349.68435    120.84006    38315.161 
  908700    300.98228   -1488.8961    519.60794    384.54294    529.97251    38315.161 
  908800    304.32198   -1468.6692    477.57197    377.75593   -83.237766    38315.161 
  908900    305.55507   -1506.3085    498.45556    366.54669   -527.95911    38315.161 
  909000    297.66787   -1520.4089    463.70271    282.21645   -62.498306    38315.161 
  909100      306.375   -1543.4905    498.56205    333.15924    92.741795    38315.161 
  909200    299.94238   -1565.1479    473.81595    257.82156   -227.29581    38315.161 
  909300    303.77858   -1514.3933    496.68805    348.70365    55.828495    38315.161 
  909400    300.12298   -1466.9995    479.44588    362.41227   -6.6751484    38315.161 
  909500    303.72848   -1462.2795    486.98859    390.89269    19.923445    38315.161 
  909600    303.40762     -1487.74    497.10956    374.10992    105.98529    38315.161 
  909700    308.20994    -1476.596    487.50816    397.25352   -93.938407    38315.161 
  909800    282.75205   -1469.2689     509.4171    311.97892   -497.27274    38315.161 
  909900    303.08987   -1466.8975    463.24919    359.66275   -609.30574    38315.161 
  910000     300.7583    -1460.314    485.81393    378.32354   -749.63264    38315.161 
  910100    296.87972     -1483.47    489.21804    341.12562    -687.1363    38315.161 
  910200    298.52912   -1500.8599    505.09488    347.03157   -605.77024    38315.161 
  910300    313.33458   -1451.7257    503.38487    461.05141      -136.91    38315.161 
  910400    307.92448   -1448.6402    516.70732    453.12449   -256.87606    38315.161 
  910500    298.33442   -1469.4077    496.48761    369.00077   -429.33995    38315.161 
  910600    302.15983   -1483.9086    470.32807    345.54716   -656.63954    38315.161 
  910700    286.36733   -1472.6547     509.2893    324.72696   -414.14752    38315.161 
  910800    296.11563   -1518.2576    479.23177    292.91478   -584.36187    38315.161 
  910900    305.98315   -1527.7649    477.05207    325.61237    -561.4044    38315.161 
  911000    282.58533    -1519.119    488.53698    240.49881   -546.88537    38315.161 
  911100    309.93889   -1560.2426    473.22217    307.09787    7.5665118    38315.161 
  911200    298.58029   -1486.1094    498.28563    355.20297   -45.711339    38315.161 
  911300    301.35622   -1476.1103    499.45673    378.85949    39.665178    38315.161 
  911400    298.12859   -1514.1206    465.80933    292.68377    149.87479    38315.161 
  911500     290.6244   -1547.6437    517.61442    277.21162      3.35649    38315.161 
  911600    300.45791   -1499.8497     477.7622    329.38496    459.24314    38315.161 
  911700    295.97487   -1510.2041    475.32668    296.43004   -231.03285    38315.161 
  911800     304.7829   -1484.9539    508.24121    394.21372   -598.23585    38315.161 
  911900    302.51954   -1519.6183    476.55615    317.68359     -131.379    38315.161 
  912000    299.25516   -1496.6249    497.67199    347.10952   -2.9521806    38315.161 
  912100    301.11234   -1498.1974    498.71444     354.9331     546.7129    38315.161 
  912200    298.71292   -1473.3706    499.76721    370.02001    654.58202    38315.161 
  912300    299.70588   -1467.8538    525.93682    406.17277    402.97539    38315.161 
  912400    300.01246   -1517.9184    511.85349    343.40385    755.45003    38315.161 
  912500    311.08061   -1516.2415    480.62097    363.63328    944.12426    38315.161 
  912600    302.17036   -1487.1203    492.81389    364.86868   -42.371924    38315.161 
  912700    286.05411   -1509.8526    502.04764    278.87857   -315.55492    38315.161 
  912800    294.99264   -1518.5638    482.83411    291.15972    90.349106    38315.161 
  912900    297.76318   -1524.6689    501.57204    316.25453    427.10711    38315.161 
  913000    291.06763   -1532.8329    504.59499    280.99668    670.41551    38315.161 
  913100    294.96976   -1537.3728    472.49745    261.91115    196.86868    38315.161 
  913200    300.07523   -1538.0607    506.71387    318.40423   -110.62693    38315.161 
  913300    296.46128   -1506.2791    496.27516    323.49146   -272.36428    38315.161 
  913400    296.47822   -1508.9462    491.04702    315.67245   -421.44845    38315.161 
  913500    303.09242   -1494.3055    521.34311    390.36013    46.052833    38315.161 
  913600    303.07574   -1521.1451    500.59316    342.69556   -21.923497    38315.161 
  913700    303.99959   -1512.3185    491.64983    346.73439   -139.89185    38315.161 
  913800    302.25471   -1483.2771    491.71543    367.99282   -388.21898    38315.161 
  913900    303.36346   -1523.5609    474.40975    315.39053   -931.99573    38315.161 
  914000    297.39447   -1468.2234    485.29137    354.76093   -821.09113    38315.161 
  914100    299.00715    -1504.369    501.19393    341.77175   -348.91584    38315.161 
  914200    306.24592   -1508.7954    498.54546     367.2572   -601.38155    38315.161 
  914300    305.42739   -1452.0533    507.39324    429.16524   -363.11748    38315.161 
  914400    303.21654   -1466.4924    477.76648    375.15497   -603.46309    38315.161 
  914500    300.32422   -1481.3206     490.7157    360.26613   -474.72226    38315.161 
  914600    291.08728   -1522.0184    518.74082    306.04532    399.46316    38315.161 
  914700    293.81628   -1483.8369    485.64487    323.40602    58.042986    38315.161 
  914800    309.08613   -1434.3821    520.11355    476.01394    726.68494    38315.161 
  914900    302.30512   -1428.5562    506.95173    438.17674    783.51498    38315.161 
  915000     290.1132   -1499.8332    474.17441     279.2827    672.99254    38315.161 
  915100    292.22953   -1490.6601    485.02998    308.83068     925.2447    38315.161 
  915200    295.91333   -1460.5014    499.10589    369.63522    351.95529    38315.161 
  915300    300.77261   -1488.0206    490.64491    355.51228    285.66855    38315.161 
  915400    310.73129   -1503.2084    472.03584    366.50996    392.24293    38315.161 
  915500    307.12749   -1473.1535    526.97304    435.29201    131.35576    38315.161 
  915600    294.68775    -1451.986    488.89366     362.4256    48.673712    38315.161 
  915700    306.95576   -1446.9033    488.18831    421.98497   -152.07183    38315.161 
  915800    307.05437   -1428.9213    516.53076    468.75304   -275.15038    38315.161 
  915900    295.53227   -1513.5842    487.56408    303.29661    -630.1841    38315.161 
  916000    294.49255   -1457.0297    493.33548    360.94574   -352.58798    38315.161 
  916100    302.97461    -1515.999    489.62717    336.42077    44.948936    38315.161 
  916200    299.71847   -1506.9084    479.64284    320.88077    49.752266    38315.161 
  916300    306.70712   -1540.0789    499.59449    339.09724    100.54686    38315.161 
  916400    295.29038   -1488.5192    496.86613    336.57555    491.62821    38315.161 
  916500    292.26913   -1512.6281    478.78019    280.79105    110.06272    38315.161 
  916600    312.69635    -1555.727    486.56032    337.35477   -113.41933    38315.161 
  916700    294.29291   -1551.2526    465.72911    238.21855    222.60602    38315.161 
  916800    307.02237   -1505.5183    474.79721    350.27847   -489.33359    38315.161 
  916900    322.39302   -1554.2848    480.61501    376.46764   -393.89521    38315.161 
  917000    294.75215   -1567.3064    463.28473    221.78602   -692.03589    38315.161 
  917100    296.87432   -1520.8007    468.28711    282.83969   -617.80333    38315.161 
  917200    303.26226   -1479.0679     480.6305     365.6491   -586.13452    38315.161 
  917300    290.86956   -1513.8742    488.02468    282.49403   -481.65144    38315.161 
  917400    308.37467   -1474.7958    497.11897    409.40546   -503.96625    38315.161 
  917500    293.83265   -1485.9308    469.81355    305.55443   -112.08778    38315.161 
  917600    292.62088   -1508.2887    491.06538    298.99779    150.23664    38315.161 
  917700    291.55281    -1526.903    491.94298    276.45689    99.753922    38315.161 
  917800    292.84269   -1522.9233    483.89006    278.18562    80.153783    38315.161 
  917900    298.08148   -1496.9825    477.18451    320.98513    89.704118    38315.161 
  918000    292.47607   -1496.0995    490.15651    309.62679     198.4908    38315.161 
  918100    301.59691   -1458.2678    483.67091    381.99882    19.623527    38315.161 
  918200    303.41092   -1444.7662    483.70204    403.69097     1.671379    38315.161 
  918300    304.83471    -1488.821    453.30147    335.63992   -509.52087    38315.161 
  918400    297.67138   -1483.1906     478.6738    334.42162   -586.39201    38315.161 
  918500    294.61457   -1440.1052    482.74189    367.82551   -493.71673    38315.161 
  918600     307.3441   -1463.5757    480.80267    399.67371    90.531847    38315.161 
  918700    299.45442   -1506.4474    494.35079    334.86201    454.52981    38315.161 
  918800    282.46437    -1484.561    464.36873    250.34447    207.69222    38315.161 
  918900    309.92292   -1486.0066    480.89688     388.9367   -44.400976    38315.161 
  919000     291.3087   -1557.8813    465.58484    218.02239   -789.31677    38315.161 
  919100    308.33907   -1486.8166    467.95901    368.06463    -748.9592    38315.161 
  919200     300.4589   -1481.8191    486.33784    355.99562   -357.32324    38315.161 
  919300    308.07919   -1480.2214    479.67288    385.20474   -228.23739    38315.161 
  919400    313.91033   -1486.5923    477.84899    403.23868   -488.36301    38315.161 
  919500    301.65384   -1447.7818     486.2696    395.33959    48.292597    38315.161 
  919600     305.0384   -1494.4827    479.17165     356.7646   -631.01606    38315.161 
  919700     293.1909   -1531.6611    498.38752    285.51157   -204.75699    38315.161 
  919800    299.84425   -1484.3806    508.54404    372.87555    110.26856    38315.161 
  919900    287.19665   -1507.7972    481.19797    265.22343    78.405244    38315.161 
  920000    310.49513   -1488.1116    468.93808    377.44675   -82.047144    38315.161 
  920100    295.00557   -1491.7572    468.80682    303.99718   -182.67613    38315.161 
  920200    303.13347   -1525.5673    493.65683    331.59668   -191.37215    38315.161 
  920300    307.62655   -1478.4662    460.41773    365.66877    17.700215    38315.161 
  920400    302.81064   -1475.7707    495.62935    381.91374   -117.02267    38315.161 
  920500    299.46178   -1511.5241    499.21687    334.68451    478.60095    38315.161 
  920600    308.07581   -1503.6963    508.03341    390.07516    374.04559    38315.161 
  920700    299.35905   -1509.1221    469.71509    307.12263   -612.43484    38315.161 
  920800    298.87813   -1489.3877    471.81823    326.79709    -411.9787    38315.161 
  920900    300.97935   -1520.2355    486.66877    320.25119   -619.86849    38315.161 
  921000    305.10487   -1499.3388    491.32119    364.35706    -148.4152    38315.161 
  921100    299.12482   -1574.8734    452.81323    223.41594    30.549743    38315.161 
  921200    300.65226   -1541.3316    458.64035    269.65532   -92.908145    38315.161 
  921300    301.05172   -1569.8955     473.7191    257.96704    -372.5941    38315.161 
  921400    303.78516   -1559.2823    472.07345    279.22967    315.42262    38315.161 
  921500    296.82344   -1516.0742    474.41522    293.46539   -119.16458    38315.161 
  921600     291.9277   -1528.6102    495.88074    280.37369   -276.70482    38315.161 
  921700    285.23476   -1465.4952     492.3003    309.80309   -199.98359    38315.161 
  921800     298.5459   -1508.1836    474.88889    309.57738     345.2562    38315.161 
  921900    306.75016   -1533.1507    477.91566    324.54017    78.063402    38315.161 
  922000    297.52102   -1512.6836    501.53447    327.11297   -138.01715    38315.161 
  922100    305.93888   -1521.6888    462.29253    316.72975   -127.17285    38315.161 
  922200    298.69343    -1542.606     457.9323    258.86201   -104.28026    38315.161 
  922300    289.35093   -1536.6246    478.84542     243.7336   -363.73735    38315.161 
  922400    303.66963   -1529.9564    498.15496    334.11744    86.067042    38315.161 
  922500    303.24523   -1580.4787     487.3082    270.83938    468.14689    38315.161 
  922600    298.91516   -1529.2265    489.93337    305.23992    609.73024    38315.161 
  922700    295.85852   -1529.4645    493.51235      294.832    441.89272    38315.161 
  922800     299.2788   -1546.4367    496.20764    295.93966    62.239325    38315.161 
  922900    306.79376   -1539.3602    498.57703    339.18814   -228.26597    38315.161 
  923000    298.87724   -1484.5581    484.23568    344.04004   -604.48825    38315.161 
  923100    308.27456    -1528.505    475.34446    333.47146   -330.13649    38315.161 
  923200    297.52019   -1497.9575    492.19778    332.49867    406.19747    38315.161 
  923300    295.15597   -1545.9077    486.45722    268.17356   -317.72259    38315.161 
  923400    297.93587   -1520.1777    486.80896    306.75944    69.355385    38315.161 
  923500    301.65469   -1508.5392    493.94411    342.26049   -51.925348    38315.161 
  923600    298.53392   -1483.2911    484.90882    344.43588    468.23547    38315.161 
  923700    298.42458   -1486.7975    491.15161    346.68055   -161.59042    38315.161 
  923800    304.16587    -1524.043    503.27839     347.3864   -326.44054    38315.161 
  923900     306.6783   -1501.2201    499.42831    377.66024   -61.440651    38315.161 
  924000    296.04756    -1498.138    496.88798    330.38443    -14.30163    38315.161 
  924100    298.33798   -1513.7642    485.89726    314.06989   -86.740181    38315.161 
  924200    293.36923   -1494.0464    500.89594    326.43675   -375.79819    38315.161 
  924300    304.49629   -1525.4733     508.5818    352.74573    147.94458    38315.161 
  924400    298.91939   -1515.2695    504.02928    333.31188    424.18403    38315.161 
  924500    301.34361   -1533.7297    490.42894    312.15551    739.19641    38315.161 
  924600    288.66474   -1563.6826    474.31659    209.06026    615.27681    38315.161 
  924700    306.51483   -1538.6774    486.49868    326.53795    602.72636    38315.161 
  924800    300.55868   -1509.4175    479.58931    322.09755    150.35753    38315.161 
  924900    292.98088   -1555.5359    472.75715    235.06163    623.81321    38315.161 
  925000    290.80268   -1521.2576    488.96663    275.75181    156.87101    38315.161 
  925100    297.89615   -1505.6876    483.91938    318.18128    69.207827    38315.161 
  925200    304.86395   -1530.7716     481.5655    322.08491   -426.34856    38315.161 
  925300    303.10588   -1575.1203    487.28805    275.55083   -692.95132    38315.161 
  925400    292.53431   -1580.0267    464.59239    200.39743    193.74169    38315.161 
  925500    292.12961   -1576.8804    482.24011    219.37105   -145.69655    38315.161 
  925600    303.94693    -1514.887    469.48403    321.76317   -615.26928    38315.161 
  925700    288.06863   -1572.4008    494.33275    217.67682   -454.12255    38315.161 
  925800    293.59292    -1612.184     496.2353    204.64465   -409.23675    38315.161 
  925900    296.96745   -1571.1694    476.99733    241.60004    182.49305    38315.161 
  926000    290.55586   -1502.6898    476.96304    281.20582   -34.308754    38315.161 
  926100    306.33122   -1546.1263    492.21078    323.97532   -102.87751    38315.161 
  926200    300.61797    -1556.005    490.40145    286.58884     442.4654    38315.161 
  926300    304.60042   -1537.2251    501.27841    334.15892   -347.54468    38315.161 
  926400    288.98914   -1564.5947    491.01501    226.30566    125.85988    38315.161 
  926500     297.2756   -1601.7056    469.56343    205.01609   -727.15661    38315.161 
  926600    295.61083   -1578.6946    464.44582    215.42125   -212.17519    38315.161 
  926700    293.29097   -1602.0729    481.00092    198.16327    -82.68618    38315.161 
  926800    299.84847   -1532.5122    512.73292    328.95182   -535.19593    38315.161 
  926900    293.80114    -1514.938    490.44961    297.04159   -525.91707    38315.161 
  927000    301.44904   -1504.2027    486.09364    337.82147   -692.46034    38315.161 
  927100    307.57246    -1522.386    504.36219    365.45012   -44.178071    38315.161 
  927200     308.3272   -1491.4971    509.21975    404.59145    43.844224    38315.161 
  927300    292.86554   -1499.6717    495.29727    312.94716   -238.79192    38315.161 
  927400    294.62256   -1476.9352    498.66866    346.95818   -422.16016    38315.161 
  927500    295.74656    -1451.864    494.99719    373.41381   -424.28442    38315.161 
  927600    287.32679   -1472.8406    502.47501    322.04246   -311.83237    38315.161 
  927700    293.85069   -1484.0956    472.16815     309.8254    -331.7305    38315.161 
  927800    304.26535    -1503.446    464.77119    329.92367   -568.31417    38315.161 
  927900    308.98354   -1530.8011     520.3909    379.41088   -589.34609    38315.161 
  928000    298.33055   -1527.6412    497.50827    311.77049   -286.51621    38315.161 
  928100    306.21362   -1525.4408    466.06308    317.98415   -348.47201    38315.161 
  928200    295.20149   -1527.4602    494.42625    294.79487    564.01102    38315.161 
  928300    302.11506   -1514.1086     510.6217     355.4394    152.35807    38315.161 
  928400    291.40584   -1537.1967    492.38421     265.9433    55.518788    38315.161 
  928500    295.28295   -1525.0741    519.14927    322.27041    129.39045    38315.161 
  928600    297.71413   -1506.3934    518.46123    351.19857   -175.76734    38315.161 
  928700    300.12635   -1529.5304    517.52556    337.97621   -256.99529    38315.161 
  928800    305.89207    -1498.456    510.17166    387.63115   -40.140937    38315.161 
  928900    309.21096   -1490.5913    514.55002    414.80267   -156.32369    38315.161 
  929000     302.8001   -1517.7384    513.81392    358.08314   -59.552753    38315.161 
  929100    299.18086    -1472.692    474.17061    347.20676   -72.878183    38315.161 
  929200    296.66431   -1504.4799    556.14503    386.07375   -85.487121    38315.161 
  929300    309.79374   -1489.5388    491.84947    395.77602   -396.34821    38315.161 
  929400     302.8671   -1496.9645    496.46417    361.80871     4.826479    38315.161 
  929500    300.37683   -1528.7806    511.51812    333.84526   -301.06925    38315.161 
  929600    306.61055    -1501.403    484.15744    361.90166     198.9081    38315.161 
  929700    311.24805   -1505.7677    496.91176    391.15097    501.33162    38315.161 
  929800    294.15831    -1515.665    508.60159    316.07316    130.24921    38315.161 
  929900     296.6885   -1498.1838    521.37995    357.71364   -281.92836    38315.161 
  930000    294.60691   -1466.3258    494.45979    353.28832    2.3107474    38315.161 
  930100    310.59673   -1472.3598    480.99813    405.71561    115.67715    38315.161 
  930200    250.72623   -1492.4027    511.80318    147.17767   -873.37767    38315.161 
  930300    319.66992   -1467.5734     531.0092    501.32459    701.28459    38315.161 
  930400    325.09436   -1511.3989    488.66554    439.55486    442.90411    38315.161 
  930500    294.03945   -1491.6631    488.15199    319.09081    149.32612    38315.161 
  930600    311.24938   -1502.6747    493.57241    390.91061    246.24856    38315.161 
  930700    300.92887   -1537.8185    491.07607    306.84837    -172.8252    38315.161 
  930800    292.32256   -1499.1743    478.47293    294.17787   -330.09576    38315.161 
  930900     297.2626   -1496.1648    496.88556    337.82051   -301.12909    38315.161 
  931000    300.29501    -1465.192    488.90214    374.44985   -377.14991    38315.161 
  931100    296.97034   -1481.6124    489.66636    343.83915   -425.78284    38315.161 
  931200    297.20514   -1496.8877    488.37295    328.32656   -754.57463    38315.161 
  931300    300.08216   -1476.5829     493.5563    366.75564   -355.36882    38315.161 
  931400    298.69723   -1504.9567    469.02296    307.61909   -322.42218    38315.161 
  931500    312.09724   -1548.0719    493.98632      349.741   -533.25407    38315.161 
  931600    312.33039   -1519.3256    494.73966     380.2894   -506.68231    38315.161 
  931700    304.30189   -1524.5861    472.14045    316.31712   -93.046447    38315.161 
  931800    302.38243   -1529.6922    482.12608    312.56288   -216.90444    38315.161 
  931900    291.49029   -1559.5162    459.01333    210.63274   -453.33739    38315.161 
  932000      296.837   -1546.1511    501.96399     290.9983   -200.67603    38315.161 
  932100    295.28816     -1525.71    506.38159    308.89026    314.75442    38315.161 
  932200    287.89121   -1567.9711    492.49405    219.46983   -89.204624    38315.161 
  932300    300.89075   -1574.6198    507.45904    286.25861   -142.94295    38315.161 
  932400    293.33265    -1562.529    483.40336    240.29707   -145.52867    38315.161 
  932500    300.77793   -1576.9151    480.26805    256.26481   -160.17401    38315.161 
  932600    296.66111   -1531.1331    494.51917    297.78034   -185.53786    38315.161 
  932700    290.31444   -1542.9307    478.56905    241.48499   -59.532097    38315.161 
  932800     294.2131   -1541.8972    483.19189    264.67768   -615.08538    38315.161 
  932900    301.81651   -1527.0981    483.26428    313.74965    -231.1286    38315.161 
  933000    304.66575   -1552.9646    475.82504    293.25991    303.09725    38315.161 
  933100    297.41777   -1512.9537    495.39972    320.24369    107.13849    38315.161 
  933200    297.89422    -1531.026     488.2294    297.14419    56.848096    38315.161 
  933300    311.16132   -1498.9916    513.54919    414.17439    329.27988    38315.161 
  933400    302.46068   -1513.7876    524.50079    371.19412    612.15656    38315.161 
  933500    303.18634   -1566.4649     494.4788    291.75888    797.24314    38315.161 
  933600    309.62665   -1579.7136    493.85845    306.85858    696.22016    38315.161 
  933700    293.37927   -1560.4594    494.74444    253.91748    684.17962    38315.161 
  933800    298.46971   -1586.3573    501.98996    258.16204    890.07438    38315.161 
  933900     301.2386    -1530.143    503.56011    328.40108     1055.724    38315.161 
  934000    308.16671   -1528.1924    511.67285     369.6273    729.69687    38315.161 
  934100    299.75542   -1575.7779    514.41607    286.95073    1032.5713    38315.161 
  934200    293.53661   -1568.1436    497.04867    249.24521    626.64468    38315.161 
  934300     292.8704   -1608.3016    481.64076    190.68256    654.76576    38315.161 
  934400    301.80487   -1594.1998    478.83613    242.16741    565.63548    38315.161 
  934500    302.96317   -1552.2618    492.04331    302.52264    190.60362    38315.161 
  934600    301.41136   -1518.4914    477.32997    314.59963    417.67855    38315.161 
  934700    310.10605   -1553.9563    474.35926     315.2731    423.94192    38315.161 
  934800    305.67992   -1575.6888    483.72851    283.00098    739.43047    38315.161 
  934900    289.45261    -1585.835    502.60202     218.7371    161.58883    38315.161 
  935000    287.86651    -1567.827     505.9066    232.91535     708.4907    38315.161 
  935100    305.68281    -1546.124    510.22361    339.07387     570.1718    38315.161 
  935200    293.69093   -1553.8916    460.25197    227.39462    -81.69397    38315.161 
  935300    297.44176   -1571.3155    475.36778    241.95794    59.394243    38315.161 
  935400    301.38508   -1523.6581     495.2131    327.19783    560.26868    38315.161 
  935500    298.85551   -1569.9568     488.8753    263.18322    154.38884    38315.161 
  935600    303.69363   -1588.5213     476.9568    254.46235    484.43985    38315.161 
  935700    305.47156   -1612.8936    462.11826    223.24873    845.36602    38315.161 
  935800    301.66952   -1569.7973    487.85597    274.98097    218.61903    38315.161 
  935900    304.21259   -1586.2827    464.44526    246.52366   -80.531268    38315.161 
  936000     300.8362   -1562.0643     481.0255    272.13512     -195.397    38315.161 
  936100    301.49663   -1535.3445    478.08579    298.88593   -405.15065    38315.161 
  936200    294.80519   -1519.6744    471.56916    277.94102    -326.2074    38315.161 
  936300    306.76698   -1530.1538    517.60286    367.29991   -556.73122    38315.161 
  936400    300.21217   -1579.6672    472.84999     243.5499   -208.08085    38315.161 
  936500     292.8296    -1517.514     486.4396    286.08551   -129.55482    38315.161 
  936600    302.05876   -1588.7558     481.0691    250.98643   -15.444991    38315.161 
  936700    308.65054   -1602.0772    464.07961     250.3256    180.27302    38315.161 
  936800    305.50534   -1610.3465    477.98385    241.81332   -275.84888    38315.161 
  936900    301.78126   -1586.8123    481.31543    251.92805    66.299954    38315.161 
  937000    298.99159   -1617.0332    470.55478    198.39841   -352.84105    38315.161 
  937100    298.81848   -1572.5421    488.30111    259.85725    232.86357    38315.161 
  937200    297.69913   -1562.9895    473.33065    249.40449    119.78885    38315.161 
  937300    307.26834   -1607.0924    465.13562    240.14921    147.64639    38315.161 
  937400     298.4074   -1557.2943    496.05393    281.00878    710.93403    38315.161 
  937500    293.59548   -1619.5886    475.65979    176.67609    175.97057    38315.161 
  937600    291.03039   -1587.5792    490.17656    211.66444   -294.13923    38315.161 
  937700    309.06336   -1539.9817    487.93852    338.13697    -679.7794    38315.161 
  937800     298.8978   -1580.6046    495.89179    259.74219   -227.71823    38315.161 
  937900    298.32134   -1595.4665    475.22767    221.62316   -293.68622    38315.161 
  938000     299.5247   -1575.1684    496.93267    269.03911   -216.27897    38315.161 
  938100    310.66505   -1540.3117    496.87215    353.94503    318.71537    38315.161 
  938200    303.15353   -1597.3314    509.91084    276.17685    298.98593    38315.161 
  938300     307.6677    -1540.895    506.13004     349.1374     477.1789    38315.161 
  938400    303.10007    -1536.931    495.59324    322.01923    341.52373    38315.161 
  938500    311.31688   -1544.2586    498.12922    354.18709    78.930052    38315.161 
  938600    296.22109   -1527.6268    492.79236    297.58056    213.24086    38315.161 
  938700     300.1007   -1539.6219    478.30491    288.54868   -266.15242    38315.161 
  938800    302.77371   -1544.0156    480.70634     298.5797    247.73588    38315.161 
  938900     298.1307   -1536.6357     518.8934    323.26224    54.429287    38315.161 
  939000    314.49142   -1559.0358    471.92282    327.48277    532.56067    38315.161 
  939100      291.367   -1576.1945    497.10352    231.49009    56.698198    38315.161 
  939200    304.28733   -1589.4123    491.40093    270.68595    -126.1163    38315.161 
  939300    301.08002   -1552.6576    494.31241    295.92548    314.29369    38315.161 
  939400    291.59688   -1538.8659    474.79255    247.54176    382.47285    38315.161 
  939500    296.25363   -1555.0497    466.84997    244.36165    249.89788    38315.161 
  939600    297.05616   -1578.3657    509.26816    267.07363     46.52943    38315.161 
  939700    303.24744   -1580.5207    481.97542    265.47455    596.63592    38315.161 
  939800    296.14392     -1572.97    489.58129    248.67916    593.90629    38315.161 
  939900    308.81263   -1587.7952    479.53085    280.78791    337.45669    38315.161 
  940000    300.25114   -1630.3386     472.2862    192.48994    460.11696    38315.161 
  940100    296.92626   -1602.1296    479.12175      212.579    542.45029    38315.161 
  940200    307.20594   -1608.1307    490.81834    264.51298    234.68822    38315.161 
  940300    304.64788   -1606.6649     480.0706    243.72472    455.98182    38315.161 
  940400    309.61021   -1649.8152    474.88515    217.70974    519.58089    38315.161 
  940500    299.80389   -1620.4014     473.8109    201.94006    700.17014    38315.161 
  940600    291.10784   -1626.1646     507.4606     190.7114    301.54417    38315.161 
  940700    303.83484   -1607.2737    448.49513    207.88342    -83.91208    38315.161 
  940800    295.54113   -1554.2775    477.33983     252.4189    -337.6564    38315.161 
  940900    303.46815   -1559.7707    477.45079    282.69264   -120.55613    38315.161 
  941000    305.78435   -1562.0173    497.10856    310.52222   -89.967636    38315.161 
  941100    297.31539   -1560.0262    487.99058    265.30159    396.47096    38315.161 
  941200    308.12561   -1557.5347    488.47615    316.90345     277.7572    38315.161 
  941300    308.53055   -1574.2251    470.93121    284.48959    131.19802    38315.161 
  941400    297.26147   -1550.4357    483.76162    270.42064     61.71764    38315.161 
  941500    299.07818   -1567.4959    502.91148    280.68188    408.07418    38315.161 
  941600    303.92442   -1543.9595    498.81828    321.92364    124.01021    38315.161 
  941700    302.15867   -1577.8882    478.81813    260.05245     251.0665    38315.161 
  941800    292.25254   -1585.8338    473.28503    202.01551    478.49107    38315.161 
  941900    309.22997   -1582.6906    477.76616    286.00506     298.3759    38315.161 
  942000     294.4871   -1562.6019    482.42779    244.44132    294.37874    38315.161 
  942100    301.80561   -1568.9044     482.7078    271.33781    396.48486    38315.161 
  942200    305.41026   -1548.3091    519.96766    345.40687    826.79262    38315.161 
  942300     306.6814   -1520.5349    510.01215    368.94323    791.89241    38315.161 
  942400    297.79217    -1543.961    488.45192    283.97268    274.69079    38315.161 
  942500    291.43106   -1504.2899    503.15993    309.73931    349.17672    38315.161 
  942600    292.41685   -1523.2042    468.84264    260.94186    74.987732    38315.161 
  942700    303.99819   -1517.4347     475.6841    325.64615   -295.53135    38315.161 
  942800    291.90982   -1507.5566    496.09998    301.56615   -215.43413    38315.161 
  942900     304.9263    -1515.263    486.16038    342.46884   -456.08288    38315.161 
  943000    297.58982   -1518.7737     500.6478    320.44575    -12.19771    38315.161 
  943100     298.7854    -1530.447    488.67702    302.17944   -316.24077    38315.161 
  943200    293.05149   -1554.4732    491.30303    254.98786   -210.73935    38315.161 
  943300    303.40605   -1578.1548    446.11097    232.68944    25.720583    38315.161 
  943400    297.25879   -1522.1226    509.54761    324.50766    152.39248    38315.161 
  943500    293.72532   -1553.4668    473.68621    241.40831   -220.33607    38315.161 
  943600    295.44636   -1554.9389    474.67844    248.66981   -238.45002    38315.161 
  943700    296.56415   -1530.1457    501.96593    305.77839    173.76836    38315.161 
  943800     303.6808   -1544.5742    467.39095     288.7859   -394.21732    38315.161 
  943900    308.21654   -1548.8888    486.40227     323.8845   -17.875871    38315.161 
  944000    299.65093   -1546.9965    490.21604    291.06219    518.02973    38315.161 
  944100    304.89957   -1554.4541    488.51008    305.50716    -71.37657    38315.161 
  944200    299.67053   -1551.6044    492.55791    288.88421   -360.81885    38315.161 
  944300    296.58103   -1528.9788    461.18763    266.24292   -13.527007    38315.161 
  944400     301.3854   -1543.4622    502.33907    314.52112    -903.8335    38315.161 
  944500    295.60258    -1537.496    498.08566    290.22258    -447.4086    38315.161 
  944600    290.88389   -1526.3182    490.20674    272.29666   -456.32169    38315.161 
  944700     294.0626   -1534.0945    522.37619     310.9877    114.69328    38315.161 
  944800    300.88668   -1551.7335     475.0805      276.748   -30.209031    38315.161 
  944900    306.22737   -1562.6306    478.41244     293.2055    383.20245    38315.161 
  945000    295.79071   -1562.5964    491.72263    259.60541    185.60497    38315.161 
  945100    298.39066   -1571.5408    490.50212    261.13517    195.92985    38315.161 
  945200    296.76835   -1578.2438    481.64935    238.28217   -105.36381    38315.161 
  945300    307.80284   -1582.3525    471.18262    273.34036     500.6439    38315.161 
  945400    310.25987   -1537.9571    506.29385     363.8988    284.65464    38315.161 
  945500    304.37062   -1550.6033    495.60138    314.07001    388.02483    38315.161 
  945600    305.21316   -1557.1158    483.37015    299.11613    23.378508    38315.161 
  945700    300.99007   -1622.5611    490.33532    221.64032    -45.96887    38315.161 
  945800    301.88598   -1565.2964     464.9181    257.51761    326.45556    38315.161 
  945900    307.22028   -1554.9902    489.68867    316.58826   -32.138386    38315.161 
  946000    302.68061   -1545.4927    499.11788    315.09541   -175.35798    38315.161 
  946100    295.99693   -1532.6618    455.06349    253.80838    146.54148    38315.161 
  946200    293.97357   -1554.1862    507.52911    275.64849    301.41366    38315.161 
  946300    310.34429   -1579.3195    496.46646     313.0887   -95.796454    38315.161 
  946400     310.2762   -1548.3297    469.41958    316.72536    887.36689    38315.161 
  946500    300.13427    -1537.225    524.44892     337.2406    340.82384    38315.161 
  946600    301.61125   -1563.0994    485.98772    279.54851    137.15163    38315.161 
  946700    297.59582    -1557.436    494.74998     275.9126    146.38439    38315.161 
  946800    314.56721   -1535.6111    479.25623    358.58181    295.20777    38315.161 
  946900    305.58268   -1543.2145    519.21939    350.52878    162.48052    38315.161 
  947000    301.81565   -1549.7486    472.09831    279.92927    21.173569    38315.161 
  947100    308.26957   -1485.6221    505.53361    406.52113     482.4484    38315.161 
  947200    299.64746   -1532.1466    507.84859    323.52893   -251.22502    38315.161 
  947300    300.69689   -1492.4806    501.09552    361.16231   -274.73487    38315.161 
  947400     304.6783   -1510.2989    489.51769    349.67473   -544.08629    38315.161 
  947500    302.07054    -1508.725    499.92253    349.92362    115.18561    38315.161 
  947600    306.70007   -1531.1538    497.03925    345.43538    35.610822    38315.161 
  947700    291.63239   -1533.2008    479.16902    257.74304   -217.01708    38315.161 
  947800    296.61786   -1580.6998    491.84841    245.34829   -13.166195    38315.161 
  947900    293.93121   -1544.6732    485.74229    263.18409   -418.03671    38315.161 
  948000    310.82084   -1548.7559    515.75845    365.08783   -139.72555    38315.161 
  948100    294.72996   -1575.3485    491.44233    241.80171    139.77642    38315.161 
  948200    304.17446    -1559.005    501.13908    310.32373    233.39065    38315.161 
  948300    300.30742   -1544.5757    496.44257    302.66242    78.589896    38315.161 
  948400    294.83094   -1569.7696    505.29082    261.68323    507.94843    38315.161 
  948500    304.01905   -1523.1709     501.8828    346.20244    207.28546    38315.161 
  948600    291.52585   -1482.6416    498.88534    327.53931    193.69096    38315.161 
  948700    296.37388   -1528.0531    514.32153    319.37072    17.039426    38315.161 
  948800    319.35565   -1507.7473    485.45223    414.18012    118.62915    38315.161 
  948900    305.06506   -1540.4258    515.17048     346.9402   -276.63213    38315.161 
  949000    290.29438   -1534.0987    510.16403    281.82169   -718.33765    38315.161 
  949100    304.64453   -1506.7912    514.52036    378.03314   -198.02592    38315.161 
  949200    290.50789   -1539.1239    495.83821    263.43112   -800.79263    38315.161 
  949300    299.93708   -1496.1195    483.56833     336.5785   -678.74643    38315.161 
  949400    306.89328   -1520.6107      465.125    324.93328   -406.33943    38315.161 
  949500    295.72798   -1508.0162    484.92298    307.10377   -306.03506    38315.161 
  949600    297.00621   -1531.4614    518.19059    322.67571   -47.250421    38315.161 
  949700    295.24397   -1535.0797      510.142    303.08223   -59.451343    38315.161 
  949800    300.05484   -1551.8914    511.96494     309.7329    23.436179    38315.161 
  949900    302.18114    -1513.845    472.96108    318.33967          146    38315.161 
  950000    295.44006   -1504.7528       500.21    324.35915    643.84334    38315.161 
  950100    291.99939   -1534.2662    517.93189    297.09134   -41.453326    38315.161 
  950200    296.80316   -1528.8711    485.92794    292.09008    270.34076    38315.161 
  950300     294.0597   -1501.9332    496.81886    317.57866   -182.91386    38315.161 
  950400    299.67591   -1505.5195    513.94991    356.38534    -161.0538    38315.161 
  950500    307.94086   -1520.1933    510.13902    375.07672    172.36454    38315.161 
  950600    297.81924   -1487.5437    480.14785    332.20771    176.96597    38315.161 
  950700    300.26968    -1475.157    514.35843    389.82718   -354.23126    38315.161 
  950800    293.82528   -1472.7661    485.97189     334.8443    429.00053    38315.161 
  950900    299.81211   -1522.1231    470.89005    297.33455   -244.12072    38315.161 
  951000    297.22873   -1535.2524    502.78027    304.47533   -125.89499    38315.161 
  951100    303.64867   -1495.2249    469.30839    339.90805   -384.88168    38315.161 
  951200    309.05324   -1521.2222    487.45358    356.36597   -47.203707    38315.161 
  951300    299.14424   -1553.1954    483.36306     275.7311   -463.23987    38315.161 
  951400    303.51342   -1498.8683    495.28102    361.62897   -373.71814    38315.161 
  951500    295.71536   -1509.5605    498.19135    318.77109   -179.15265    38315.161 
  951600    291.70821   -1484.4636     483.5462     311.1985   -132.98774    38315.161 
  951700     291.5741    -1503.398    478.54354    286.65818   -483.30809    38315.161 
  951800    298.20072   -1501.8888    487.07311    326.50374   -713.03631    38315.161 
  951900    293.85851   -1486.7802    480.83641    315.84419   -252.59101    38315.161 
  952000    306.07424   -1480.4686    474.02682    370.29314    446.64246    38315.161 
  952100    307.79785   -1539.1016    490.83635    336.22252    646.91448    38315.161 
  952200    308.10202   -1520.8469    505.05963    370.06866    521.66972    38315.161 
  952300    306.91602   -1466.5512    495.50696      409.477    594.48741    38315.161 
  952400    297.37316   -1533.4092    471.65012    275.83798   -110.00216    38315.161 
  952500    311.34489   -1518.3679     480.3467    362.42129   -189.42111    38315.161 
  952600    297.47523    -1565.793    479.00153     251.2647    381.68293    38315.161 
  952700    305.63383    -1557.516    473.06858    290.30646    224.15247    38315.161 
  952800    301.66744   -1565.0103    491.40249    283.30508    480.06361    38315.161 
  952900    296.99826   -1516.7614    461.00023    280.14953    617.05564    38315.161 
  953000    296.39449   -1463.1403    504.20722     374.2619    1398.7588    38315.161 
  953100     293.2231   -1481.7415    500.62664    337.81506     544.8532    38315.161 
  953200    307.09993   -1489.8494    516.49469    407.99372     824.9429    38315.161 
  953300    295.74085    -1480.158    497.63032    347.72724    535.48462    38315.161 
  953400    311.11742   -1482.3613    476.26868    393.32674   -126.82412    38315.161 
  953500    301.96973   -1486.6591    472.68743    344.30098    80.593909    38315.161 
  953600    301.03454   -1507.9112    466.44151     312.5964    -113.3166    38315.161 
  953700    304.57634   -1500.1383    471.33444    341.19342   -18.231034    38315.161 
  953800    293.95288    -1525.779    452.55749    248.99095   -126.91786    38315.161 
  953900    299.21023   -1515.7928    480.97774    311.04521   -155.35898    38315.161 
  954000    297.33477   -1520.7901    499.74642    316.38065   -25.130313    38315.161 
  954100    291.73304   -1531.2858    490.04966    270.99145   -667.82376    38315.161 
  954200    304.42485   -1547.1393    458.28824    280.46477   -203.92729    38315.161 
  954300    297.31162   -1549.6093    465.73144    253.44245   -809.28231    38315.161 
  954400    305.17062    -1514.283    473.92481    332.31215   -791.63743    38315.161 
  954500    295.03941   -1483.3564     466.2278    309.97118   -506.17389    38315.161 
  954600    303.55032   -1497.6414    483.18207    350.92281   -564.14556    38315.161 
  954700    307.41551   -1561.5677    485.12802    306.32826    -431.2885    38315.161 
  954800    312.21503    -1506.513    464.86469    362.70815   -49.996134    38315.161 
  954900    301.94098   -1546.4266    453.43834    265.15502   -71.614759    38315.161 
  955000    302.46365   -1537.7406    456.51569    279.26941    64.574604    38315.161 
  955100    298.46272   -1543.2582     487.0094    286.24918   -769.17683    38315.161 
  955200    300.09591    -1519.288    459.41719    289.97327   -242.96758    38315.161 
  955300    292.04854   -1539.4584    470.60132    244.78965   -60.044256    38315.161 
  955400    303.73958   -1535.9745    488.56858    318.82758    501.50791    38315.161 
  955500    291.58017   -1507.3834    500.18487    304.34138    299.50031    38315.161 
  955600    285.36054   -1527.4323    493.35297    249.48446   -74.529437    38315.161 
  955700    305.26325   -1555.7248     455.5588    272.92106   -37.702454    38315.161 
  955800     296.0306   -1536.7435      470.776    265.59071    373.98019    38315.161 
  955900    296.13402   -1525.1383    433.68035    240.56542    316.73961    38315.161 
  956000    289.78007   -1508.2832    482.28078    277.44061    285.93875    38315.161 
  956100    298.30533   -1499.7468    469.75357    311.79672   -186.15764    38315.161 
  956200    302.87713   -1529.5858     485.3953    318.16369    402.00157    38315.161 
  956300    296.58986   -1528.6918    449.42841    254.81033    678.31468    38315.161 
  956400    301.68413   -1502.6622    474.08859    328.41434    308.75737    38315.161 
  956500    307.03035   -1529.3945    470.97859    322.61961    912.55282    38315.161 
  956600    295.16385   -1516.8344    474.52196    285.34706    402.75113    38315.161 
  956700    292.83319   -1492.0493    478.65724    303.78406    430.14021    38315.161 
  956800    297.83679   -1524.8494    488.95988    303.79294    272.20362    38315.161 
  956900    302.41157    -1523.169    475.69057     312.7816    314.35608    38315.161 
  957000    313.79563    -1503.931    501.02172    408.55673   -109.97071    38315.161 
  957100    308.02501   -1524.1079    491.85059    353.25226   -64.581433    38315.161 
  957200    298.37826   -1501.7763    481.76547    322.10721   -57.631064    38315.161 
  957300    301.15621   -1522.6627    495.46929    327.41998    422.96385    38315.161 
  957400    294.69516   -1485.2789    465.23852    305.51094   -121.35307    38315.161 
  957500    295.11537   -1531.4829    475.97092     271.9295   -364.12411    38315.161 
  957600     301.3332   -1505.2229    485.72762    335.91423   -374.08851    38315.161 
  957700    299.22512    -1461.651    508.90839    393.18469   -10.976369    38315.161 
  957800    307.14295   -1452.7417    483.63611    412.43638    260.87868    38315.161 
  957900    294.52307   -1475.1222    498.04799    347.70306     453.2118    38315.161 
  958000    295.25664   -1492.0819    463.52143    299.51642    506.88382    38315.161 
  958100    309.81637    -1499.123    477.27466    371.71887     408.9615    38315.161 
  958200    291.50075   -1511.2949    484.37406    284.26185    1197.9702    38315.161 
  958300    313.74214   -1547.1093    483.19755    347.31371      1005.23    38315.161 
  958400    302.83911   -1542.7846    496.47625    315.87484    213.65515    38315.161 
  958500    308.17004   -1515.2581    498.06872    368.97246    479.23543    38315.161 
  958600    298.05485   -1518.7986    471.85515    293.71983   -162.70971    38315.161 
  958700    302.76343   -1524.4285    474.90136    312.31561    277.77433    38315.161 
  958800    311.56446   -1542.2107    462.46545    321.68492    804.46374    38315.161 
  958900    297.28493   -1550.0741     492.6783    279.80447     133.2515    38315.161 
  959000    307.06321   -1536.8973    482.54516    326.83126    214.80647    38315.161 
  959100    297.95331   -1543.7732     461.0335    257.46689    83.834969    38315.161 
  959200    293.29898   -1499.4455    464.33797    284.16372   -103.25626    38315.161 
  959300    302.96422   -1496.6868    478.04926     344.1084    329.59669    38315.161 
  959400    304.04164   -1482.8926    468.77875    353.47831    506.64686    38315.161 
  959500    299.08582   -1483.0296    482.53478    344.80585    7.0742549    38315.161 
  959600    306.75223   -1497.4097    461.15864    343.53344   -437.78204    38315.161 
  959700       292.79   -1512.6556    460.91558    265.24179   -968.30223    38315.161 
  959800     301.3348   -1492.8993    468.10944     330.6268   -204.56719    38315.161 
  959900    295.19449    -1527.547    475.60154    275.85182   -293.95319    38315.161 
  960000    316.03321   -1524.6241     482.3559    379.26256    1.1072943    38315.161 
  960100    295.00233   -1516.5779    463.99912    274.35415    426.26985    38315.161 
  960200    305.02005   -1565.4633    461.49345     268.0232    636.24464    38315.161 
  960300    304.82358   -1524.2116    504.33562    351.23333    842.49837    38315.161 
  960400    294.53854   -1538.4085    470.71397    257.15226    960.78801    38315.161 
  960500     295.4433   -1543.3941    470.23407    255.75642    605.97466    38315.161 
  960600    288.03079   -1517.4236    474.71903    252.87014    353.37435    38315.161 
  960700    300.64148   -1537.7799    461.77156    276.28979    412.37713    38315.161 
  960800    287.43345    -1529.469    479.22231    242.64116     497.4158    38315.161 
  960900    299.93004   -1529.1991    474.11853    294.01751     735.8936    38315.161 
  961000    293.77831   -1523.5897    466.17835    264.01593    637.46146    38315.161 
  961100    306.91901   -1552.0728    451.61117    280.07311    351.56926    38315.161 
  961200    306.96607   -1514.1188    447.59161     314.2192    708.53365    38315.161 
  961300    308.21988   -1513.4728    449.29546    322.20874    462.53933    38315.161 
  961400    297.12778   -1516.6358    496.43454    316.29213    239.10936    38315.161 
  961500     297.0871   -1525.2293    476.04944    287.13052   -82.655402    38315.161 
  961600     295.3412   -1466.1098    436.25761    298.60506   -695.53451    38315.161 
  961700    302.91477   -1515.7776    476.63408    323.37993   -455.24823    38315.161 
  961800    313.64341   -1535.7926    458.42633    333.41506    363.71546    38315.161 
  961900    308.36331   -1526.2528     466.6632     327.4416    172.10611    38315.161 
  962000     300.9471   -1483.5072    460.46281    330.62843    71.884437    38315.161 
  962100     292.5606   -1466.0606    512.61776    362.50719    897.28634    38315.161 
  962200     299.3704   -1471.3743    455.55469    330.76115    403.90104    38315.161 
  962300    299.89585   -1524.5256    472.47243    296.89103    170.41064    38315.161 
  962400    299.61529   -1541.0846    464.25864    270.85633    502.55689    38315.161 
  962500    288.65196   -1488.6759    453.60927    263.30208     225.2303    38315.161 
  962600    296.98344   -1496.8213    477.45081    316.47361   -113.77981    38315.161 
  962700    301.32592   -1523.4004    472.01864    303.99495   -65.695077    38315.161 
  962800     293.5746   -1500.1021    443.14552    263.55435    -542.0076    38315.161 
  962900    300.39215   -1469.7406    461.66456    343.10057    -316.6791    38315.161 
  963000    312.79671   -1487.3035    488.91064    408.57994   -290.11912    38315.161 
  963100    295.66586   -1471.3031    472.92099    331.53545   -793.97903    38315.161 
  963200    314.19974   -1486.7773    468.86055    395.36705   -347.36849    38315.161 
  963300    300.40078   -1479.0225    503.20812    375.40104   -281.41174    38315.161 
  963400    288.79937   -1502.0095    472.58651    269.60885    -652.1921    38315.161 
  963500    301.77007   -1504.0539    469.74287    323.06348   -580.24599    38315.161 
  963600    294.52223   -1468.3543    466.56859    322.98773   -610.00049    38315.161 
  963700    298.48524   -1480.0143    476.67006    339.25503   -357.81135    38315.161 
  963800    296.53072   -1487.2301    477.49465    324.07226   -275.15525    38315.161 
  963900    299.74642    -1461.129    474.94297    362.08608   -616.52109    38315.161 
  964000    305.07955   -1432.3832    487.50285    427.38041   -603.22409    38315.161 
  964100    306.81819   -1431.1161    465.33783    414.30291   -585.41216    38315.161 
  964200     291.6897   -1435.8603    485.63649    361.80887   -995.91766    38315.161 
  964300    309.06094   -1417.9282    475.68771     447.9287   -700.49504    38315.161 
  964400     305.4957   -1450.6271    493.74851    417.25399   -371.19082    38315.161 
  964500    295.08395   -1494.8823    484.36256    316.78034   -281.20118    38315.161 
  964600     316.2383   -1514.3857    482.82383    390.89138    188.63282    38315.161 
  964700    296.63189   -1514.6154    482.06921    301.71659     278.1703    38315.161 
  964800    305.27532   -1498.9843    470.99365    345.15069    404.64002    38315.161 
  964900    291.89854   -1498.0522    469.97529    284.89511    113.65805    38315.161 
  965000    301.61107   -1470.5659    491.59318    377.68668   -334.67717    38315.161 
  965100    303.08193    -1475.963    486.70758    374.01996    -44.37091    38315.161 
  965200    309.09302   -1470.7835    481.96282    401.49283   -306.45202    38315.161 
  965300    298.72991   -1488.1027    490.59448    346.19161   -120.73593    38315.161 
  965400    295.85201   -1498.7637     472.1791    304.17027    123.58246    38315.161 
  965500    297.79455   -1495.1977    492.45882    336.75367   -323.34056    38315.161 
  965600    302.91121   -1479.3483    480.46529    363.62442   -313.62424    38315.161 
  965700    296.71931   -1492.1844    482.72876    325.20037    211.91317    38315.161 
  965800    299.49506   -1472.0043    473.54068    348.67785    -130.8419    38315.161 
  965900    293.72812    -1509.708    472.20993    283.70343   -248.77215    38315.161 
  966000    297.13937   -1479.8438    458.61987    315.32159   -785.95473    38315.161 
  966100    306.25742   -1510.0001     468.7763    336.33502    -171.6358    38315.161 
  966200    297.46489   -1484.7175    483.72577    337.01797   -898.90816    38315.161 
  966300    292.04666   -1489.6343    460.96272    284.96666   -138.62525    38315.161 
  966400    311.66541   -1492.4046    479.66878    389.14837   -189.60065    38315.161 
  966500     305.7863   -1482.6615    467.65346    360.43174   -151.45742    38315.161 
  966600    299.01248   -1435.3359    455.16826    364.80316   -428.29448    38315.161 
  966700    307.64312   -1472.0096    499.29235    411.07456   -0.9548939    38315.161 
  966800    297.35774   -1460.1903    473.09997    350.43745   -511.59119    38315.161 
  966900    295.30153   -1500.4992    486.08009    313.85964    62.252881    38315.161 
  967000    302.41856   -1487.4195    490.81488    363.68688    -648.4873    38315.161 
  967100    298.18009     -1510.46    460.39095    291.15759     -438.961    38315.161 
  967200    299.23293   -1519.1308    435.93148    262.76309   -587.32989    38315.161 
  967300     301.8934   -1509.4899    466.63394    315.07336    -457.4132    38315.161 
  967400    299.41513   -1501.1026    471.27853    316.95783    65.940911    38315.161 
  967500    295.59203   -1515.5939     477.7576     291.7492   -166.17928    38315.161 
  967600    299.33344   -1508.2586    459.07793    297.23378   -176.49813    38315.161 
  967700      304.879   -1517.6004    485.17916    338.93746    154.91406    38315.161 
  967800    300.01947   -1533.1876    448.78015    265.09279   -123.47454    38315.161 
  967900     300.1991   -1527.6187    469.43712    292.12667    151.45722    38315.161 
  968000    305.99757    -1516.156    464.80008    325.03413    551.10517    38315.161 
  968100    289.20821   -1514.1353     452.5515    239.28699   -289.86875    38315.161 
  968200    295.38675   -1498.9196    442.41571    272.15821   -263.46156    38315.161 
  968300    296.17575   -1500.4667     482.9446    314.68896   -54.298923    38315.161 
  968400    294.03052   -1533.9497    475.19425    263.80631    100.61982    38315.161 
  968500    305.03976   -1532.3515    490.42444    330.15475    917.68961    38315.161 
  968600    296.69071   -1508.5654     496.1455    322.10744    538.27288    38315.161 
  968700    297.61347   -1497.3284     477.1741    318.52369    24.634738    38315.161 
  968800    283.84227   -1510.3971    482.93117    249.26865    289.36309    38315.161 
  968900    307.69885   -1485.8607    476.63764     374.8194    143.33411    38315.161 
  969000     300.3479   -1487.0883    472.02078    335.91008    125.42763    38315.161 
  969100    302.01756   -1518.5121    483.15616    323.13188    416.08279    38315.161 
  969200    299.23786   -1475.9405    474.83993    344.88402    816.74225    38315.161 
  969300    301.12462   -1498.4073    468.25122    324.31521    550.01988    38315.161 
  969400    304.21621   -1496.7076    474.66981    346.33959     393.7495    38315.161 
  969500     300.1424   -1492.1389    483.47617    341.39048    354.91338    38315.161 
  969600    294.37102   -1516.0848    494.26149    302.26999   -124.89625    38315.161 
  969700    292.81914   -1507.1005    480.37595    290.38841     -637.863    38315.161 
  969800    283.74097   -1502.8852    445.73444    219.12812   -912.25759    38315.161 
  969900    303.88453   -1531.6719     473.2256    308.43919    -841.5475    38315.161 
  970000    303.77627   -1494.7249    490.38856    362.06222   -731.25024    38315.161 
  970100    298.85269   -1455.9866    477.27913    365.54462   -92.761477    38315.161 
  970200    294.70784   -1469.9831    489.84978    345.47498   -573.56402    38315.161 
  970300    304.27196   -1491.9441    485.85635    362.54044   -426.12319    38315.161 
  970400    298.21478    -1458.963    480.35484    362.77453   -179.71089    38315.161 
  970500    296.41188   -1459.1205    476.93524    351.08787   -331.66538    38315.161 
  970600     297.6744   -1464.9735    470.31097    344.28956    58.353681    38315.161 
  970700    299.02821   -1504.1295    489.85394    330.76604   -220.28198    38315.161 
  970800     301.1984     -1506.54    471.13033     319.3935    316.26195    38315.161 
  970900    293.18329    -1520.965    455.10483    252.89069    101.37745    38315.161 
  971000    303.89817   -1469.7852    491.32614    388.48782    57.029231    38315.161 
  971100    305.73771   -1476.3138    471.99476    370.90213    227.19285    38315.161 
  971200    293.47611   -1454.7073    482.42429    347.78498   -97.273553    38315.161 
  971300    308.56837     -1449.67    477.78914    416.07274   -64.668034    38315.161 
  971400    310.23683   -1474.2508    465.02725    386.23488    98.445254    38315.161 
  971500    307.44706   -1523.0376    479.91801    339.79031    241.26303    38315.161 
  971600    305.62029   -1497.9822    469.27454     345.9853    161.19868    38315.161 
  971700      299.263   -1469.5584    479.19004    355.72933    59.251683    38315.161 
  971800     304.8433   -1494.7319    481.92746    358.39363   -325.47437    38315.161 
  971900    295.67156   -1522.7439    479.09577    286.29514   -337.29554    38315.161 
  972000    301.73873   -1526.8886     457.8902    288.23517    325.77257    38315.161 
  972100    295.25724     -1551.07    451.87225    228.88188     -243.727    38315.161 
  972200    298.05284   -1496.8518    480.76844    324.57097   -271.59172    38315.161 
  972300      302.316    -1495.272    473.64636    338.20456   -118.47565    38315.161 
  972400    300.65653   -1506.9551    475.12165     320.5323   -577.57928    38315.161 
  972500    308.07767   -1487.1862    485.88042     384.4406   -108.24639    38315.161 
  972600    293.71689   -1473.7148     479.9989    327.43508   -378.70562    38315.161 
  972700    301.07149   -1436.3964    491.54427     409.3802   -200.56426    38315.161 
  972800     305.4173   -1445.1722     504.3099    432.91771    293.12366    38315.161 
  972900    294.34076    -1460.155     475.8167    339.61888    553.20848    38315.161 
  973000    308.41763   -1507.2091    501.19197    381.25844     29.05093    38315.161 
  973100    287.03389   -1514.9287    469.72437    245.88621    135.36447    38315.161 
  973200    293.61873   -1448.5942    498.04107    370.15633   -35.654301    38315.161 
  973300    285.17971   -1472.6351    495.53293    305.64823   -344.01001    38315.161 
  973400     301.2577   -1496.8454    477.42683    335.65128   -298.50223    38315.161 
  973500    297.39716   -1473.7037    485.49989     349.5012   -23.188628    38315.161 
  973600    303.61926   -1514.9309    466.93932    317.70068   -687.43833    38315.161 
  973700    303.31166   -1519.5847    423.52368    268.24763   -650.12753    38315.161 
  973800    290.35866   -1471.8015    486.05123    320.29526   -394.92194    38315.161 
  973900    303.44112   -1442.3209    470.12531    392.69539    349.47079    38315.161 
  974000    308.22875   -1477.5526    475.77962    384.65303    134.92468    38315.161 
  974100    299.52383   -1484.0412    461.30412    324.53377    435.25539    38315.161 
  974200    299.78713   -1515.6386     485.1052    317.92177    423.24513    38315.161 
  974300    297.50389    -1420.985    486.87483     404.0749    298.26747    38315.161 
  974400    290.23161   -1447.3376    497.66729    355.80378    875.59757    38315.161 
  974500    296.50022   -1408.3056    461.18114    386.54609    644.28534    38315.161 
  974600    297.80743   -1456.0148    501.79915    385.33481    741.26942    38315.161 
  974700     302.3049   -1469.9367    497.32339    387.16693    385.97318    38315.161 
  974800    295.25274   -1427.7817    474.63645    374.91408    18.943918    38315.161 
  974900    298.69834   -1463.7464    492.14854    371.95994   -341.58285    38315.161 
  975000     298.5439   -1462.8672    496.56636    376.56225   -556.48602    38315.161 
  975100    308.99438   -1521.1865    492.75893    361.44225   -727.69405    38315.161 
  975200    293.20838     -1501.56    494.32525    311.62897   -552.29594    38315.161 
  975300    298.14633   -1520.1126    502.35799    323.32024   -700.21487    38315.161 
  975400    291.65823   -1556.5034    493.19322    248.58089   -459.28452    38315.161 
  975500    305.70411    -1535.856    470.40796      309.622   -1106.6391    38315.161 
  975600    301.79373   -1494.7387    441.08812     303.8304   -808.61903    38315.161 
  975700    308.59101   -1476.8398    491.85557    403.07122   -1014.4556    38315.161 
  975800    290.16947    -1488.522     485.2719    301.94441    -415.2759    38315.161 
  975900    298.81914   -1476.7104    469.77176    337.16253   -27.628274    38315.161 
  976000    300.91521   -1478.1269    502.68836    378.09085    96.416025    38315.161 
  976100    295.14691   -1494.6381     484.8533    317.79847   -207.86879    38315.161 
  976200    309.63712   -1481.6315    472.55997    383.68932   -131.92914    38315.161 
  976300    291.99607   -1480.5886    489.32611    322.14821    240.93253    38315.161 
  976400    297.12167   -1476.6615    476.11999    335.92436   -78.914959    38315.161 
  976500     308.0691   -1472.9868    476.57671     389.2978    153.12184    38315.161 
  976600    308.74126   -1505.3444    476.76615      360.153    56.555256    38315.161 
  976700    298.76763   -1507.7283    488.67407    324.81524   -212.78616    38315.161 
  976800    293.73848   -1463.3218    482.59913    340.52545   -290.47167    38315.161 
  976900    302.57597   -1511.6333    495.30033    344.66659    266.88925    38315.161 
  977000    296.46263   -1503.7485    475.78534    305.53827   -39.742197    38315.161 
  977100    304.85299   -1531.8432    484.91657    324.31499   -293.76393    38315.161 
  977200    295.47879   -1518.6898    471.31455    281.70091   -408.24538    38315.161 
  977300    299.01782   -1503.3639     467.5649     309.1958   -440.16664    38315.161 
  977400    297.19437     -1494.32    484.17523     326.6481   -9.9368849    38315.161 
  977500    292.37583   -1510.2768    483.32819    288.17026   -13.820568    38315.161 
  977600    295.93419   -1550.3837    474.98013    255.72093   -12.518267    38315.161 
  977700    300.32428   -1535.9264    488.79431    303.73929   -178.68414    38315.161 
  977800    292.36759   -1499.7689    493.61742    308.93037     3.397155    38315.161 
  977900    300.66267   -1476.7138    451.73222    327.41185   -28.337761    38315.161 
  978000    305.98244   -1506.4351    475.73192    345.61875   -4.2396097    38315.161 
  978100    306.99924   -1480.7712    487.44844    387.57282   -73.029148    38315.161 
  978200    290.72479   -1477.6132    503.36616    333.44544     110.3459    38315.161 
  978300    298.08541   -1474.4003    477.23171    343.63224    258.40554    38315.161 
  978400    309.35872   -1516.3878    473.91499    349.03576    216.79376    38315.161 
  978500    306.74061   -1532.9107     477.8235      324.645    599.59231    38315.161 
  978600    297.43267   -1488.5114    505.88034    355.23368    645.33942    38315.161 
  978700     290.7003   -1493.3671    491.21469    305.42985     779.8022    38315.161 
  978800    294.17842   -1468.2348    500.47837    355.47056    220.02167    38315.161 
  978900    300.13282   -1478.8458    480.46025    351.62455   -227.75738    38315.161 
  979000    294.03178   -1506.8912      456.581    272.25718   -526.64809    38315.161 
  979100    308.83186   -1498.9708    480.67764    370.84563   -230.05646    38315.161 
  979200     302.9458   -1488.1032    500.56582    375.12563   -2.7791075    38315.161 
  979300    299.99393   -1511.2296    475.60417       313.76    89.640083    38315.161 
  979400    301.59884   -1525.4366     463.0904    294.25818    6.8920183    38315.161 
  979500    303.75061   -1537.5196    462.55918    291.32274    -14.19654    38315.161 
  979600    302.09395   -1570.7842    463.29909    251.34625    328.06075    38315.161 
  979700    298.56898   -1541.2693    489.44669    291.15332   -209.29275    38315.161 
  979800    303.78751   -1556.3619     467.9281     278.0153    333.31996    38315.161 
  979900    303.37441   -1546.6514    499.54154    317.48106    535.10816    38315.161 
  980000      306.368   -1540.1326    473.29267     311.2163    568.29471    38315.161 
  980100    290.36476   -1550.1534    485.11219    241.03174    905.08118    38315.161 
  980200    303.24328   -1571.2584    471.86448    264.60723    993.18703    38315.161 
  980300    283.57413   -1569.6428    471.92838    177.81405    527.51721    38315.161 
  980400    296.69962   -1524.1118    500.27517    310.73083    857.24269    38315.161 
  980500    296.37145   -1512.5547    482.66609    303.20274    438.02332    38315.161 
  980600     295.0953      -1505.8    513.63806    335.18919    344.37397    38315.161 
  980700    296.11545    -1548.585    483.44883    266.80362    -4.657747    38315.161 
  980800    305.32619   -1480.1544    456.08221    349.29801   -35.798694    38315.161 
  980900    301.86634   -1498.8647    479.63579    338.57867   -508.28024    38315.161 
  981000    302.40431   -1493.1687    482.78205    349.84073    400.77132    38315.161 
  981100     297.1273   -1523.3904    492.80671    305.90753    157.39269    38315.161 
  981200    289.46965   -1557.0647    486.01948    231.00156    393.58807    38315.161 
  981300    299.33594   -1521.7974    487.79069    312.41903    406.66392    38315.161 
  981400    303.75977   -1500.2301    495.51155    361.60576    251.18193    38315.161 
  981500    300.28259   -1518.7402    471.33648    303.28006   -26.492168    38315.161 
  981600     296.1413   -1509.8781    483.88403    306.06202   -563.31796    38315.161 
  981700    298.04431   -1477.7206    483.86498    346.76029   -930.79928    38315.161 
  981800    308.98273   -1491.4077    480.24573    378.65545   -284.02764    38315.161 
  981900    305.80074   -1484.9814    466.58943    357.11278   -91.794245    38315.161 
  982000    298.15093    -1411.617    482.41729    411.89577   -396.36093    38315.161 
  982100    310.44111    -1450.237    473.28554    419.42583    -189.7638    38315.161 
  982200    288.05131   -1465.8421    472.98731    302.81224    143.10349    38315.161 
  982300    302.85623   -1478.3281    489.64369     373.5757    156.61874    38315.161 
  982400    308.23878   -1498.4628    477.57541     365.5837   -477.64913    38315.161 
  982500    310.27481   -1500.1124    464.52582    360.04262   -453.82394    38315.161 
  982600    284.48457   -1529.4028    469.16201    219.38291   -847.12712    38315.161 
  982700    302.36203   -1542.5263    485.99916    303.51012   -480.63164    38315.161 
  982800    298.24564   -1467.9909     473.9506    347.48122    18.874924    38315.161 
  982900    310.43429   -1512.7494     468.8386    352.43576    -231.9096    38315.161 
  983000    304.63268   -1502.1609    463.27388    331.36373   -340.92057    38315.161 
  983100    295.76121   -1505.8176    463.96743    288.49628   -113.84933    38315.161 
  983200    292.02601   -1513.0223    467.67107    268.19416   -675.62008    38315.161 
  983300    299.64227   -1466.2105    490.95118    372.54434    103.08295    38315.161 
  983400     297.5434   -1510.1686    475.08431    303.27856    353.90121    38315.161 
  983500    307.87389   -1457.3533    488.29145    415.76791    161.78842    38315.161 
  983600     304.4184   -1513.6845    476.38831    331.99066    143.39021    38315.161 
  983700    298.08979   -1524.2914    487.43184    303.96095    383.93216    38315.161 
  983800    306.27403   -1489.0471     497.9295    386.51599    725.37831    38315.161 
  983900     297.2907   -1468.5089    508.43823    377.15553    57.995048    38315.161 
  984000    297.25093   -1466.3752    494.31661    364.98872    407.14601    38315.161 
  984100    297.63046   -1499.7592    524.89998    363.89523    82.768115    38315.161 
  984200    308.09366   -1542.5328    453.23556    296.52112    473.56943    38315.161 
  984300      298.464    -1472.492    478.15346    348.16513    328.49407    38315.161 
  984400    299.40516   -1468.3078     485.1664    363.59567    -409.4741    38315.161 
  984500     304.0169   -1486.4329    482.82061    363.86863    37.373858    38315.161 
  984600    295.27199   -1500.5712     480.8937     308.4684   -344.31345    38315.161 
  984700    301.56898   -1507.6461    481.96673    330.79071   -350.13673    38315.161 
  984800    300.49326   -1494.9109    487.06995    343.79048    223.06547    38315.161 
  984900    301.67283   -1501.1215    511.43405    367.24971   -93.222585    38315.161 
  985000    297.08177   -1532.6999    474.26185     277.8483   -282.70334    38315.161 
  985100    305.74489   -1531.5942    482.66951    326.32882   -422.55275    38315.161 
  985200    309.61626   -1556.3558    439.38433    275.69562   -205.16442    38315.161 
  985300    303.83314   -1529.4833     484.6902     321.8613    186.97182    38315.161 
  985400    303.70223   -1524.8787    480.32797    321.51475   -67.866103    38315.161 
  985500    302.88834   -1523.0253    478.04218    317.42145    28.509232    38315.161 
  985600    294.22253   -1533.3552    494.86046    284.93064   -150.77048    38315.161 
  985700    301.95264   -1503.0989    489.52043    344.61731   0.53356817    38315.161 
  985800    301.28717    -1515.955    462.44433    301.69184   -131.16554    38315.161 
  985900     296.8362   -1500.4028     492.1014    326.88037   -239.93743    38315.161 
  986000     288.0088   -1486.6715    464.01668      272.821   -595.62183    38315.161 
  986100      302.012   -1514.8846    456.53358     300.1117   -372.32643    38315.161 
  986200    303.55864    -1515.252    500.87464    351.04221   -178.91399    38315.161 
  986300    296.96816   -1503.9938    468.27229    300.05387   -187.77341    38315.161 
  986400     299.5056   -1532.3222     463.3301    278.19684   -137.03887    38315.161 
  986500    295.20002   -1524.2118    481.76161    285.37203    72.540495    38315.161 
  986600    307.32678   -1505.6503    468.42977    345.14833    41.821902    38315.161 
  986700    296.52657   -1524.5543    466.34617    275.58093     -26.7392    38315.161 
  986800    301.96474   -1511.1956    498.88001    345.93454   -918.23199    38315.161 
  986900    303.04022   -1484.6881    449.48639      327.886     -712.648    38315.161 
  987000    293.90284   -1528.6807    487.34033    280.64707   -399.06239    38315.161 
  987100    297.92475   -1541.4022     488.8745     287.5504    117.55846    38315.161 
  987200    303.93822   -1557.6749    466.18463    275.63669       215.33    38315.161 
  987300    299.33554   -1588.6229    499.30746    257.10852   -207.09905    38315.161 
  987400    293.87678   -1545.8194    475.17604    251.22686    532.08328    38315.161 
  987500    289.85931   -1566.4928    469.10485    206.41151    242.84925    38315.161 
  987600     302.7347   -1558.1557    506.68311    310.24094    148.46698    38315.161 
  987700    293.28643   -1568.2984    473.18288    224.09922    310.80364    38315.161 
  987800    307.18458   -1565.5104    457.37617    273.59502    17.471883    38315.161 
  987900    296.22432   -1541.4292    505.96561    296.96596   -514.37295    38315.161 
  988000    297.66657   -1544.1271    463.67936     258.4691   -549.34057    38315.161 
  988100    308.76932   -1506.1955    478.05576    360.71777   -112.64726    38315.161 
  988200    296.32814    -1483.524    501.20222    350.57472   -412.42767    38315.161 
  988300    291.92723   -1543.2724    463.12203    232.95065    314.02952    38315.161 
  988400    306.76868   -1474.7531    497.01697    402.12243     125.9825    38315.161 
  988500    298.80168   -1537.1883    504.90428    311.73863   -171.79096    38315.161 
  988600    296.29645   -1552.5389    497.43689    277.65195   -346.04981    38315.161 
  988700    298.83202   -1551.2518    487.27043     280.1777   -171.60553    38315.161 
  988800    295.38188   -1556.2623    485.70004      258.078   -386.86819    38315.161 
  988900    299.38335   -1566.3373    457.64545    237.94715   -635.92085    38315.161 
  989000    305.05911    -1533.421    508.63386    347.38165   -112.99652    38315.161 
  989100     294.4126   -1553.3281    504.97119    275.92342     383.1684    38315.161 
  989200    306.58775   -1532.7811    503.53643        349.8    429.55525    38315.161 
  989300    300.80972   -1550.8226    471.67768    273.90989    295.36888    38315.161 
  989400    298.52236   -1540.8406    510.79893    312.72452     429.1481    38315.161 
  989500    306.91891   -1565.8299    457.26093    271.96529    119.14843    38315.161 
  989600     321.0169   -1556.0782    465.89639    353.76579   -53.800101    38315.161 
  989700    298.02903   -1520.7954    464.62499    284.37684   -229.78408    38315.161 
  989800    305.18901   -1521.3306    477.60108    329.02361   -154.69504    38315.161 
  989900    304.58274   -1547.5157    477.40636    299.91672   -101.11088    38315.161 
  990000    289.83758   -1559.7072    487.85172    231.84624    403.59985    38315.161 
  990100    307.28471   -1542.8648     476.6836    315.99844    41.151383    38315.161 
  990200    308.37552    -1506.984    475.59153    355.69364   -38.929003    38315.161 
  990300    292.92264   -1545.5411    478.81659     250.8539   -392.99049    38315.161 
  990400    297.23179   -1532.5146    510.10241      314.549   -278.09383    38315.161 
  990500    302.96617   -1493.7541    489.82272    358.82323    231.65057    38315.161 
  990600    301.19723   -1497.7339    471.41414    328.47811    401.38344    38315.161 
  990700    301.68213   -1522.0775    508.54785    343.44938    208.50877    38315.161 
  990800     301.8756   -1497.0768    502.02483    362.79725    182.35835    38315.161 
  990900    287.98522   -1497.5396    515.79322    313.62327    21.841824    38315.161 
  991000    295.17159   -1497.6828    494.96051    324.97202    592.09123    38315.161 
  991100    306.95769   -1519.9381     496.6542    357.42476    546.73603    38315.161 
  991200    305.19898   -1493.8921    511.45997    390.36585    455.89547    38315.161 
  991300    288.73355    -1511.779    460.26428    247.22102    82.364918    38315.161 
  991400    311.71998   -1492.9895    483.82857    392.96878    443.28332    38315.161 
  991500    302.28561    -1470.869    492.55304     381.3775   -63.202495    38315.161 
  991600    311.41869    -1504.824    503.74376     399.6942    453.16455    38315.161 
  991700    302.13641   -1473.3516    493.40332    379.07405    133.80274    38315.161 
  991800    300.96027   -1493.3885    489.25201    349.59559    -279.1619    38315.161 
  991900    309.97679   -1449.6791     487.2521    431.86176    -520.7991    38315.161 
  992000    297.58923   -1474.6653     505.7439    369.64755   -666.79433    38315.161 
  992100     289.3185   -1484.9019    465.55497    282.01993   -707.35948    38315.161 
  992200    303.73655   -1467.2795    519.39863    418.33903   -550.17593    38315.161 
  992300    301.26995   -1449.0706    506.15651    412.21091   -253.71713    38315.161 
  992400    299.26764   -1471.4846    481.90528    356.53922    228.20211    38315.161 
  992500     300.7593   -1488.4139    511.84343    376.25758   -162.88255    38315.161 
  992600    302.05809   -1504.7773    476.50973    330.40255   -245.72653    38315.161 
  992700    304.03373    -1529.723    486.27788    324.11152    338.55523    38315.161 
  992800    294.59322   -1525.4724     498.2017    297.82212    130.79179    38315.161 
  992900    305.97639   -1527.7412    491.91093    340.46452    316.75072    38315.161 
  993000    301.82811   -1489.7063    515.00828    382.93764    493.18986    38315.161 
  993100    300.50065    -1499.217    485.22009    337.66775     48.17779    38315.161 
  993200    292.12051   -1479.0911    473.72729    308.60665    -216.9868    38315.161 
  993300     304.3906   -1516.6524     519.6456    372.15503   -634.68428    38315.161 
  993400    298.98983   -1444.7698    512.79322    412.89234   -254.98861    38315.161 
  993500    309.51877   -1494.6867    501.94985    399.49171   -738.83867    38315.161 
  993600    307.67727   -1466.0044    502.79941     420.7404   -958.74051    38315.161 
  993700    297.45564   -1496.7273    477.64572    318.88651   -702.49735    38315.161 
  993800    299.86378   -1482.5578    495.73832    361.98045    91.141954    38315.161 
  993900    293.32066   -1495.9047    497.21634    320.68037    157.04552    38315.161 
  994000     292.6707   -1470.0379    491.32724    337.73455    348.78955    38315.161 
  994100    298.80061   -1522.3746    512.25531    333.89848    331.90773    38315.161 
  994200    295.22704   -1526.5902    481.03316    282.38665    828.20739    38315.161 
  994300     292.5926    -1461.512    509.82798    364.40991    1181.9329    38315.161 
  994400    293.04258   -1490.3426    497.77443     325.5497    871.39804    38315.161 
  994500    302.61331   -1462.0114     498.8056    397.96171    1048.5754    38315.161 
  994600    299.91623   -1474.6605    516.51359    390.88904    394.04008    38315.161 
  994700    301.25213   -1511.0256    467.28393    311.30317    130.90209    38315.161 
  994800    304.36527   -1459.8826    491.46348    400.62871   -27.637445    38315.161 
  994900    290.24048   -1507.8542    516.28334    313.94312    1032.0421    38315.161 
  995000     306.2114   -1526.5206    477.40848    328.23971    938.57328    38315.161 
  995100    293.68446   -1523.7082    503.08539    300.38232    357.50276    38315.161 
  995200     292.7738   -1523.4067    493.62112    287.12338   -60.844358    38315.161 
  995300    300.49897   -1466.7119    491.73648    376.68173   -288.49934    38315.161 
  995400    298.92672   -1479.8496    503.79851    368.53391   -420.73625    38315.161 
  995500    290.89613   -1504.4684    482.84322    286.83788    -802.1638    38315.161 
  995600    303.45094   -1527.0654    485.30229    323.17207   -599.22076    38315.161 
  995700    308.53742   -1495.9393    510.26858    402.14368    160.14304    38315.161 
  995800    293.58672    -1513.681    511.40697    318.29151    96.221615    38315.161 
  995900     305.1223   -1523.4133    507.23392    356.27366    310.86615    38315.161 
  996000    297.38076   -1555.8853    486.69475    268.44071    769.93347    38315.161 
  996100    290.68798   -1532.3733    491.04737    266.20093    736.91449    38315.161 
  996200    291.54745   -1506.3041     480.9953    286.08395    540.75751    38315.161 
  996300    301.66042   -1507.7081    485.02747    334.20069    679.67404    38315.161 
  996400    292.68217   -1524.2437    507.19609    299.44917    281.69768    38315.161 
  996500    306.78238   -1511.2945    497.79054    366.41615    181.35875    38315.161 
  996600     301.2052   -1524.9973    499.92993    329.76637   -73.657228    38315.161 
  996700    301.50567   -1539.8387    494.08288    310.42946    149.85462    38315.161 
  996800    297.28856   -1527.2862    496.22134    306.15171    302.85106    38315.161 
  996900    312.08233    -1492.424    518.56045    429.89602    98.058848    38315.161 
  997000    293.10036   -1490.3425    510.07807    338.11346    1.0177219    38315.161 
  997100    305.59142   -1511.5325    493.09262    356.12332   -24.145896    38315.161 
  997200    302.58817   -1517.1881    508.66915     352.5355   -54.470505    38315.161 
  997300    293.74739   -1503.1312    515.48264    333.63962   -336.26261    38315.161 
  997400    305.55779   -1498.7823    494.33778    369.96741     588.6435    38315.161 
  997500    299.39404   -1552.7318    491.81475    285.76998    122.27717    38315.161 
  997600    293.66989   -1523.2918    486.48294    284.13078   -3.8901012    38315.161 
  997700    306.51445   -1471.8905    516.73938    423.56388   -99.068635    38315.161 
  997800    293.98977   -1433.3443    502.93927    391.97344   -142.78459    38315.161 
  997900    294.09888    -1458.087    524.24653    389.02871   -403.93479    38315.161 
  998000    295.13376   -1466.4878    498.05848    359.09489    314.21181    38315.161 
  998100    294.39317   -1505.7382    490.17649    308.63122   -486.87329    38315.161 
  998200    288.00364   -1440.2901    494.50961    349.67214   -330.76676    38315.161 
  998300    300.79986   -1475.3515    483.02391    360.68289    49.177804    38315.161 
  998400     288.4473   -1466.4301    505.79691    336.81496   -350.77234    38315.161 
  998500    289.85011   -1487.1835    494.95529    311.52984   -435.52407    38315.161 
  998600    295.96117   -1497.9749    489.41279     322.6838   -386.46537    38315.161 
  998700    290.44073   -1514.6369    492.00706    283.78488   -718.72238    38315.161 
  998800    303.56956   -1524.3708    483.05011    324.14806   -316.65955    38315.161 
  998900    304.05442   -1510.8648    482.65242    339.43731   -358.74622    38315.161 
  999000    304.06518   -1483.7549    471.43764     355.3808   -178.46753    38315.161 
  999100    294.13941   -1509.4868    504.99657    318.56127   -528.92623    38315.161 
  999200    297.07225   -1498.4974    503.40499    341.15111   -638.34883    38315.161 
  999300    300.64998   -1457.8619    496.99725    391.47166   -709.63907    38315.161 
  999400    302.81158   -1475.7666    482.73003    369.02271    -398.6578    38315.161 
  999500    307.66351   -1480.2497    500.33827    403.97211   -662.26356    38315.161 
  999600    298.60214   -1463.2731     477.8083    357.66032   -641.40974    38315.161 
  999700    309.42439   -1496.2233    484.06967    379.65033    153.91831    38315.161 
  999800     302.6511   -1499.4952    481.88158    343.72385    308.18621    38315.161 
  999900    308.17031   -1539.9277    487.50548    333.74084   -6.9109252    38315.161 
 1000000    308.03222   -1480.6438    480.38363    385.28178   -216.73561    38315.161 
 1000100    300.69667   -1449.0039    472.63378    376.17626   -725.00682    38315.161 
 1000200    313.51446   -1464.8377    489.39554    434.75918    -428.4847    38315.161 
 1000300    301.21793   -1465.3177    493.16953    382.74283   -263.78152    38315.161 
 1000400    304.74465    -1496.902    473.83739    347.68978    73.160494    38315.161 
 1000500    288.37469   -1513.4394    501.75841    285.44058   -384.45836    38315.161 
 1000600    296.15465   -1492.5361    489.15122    328.73124    278.70019    38315.161 
 1000700    311.18067   -1485.2565    494.94415    409.39146    612.06823    38315.161 
 1000800    286.08705   -1447.2979    488.24627    327.78002    537.84036    38315.161 
 1000900    297.01231   -1513.5387    477.26533    299.70062   -115.62323    38315.161 
 1001000    304.37834   -1508.2414    477.49032    338.35556   -416.24029    38315.161 
 1001100    302.08774   -1494.2386    473.31897    337.88387   -452.44976    38315.161 
 1001200    294.74959   -1499.9924    492.94488    318.74865   -772.81312    38315.161 
 1001300    290.98496   -1514.0918     475.0324    269.80332   -328.93571    38315.161 
 1001400    297.19255   -1510.1936    473.16004     299.7511    38.124461    38315.161 
 1001500    306.95608    -1466.508    508.34976    422.54321    191.18086    38315.161 
 1001600    312.51817    -1483.304    488.41506    410.83105    195.64033    38315.161 
 1001700    292.41955   -1502.9635       470.43      282.782    227.78178    38315.161 
 1001800    296.70956   -1519.0464    483.68566    299.25149    96.598693    38315.161 
 1001900    293.87929   -1534.9219    455.42675    242.38629   -175.60365    38315.161 
 1002000    304.07843   -1540.2809    484.36558    311.84231     610.3152    38315.161 
 1002100    299.44922   -1541.7324    466.46272    271.66565   -35.010138    38315.161 
 1002200    297.25407   -1507.3745     482.3812    312.06808    13.219147    38315.161 
 1002300    295.81122   -1488.4612    489.95778    332.06799   -502.65469    38315.161 
 1002400    312.55061   -1534.9964    466.66532    337.53476   -69.972665    38315.161 
 1002500    292.05703   -1507.1594    471.44231    277.96781   -189.42167    38315.161 
 1002600    294.06773   -1483.3406     488.7983    328.18681   -126.27354    38315.161 
 1002700    285.68623   -1521.6675    473.36437    236.72568   -43.186189    38315.161 
 1002800    308.09149   -1529.0926    482.40099    339.11694    666.36494    38315.161 
 1002900     295.2844   -1516.1553    493.18914    305.23558    778.25363    38315.161 
 1003000    301.23242   -1538.4538    483.73452    300.23695    403.25412    38315.161 
 1003100    306.14935   -1569.6039    475.86751     283.3363    712.37368    38315.161 
 1003200    292.93083   -1535.1868    513.67457    296.10304    124.69336    38315.161 
 1003300     305.0076   -1541.5281    469.13973    299.54873    409.57767    38315.161 
 1003400    292.12481   -1519.4059     482.8407    277.42452    549.53448    38315.161 
 1003500    296.57965    -1518.342    476.52915    292.21501     42.44793    38315.161 
 1003600    296.80474   -1526.2277    466.60591    275.41855    268.43601    38315.161 
 1003700    302.29607   -1524.7728    492.19569    327.16342    582.02682    38315.161 
 1003800    296.39245   -1509.4467    467.91029    291.64935    299.61075    38315.161 
 1003900    296.94822   -1539.4083     492.5642     288.8416   -103.58616    38315.161 
 1004000    294.27252   -1539.2054    472.10231    256.54715   -862.46026    38315.161 
 1004100    293.21262   -1546.4746    481.78311     254.1913     -129.661    38315.161 
 1004200    297.79573   -1536.6213    461.94793     264.8244    38.209873    38315.161 
 1004300    290.29771   -1563.2278    499.13567    241.67932   -244.90081    38315.161 
 1004400    301.82594    -1533.022    501.63881    326.24265    232.66107    38315.161 
 1004500    295.92242   -1520.4179    496.26976    306.92345   -314.69096    38315.161 
 1004600    290.99917   -1505.7116    496.67765    299.89262   -551.12874    38315.161 
 1004700    297.46244   -1544.7861    477.79623    271.00877    6.5346631    38315.161 
 1004800    297.69274   -1504.5744    504.12538    338.58551    9.3887591    38315.161 
 1004900    296.66975   -1488.0429     473.0348    319.42504   -88.375877    38315.161 
 1004951    307.15253   -1498.5611    479.32562    362.34959   -5.8577872    38315.161 
Loop time of 599.12 on 32 procs for 1000000 steps with 1510 atoms

Performance: 144.211 ns/day, 0.166 hours/ns, 1669.114 timesteps/s
100.0% CPU use with 32 MPI tasks x no OpenMP threads

MPI task timing breakdown:
Section |  min time  |  avg time  |  max time  |%varavg| %total
---------------------------------------------------------------
Pair    | 239.12     | 269.31     | 294.08     |  74.8 | 44.95
Bond    | 1.3745     | 1.529      | 1.6404     |   4.7 |  0.26
Neigh   | 39.032     | 39.122     | 39.196     |   1.0 |  6.53
Comm    | 251.94     | 276.62     | 306.68     |  73.2 | 46.17
Output  | 0.39496    | 0.41206    | 0.83951    |  12.0 |  0.07
Modify  | 8.7279     | 9.009      | 9.3654     |   6.3 |  1.50
Other   |            | 3.111      |            |       |  0.52

Nlocal:        47.1875 ave          76 max           9 min
Histogram: 2 2 1 2 3 6 4 5 5 2
Nghost:        1955.78 ave        2135 max        1794 min
Histogram: 7 6 3 0 0 0 0 6 7 3
Neighs:        5343.44 ave        9579 max         680 min
Histogram: 3 1 2 5 3 4 5 5 2 2

Total # of neighbors = 170990
Ave neighs/atom = 113.23841
Ave special neighs/atom = 2.0158940
Neighbor list builds = 49766
Dangerous builds = 0

# Output the system volume
variable v equal vol
print 'The system volume is $v'
The system volume is 38315.1606129869

# Outputs
variable A equal xhi-xlo
variable B equal yhi-ylo
variable C equal zhi-zlo
variable D equal xy
variable E equal xz
variable F equal yz
print 'Lattice vectors'
Lattice vectors
print '$A 0 0'
33.7124423506293 0 0
print '$D $B 0'
0 33.7124423506293 0
print '$E $F $C'
0 0 33.7124423506293
Total wall time: 0:10:03
