LAMMPS (29 Sep 2021 - Update 1)
# Test LAMMPS input file for single DeFDe

# Initialize simulation

clear

units real
atom_style full
boundary p p p
dielectric 1
special_bonds dreiding

bond_style harmonic
angle_style harmonic
dihedral_style harmonic
improper_style umbrella
pair_style hybrid/overlay hbond/dreiding/lj 4 9.0 11.0 90 lj/cut 8.50000

# Read data file
read_data frag5.dat
Reading data file ...
  triclinic box = (0.0000000 0.0000000 0.0000000) to (15.000000 15.000000 15.000000) with tilt (0.0000000 0.0000000 0.0000000)
  2 by 4 by 4 MPI processor grid
  reading atoms ...
  1511 atoms
  scanning bonds ...
  2 = max bonds/atom
  scanning angles ...
  3 = max angles/atom
  scanning dihedrals ...
  4 = max dihedrals/atom
  scanning impropers ...
  2 = max impropers/atom
  reading bonds ...
  1011 bonds
  reading angles ...
  516 angles
  reading dihedrals ...
  20 dihedrals
  reading impropers ...
  5 impropers
Finding 1-2 1-3 1-4 neighbors ...
  special bond factors lj:    0        0        1       
  special bond factors coul:  0        0        1       
     3 = max # of 1-2 neighbors
     4 = max # of 1-3 neighbors
     7 = max # of special neighbors
  special bonds CPU = 0.002 seconds
  read_data CPU = 0.017 seconds

# Dreiding potential information

bond_coeff 1 525 1.39
bond_coeff 2 350 1.36
bond_coeff 3 700 1.275
bond_coeff 4 350 1.02
bond_coeff 5 350 0.99
bond_coeff 6 350 0.98

angle_coeff 1 50 120
angle_coeff 2 50 120
angle_coeff 3 50 120
angle_coeff 4 50 104.51

dihedral_coeff 1 3.125 -1 2
dihedral_coeff 2 0.625 -1 2
dihedral_coeff 3 11.25 -1 2

improper_coeff 1 40 0

pair_coeff 1 1 lj/cut 0.0951 3.8983
pair_coeff 1 2 lj/cut 0.0951 3.8983
pair_coeff 1 3 lj/cut 0.0857947550844456 3.77835472527395
pair_coeff 1 4 lj/cut 0.0380199947396104 3.52917391183829
pair_coeff 1 5 lj/cut 0.00308382878902186 3.52806914614779
pair_coeff 1 6 lj/cut 0.0953995283007206 3.64309650983885
pair_coeff 2 2 lj/cut 0.0951 3.8983
pair_coeff 2 3 lj/cut 0.0857947550844456 3.77835472527395
pair_coeff 2 4 lj/cut 0.0380199947396104 3.52917391183829
pair_coeff 2 5 lj/cut 0.00308382878902186 3.52806914614779
pair_coeff 2 6 lj/cut 0.0953995283007206 3.64309650983885
pair_coeff 3 3 lj/cut 0.0774 3.6621
pair_coeff 3 4 lj/cut 0.0342998542270955 3.42058613398347
pair_coeff 3 5 lj/cut 0.00278208554864871 3.41951536039831
pair_coeff 3 6 lj/cut 0.0860649754545948 3.53100349192691
pair_coeff 4 4 lj/cut 0.0152 3.195
pair_coeff 4 5 lj/cut 0.0012328828005938 3.19399984345648
pair_coeff 4 6 lj/cut 0.0381397430510485 3.29813538230316
pair_coeff 5 5 lj/cut 1e-04 3.193
pair_coeff 5 6 lj/cut 0.0030935416596516 3.29710294046152
pair_coeff 6 6 lj/cut 0.0957 3.4046
pair_coeff 3 3 hbond/dreiding/lj 5 j 9.50 2.75 4 9.0 11.0 90
pair_coeff 3 6 hbond/dreiding/lj 5 i 9.50 2.75 4 9.0 11.0 90
pair_coeff 3 6 hbond/dreiding/lj 5 j 9.50 2.75 4 9.0 11.0 90
pair_coeff 6 6 hbond/dreiding/lj 5 j 9.50 2.75 4 9.0 11.0 90

neighbor 2 bin
neigh_modify every 2 one 10000

# Gemoetric relaxation
fix 1 all box/relax iso 1.0 vmax 0.001
minimize 1.0e-4 1.0e-6 10000 10000
WARNING: Using 'neigh_modify every 1 delay 0 check yes' setting during minimization (../min.cpp:188)
Neighbor list info ...
  update every 1 steps, delay 0 steps, check yes
  max neighbors/atom: 10000, page size: 100000
  master list distance cutoff = 13
  ghost atom cutoff = 13
  binsize = 6.5, bins = 3 3 3
  3 neighbor lists, perpetual/occasional/extra = 3 0 0
  (1) pair hbond/dreiding/lj, perpetual, skip from (3)
      attributes: full, newton on
      pair build: skip
      stencil: none
      bin: none
  (2) pair lj/cut, perpetual, half/full from (3)
      attributes: half, newton on
      pair build: halffull/newton
      stencil: none
      bin: none
  (3) neighbor class addition, perpetual
      attributes: full, newton on
      pair build: full/bin
      stencil: full/bin/3d
      bin: standard
Per MPI rank memory allocation (min/avg/max) = 12.04 | 12.36 | 12.96 Mbytes
Step Temp E_pair E_mol TotEng Press Volume 
       0            0 6.509147e+19    204.53884 6.509147e+19 5.289741e+21         3375 
    5312            0   -969.32559    32.328496    -936.9971    129.07793    39194.267 
Loop time of 4.8479 on 32 procs for 5312 steps with 1511 atoms

99.9% CPU use with 32 MPI tasks x no OpenMP threads

Minimization stats:
  Stopping criterion = energy tolerance
  Energy initial, next-to-last, final = 
    6.50914701621488e+19  -936.384464926821  -936.474708163252
  Force two-norm initial, final = 1.9772964e+22 120.78988
  Force max component initial, final = 9.7978277e+21 96.986451
  Final line search alpha, max atom move = 2.0931625e-05 0.0020300840
  Iterations, force evaluations = 5312 5317

MPI task timing breakdown:
Section |  min time  |  avg time  |  max time  |%varavg| %total
---------------------------------------------------------------
Pair    | 1.1516     | 2.4911     | 4.1071     |  39.0 | 51.39
Bond    | 0.0058789  | 0.011082   | 0.023007   |   2.8 |  0.23
Neigh   | 0.098719   | 0.09906    | 0.099352   |   0.1 |  2.04
Comm    | 0.25934    | 1.8792     | 3.2231     |  45.1 | 38.76
Output  | 0          | 0          | 0          |   0.0 |  0.00
Modify  | 0          | 0          | 0          |   0.0 |  0.00
Other   |            | 0.3674     |            |       |  7.58

Nlocal:        47.2188 ave          71 max          24 min
Histogram: 1 1 4 5 7 5 3 3 1 2
Nghost:        1867.78 ave        1903 max        1830 min
Histogram: 4 2 5 1 2 4 2 4 5 3
Neighs:        4638.25 ave        7513 max        2217 min
Histogram: 2 1 4 6 7 4 4 1 1 2

Total # of neighbors = 148424
Ave neighs/atom = 98.228987
Ave special neighs/atom = 2.0211780
Neighbor list builds = 97
Dangerous builds = 0

# MD simulation
velocity all create 300.0 12345 rot yes dist gaussian
timestep 1.0
fix 2 all nvt temp 300.0 300.0 1

# Compute interaction energy
group WAT molecule <> 2 501
1500 atoms in group WAT
group MOL molecule 1
11 atoms in group MOL

compute w WAT group/group MOL pair yes
fix 3 all ave/time 10 5 100 c_w file outa

# Outputs
thermo 100 # Output thermodynamic data every nth step
#dump mf1 all xyz 10000 mol_*.xyz

# Run
run 1000000
Neighbor list info ...
  update every 2 steps, delay 10 steps, check yes
  max neighbors/atom: 10000, page size: 100000
  master list distance cutoff = 13
  ghost atom cutoff = 13
  binsize = 6.5, bins = 6 6 6
  4 neighbor lists, perpetual/occasional/extra = 3 1 0
  (1) pair hbond/dreiding/lj, perpetual, skip from (4)
      attributes: full, newton on
      pair build: skip
      stencil: none
      bin: none
  (2) pair lj/cut, perpetual, half/full from (4)
      attributes: half, newton on
      pair build: halffull/newton
      stencil: none
      bin: none
  (3) compute group/group, occasional, copy from (2)
      attributes: half, newton on
      pair build: copy
      stencil: none
      bin: none
  (4) neighbor class addition, perpetual
      attributes: full, newton on
      pair build: full/bin
      stencil: full/bin/3d
      bin: standard
Per MPI rank memory allocation (min/avg/max) = 10.88 | 10.94 | 11.54 Mbytes
Step Temp E_pair E_mol TotEng Press Volume 
    5312          300   -969.32559    32.328496    413.30986     1703.941    39194.267 
    5400    304.19431   -1042.6622    267.35161      593.875    948.40479    39194.267 
    5500    292.61842   -1012.3229    170.97181    475.73125    561.39891    39194.267 
    5600    303.33131   -1023.6632    179.71319    521.35126    250.11963    39194.267 
    5700    294.52145   -1020.6729    218.35123    523.32621   -214.18315    39194.267 
    5800    305.19852   -1031.5922    191.65137    533.76473   -53.189172    39194.267 
    5900    307.39078   -1009.9064    193.50614     567.1728    527.27823    39194.267 
    6000    301.65478   -1047.8527    199.70804    509.61049     316.5596    39194.267 
    6100    300.59066   -1040.5384    197.75937    510.18654    451.47238    39194.267 
    6200    299.51171   -1047.4825    193.12212    493.74878   -153.05089    39194.267 
    6300    297.21507   -1065.3874    191.84449    464.22901    116.04763    39194.267 
    6400    307.92721   -1068.8796    194.95465    512.06255   -22.323562    39194.267 
    6500    298.63181   -1019.3942    204.10658    528.86112    392.99746    39194.267 
    6600    290.63395   -1004.2267    207.12127    511.04467    155.87671    39194.267 
    6700    297.41621   -1016.7981    202.77508    524.65429   -45.789562    39194.267 
    6800    312.92873   -1038.9476    213.67371    583.22558    704.88704    39194.267 
    6900    296.56521   -1026.7002    204.81749    512.96414     142.0751    39194.267 
    7000    301.93055   -1046.6193    201.26458    513.64166    698.39177    39194.267 
    7100    300.21968    -1055.841    214.37289    509.82762    511.24145    39194.267 
    7200    297.36074   -1027.9638    219.47797    529.94174    611.00998    39194.267 
    7300     314.0471    -1042.367    224.22484    595.39113     862.7888    39194.267 
    7400     301.8774   -1040.7288    218.79334    536.82174    844.36057    39194.267 
    7500    293.92848   -1031.0076    218.90024     510.8715    182.39831    39194.267 
    7600    306.49817   -1044.8945     216.0822    550.74308    417.71037    39194.267 
    7700    307.45372   -1077.5727    223.09193    529.37561    378.62023    39194.267 
    7800    304.87148   -1080.3267    220.28971    512.19663    234.99265    39194.267 
    7900     298.3992   -1042.0976    218.99466    519.99874   -338.80326    39194.267 
    8000    301.67269    -1062.808     223.3388    518.36656     6.901229    39194.267 
    8100    292.54893   -1053.8582     224.8998    487.81115    -511.5724    39194.267 
    8200    306.84038   -1077.3392    227.89119     531.6477    385.45073    39194.267 
    8300    296.37661   -1102.7976    225.20353    456.40391     125.3424    39194.267 
    8400    292.38074     -1073.73    226.84321    469.12568    307.26781    39194.267 
    8500    300.84251   -1087.4885    220.89562    487.50626    291.11582    39194.267 
    8600    305.16498   -1091.5083    229.85182    511.89817    486.21324    39194.267 
    8700      300.535   -1102.2607    225.42574    475.88003    531.22875    39194.267 
    8800    309.96233   -1065.3013    230.08789    559.93427    249.66254    39194.267 
    8900    311.53915   -1089.3649     244.9807    557.86077    254.34724    39194.267 
    9000    294.99674   -1079.0358    242.26548    491.01688    323.53051    39194.267 
    9100    304.29279   -1118.3613    220.58697    471.85461    743.26455    39194.267 
    9200    308.02079   -1090.9509    243.49733    538.95516    436.24808    39194.267 
    9300    297.46324   -1096.2623    228.03105    470.65763    10.427116    39194.267 
    9400    306.26251   -1085.5063    237.49381    530.48214    462.21235    39194.267 
    9500    295.03096   -1071.3715     239.6581     496.2278    213.85228    39194.267 
    9600    297.19606   -1069.0876    234.84468    503.44348    240.78109    39194.267 
    9700    302.91448   -1063.7151    256.45541    556.16547    267.60265    39194.267 
    9800    301.33166   -1067.5443    233.37631    522.13281   -29.237423    39194.267 
    9900    303.42166   -1066.3663    244.52341    543.86502    388.02412    39194.267 
   10000    292.22887    -1099.886    247.51374    462.95672    146.06149    39194.267 
   10100    295.73473   -1087.3848    244.38621    488.11028    92.521378    39194.267 
   10200     299.0153   -1073.6616    237.68162    509.89484     101.0164    39194.267 
   10300    303.27149   -1090.2274    248.83892    523.64357   -337.50661    39194.267 
   10400    304.26522   -1047.1165     246.1901    568.57841   -86.532298    39194.267 
   10500    279.09815   -1055.5286    241.06073     441.7593   -296.15205    39194.267 
   10600    314.26259   -1094.3003    242.38149    562.58444    7.9129307    39194.267 
   10700    300.45493   -1084.0631    261.15292    529.44441    -186.0097    39194.267 
   10800    289.45203   -1092.1153    255.70268    466.41767    321.50762    39194.267 
   10900    297.84968   -1119.9759    264.31545    484.96787    100.14079    39194.267 
   11000    296.83903   -1082.7425     247.7387    501.07552   -113.45601    39194.267 
   11100    308.50184   -1077.6373     251.3927    562.32931   -77.130483    39194.267 
   11200    303.50707   -1090.0062    269.21166    545.29776   -130.66791    39194.267 
   11300    296.24212   -1054.6256     269.0573    547.82432    21.773896    39194.267 
   11400    289.78062   -1027.7327    269.73539    546.31196    129.98498    39194.267 
   11500    283.66421   -1089.1509    248.75475    436.38302   -10.186559    39194.267 
   11600    306.90445    -1081.579    260.10759    559.91261   -79.172827    39194.267 
   11700     289.3743   -1071.5516    271.06564    501.99442    -27.25462    39194.267 
   11800    296.42773   -1122.5212    268.81164    480.51854    150.22369    39194.267 
   11900    290.98791   -1091.7536     257.3209    475.31065   -4.1878751    39194.267 
   12000    315.22862   -1083.8885    276.82548    611.78836    688.77725    39194.267 
   12100    297.55203   -1096.3031      269.767    512.75247     520.6403    39194.267 
   12200    296.32496   -1093.0862    268.51497    509.19429    776.90921    39194.267 
   12300    301.97885   -1085.4434    271.46684    545.23718    543.43117    39194.267 
   12400     300.7371   -1050.5291    302.20854    605.30412    1048.5305    39194.267 
   12500    302.20276    -1100.003    269.80707    530.02568    624.23019    39194.267 
   12600    291.95914   -1114.0894    278.11652    478.14203    781.40556    39194.267 
   12700    295.81875   -1097.8126     268.0414    501.71584    266.91512    39194.267 
   12800    292.68008    -1058.597    274.44549    533.20833    407.56586    39194.267 
   12900    305.40485   -1121.4712    275.66208    528.82518    473.41921    39194.267 
   13000    303.36807   -1130.5567    264.27856    499.18862    223.28384    39194.267 
   13100    303.82894   -1111.5806    277.11031    533.07076     550.0164    39194.267 
   13200    297.94623   -1135.6832    284.09346    489.47312    180.27713    39194.267 
   13300    303.05699   -1101.0712      285.001    547.99638    322.20388    39194.267 
   13400    292.00572   -1136.6005    290.03252     467.7565     474.8479    39194.267 
   13500    294.19242   -1166.5557    275.63058    433.24179    401.27413    39194.267 
   13600     297.1641    -1131.528    277.96046    483.97498    567.67933    39194.267 
   13700    295.26219   -1152.3727    275.16655    451.77581    506.25388    39194.267 
   13800    300.24666   -1165.3313    273.22538    459.31123   -65.320042    39194.267 
   13900    305.99187   -1153.7392    277.58478    501.12203    665.41088    39194.267 
   14000    304.82417   -1155.3623    271.92867    488.58699    370.49764    39194.267 
   14100    293.33586   -1123.0119    284.22005    481.51961    168.97154    39194.267 
   14200      292.609   -1095.6852    282.74006     504.0948    352.63579    39194.267 
   14300    296.59274    -1108.112    271.99416    498.85292    107.09625    39194.267 
   14400    292.97612   -1095.6584    293.64937    516.68334    268.10082    39194.267 
   14500    301.95517    -1114.376     263.8036    508.53478    404.95626    39194.267 
   14600    300.73614   -1063.7411    278.93015    568.80941    326.15409    39194.267 
   14700    291.25765   -1076.2372    288.44235    523.16255    219.59896    39194.267 
   14800    304.33128   -1057.3741    286.49659    598.92467    119.50788    39194.267 
   14900    298.05951   -1109.3441     273.2437    505.47239    486.22862    39194.267 
   15000    284.78057   -1132.7011    302.44252    451.54538    66.088305    39194.267 
   15100    290.44121   -1095.4757    288.92138    500.72829    290.89429    39194.267 
   15200    301.75256   -1061.9344    298.41619    594.67708    65.845619    39194.267 
   15300    300.33435   -1120.7793    287.86216    518.89473   -169.53861    39194.267 
   15400    308.05498    -1096.837    296.85862    586.58426     404.1801    39194.267 
   15500     298.0328   -1116.5375     296.6214    521.53647    204.67232    39194.267 
   15600    305.36299   -1117.9268    293.02848    549.54756    402.52556    39194.267 
   15700    314.98864   -1068.0142    293.27739    643.03434    777.09973    39194.267 
   15800    300.62902   -1100.1689    293.23751    546.20681    360.10377    39194.267 
   15900    298.03483   -1074.6275    305.24834    572.08248     374.5549    39194.267 
   16000    298.12054    -1120.985     290.1415    511.00393    54.446962    39194.267 
   16100    305.10375   -1101.2621    288.03483    560.05181    276.28621    39194.267 
   16200    309.56378   -1114.1356    303.46009    582.67825    19.894269    39194.267 
   16300     305.0795   -1149.5226    303.38351    527.03081    351.30923    39194.267 
   16400    300.29254   -1104.9622    285.64257    532.30406    488.43432    39194.267 
   16500    289.84455    -1117.068    300.15597    487.68503    104.17273    39194.267 
   16600     301.0363   -1088.1126    290.23197    557.09069   -237.50555    39194.267 
   16700    302.47834   -1119.9435    295.52563    537.04409     76.49573    39194.267 
   16800    308.40925   -1102.9095    302.87782    588.12547    317.18628    39194.267 
   16900    297.14955   -1144.7158    295.00698     487.7682    466.65192    39194.267 
   17000    302.46578   -1126.2294    308.82133    543.99746    518.33045    39194.267 
   17100    302.97215   -1132.3099    294.67326    526.04808   -267.25584    39194.267 
   17200    306.51946   -1107.9035    292.26019    564.00793   -189.32245    39194.267 
   17300    301.40934   -1114.9963    307.04036    548.69449    90.747743    39194.267 
   17400    297.98382   -1151.4222    296.00222    485.81208    301.10495    39194.267 
   17500    302.71874   -1130.5441    330.16064    562.16064    70.331233    39194.267 
   17600     300.2081   -1139.4107    304.07194    515.90481    508.35414    39194.267 
   17700    298.97395   -1139.3275    306.51862    512.87981   -66.488786    39194.267 
   17800    297.79014   -1153.0503    309.11943    496.42943    245.18326    39194.267 
   17900    294.20149   -1147.2066    293.61148    470.61264    420.78114    39194.267 
   18000    297.78385   -1128.2565    314.94458    527.02009    198.36555    39194.267 
   18100    308.75681   -1149.6661    306.41485     546.4703    686.98035    39194.267 
   18200    303.76788   -1146.5611    294.72379    515.42903    153.79382    39194.267 
   18300    296.20378   -1160.3155    314.39944      487.304     417.9026    39194.267 
   18400    310.71956   -1107.3659    328.47106    619.66108    641.97355    39194.267 
   18500    295.17098   -1112.0663    313.66981    530.17491    669.21047    39194.267 
   18600    294.34226   -1095.8069    317.59346    546.62787    252.32545    39194.267 
   18700    293.76733   -1149.1625    321.04793      494.139   -132.97125    39194.267 
   18800    305.36832   -1128.0545    309.34918    555.76453   -368.05862    39194.267 
   18900    313.14421   -1113.1975    310.87975    607.15158   -64.245758    39194.267 
   19000    312.28906   -1133.3365    312.18409    584.46794   -212.52716    39194.267 
   19100    307.51284   -1138.8247    331.00119    576.29895    252.55271    39194.267 
   19200    287.46854   -1125.5113    314.55007    482.94132     147.2647    39194.267 
   19300    313.20827   -1189.5045    308.51124     528.7644    41.678237    39194.267 
   19400    293.47641   -1150.4624    319.89986    490.38159    321.69228    39194.267 
   19500    308.17492    -1150.429    320.95438     557.6279    351.45331    39194.267 
   19600    293.76085   -1165.5225    314.21546    470.91734    186.78712    39194.267 
   19700    300.06925   -1146.3999    313.77453    517.99325    284.68852    39194.267 
   19800    295.56528   -1100.5667    306.41453    536.19397    202.96699    39194.267 
   19900    294.69488   -1108.8794    328.33388    545.88293   -190.88068    39194.267 
   20000    301.89028   -1148.0614     322.3804    533.13413     376.7097    39194.267 
   20100    297.92053   -1182.4939    305.19069    463.64399    426.94198    39194.267 
   20200    305.61463   -1152.2513    322.14476    545.47201    99.680661    39194.267 
   20300    309.28803    -1120.584    319.16504    590.69357   -21.677833    39194.267 
   20400    298.72145   -1140.8547    318.97693    522.67439    221.52308    39194.267 
   20500    304.25218    -1136.136    326.45799    559.76806    326.45338    39194.267 
   20600    305.52364   -1149.4318    327.73993    553.47711    594.76005    39194.267 
   20700    315.69112   -1140.1876    332.09408    612.83951    360.94525    39194.267 
   20800    301.31159   -1160.8109     328.4307    523.83019    612.77547    39194.267 
   20900    299.46425   -1127.7827    322.19477    542.30756    459.97868    39194.267 
   21000    299.65092   -1138.8844    322.74294    532.59426    664.58517    39194.267 
   21100    297.72331   -1158.5899    320.22044    501.69005    357.41694    39194.267 
   21200    309.10237   -1150.2917    336.02432    577.00961    170.17444    39194.267 
   21300     305.2318   -1136.1173    325.50823    563.24629    320.00462    39194.267 
   21400    301.32884   -1162.4146    328.80714    522.68068    178.98304    39194.267 
   21500    298.46139   -1155.1806    323.94873    512.14977    426.83551    39194.267 
   21600    302.28537   -1170.1748    329.92852    520.34716    300.42972    39194.267 
   21700    307.70325   -1180.7507    335.85061     540.0794    492.03841    39194.267 
   21800    300.19687    -1174.367    324.28582    501.11193    666.92328    39194.267 
   21900    308.73321   -1218.4893    340.67313    511.79916    609.58828    39194.267 
   22000     298.0971   -1207.3439       327.97     462.3681     246.1929    39194.267 
   22100    299.59481   -1186.7409    320.36582     482.1081    269.94155    39194.267 
   22200    304.54065   -1199.1735    324.42149    495.99247    -199.3356    39194.267 
   22300      297.938   -1223.1116    324.50113    442.41535   -37.267476    39194.267 
   22400    300.46286   -1228.2482    302.04966    426.19177    34.165352    39194.267 
   22500     305.4458   -1209.2408    324.71996    490.29778     235.0923    39194.267 
   22600    298.81447   -1219.7946     324.9671    450.14338   -154.90153    39194.267 
   22700    290.45285   -1186.5555     323.7891    444.56861    40.671155    39194.267 
   22800    307.81778   -1197.5925    325.00365    512.90612   -209.89347    39194.267 
   22900     291.4688   -1212.4444    327.69068    427.15409    118.87774    39194.267 
   23000    285.34036   -1216.5569    315.67598    383.44269    248.38534    39194.267 
   23100    298.77888   -1163.8097    317.70592    498.70686    442.16404    39194.267 
   23200    297.03028   -1201.3716     346.4222    481.99078   -89.809938    39194.267 
   23300    285.13192   -1143.4352    347.48565    487.43581    296.63003    39194.267 
   23400     300.7596   -1156.7878    313.57474    510.51286    640.94986    39194.267 
   23500    298.84161   -1163.2528    334.48702    516.32723    268.65001    39194.267 
   23600    300.14299   -1166.9957     353.4272    537.38201    163.84394    39194.267 
   23700    304.62309   -1160.1297    344.07428    555.06017    366.06824    39194.267 
   23800     294.7934   -1192.7883    333.90612    467.98979    219.17302    39194.267 
   23900    296.26724   -1164.1258    332.40419    501.78414    284.68201    39194.267 
   24000    305.64536   -1178.8991    349.12367    545.94143    135.81609    39194.267 
   24100    310.64689   -1173.9028    335.97637    560.30242   -26.608083    39194.267 
   24200    298.57297   -1189.3514    337.54186    492.07433    -251.0958    39194.267 
   24300    303.62474   -1180.9709    332.40882    518.05996   -157.04659    39194.267 
   24400    304.44909   -1152.4156    332.22303    550.13982     23.06343    39194.267 
   24500    295.68279   -1170.9655    351.68602    511.59559   -29.757982    39194.267 
   24600    301.15012   -1177.8639    333.13226    510.75205   -148.87729    39194.267 
   24700    306.36836   -1173.6627     340.7487    546.05706   -49.762832    39194.267 
   24800    284.68543   -1121.4414    337.21059    497.14491     587.6723    39194.267 
   24900    311.94594   -1158.0453    342.42107    588.45168    355.58064    39194.267 
   25000    299.41855   -1138.3027    332.01001    541.39714   -145.97243    39194.267 
   25100    307.53756   -1175.3963    336.76209    545.59951    171.01066    39194.267 
   25200     302.2942   -1189.4124    332.32239    503.54317   -279.08596    39194.267 
   25300    291.10186   -1214.2048    316.96547    413.01685    95.147881    39194.267 
   25400    309.82894   -1222.0168    350.87383    523.40421   -51.087064    39194.267 
   25500    302.22949   -1203.8143     336.9718    493.49948     287.0418    39194.267 
   25600    299.93789   -1213.6381    333.51766    469.90701    230.16865    39194.267 
   25700    297.22769   -1168.2801    349.44128     518.9899    -140.8375    39194.267 
   25800    301.00495   -1173.3195    323.61666    505.12742    461.31921    39194.267 
   25900    298.03453    -1175.243    339.65438    505.87177    278.51494    39194.267 
   26000    302.48356   -1144.7467    363.91825    580.65705     235.2444    39194.267 
   26100    311.26032   -1229.2311    358.49534    530.25412    152.38777    39194.267 
   26200    313.85529    -1190.933    352.92526    574.66222    171.41067    39194.267 
   26300     298.8161   -1151.4184    352.42473    545.98451     640.9461    39194.267 
   26400    291.99239   -1180.5315    351.17617    484.90915   -89.267156    39194.267 
   26500    303.20962   -1177.4206    343.59144    530.92432   -20.049707    39194.267 
   26600    291.55794   -1183.6588    320.38709     449.0373   -162.93603    39194.267 
   26700    300.49134   -1195.3774    347.94169    505.08281     144.1599    39194.267 
   26800    285.60149   -1231.6873    339.01686    392.82851    10.110531    39194.267 
   26900    291.60733   -1224.4259     328.4603    416.56579     -166.548    39194.267 
   27000    302.25965   -1232.4809    341.97398    469.97077    405.57363    39194.267 
   27100    300.55495   -1232.3959    333.46029    453.86921   -197.97083    39194.267 
   27200    302.39842   -1241.8123    342.46967    461.75965    198.29427    39194.267 
   27300    301.02327    -1258.934    362.93651    458.91523   -354.27812    39194.267 
   27400     312.6264   -1206.6715    347.81885    548.28597    -115.3108    39194.267 
   27500    300.60742   -1239.2231    336.57808    450.39595   -115.90461    39194.267 
   27600    308.65937   -1253.3346    348.62285    484.57119   -174.18876    39194.267 
   27700    296.90667   -1214.1111    337.97303    460.24574   -330.49059    39194.267 
   27800    294.68173   -1220.8295    340.60823    446.14805    -140.6303    39194.267 
   27900    298.26472   -1266.9537    338.09075    413.63345   0.27377972    39194.267 
   28000    311.23169    -1253.404    338.87674    486.33383    38.989982    39194.267 
   28100    298.85743   -1225.2089    311.84001    431.79527    297.85041    39194.267 
   28200    302.93967   -1247.1445    349.11055    465.50454    109.30222    39194.267 
   28300    303.10175   -1207.8737    366.46451    522.85883    37.637171    39194.267 
   28400    303.48509   -1223.2232    342.75988    485.53013    24.018002    39194.267 
   28500    304.48113   -1206.8687    337.64269    501.25062    118.89422    39194.267 
   28600    292.39494   -1240.8264    336.99273    412.24277    119.53382    39194.267 
   28700    293.69489   -1183.7703    342.72376    480.88097    116.21518    39194.267 
   28800    288.32819   -1198.6696    368.59826    467.70053   -186.58917    39194.267 
   28900    296.67569   -1203.5155    348.57401    480.40264    287.63348    39194.267 
   29000    293.33307   -1209.6505    360.65941    471.30788    28.156214    39194.267 
   29100    302.29687   -1203.1388    380.15268    537.65914   -13.109957    39194.267 
   29200    304.58004   -1217.2727    346.82871    500.47778    470.89822    39194.267 
   29300    313.62609   -1249.9856    375.36791     537.0206    313.82448    39194.267 
   29400    309.80683   -1259.4713    340.67737    475.65381    67.949275    39194.267 
   29500    306.13548   -1290.6888    353.68219    440.91626    920.19028    39194.267 
   29600    294.36033   -1235.0198    349.99318    439.89601    56.742494    39194.267 
   29700     294.2087   -1282.9088    376.17547    417.50682    470.54429    39194.267 
   29800    296.41464    -1282.642    362.56555    414.09276    409.66264    39194.267 
   29900    295.66797   -1224.9034    361.58272    467.48775   -44.463302    39194.267 
   30000    300.64526    -1224.473    349.65528    478.39353    92.463384    39194.267 
   30100    290.82201   -1275.5253    352.48871    385.96003   -229.50099    39194.267 
   30200    296.88845   -1230.9077    382.02414    487.41822   -307.15516    39194.267 
   30300    296.40899   -1194.3849    349.81587    489.57475   -298.37359    39194.267 
   30400    302.04904   -1235.2989    353.88957    478.12041   -96.038148    39194.267 
   30500      276.783   -1228.8971    357.78828    374.69791    126.19839    39194.267 
   30600     285.3779   -1244.3484    368.29287    408.43705   -215.43404    39194.267 
   30700     300.2133   -1225.7601    364.80536    490.31225   -1.0248578    39194.267 
   30800    297.67026    -1251.137    358.27461    446.95838   -141.09033    39194.267 
   30900     302.4459   -1177.7187    368.64422    552.24152   -4.3348934    39194.267 
   31000    303.10461   -1219.7179    374.30897    518.87189   -340.56258    39194.267 
   31100    291.35602   -1211.8745    372.55898    472.08465   -200.91677    39194.267 
   31200    307.03612   -1174.2534    371.89827    579.62151   -33.220799    39194.267 
   31300    294.30169   -1166.4681    408.55338    566.74405   -253.86854    39194.267 
   31400    300.43069   -1233.2293    377.80306    496.81925    213.34296    39194.267 
   31500    303.85043   -1229.8185    373.60303    511.42236    65.185553    39194.267 
   31600    311.86143   -1175.6515    385.35469    613.39867    -39.57492    39194.267 
   31700    300.41575   -1215.5555    358.89763    495.52041    510.95949    39194.267 
   31800    300.93037   -1147.1563    379.41607     586.7544    167.73641    39194.267 
   31900    297.44478   -1147.8507    382.68216    573.63732    203.92107    39194.267 
   32000    299.55621    -1168.622    360.40431    540.09177    114.50466    39194.267 
   32100    302.22964   -1187.5497    347.64663    520.43951    619.95078    39194.267 
   32200    290.30257   -1182.5847    369.19657     493.2704    322.05994    39194.267 
   32300    306.98251    -1186.401    375.03071    570.36507   -172.63188    39194.267 
   32400    298.97595   -1198.8561    356.87515    503.71675    252.81028    39194.267 
   32500      294.306   -1202.6221     390.7833    512.83929    246.60122    39194.267 
   32600    308.62827    -1218.836    365.37527    535.68226   -148.08766    39194.267 
   32700    299.51581   -1198.0653    374.88655    524.94889    786.03935    39194.267 
   32800    292.14345   -1222.3182    390.55742    483.18369    680.52886    39194.267 
   32900    303.22422   -1240.7385    385.26781    509.34854    672.85734    39194.267 
   33000    301.08757   -1245.7794    392.70108     502.1238     38.09976    39194.267 
   33100     302.1769   -1211.8429    357.93793    506.20024    192.90097    39194.267 
   33200    299.72245   -1211.2379    385.23934    523.05917    368.98574    39194.267 
   33300    290.11556   -1222.8402    381.90085    464.87747    135.14324    39194.267 
   33400    295.68696   -1229.9013    359.67913    460.67171   -155.01915    39194.267 
   33500    295.73714   -1218.9911    382.61181    494.74048   -235.37005    39194.267 
   33600    290.99461   -1223.6686    342.37268    428.47756    -297.7919    39194.267 
   33700    295.98588   -1212.0773     375.3839    495.54593     152.9957    39194.267 
   33800    298.07664    -1242.963    394.49739    493.18427   -1.2955109    39194.267 
   33900    300.19236   -1240.1543    368.34897    479.36748   -64.266871    39194.267 
   34000    298.87118   -1243.0611    392.89478    495.05984    591.95974    39194.267 
   34100    312.88356   -1270.3546    372.68433    510.62587    746.25586    39194.267 
   34200     295.5756   -1220.2288    379.27614    489.43995    784.55121    39194.267 
   34300    305.87292    -1236.979    352.43038    492.19249     579.8433    39194.267 
   34400    291.42999   -1198.2366    387.27432    500.77091    428.73532    39194.267 
   34500    298.90553   -1233.3647    386.34177    498.35777    674.59065    39194.267 
   34600    293.60552   -1231.6714     370.9166    460.77044    754.54025    39194.267 
   34700    297.26402   -1243.7362    379.81224     474.0683     261.1999    39194.267 
   34800    306.61021   -1244.3237    386.20005      521.936    65.591995    39194.267 
   34900    300.20807   -1209.7174    361.20774    502.73385    355.17411    39194.267 
   35000    297.05578    -1274.639    367.53656     429.9525     404.2393    39194.267 
   35100    307.42167    -1258.026    368.98811    494.67418    410.55849    39194.267 
   35200    298.04284   -1180.6197    382.98886    543.86692    104.67636    39194.267 
   35300    301.84641   -1236.0597    355.77987    478.33791     450.0762    39194.267 
   35400    294.01725   -1206.2739    380.99498    498.09955    541.51091    39194.267 
   35500    300.22609   -1228.3386    379.47463    502.46065    293.92429    39194.267 
   35600    292.72852   -1253.0559    369.43958    433.96153    34.140302    39194.267 
   35700    309.69175   -1281.2266    381.68658    494.38972    310.64949    39194.267 
   35800      307.107    -1290.006    365.76283     458.0526   -363.16732    39194.267 
   35900    307.62645   -1269.2545    380.48102     495.8603   -611.38268    39194.267 
   36000    291.47788   -1240.5472    396.40674    467.80823   -487.39039    39194.267 
   36100    292.39566    -1239.449    371.37389    448.00454   -138.61685    39194.267 
   36200    316.03345   -1232.2944    381.44351    571.62302   -94.644547    39194.267 
   36300    298.85442   -1256.7465    395.40918    483.81331   -167.12803    39194.267 
   36400    293.88617   -1222.4402    397.19854    497.54679   -607.31677    39194.267 
   36500    301.87527   -1242.6605    387.51745    503.60455    91.933204    39194.267 
   36600    308.18747   -1278.4369    385.85134    494.57334    551.76159    39194.267 
   36700    301.51413   -1253.0465    396.76302    500.83862    417.03391    39194.267 
   36800    296.80601   -1271.6352     392.3398    456.63535   -41.284653    39194.267 
   36900    295.62646   -1251.3706    375.84345    455.09433    318.39189    39194.267 
   37000    293.37186    -1251.956    369.16053    437.67806    141.58411    39194.267 
   37100    310.59835   -1281.2415    357.99781    474.76672    52.279948    39194.267 
   37200    302.80692   -1270.3464     379.2265    471.82106    234.37306    39194.267 
   37300    301.95931   -1270.8858    379.79486    468.03489     384.2538    39194.267 
   37400    307.07115   -1246.8257    380.23199     515.5407   -360.27468    39194.267 
   37500     304.4528   -1251.8778    421.24984    539.72119    305.24725    39194.267 
   37600    307.48644    -1285.478    394.43279    492.95837    535.32088    39194.267 
   37700    295.34819   -1291.2058    383.16612    421.32934    783.53986    39194.267 
   37800     299.7224   -1253.3539    394.95682    490.66034    259.23223    39194.267 
   37900    308.68597   -1209.6482    381.74104     561.4955     718.2935    39194.267 
   38000    298.21573   -1224.2319    394.59269    512.63673    77.510565    39194.267 
   38100    293.63963   -1237.4244    397.07509    481.32945    342.83407    39194.267 
   38200    288.90221   -1252.7674    413.27148    460.85963     642.2761    39194.267 
   38300    299.19894   -1250.8474    398.12494    493.97888    433.37247    39194.267 
   38400    299.90121   -1259.8649    396.01786     486.0153   -8.3708355    39194.267 
   38500    301.64065   -1268.8971    386.96197     475.7564    479.13299    39194.267 
   38600    295.65748   -1253.8881    400.68944     477.5625    240.72715    39194.267 
   38700    300.38397   -1252.6805    406.20528    505.55998   -62.582025    39194.267 
   38800     301.5733   -1235.6571    405.58477    527.31604    60.232934    39194.267 
   38900    294.06456   -1252.3933     388.4107    459.60878   -273.51803    39194.267 
   39000    303.04189   -1255.9015    391.64166    499.73874   -367.07732    39194.267 
   39100    292.64523     -1237.11     397.5056     477.5986    -21.89206    39194.267 
   39200    308.55872   -1263.4614    381.80788    507.17648    636.42454    39194.267 
   39300    293.68573   -1271.3807    385.40139    435.90696    888.77664    39194.267 
   39400    305.52382   -1258.9001    411.63917    527.90887      592.156    39194.267 
   39500    305.28526   -1253.5667     380.1687    500.69808    822.80522    39194.267 
   39600    300.42701   -1247.1308    403.75284    508.85102    694.70847    39194.267 
   39700     294.0742   -1215.1826     386.7224    495.17457    1287.4604    39194.267 
   39800    303.91948   -1203.6739    389.72883    554.00356   -60.720258    39194.267 
   39900     306.6105    -1218.557    380.69708    542.20101    316.95862    39194.267 
   40000    303.30979   -1234.0028    384.25459    515.45618    701.24784    39194.267 
   40100    297.00371   -1239.3564    392.36665    489.83086    732.42433    39194.267 
   40200    302.09128    -1240.323    397.39532     516.7922    473.16324    39194.267 
   40300    297.57411   -1226.2167    395.08331    508.25456    595.16769    39194.267 
   40400    315.59658   -1247.2945    385.04382     558.2568    511.63436    39194.267 
   40500    296.21271   -1254.5206    401.50535    480.24502    181.07367    39194.267 
   40600    300.98482   -1287.0897    392.43045     460.0804    253.17491    39194.267 
   40700    297.82171   -1258.5798    393.76981    475.69245   -105.07874    39194.267 
   40800    290.22071   -1280.5657    406.28124    432.00567   -274.01369    39194.267 
   40900    283.82488   -1262.4379     392.2938    407.35828   -150.71099    39194.267 
   41000     306.4743   -1284.4831    409.32008    504.28486    603.81548    39194.267 
   41100     294.0731   -1257.8248    396.96012    462.76519    190.18474    39194.267 
   41200    292.10058   -1214.2872    389.81719    490.28148     351.2655    39194.267 
   41300    297.65292   -1307.4256    397.62274    429.93984     265.5662    39194.267 
   41400    294.37777   -1293.1983    393.86505    425.66787    175.21913    39194.267 
   41500    305.30425   -1262.9333    397.39364    508.64182    634.36953    39194.267 
   41600    301.82604   -1238.1478    409.65938    530.03761    221.81176    39194.267 
   41700     309.7943   -1263.7107     410.1708    540.85138   -49.826168    39194.267 
   41800    290.19505   -1262.9547     397.5645    440.78445    100.28415    39194.267 
   41900    311.62281   -1265.1775    401.63845    539.08245    506.28678    39194.267 
   42000    299.11414   -1293.1452    410.65204    463.82654   -238.63008    39194.267 
   42100    306.14604   -1287.3828    423.93777    514.52543     261.0021    39194.267 
   42200    309.83509   -1280.2455    383.54954    497.87895    463.19939    39194.267 
   42300     287.6124   -1295.6766    410.30856    409.18207    78.839578    39194.267 
   42400    293.84471   -1292.5919    366.58147    396.59143   -108.42284    39194.267 
   42500    291.92302   -1285.8212    404.67434     432.8054    233.06025    39194.267 
   42600    289.37909   -1240.0313    395.94433    458.41506   -303.24338    39194.267 
   42700    294.86466   -1263.4321    386.24867    450.00923    127.04033    39194.267 
   42800      288.364   -1259.3854    426.95138    465.49898    161.68327    39194.267 
   42900    303.35864    -1295.155    409.01879    479.28803     77.32454    39194.267 
   43000    309.10712   -1230.7875    412.25444    572.76523     112.4461    39194.267 
   43100    300.67302   -1283.4649    379.97523     449.8465   -196.66731    39194.267 
   43200     295.6709   -1282.8673     397.6402    445.59452    43.110319    39194.267 
   43300    300.55319   -1265.0716    398.47334    486.19856    271.15597    39194.267 
   43400     291.9388   -1286.6139    402.77727    430.18663    210.00026    39194.267 
   43500    296.51233     -1293.43    398.97764    440.15654      228.958    39194.267 
   43600      296.595   -1282.1399    417.91287      470.754   -215.10768    39194.267 
   43700    307.44995    -1278.049    403.20173    508.99209   -85.717412    39194.267 
   43800    302.65733   -1285.0269    414.18708    491.42784   -344.03294    39194.267 
   43900    295.34435   -1282.4328    406.39734     453.3163   -51.218631    39194.267 
   44000    313.15607   -1289.0142    403.48489     523.9934    -223.1133    39194.267 
   44100    299.97373   -1282.2498    395.51396    463.45289    202.35562    39194.267 
   44200    304.34819   -1283.9548    409.43281    495.35627    455.90918    39194.267 
   44300    296.34898   -1285.3029    414.31079    462.88151   -109.92562    39194.267 
   44400    317.77754   -1309.9102    392.69391    513.10777    556.48461    39194.267 
   44500    301.12911   -1331.1402    430.03376    454.28263    824.45875    39194.267 
   44600    304.09303   -1390.9848    400.23693    377.98186    508.73724    39194.267 
   44700    298.85313   -1329.6822    401.97464    417.43731    807.47552    39194.267 
   44800    306.85362   -1313.9162    418.45528    485.69429    590.54027    39194.267 
   44900    306.00685   -1322.7857    396.88205    451.44026    613.93752    39194.267 
   45000    299.78284   -1287.7985     433.1613    494.69228    323.55912    39194.267 
   45100    301.72547   -1280.4405    406.87219    484.50504     476.5329    39194.267 
   45200    289.56979   -1238.2704     405.4923    470.58226    830.90488    39194.267 
   45300    290.49152   -1230.0984    388.45425    465.86492    217.11549    39194.267 
   45400    295.83979    -1291.297    404.89335    445.17812    42.589346    39194.267 
   45500    295.53318   -1331.0691    403.91598    403.04852   -56.025042    39194.267 
   45600    305.35369   -1260.6557    414.97062    528.71892   -189.02789    39194.267 
   45700    301.24329   -1295.2361    414.94931    475.61619    135.76664    39194.267 
   45800    304.81161   -1288.9598    416.90347    499.90778    648.43027    39194.267 
   45900    294.59974   -1263.5691     409.6309    472.06204    121.66055    39194.267 
   46000    305.93493   -1268.2586    407.61431    516.37592    182.13205    39194.267 
   46100    300.12276   -1278.0413    399.00378    471.82197     278.8179    39194.267 
   46200    306.79229   -1271.1702    420.96467    530.67369    216.19372    39194.267 
   46300    289.59764   -1275.6921    408.24938    436.04291    234.34283    39194.267 
   46400     293.7933   -1323.3643    395.08441    394.09059    75.787729    39194.267 
   46500    305.12208   -1270.7426     399.7392    502.35816    249.19796    39194.267 
   46600    298.51399   -1257.5227     397.8676    483.96333    661.68084    39194.267 
   46700    302.32242   -1251.7109    388.68307    497.73243    768.77983    39194.267 
   46800    290.11228   -1256.7637    423.97255    473.01095    210.24394    39194.267 
   46900    297.27841   -1258.3853     397.5078     477.1795    89.506601    39194.267 
   47000    294.37732   -1256.8273    400.89702     469.0689    464.17841    39194.267 
   47100    308.28929   -1272.2617     398.1814    513.53694   -45.371954    39194.267 
   47200    285.53618   -1282.1149    420.20877    423.29883    456.22161    39194.267 
   47300    302.34292    -1246.911    419.35623    533.29771    212.18734    39194.267 
   47400    294.56774   -1281.4533    410.52541    454.92829   -185.56052    39194.267 
   47500    288.92022   -1236.1133    425.64431    489.96759    125.34612    39194.267 
   47600    297.61572   -1218.7591    399.84522    520.66137    318.41555    39194.267 
   47700    310.66851   -1201.4009    433.73755    630.66285    110.90594    39194.267 
   47800    299.64896   -1219.6349     414.4664    543.55845    308.82033    39194.267 
   47900    293.13068   -1254.3813    404.39434    469.40103     282.0837    39194.267 
   48000    303.44002   -1269.6007     422.7482    518.93806    356.91215    39194.267 
   48100    296.64932   -1215.3603    420.01631    539.88147    302.61483    39194.267 
   48200    286.68736   -1249.5377    421.33477    462.18355    630.54011    39194.267 
   48300    300.66906   -1257.2963    412.51962    508.54171    132.62506    39194.267 
   48400    303.42159    -1259.945    401.76946      507.532    111.09678    39194.267 
   48500     296.5333   -1238.2444    405.76161    502.22048    332.83541    39194.267 
   48600    296.65307   -1266.9927     403.9676    472.21721   -370.68091    39194.267 
   48700    306.24172   -1229.3488    390.17633    539.22863   -162.66081    39194.267 
   48800    302.65454   -1227.0154    393.36719    528.60683   -373.62286    39194.267 
   48900    304.38505   -1261.6452    416.39897    524.79793   -172.82712    39194.267 
   49000    301.71082   -1238.8599    424.40344    543.55093    456.74372    39194.267 
   49100    303.68887   -1282.6965    407.70231    491.91643    210.79203    39194.267 
   49200    295.31495   -1243.7499    408.12798    493.59754   -334.71817    39194.267 
   49300    304.35286   -1250.6751    381.72134    500.94552   -263.03018    39194.267 
   49400    292.88157   -1241.9828    404.57167    480.85565   -400.77618    39194.267 
   49500    312.95549   -1225.2756    434.48096    617.82521   -135.77729    39194.267 
   49600    301.59569   -1250.5572    398.53583    505.46782    95.332006    39194.267 
   49700    304.15531   -1278.1212    387.91686    478.80573   -244.93286    39194.267 
   49800    298.41161   -1292.7573    399.60556    450.00584   -341.69908    39194.267 
   49900    299.17344   -1303.5479     395.7512    438.78987    131.08249    39194.267 
   50000    313.89976   -1277.8785    420.24744    555.23908     343.3377    39194.267 
   50100    298.93276   -1271.9524    437.65217      511.203    495.50821    39194.267 
   50200    300.62196   -1288.4707    417.19038     481.8261   -172.93785    39194.267 
   50300    306.81263   -1252.7457    400.33747    528.56256     175.6115    39194.267 
   50400    294.87889   -1284.2705      418.337     461.3232   -118.84834    39194.267 
   50500    302.52078   -1235.0948    426.27284    552.83111    548.31698    39194.267 
   50600    301.77986   -1280.8339    414.11078    491.59507    -80.69632    39194.267 
   50700    304.36705   -1302.3494    412.57692    480.19071    50.022112    39194.267 
   50800    304.18853   -1284.5331    404.51018    489.13671    184.66328    39194.267 
   50900    287.48442   -1300.6953    415.29944    408.57823   -329.65252    39194.267 
   51000    303.37119   -1268.6455     422.9743     519.8095   -273.97115    39194.267 
   51100    300.15341   -1296.0853    417.25195    472.16411   -972.29245    39194.267 
   51200    300.39984    -1345.606     391.6073    398.10792   -429.53991    39194.267 
   51300    294.73909   -1314.7767    430.92043     442.7712   -212.02129    39194.267 
   51400    304.60821   -1296.8199    428.57653    502.80528    375.58296    39194.267 
   51500    303.56384   -1284.8541    430.72434    512.21815     228.4033    39194.267 
   51600    305.29688   -1264.4669    427.45226    537.13376     450.8934    39194.267 
   51700     300.0513   -1273.1592    434.71927    512.09791    160.81256    39194.267 
   51800    296.74544   -1262.8282    426.38258    499.21252    375.83627    39194.267 
   51900    300.56033   -1271.6357    401.23081    482.42416    406.22467    39194.267 
   52000    302.51968   -1294.6292    425.53854    492.55739    245.68194    39194.267 
   52100    302.41443   -1249.2958    425.28124    537.15976    297.26451    39194.267 
   52200    303.27397   -1254.2645    401.12644    511.90514    313.93384    39194.267 
   52300    308.24858   -1309.3901    428.43229    506.47616   -27.546007    39194.267 
   52400    302.50905   -1247.3543    438.89144    553.13735    223.13257    39194.267 
   52500    310.36299   -1259.2078    401.29749    539.04074    76.639485    39194.267 
   52600    293.44397    -1267.602    414.96137    468.15753   -202.97832    39194.267 
   52700    296.36529   -1280.5887    413.99746    467.35585    151.06905    39194.267 
   52800    300.09419   -1262.8218    418.04144    505.95058    200.64713    39194.267 
   52900     279.2053     -1282.12    425.20921    399.79869   -454.98424    39194.267 
   53000    291.98456   -1257.4807    406.61902     463.3676    -322.9286    39194.267 
   53100     304.2566   -1249.1547    438.52324    558.83449   -632.16341    39194.267 
   53200      298.628   -1266.2782    432.83738    510.69076   -470.67998    39194.267 
   53300    301.22751   -1282.3327    437.22998    510.72931    72.171227    39194.267 
   53400    300.25316   -1286.6788    421.37776    486.14537   -213.07638    39194.267 
   53500     293.2683   -1266.5343    419.30961    472.78267    78.417977    39194.267 
   53600    300.92437   -1277.5246    412.42499    489.36794    -156.9205    39194.267 
   53700    290.15777   -1299.6222    393.75718    400.14183   -546.93527    39194.267 
   53800    304.36528   -1268.7724    428.40171    529.58445    78.747796    39194.267 
   53900    291.26797   -1300.8053    416.64318    426.84171   -111.55619    39194.267 
   54000    294.00363   -1299.7764    436.72758    460.26834    215.09554    39194.267 
   54100    302.51899     -1311.15    435.29343     485.7884   -39.832111    39194.267 
   54200    304.52485   -1316.3813    396.10651    450.39862    9.4879695    39194.267 
   54300    293.55413   -1298.0126    407.67618    430.95759    382.01838    39194.267 
   54400    298.59169   -1289.9851    395.66691    449.64992   -274.46219    39194.267 
   54500    292.20517   -1270.4376    417.07828    461.86296   -239.26722    39194.267 
   54600    292.73257   -1318.2014    405.22644    404.62111     29.32781    39194.267 
   54700    304.39375   -1265.1074    428.02369    532.99964    42.235281    39194.267 
   54800    304.37695   -1252.9846    425.77154    542.79469    204.15706    39194.267 
   54900    301.03939   -1257.9948    406.21696    503.20747   -70.469817    39194.267 
   55000    294.90921   -1284.9388    411.73342     454.1878   -349.44759    39194.267 
   55100    306.60801   -1262.6853    408.87872    526.24317   -455.00307    39194.267 
   55200    298.45481   -1234.2006    418.73222    527.88369   -529.05396    39194.267 
   55300    294.82799   -1245.7935    434.88516    516.11923   -941.90982    39194.267 
   55400    306.33103   -1306.4648    409.66878    482.00706   -410.52201    39194.267 
   55500    292.48005   -1293.4184    403.52513    426.56618    421.24428    39194.267 
   55600    305.60534   -1272.0427    409.61237     513.1064    -1.596572    39194.267 
   55700    314.00098   -1270.2133    399.25348    542.36588    609.62798    39194.267 
   55800    302.62664   -1291.5523    416.13117    486.70835    313.44895    39194.267 
   55900    295.29801   -1274.1566    436.95831    491.94493   -120.67976    39194.267 
   56000      302.953   -1300.0616    426.12856    489.66547    377.01595    39194.267 
   56100    295.39489   -1336.6768    425.53882    418.44126   -202.11467    39194.267 
   56200    309.23689    -1303.644    417.27442    505.51283     426.5468    39194.267 
   56300    306.48185   -1303.4083    434.87315    510.94677   -337.99681    39194.267 
   56400    306.12702   -1322.4347     448.4607    503.91082     58.60572    39194.267 
   56500    295.60623   -1345.1405    410.68751    396.07755   -478.35545    39194.267 
   56600    293.65508   -1304.0725    415.13333    432.80915   -176.21281    39194.267 
   56700    305.28981   -1291.7481     440.6636      523.032    363.76656    39194.267 
   56800     305.4539   -1290.2618    435.33051    519.92381   -142.87894    39194.267 
   56900    301.43143   -1286.1801    422.77567    493.34543    468.78096    39194.267 
   57000    301.94267   -1306.3061    432.06048    484.80535    64.694762    39194.267 
   57100    297.61004   -1274.1913     392.5083    457.86665    558.66096    39194.267 
   57200    289.30076   -1307.1227    427.00987    422.03664      585.761    39194.267 
   57300    302.53891   -1337.0412    418.57319    443.26665    706.24211    39194.267 
   57400    290.94627   -1325.3773    436.49966     420.6783    482.71917    39194.267 
   57500    295.99356   -1309.8592    441.24688    463.66156     298.9914    39194.267 
   57600     306.9798   -1355.6799    437.06032    463.10361    615.10547    39194.267 
   57700    299.37797   -1336.3356    416.08122    427.25278    45.300418    39194.267 
   57800    294.55016   -1354.9022    425.04835    395.92323    301.68584    39194.267 
   57900    304.46646   -1339.9016    404.55015    435.05919    369.90532    39194.267 
   58000    306.46695   -1334.7555    425.80437    470.46374     428.8123    39194.267 
   58100     302.5393   -1327.7854    420.85096    454.80198    388.36964    39194.267 
   58200    305.79268   -1333.5385     418.6986    461.53997    542.40706    39194.267 
   58300    299.73171    -1305.527    429.58202     473.1544     529.5255    39194.267 
   58400    302.56785    -1304.685    422.31457    479.49448    218.79533    39194.267 
   58500    302.05328   -1336.7751     438.0674    460.84112    489.90238    39194.267 
   58600    299.63522   -1290.8505    446.05686    503.87141    765.06382    39194.267 
   58700    294.30127   -1284.7374    441.13743    481.05682    651.25882    39194.267 
   58800    303.31182   -1342.7653     426.1723    448.62057    277.30346    39194.267 
   58900    294.26155   -1327.7473    432.77269    429.50341    729.33514    39194.267 
   59000    306.13805    -1302.518    424.28136    499.69788   -284.01951    39194.267 
   59100    311.66555   -1307.4177    426.77554    522.17165   -319.75368    39194.267 
   59200    293.15974   -1387.3708    436.97946    369.12747   -385.54786    39194.267 
   59300    290.11637   -1319.2968    420.05736    406.58113    53.196454    39194.267 
   59400    294.06546   -1309.6243    442.75068    456.72189   -154.63114    39194.267 
   59500    294.03898   -1335.8741    408.47451     396.0767    -2.048742    39194.267 
   59600    302.97539   -1354.5115    421.81862    431.00639    105.52316    39194.267 
   59700    306.17137   -1342.6772    434.01346     469.4207   -347.18261    39194.267 
   59800    308.38009   -1377.9091    414.37554     424.4924    310.18027    39194.267 
   59900    298.22988   -1332.2984    434.14121    444.18241   -271.65712    39194.267 
   60000    296.71501   -1342.5681    415.06268    408.01573    158.81547    39194.267 
   60100    299.51293   -1378.5102    418.38404    387.98844   -331.09473    39194.267 
   60200    300.40876   -1373.1364    439.23588    418.24624     157.0981    39194.267 
   60300    300.37464   -1374.0635    432.89019    410.81995   -468.65784    39194.267 
   60400    308.22078   -1334.2779    432.34893    485.37995    73.829364    39194.267 
   60500    313.16548   -1343.4527    401.76535    467.87775   -134.11707    39194.267 
   60600    296.73223   -1341.5413    442.98639    437.04379   -271.78811    39194.267 
   60700    303.60181   -1349.5411    415.91343    432.89114    54.597483    39194.267 
   60800    304.96188   -1406.8646    441.87211    407.64803    544.08664    39194.267 
   60900    309.08412   -1370.8272    432.85257    453.22017    479.07011    39194.267 
   61000    299.81539   -1336.6328    439.12007    451.96331    867.14061    39194.267 
   61100    301.56784   -1361.2612    407.95136    404.05402    950.59559    39194.267 
   61200    296.81851   -1317.2345    463.96903    482.72155    988.50291    39194.267 
   61300    289.53304   -1364.1764    431.93702    370.95555    493.73049    39194.267 
   61400    306.55793   -1340.5936     427.7542    466.98492    799.40028    39194.267 
   61500    286.94442   -1342.1024    434.07989    383.52102    314.66756    39194.267 
   61600    309.89749   -1330.4755    423.01784    487.39811    184.74122    39194.267 
   61700     294.3195    -1361.228    441.96583    405.47669   -530.48431    39194.267 
   61800    306.78317   -1325.2896    442.15795    497.70652    387.09809    39194.267 
   61900    303.75111   -1322.6576    423.62873    468.16188    280.29653    39194.267 
   62000    307.96707   -1315.6528    450.67394    521.18804   -446.24254    39194.267 
   62100    316.33425   -1312.1909    469.17544    580.81229   -196.76352    39194.267 
   62200    295.73612   -1342.6502    446.62283    435.08772   -454.22245    39194.267 
   62300    301.66224    -1336.544    443.09134    464.33611    243.89094    39194.267 
   62400    286.19646   -1360.9367    405.13587     332.3761   -595.10884    39194.267 
   62500    303.53914    -1310.592    412.84956    468.49423   -156.13439    39194.267 
   62600    294.03452    -1399.866    445.36459    368.95476   -628.24618    39194.267 
   62700    306.73273   -1397.2516    429.53524    412.89472   -302.20532    39194.267 
   62800    298.06558   -1408.7535    444.98518    377.83176   -27.638298    39194.267 
   62900    286.51866   -1387.8016    426.21598    328.04147    -50.43637    39194.267 
   63000    299.41444   -1327.2489    438.76865    459.19109    201.67097    39194.267 
   63100    298.65364   -1373.4371    430.76406    401.57396    -175.1625    39194.267 
   63200    293.74102   -1378.1005    449.58939    393.62399   -75.213586    39194.267 
   63300    296.84126   -1398.2819     425.6192    363.42669    481.36272    39194.267 
   63400    305.69363   -1392.9294    420.73923    403.74394    475.95795    39194.267 
   63500    308.64699   -1420.2303    424.52078    393.51774   -114.14018    39194.267 
   63600    297.87058   -1354.7365    417.48957    403.47547    -88.04378    39194.267 
   63700     303.0037   -1339.1889    443.57439    468.21218   -27.420686    39194.267 
   63800    304.48487   -1349.7396    406.17829    426.93219    34.467664    39194.267 
   63900    301.17764   -1329.5653    448.80439    474.84666    27.109865    39194.267 
   64000    294.62766   -1387.2327    443.53495    382.42815   -138.86292    39194.267 
   64100    303.75499   -1338.5752    435.10324    463.73623    431.54673    39194.267 
   64200    301.75605   -1372.4408    443.28757     429.0577   -247.36726    39194.267 
   64300    289.17315   -1364.8028    406.93364    343.70588   -608.04784    39194.267 
   64400     300.8196   -1343.1224     435.0743    445.94785   -623.87304    39194.267 
   64500    303.95343   -1375.8514     441.9434    434.19337    -190.3787    39194.267 
   64600    301.92928   -1343.5902    448.44243    463.84294   -17.206943    39194.267 
   64700    309.84883   -1359.8564    456.58622     491.3666    18.184853    39194.267 
   64800    309.55179   -1337.6433    460.62592    516.28239    277.21379    39194.267 
   64900    304.48815   -1323.0873    453.48232    500.90324    512.82285    39194.267 
   65000    304.81995   -1341.6831    452.70851    483.02706    91.240145    39194.267 
   65100    305.63231   -1333.7315    437.71824    479.64481    632.72863    39194.267 
   65200    302.10121   -1359.1451     473.7251     474.3446    1016.7764    39194.267 
   65300    300.57855   -1325.6221    477.06806    504.35699    284.08527    39194.267 
   65400    296.27577   -1330.8926    416.22818    418.87974    107.30491    39194.267 
   65500    294.40222   -1287.1593     444.7936    482.74548    339.85761    39194.267 
   65600    296.74721   -1310.4654    451.17714    476.37777    30.147764    39194.267 
   65700    294.94396   -1305.9592    428.77061    450.36102    9.2121286    39194.267 
   65800     300.1961   -1316.9145     449.5399    483.81503    149.40136    39194.267 
   65900    298.69505   -1357.9237    447.01697    433.52661    342.16068    39194.267 
   66000    301.62541   -1354.5755    470.25912    473.30658     614.5273    39194.267 
   66100    301.82306   -1357.4521     418.0564     419.1169    231.98167    39194.267 
   66200    289.63264   -1397.9704    457.91412    363.58695    162.91318    39194.267 
   66300    301.69777   -1388.8432     456.3489    425.45437    340.20603    39194.267 
   66400    296.06735   -1386.9581    428.54193    374.18986   -111.19037    39194.267 
   66500    308.54015   -1373.8744    445.84272    460.71468    327.31079    39194.267 
   66600    297.10237   -1354.4779    444.98479    427.77155    56.499739    39194.267 
   66700    303.66198   -1348.0326     465.6293    484.38626   -95.988563    39194.267 
   66800     300.1671   -1327.0684    459.43091    483.42152    362.44932    39194.267 
   66900    307.60274   -1376.6769    449.58467     457.4348    511.90259    39194.267 
   67000    304.15152   -1359.2659    418.33523    428.06236   -28.156752    39194.267 
   67100    299.16369    -1366.403    441.39584    421.53551     114.5898    39194.267 
   67200    290.79893   -1402.8728    441.29113    347.31108    43.261199    39194.267 
   67300    310.18793   -1376.4404    450.85842    470.58106     293.6721    39194.267 
   67400    312.48002   -1349.7552    456.86291     513.5875     228.3647    39194.267 
   67500    300.78082   -1359.1329    444.54589    439.23438    35.514276    39194.267 
   67600    299.78745   -1393.0886     447.6732     403.9349   -3.5473176    39194.267 
   67700    303.71509   -1370.2724      425.807    422.56328    329.08001    39194.267 
   67800    300.94145   -1372.0514    442.75862    425.25164    45.688947    39194.267 
   67900    302.68053   -1349.5181    458.24296    471.09699    408.27858    39194.267 
   68000    310.89389   -1311.7039    455.45348     543.0902    133.66206    39194.267 
   68100    295.76908   -1352.6395    457.68858    436.31257   -187.31295    39194.267 
   68200    292.18742   -1365.1793     438.3455    388.30853    756.06713    39194.267 
   68300    300.10299   -1359.5258    468.30393     459.5486    1167.4001    39194.267 
   68400    301.28418   -1360.1651    463.62857    459.55054    753.05682    39194.267 
   68500    293.72469   -1345.8529    454.22183    430.43062    871.44413    39194.267 
   68600    307.95536   -1364.2357     446.2856    468.16413    768.86231    39194.267 
   68700    297.28527   -1365.8956    472.41332    444.60562    499.85234    39194.267 
   68800    295.03395   -1376.4358    473.37824    424.89706     440.3735    39194.267 
   68900    304.83257    -1317.258    489.96455    544.76507    244.77158    39194.267 
   69000    300.84809   -1326.7974    462.97937    490.30619    607.20863    39194.267 
   69100    293.94903   -1363.1366     450.4544    410.38916   -167.88328    39194.267 
   69200    301.32291   -1369.2678     456.7359    443.72951    140.27473    39194.267 
   69300    305.29237   -1350.5636    452.00909    475.57352   -102.10716    39194.267 
   69400    293.83865   -1328.6831    453.00979    446.90122    88.659035    39194.267 
   69500    299.60734   -1337.8628    452.79062    463.46744   -93.947014    39194.267 
   69600    300.25582   -1347.9412    447.31621     450.8334   -325.40694    39194.267 
   69700    304.45983   -1339.2581    464.58634    495.70902     19.08508    39194.267 
   69800    307.03646   -1342.6728    455.22074    494.52618   -44.231079    39194.267 
   69900    292.81647   -1283.2232    460.59908    495.34955   -306.72879    39194.267 
   70000    303.96807   -1285.8968    463.42773     545.6982   -210.80554    39194.267 
   70100    301.30358   -1366.1652     440.1995    430.20865   -64.809441    39194.267 
   70200    294.56378   -1339.9021    445.33219    431.26851   -407.33068    39194.267 
   70300    289.74819   -1357.5369    475.06398    421.69043   -365.91003    39194.267 
   70400    306.55092   -1361.5743    458.30218    476.52072   -678.92688    39194.267 
   70500    291.75839   -1392.9126    469.74833    390.04702    32.767403    39194.267 
   70600    308.47115   -1369.8193    454.26123    472.87767    124.28981    39194.267 
   70700    301.30132   -1332.0606    440.60104    464.70468     331.6886    39194.267 
   70800    299.09321   -1354.4478      450.721     442.4987    73.589902    39194.267 
   70900    304.64449   -1338.8338    483.93673    516.31482    199.06617    39194.267 
   71000      290.834    -1320.245    467.69817    456.50374    281.75596    39194.267 
   71100    294.77895   -1309.0713    470.02145      487.757    311.01142    39194.267 
   71200    299.06787   -1344.5965    455.42167    456.93659    208.36655    39194.267 
   71300    313.05822   -1283.6526    470.66526    596.09495    88.806393    39194.267 
   71400    301.16952   -1292.6524    467.40377    530.32237    479.70645    39194.267 
   71500    295.17727   -1360.7408    478.48479    446.34377    385.31442    39194.267 
   71600     295.4877   -1343.4665    466.29769    452.82814    803.09977    39194.267 
   71700     303.3211   -1321.3713    469.25499      513.139    377.24808    39194.267 
   71800    301.03195   -1314.7406    466.44434    506.65555   -181.92513    39194.267 
   71900    300.68157   -1341.1235    452.73341    464.98467    17.024888    39194.267 
   72000    313.31353   -1327.5725    455.37496    538.03393   -359.67721    39194.267 
   72100    306.72723   -1322.2026    457.91993    516.30375    158.66757    39194.267 
   72200    297.95603   -1326.8779    465.72575    479.95481   -219.56107    39194.267 
   72300    302.89877   -1319.7715    465.34014    508.92296    45.860245    39194.267 
   72400    296.86064   -1326.0146    471.20089    481.36292   -246.00945    39194.267 
   72500    301.39146   -1341.8347    469.88561    484.62089   -713.67862    39194.267 
   72600    291.01653   -1368.0967    465.72813    407.50355    103.91346    39194.267 
   72700    298.49345   -1335.7707    439.41027    447.16547    438.27894    39194.267 
   72800    300.01019   -1329.5759    477.62357    498.40047    179.93162    39194.267 
   72900    297.88873    -1376.567    469.51668    433.75376    155.09119    39194.267 
   73000    294.58281   -1309.2457    458.47741    475.15575    631.99826    39194.267 
   73100    295.00851   -1338.2308    473.45982    463.06912    212.28576    39194.267 
   73200    306.63372   -1347.3713    474.89481    507.68902    785.58219    39194.267 
   73300    300.93701   -1311.8922    477.62478    520.25701    478.95795    39194.267 
   73400    290.53612   -1344.3329     461.0444    424.42135   -362.68423    39194.267 
   73500    308.59707   -1315.6547     475.2738     548.6217   -399.55118    39194.267 
   73600    308.40758   -1282.8445    452.78154    558.08674   -56.346799    39194.267 
   73700    295.95141   -1284.0183    445.08631    493.15214    138.58569    39194.267 
   73800    299.29342   -1322.1907    479.30766    504.24362    -421.0786    39194.267 
   73900    298.45579   -1331.7714    456.50776    468.09284    521.06988    39194.267 
   74000    292.66101   -1340.4681    463.65137     440.4572    222.61098    39194.267 
   74100    307.98348   -1312.1692    473.68915    547.76077    384.17038    39194.267 
   74200    299.88461   -1350.8484    486.30342    485.24258    375.61338    39194.267 
   74300    298.21738   -1342.0491    475.50323    475.73745   -39.637748    39194.267 
   74400    302.84514   -1341.6687    455.82353    477.26779   -108.48038    39194.267 
   74500    315.09971   -1356.7214    460.31892    521.86858     108.2674    39194.267 
   74600    300.90969   -1382.4849     478.9065    450.82306   -423.59649    39194.267 
   74700    306.40363   -1395.7134    465.60923    449.02564   -590.81764    39194.267 
   74800    304.59365   -1397.5179     462.2666    435.73181    129.25436    39194.267 
   74900    305.51358   -1372.0372    493.70685     496.7934    -279.0243    39194.267 
   75000    294.62411   -1354.8981    460.28698    431.49877   -582.60631    39194.267 
   75100    288.09405    -1342.679    460.13414    414.17319   -280.97862    39194.267 
   75200    310.48515   -1337.8147    471.23026    530.91645    174.51902    39194.267 
   75300    300.10733    -1343.689    454.24751    461.34857   -146.10378    39194.267 
   75400    316.31757    -1369.547    447.53692    501.74266   -84.201196    39194.267 
   75500    300.40502   -1389.6747     463.4942    425.94951     268.7159    39194.267 
   75600    294.96889   -1341.0777    477.42616    464.01025    245.55613    39194.267 
   75700     307.0032    -1358.899    472.88498    495.81449    426.75864    39194.267 
   75800    303.38338   -1381.0594     475.9497    460.42595    161.37123    39194.267 
   75900    293.87406   -1387.9715    494.92037    429.68279     449.7567    39194.267 
   76000    297.96096   -1380.4163    453.86636    414.57928    159.49633    39194.267 
   76100    299.28592   -1341.7554    493.48472    498.82218    406.99817    39194.267 
   76200    300.14867   -1353.0065    468.35869    466.32835   -123.03537    39194.267 
   76300    308.10791   -1320.2832    448.98887    515.50656   -260.81116    39194.267 
   76400    298.51284   -1337.3131    463.19886      469.499   -373.54064    39194.267 
   76500     309.3902   -1349.5687    462.30187    505.30566     213.3283    39194.267 
   76600    306.12821   -1344.9894    459.33548    492.23625    440.97544    39194.267 
   76700    301.74369   -1354.0028      467.659    471.81153    226.02756    39194.267 
   76800    295.75595   -1317.7036    467.17116    480.67199    316.56011    39194.267 
   76900    300.79362   -1312.8399    497.90651    538.94571   -373.18057    39194.267 
   77000    294.40841   -1360.7475    458.83255    423.22412   -111.99542    39194.267 
   77100    309.26596   -1312.4263    474.63279    554.21974    112.39403    39194.267 
   77200    296.65905    -1323.944    499.37765    510.70286   -26.470638    39194.267 
   77300    297.48957    -1354.656    486.82113     471.1726    24.651753    39194.267 
   77400    293.83386   -1326.0544     467.8935    464.39207    138.46895    39194.267 
   77500    299.72075   -1387.7979     464.0494    425.30154    120.98574    39194.267 
   77600    298.36223   -1412.7605    490.92521    421.09996   -217.23328    39194.267 
   77700    302.02846   -1393.9834    472.44211    437.89584    63.612621    39194.267 
   77800    301.97852    -1429.332    464.62385    394.50417    -109.1855    39194.267 
   77900    294.54451   -1416.4625    470.46944    379.75864   -66.517773    39194.267 
   78000    302.19045   -1387.6872     459.5355    432.01452   -49.497899    39194.267 
   78100    290.39651   -1375.4809     474.6113    406.21184   -380.42607    39194.267 
   78200    299.72858   -1349.2255    463.70343    463.56323   -577.56999    39194.267 
   78300    302.47197   -1364.6581    450.81503    447.59031   -417.25679    39194.267 
   78400    293.21866   -1360.8271    450.43842    409.39534   -789.72274    39194.267 
   78500     298.3645   -1389.3049    471.96133    425.60199   -539.30091    39194.267 
   78600    295.95656   -1349.1959    475.39194    458.30339   -260.82247    39194.267 
   78700     304.6137   -1374.5907    452.66867     449.1513   -692.11528    39194.267 
   78800    296.00728   -1351.6199    459.86482    440.58054   -816.11458    39194.267 
   78900    291.56954   -1358.9838    451.14182    404.51928   -539.80536    39194.267 
   79000    296.32115   -1383.4936    464.58378    414.83849   -160.18017    39194.267 
   79100    303.59366   -1379.2177    488.41962    475.68401   -128.92794    39194.267 
   79200    301.25795   -1418.2373    483.93269    421.66444    200.64659    39194.267 
   79300    303.85997   -1397.2749    484.08105    454.48686     126.0123    39194.267 
   79400    296.72012   -1377.7732    478.13719    435.90813   -307.23309    39194.267 
   79500    302.72434   -1359.4656    479.91698    483.02059   -310.07511    39194.267 
   79600     303.5923     -1338.49    489.06818    517.05415   -426.20736    39194.267 
   79700    298.03011   -1342.5608    488.15805     487.0377   -725.55021    39194.267 
   79800    307.32475    -1366.212    467.61731    484.68113   -1208.8872    39194.267 
   79900    298.99152   -1352.6744    483.32213    476.41549   -736.98515    39194.267 
   80000    303.18478   -1361.8711    482.51479     485.2854   -357.42448    39194.267 
   80100    295.26803   -1353.2066    479.49309    455.29474   -416.78168    39194.267 
   80200    300.01855   -1411.0888    467.48147     406.7831    5.1832962    39194.267 
   80300    293.96833   -1400.9363    458.59843    380.82043   -259.57865    39194.267 
   80400    309.56294     -1354.93     465.8967    504.31673    248.31212    39194.267 
   80500    301.00598   -1425.6647    479.06367    408.23387    525.75358    39194.267 
   80600    301.33166   -1394.5535    467.53522    429.28245    612.43121    39194.267 
   80700    298.70175   -1372.9432    467.48052    439.00085   -103.13443    39194.267 
   80800    303.76781   -1330.2214    492.03737     529.0819    -128.1963    39194.267 
   80900    309.35758   -1335.6142    442.32219    499.13364   -70.779627    39194.267 
   81000    295.38903   -1351.1366    529.13154    507.54786    130.23405    39194.267 
   81100    291.38019   -1349.7539    453.38482    415.13992   -588.44158    39194.267 
   81200    310.78093   -1361.7051    458.69347    495.82056   -510.83809    39194.267 
   81300    310.87293   -1315.9777    459.75241    543.02101    -709.5224    39194.267 
   81400    300.05133   -1307.2165    471.73157    515.05306   -885.69902    39194.267 
   81500    299.44626   -1322.7639      471.542    496.59268   -235.66807    39194.267 
   81600    307.35957   -1308.6019    483.16502    557.99572   -44.909178    39194.267 
   81700    292.12854   -1382.6962    476.56933    408.75053   -14.297364    39194.267 
   81800    297.39315   -1340.1538    463.41023    461.82985    473.35634    39194.267 
   81900     305.2673   -1318.5691    479.47854    534.92459   -213.44221    39194.267 
   82000    288.25406   -1337.7164     481.2734    440.99516   -142.15897    39194.267 
   82100     299.1047   -1344.6212    471.94689    473.60291   -112.01977    39194.267 
   82200    294.42601   -1370.0552    477.29011     432.4532    89.243223    39194.267 
   82300    293.19399   -1351.8625    470.04888    437.85936   -460.17453    39194.267 
   82400    307.72895   -1368.2023    466.70445    483.59726   -178.92172    39194.267 
   82500    301.73667   -1341.0304    475.15664    492.24996    237.30914    39194.267 
   82600    304.20188    -1386.312    455.29941    438.20717    53.753903    39194.267 
   82700     303.8405   -1381.9725     495.1387    480.75932     14.71096    39194.267 
   82800      296.906   -1359.2249    438.70196    415.85785    202.95259    39194.267 
   82900    299.88967   -1402.8817    473.34291    420.27157    -144.1823    39194.267 
   83000    300.63456   -1406.0746    470.04246    417.13101   -207.91296    39194.267 
   83100    295.66976   -1393.3299    456.85211    394.33871    12.743997    39194.267 
   83200    297.89514   -1396.9142    486.76209    430.68079   -470.50969    39194.267 
   83300    306.37914   -1368.5759    481.59807    492.04181    210.71056    39194.267 
   83400    306.25002   -1431.0056    492.86798    440.30078    244.78589    39194.267 
   83500     293.4004   -1413.0053    460.61824     368.2149    393.87787    39194.267 
   83600    302.97268   -1402.2539    462.08362    423.51677    563.63216    39194.267 
   83700     291.4967   -1392.5121    455.21542    374.73671    93.455713    39194.267 
   83800     300.5166    -1387.735    455.63624     420.5334    14.090032    39194.267 
   83900    294.86525   -1397.7457    483.93508    413.38468    239.42547    39194.267 
   84000    291.43249   -1357.8271    472.87456    426.79182    830.32181    39194.267 
   84100    297.35666   -1354.9979     474.2724    457.68376    74.298101    39194.267 
   84200    304.07964   -1368.7206    463.34224    463.29112   -162.68913    39194.267 
   84300    293.07725   -1360.3621    448.45352    407.23894    176.40722    39194.267 
   84400    297.08791   -1328.0125    476.62552    485.81255    201.97568    39194.267 
   84500    296.76028    -1398.886    446.25829    383.09724   -375.53238    39194.267 
   84600    309.10068   -1317.7539     461.7216    535.23704   -255.39083    39194.267 
   84700    304.50663    -1317.863    448.48674    501.21515   -196.26423    39194.267 
   84800    296.02374   -1346.9333    463.87747    449.35385   -665.64238    39194.267 
   84900    304.69825   -1356.8069    469.18325    483.83018     -143.197    39194.267 
   85000    292.58201   -1309.7057    460.00328    467.21599   -407.55819    39194.267 
   85100    297.50692   -1270.5769    452.10191    520.61053   -157.70143    39194.267 
   85200    300.78606   -1301.3238    468.17056    520.69179    -423.1447    39194.267 
   85300    290.38991   -1340.4108    462.12439    428.76533   -335.68097    39194.267 
   85400     307.0378   -1319.8899     484.7719    546.86625   -52.053969    39194.267 
   85500     306.2584   -1380.5719    471.65887     469.5631   -595.97682    39194.267 
   85600    310.89268   -1368.0466     479.4411    510.72963    380.09167    39194.267 
   85700    308.48241   -1357.5699    478.19343    509.11004   -68.916401    39194.267 
   85800    301.56778   -1350.8781    483.94077    490.42623   -552.16632    39194.267 
   85900    298.43848   -1341.7343    456.62815    458.17236   -413.97518    39194.267 
   86000    294.59398   -1306.7358    447.32433    466.56283    -452.6396    39194.267 
   86100    294.83948   -1322.9904    490.15601     494.2449   -147.30505    39194.267 
   86200    288.38596   -1365.1963    464.79913    397.63476    41.761172    39194.267 
   86300    301.44971   -1362.7885    470.61743    464.66107   -46.689065    39194.267 
   86400    296.45198   -1379.2446    487.58971    442.68231    383.02459    39194.267 
   86500    295.55467    -1375.577    469.65744    424.37886    216.40255    39194.267 
   86600    307.99321   -1385.5584    477.41478      478.141    -462.1646    39194.267 
   86700    295.90471   -1385.1865    462.16177    408.84922   -88.430209    39194.267 
   86800     300.5891   -1364.1245    464.51833    453.35237    274.48597    39194.267 
   86900    295.72063   -1378.3693    479.62848    432.30461    104.43893    39194.267 
   87000    302.40467   -1344.0551      462.862    479.93736   -308.36004    39194.267 
   87100    307.02839   -1356.7237    463.96931     489.1875    -45.51065    39194.267 
   87200    308.50107   -1355.7882    464.99695    497.77927   -397.70677    39194.267 
   87300     291.0435   -1337.3478    473.73077    446.37654   -305.50687    39194.267 
   87400    290.18567   -1326.1222    474.60066    454.61091    282.54065    39194.267 
   87500    308.63665    -1332.215    472.82416    529.78988    484.20066    39194.267 
   87600    307.72531   -1373.5125    463.62238    475.18864    87.535798    39194.267 
   87700    297.90382   -1366.6493     472.8604    447.08312    62.219754    39194.267 
   87800    301.74935   -1393.9152     470.1715    434.43709     148.5512    39194.267 
   87900    300.48015   -1381.8341    458.24423    428.87822    414.26891    39194.267 
   88000    290.99056   -1380.8088    483.97334    412.91984   -231.19123    39194.267 
   88100    296.87994   -1382.3053    477.59539    431.55356    31.318788    39194.267 
   88200    301.39354   -1391.9869    452.47889     417.0713   -302.35797    39194.267 
   88300    309.11808   -1374.9334    463.75497    480.16922   -107.79571    39194.267 
   88400    295.89018   -1361.6832    453.41058    423.53591   -646.54563    39194.267 
   88500    289.85789   -1363.2039    473.54867    415.00185   -196.29141    39194.267 
   88600    292.68519   -1388.2871    455.91384    385.00957   -987.90051    39194.267 
   88700    298.18927   -1377.1469     465.3511    430.36106    51.776255    39194.267 
   88800     305.6339   -1405.2411     474.0375    444.46163    33.377012    39194.267 
   88900    308.91864   -1399.1051    486.15285    477.49772    177.69277    39194.267 
   89000    307.01338    -1385.975    452.70792    448.60726   -80.863874    39194.267 
   89100    305.29462   -1398.3058    456.67541    432.50778    57.917368    39194.267 
   89200    303.89445   -1423.2608    446.04151    390.61664     210.7918    39194.267 
   89300     303.3197   -1452.6786     490.8273    403.39768    208.55309    39194.267 
   89400    299.13638   -1426.7156    446.56703    366.27118    415.62094    39194.267 
   89500    294.05434   -1428.7774    452.79725     347.5652    569.97602    39194.267 
   89600    307.25323   -1424.3019    459.48228    418.13424   -72.032727    39194.267 
   89700    296.43672   -1384.1009    458.83742     409.0051   -273.31244    39194.267 
   89800    312.37881   -1443.1128    465.94761    428.85906    480.26199    39194.267 
   89900     303.9351    -1451.098    456.58433    373.50527    -64.96193    39194.267 
   90000    310.19787   -1426.3539     448.7754    418.62931    61.263459    39194.267 
   90100    296.47071   -1417.3262    458.41791    375.51321    547.41334    39194.267 
   90200    287.31166   -1450.6482     465.5397    308.08791    29.956471    39194.267 
   90300    302.08274   -1446.5042    474.62259    387.79985    611.54254    39194.267 
   90400    314.04854   -1378.6761    493.34602    528.20971    251.70854    39194.267 
   90500    304.15658    -1375.329    457.96682    451.65368    588.95666    39194.267 
   90600      310.115   -1365.5258     433.3675    463.67649    643.27622    39194.267 
   90700    303.66541   -1381.5652    484.96033    470.20015    981.53167    39194.267 
   90800    305.85058   -1374.3231    458.99494    461.31238    869.20916    39194.267 
   90900    294.49293   -1401.6021    475.45454      399.372    607.74797    39194.267 
   91000    303.28996    -1350.567    461.19562    475.74377    705.69906    39194.267 
   91100      304.953   -1408.9073    439.47612    403.16933   -37.893249    39194.267 
   91200    305.77044   -1390.8743    472.20738    457.61291    149.17325    39194.267 
   91300     298.3496   -1374.7601    472.29436    440.41269   -148.05606    39194.267 
   91400    294.37343   -1384.5711    463.83456    404.24513   -245.95555    39194.267 
   91500    292.86905    -1345.422    475.61499    448.40338   -277.70834    39194.267 
   91600    294.67708   -1388.9753    467.48961    404.86273    195.77833    39194.267 
   91700    294.01679    -1378.499    475.39439    420.27173    330.02701    39194.267 
   91800      308.446   -1375.2309    470.80703     483.8987    227.71187    39194.267 
   91900    300.94533   -1358.5988    456.05436    452.01752    879.28441    39194.267 
   92000    301.05121   -1340.9572    465.65201    479.73325   -1.9043799    39194.267 
   92100    304.45335   -1370.7608    457.33683    456.92763   -324.08385    39194.267 
   92200    290.61066   -1349.6703    455.81065     414.1857   -316.36761    39194.267 
   92300    290.74925   -1366.5953    458.64938    400.72325   -134.42967    39194.267 
   92400    310.73704   -1363.5332    451.68622    486.78763    522.50325    39194.267 
   92500    303.06412   -1384.2799     446.9414    426.76013    330.42628    39194.267 
   92600    290.91131   -1377.1567    469.91597    402.15785    193.59419    39194.267 
   92700    302.46522   -1391.6319    447.96851    417.73955    221.31944    39194.267 
   92800    295.02334   -1384.9775    473.55915    416.48857   -177.05702    39194.267 
   92900    290.95541   -1384.2828    468.66861    393.98281   -469.11789    39194.267 
   93000    299.67443   -1342.4928    440.81086    447.15964   -534.21814    39194.267 
   93100    297.06975   -1350.2892    451.50862    438.33722   -610.11956    39194.267 
   93200    303.28412   -1332.0736    465.96818    498.98346    -284.9139    39194.267 
   93300    308.17161   -1376.9512    466.01209    476.14848   -323.94785    39194.267 
   93400    302.96791   -1406.4221    476.28478     433.5283    325.36414    39194.267 
   93500    294.17884   -1392.4146     453.4149     385.1061    158.51079    39194.267 
   93600    303.57275    -1365.389    456.74441    457.74339    292.32726    39194.267 
   93700    298.93058   -1348.7875     439.4202     436.1262    292.57788    39194.267 
   93800    300.34578   -1386.6371    462.00745     427.2337    335.01665    39194.267 
   93900    307.14081   -1406.0831     478.5215    454.88632    453.69454    39194.267 
   94000    293.43382   -1377.0236    462.57669    406.30554    196.11709    39194.267 
   94100    304.74626    -1393.304    459.91714    438.28313     76.76018    39194.267 
   94200    305.92987    -1385.258    453.92134    445.66081   -101.80146    39194.267 
   94300     296.5432   -1374.2552    453.62408    414.11668     563.2905    39194.267 
   94400    297.44483    -1382.743    469.08867    425.15173    63.155687    39194.267 
   94500    303.57662   -1350.1209    475.96637    492.25087     399.1598    39194.267 
   94600    306.31809   -1399.6361    445.94826    425.05695     13.85652    39194.267 
   94700    305.14063    -1420.027    462.32814    415.74616   -334.58979    39194.267 
   94800    293.88497   -1364.1784    482.10347    440.70812   -834.50978    39194.267 
   94900    298.52202   -1364.1089    457.54829    437.09387   -539.23646    39194.267 
   95000    316.83371   -1360.7603    452.42656    517.74208   -217.97075    39194.267 
   95100    292.33058   -1351.5535    447.21905    411.45226   -159.76852    39194.267 
   95200    295.80517   -1358.3719    468.82967    441.88375    6.8849722    39194.267 
   95300    302.44193     -1363.91    476.22737     473.6155   -106.68406    39194.267 
   95400    297.75922   -1339.9567    448.19919    448.46366   -146.60905    39194.267 
   95500     298.3012   -1340.3509    470.78487    473.09458   -497.08354    39194.267 
   95600    285.82163   -1352.4205    491.01068    425.07996   -169.50335    39194.267 
   95700    285.41596   -1393.2762    464.94523    356.33293   -65.039515    39194.267 
   95800    293.92749   -1405.0215    469.61534    387.56829   -74.104437    39194.267 
   95900    297.62229   -1378.7328    487.46454    448.33655    -31.39902    39194.267 
   96000    299.39625   -1383.6466    466.61552    430.55834   -80.777085    39194.267 
   96100    292.62618   -1387.7434    471.26562    400.63943   -213.24071    39194.267 
   96200    289.97824   -1358.0418    495.12253    442.27946    204.62472    39194.267 
   96300    303.28487   -1372.4242    469.24693     461.9149    313.63041    39194.267 
   96400    311.08223   -1405.1041    449.77637    444.86061   -15.737131    39194.267 
   96500    306.62364   -1406.5772    488.19415    461.73709   -104.68592    39194.267 
   96600    302.23397   -1390.4026    463.13019    433.08973    177.25998    39194.267 
   96700    321.17352   -1422.3953    441.65979    464.87392   -68.578139    39194.267 
   96800    294.92164    -1396.105     485.2387    416.58282   -346.16103    39194.267 
   96900    301.30442   -1380.4171     469.7934    445.55444   -293.79523    39194.267 
   97000    296.84173   -1390.8538    487.71334    432.95103   -338.46779    39194.267 
   97100    299.58119   -1410.7945    455.36766    392.99508    583.23838    39194.267 
   97200    306.80986   -1412.0896    440.51001     409.3787    13.745028    39194.267 
   97300    306.84905   -1419.5242     469.4334    431.04389    473.66594    39194.267 
   97400    285.41153   -1391.9619    446.92005    339.60212     453.6745    39194.267 
   97500    314.80415   -1386.8706    468.00607    498.07622    750.62005    39194.267 
   97600    300.33084   -1393.2081    505.08465    463.67262    48.205432    39194.267 
   97700    293.87286   -1396.4774    454.95427    381.20546     195.4654    39194.267 
   97800    296.88309   -1444.3923    465.76643    357.65175   -389.95358    39194.267 
   97900    305.01937   -1435.0227    472.28331    410.15981   -541.00282    39194.267 
   98000    299.34427   -1376.6426     468.2736    438.98651   -826.89877    39194.267 
   98100     301.1481   -1421.8428    470.69435    404.32615   -120.65153    39194.267 
   98200    287.32081   -1387.2671    491.68792    397.65844    -2.139942    39194.267 
   98300    301.09756   -1377.8267    490.79525    468.21566   -242.20612    39194.267 
   98400    303.76996   -1392.1654    487.34309     462.4533   -28.783135    39194.267 
   98500    296.39673   -1411.3711    486.34554    409.06297   -235.36478    39194.267 
   98600    299.47008   -1385.8983    456.39982    418.42334    24.025406    39194.267 
   98700    291.50714    -1426.958    470.55266    355.67508   -180.65092    39194.267 
   98800    289.40039    -1373.891    478.69572    407.40253   -188.79392    39194.267 
   98900     291.3104   -1405.4886    485.26009    390.96637   -688.51712    39194.267 
   99000    300.85447   -1386.8079    475.80955    443.15458   -67.971325    39194.267 
   99100    302.36028    -1381.652    481.98739    461.26604    -796.7361    39194.267 
   99200    293.91756   -1403.5721     473.5313    392.88893   -445.39513    39194.267 
   99300    307.12792   -1434.7958    449.12123    396.71526   -367.35386    39194.267 
   99400    292.27853   -1447.9886    462.26065    329.82443   -367.00828    39194.267 
   99500    293.28177   -1429.4129    482.01246    372.66764   -403.32385    39194.267 
   99600    292.41022   -1430.6589    484.15081    369.63713   -582.38909    39194.267 
   99700     305.1762   -1409.0567    463.67849     428.2269    -248.5692    39194.267 
   99800    293.72662   -1433.1488    458.75645    347.67803   -494.86353    39194.267 
   99900    302.60999   -1386.8304    470.13697     445.3612   -358.25183    39194.267 
  100000    301.68461   -1451.0372    472.63262    379.48485    26.667041    39194.267 
  100100    303.46875   -1429.6356    459.06496    395.34924    431.55967    39194.267 
  100200    306.84059   -1436.5357    448.75459    393.31555   -261.34098    39194.267 
  100300    313.01292   -1467.9404    444.75205    385.69004    60.099308    39194.267 
  100400    287.94514   -1474.1981    463.95643    285.80608   -186.82978    39194.267 
  100500    297.21945   -1457.1604    462.98246    343.61374     -397.358    39194.267 
  100600    292.16444   -1453.2317    473.15356    334.96082   -351.63805    39194.267 
  100700    311.16546   -1423.9749    453.42399    430.01201   -2.7971077    39194.267 
  100800    305.48359   -1445.3651    470.09439    399.71801    47.750006    39194.267 
  100900    295.56993   -1420.1651    480.23677    390.43876    217.90556    39194.267 
  101000    294.05082   -1437.7765    476.97052    362.72357   -298.94403    39194.267 
  101100    302.34947   -1405.0538    474.51967    430.34781    -200.5398    39194.267 
  101200    306.11876   -1373.9401     481.1876    485.09517     28.61501    39194.267 
  101300    286.29777   -1431.9274    470.98314    327.68864   -89.862692    39194.267 
  101400    297.49142   -1425.0615    477.41509    391.36933    313.81041    39194.267 
  101500      305.348   -1404.2675    477.12281    447.23373     322.7786    39194.267 
  101600    296.78548    -1385.777    460.36623    410.42753   -206.99705    39194.267 
  101700    295.69099   -1398.4235    449.03293     381.5214    -224.8277    39194.267 
  101800    306.73627   -1389.3248    467.31889    458.62115   -629.56266    39194.267 
  101900    304.61719   -1395.8489    471.55214    446.79228   -204.22106    39194.267 
  102000    312.62609   -1369.2464    478.43164    516.32248   -649.95526    39194.267 
  102100    294.68732    -1320.144     509.4416    515.69205     -762.395    39194.267 
  102200    309.83435   -1387.5088    463.87796     470.9408   -82.581909    39194.267 
  102300    297.51632   -1334.5068     484.4385    489.05953    -225.2385    39194.267 
  102400    297.97733   -1350.2489    452.93644    443.89043   -871.06477    39194.267 
  102500    301.69276   -1360.9283    466.87981    463.87765   -154.68284    39194.267 
  102600    307.17371   -1366.6012    477.93053    493.92536    200.85204    39194.267 
  102700    299.50835   -1319.1822    494.64845    523.56029    164.43841    39194.267 
  102800    286.15848   -1338.4052    502.02519    451.62591    412.73247    39194.267 
  102900    290.39181   -1378.3269    489.41143    418.14478    253.69427    39194.267 
  103000    295.04392   -1365.5055    485.83057    448.32457    670.55246    39194.267 
  103100    292.08261   -1384.0732    497.92734    428.52476       460.02    39194.267 
  103200    299.54664   -1420.7341    481.00074    408.53298    455.77211    39194.267 
  103300    296.00248   -1352.2321    472.27015    452.35205    233.24129    39194.267 
  103400    298.00872   -1373.5206    489.73787    457.56144   -55.677448    39194.267 
  103500    310.30329   -1364.7134    485.78419    517.75314    296.41464    39194.267 
  103600    306.56567   -1370.4493    486.10806    495.51793    188.61321    39194.267 
  103700    308.29187   -1420.4435     485.6167    452.80201   -363.26023    39194.267 
  103800    324.00001   -1344.6262    474.70488    588.41022    442.88566    39194.267 
  103900    292.23528   -1381.1636    459.08891    393.28306    142.61025    39194.267 
  104000    301.78256   -1351.2403    469.95074    477.04069   -178.44408    39194.267 
  104100    306.53364   -1390.1182    501.77218    491.36905    40.027667    39194.267 
  104200    309.68424   -1371.7979    477.36208    499.46015    265.28777    39194.267 
  104300    296.74235   -1386.9352      492.897    441.60597   -194.94376    39194.267 
  104400    298.78715   -1421.5859    471.72216     394.9842    -478.2859    39194.267 
  104500    314.97859   -1406.3769     448.1856    459.53463   -757.35636    39194.267 
  104600    304.40612   -1333.5152    463.55583    500.17957     -605.284    39194.267 
  104700      293.278   -1385.2378     481.0268    415.84002   -718.26675    39194.267 
  104800    308.74044   -1392.4393    476.45495    473.66352   -203.67521    39194.267 
  104900    298.20135    -1406.679    476.28539     411.8176   -41.881349    39194.267 
  105000    302.50429   -1407.4719    484.43732    438.54425    237.09028    39194.267 
  105100     307.3435   -1418.8385    480.68425    445.20599    293.96332    39194.267 
  105200     302.3282   -1441.1896    482.79354    402.39021    54.476335    39194.267 
  105300    292.48765   -1451.2492    480.43902    345.68352    235.24516    39194.267 
  105400    277.54261   -1417.4137    500.23744    332.04947   -42.222863    39194.267 
  105500    297.43371   -1438.8009    477.49858    377.45369    174.48182    39194.267 
  105600    297.41176   -1411.2428    487.81243     415.2269    453.27452    39194.267 
  105700    301.43946   -1432.1598    473.59196    398.21813     286.0807    39194.267 
  105800    298.60635   -1475.2961    485.19854    353.93657    105.05675    39194.267 
  105900    296.36797   -1422.7795     455.1622    366.34181     545.9337    39194.267 
  106000    303.33045   -1458.0145    513.32022    420.60308    485.47074    39194.267 
  106100     293.9503    -1427.731    462.33454    357.68061    244.80884    39194.267 
  106200    299.72995   -1461.3572    460.84176    348.57599    209.23816    39194.267 
  106300    304.44971   -1414.0826    470.46346    426.71606    238.09571    39194.267 
  106400    312.81299   -1416.6263    452.03001    443.38217     547.0639    39194.267 
  106500    301.95401   -1425.0448    458.25599    392.31321    430.95373    39194.267 
  106600    308.99784   -1412.7093    483.47902    461.57617    213.49652    39194.267 
  106700    297.06748   -1447.1132    471.16622    361.16063    104.23133    39194.267 
  106800    299.23993   -1403.6059    469.50611      412.786   -36.187049    39194.267 
  106900    309.75666   -1419.3913    478.38725    453.21786   -332.14994    39194.267 
  107000    290.93741   -1414.7542    465.31022    360.07199    -382.1758    39194.267 
  107100    298.44046   -1418.8298    477.47282     401.9305   -79.402629    39194.267 
  107200    302.25348   -1376.2672    487.67534    471.85808    235.03512    39194.267 
  107300    304.54717    -1388.103    450.18073    432.85154    49.525864    39194.267 
  107400    304.76065   -1397.1023    476.56118    451.19362    -28.14764    39194.267 
  107500    300.89043   -1408.0811    472.14679    418.38053     302.4077    39194.267 
  107600    296.92002   -1410.6501    478.13938     403.9332     88.51194    39194.267 
  107700    299.10832   -1391.0311    472.24797    427.51036   -132.45392    39194.267 
  107800    315.53205    -1433.292    457.84262    444.76773   -452.19696    39194.267 
  107900    295.49931   -1440.3471    461.36388    351.06596   -154.53852    39194.267 
  108000    289.49105   -1421.9269    492.97135    374.05036   -31.705462    39194.267 
  108100    300.28288   -1437.8341     491.7562    405.50232    330.46485    39194.267 
  108200    301.73809   -1417.6962    492.74694    433.18092    87.056609    39194.267 
  108300    299.69608   -1379.1225     490.1469    459.96341    127.32334    39194.267 
  108400    312.43717   -1401.1337    484.46631     489.6196     50.76878    39194.267 
  108500     297.1226   -1384.5551    492.60009    445.40073    535.96993    39194.267 
  108600    290.43596   -1402.6757    481.50263    386.08597    327.80074    39194.267 
  108700    297.23824    -1426.667    475.48833    386.69754    290.33712    39194.267 
  108800    298.86158   -1451.0911    460.56107    354.65283   -5.4696695    39194.267 
  108900    296.00817   -1411.9369      505.422    425.82471    235.57713    39194.267 
  109000    298.88813   -1406.2219     493.9377     433.0182    -199.1053    39194.267 
  109100    310.81945     -1403.43    472.15059    467.72613   -574.02202    39194.267 
  109200    291.87766   -1403.6924    482.15577     392.2115   -578.78077    39194.267 
  109300    299.80618   -1470.4742    469.73746    348.69779   -619.35538    39194.267 
  109400    307.16364   -1445.4638    467.65064    404.73747   -102.69158    39194.267 
  109500    292.17185   -1428.5687     501.2113    387.71488    44.329783    39194.267 
  109600    298.05519   -1426.3737    507.31363    422.49325     420.6252    39194.267 
  109700    298.35415   -1432.3626    486.36452    396.90084   -70.009382    39194.267 
  109800    295.86158   -1412.7239    480.14749    399.10344    72.214411    39194.267 
  109900    298.63006   -1456.3143    489.84972    377.67628   -209.73314    39194.267 
  110000    303.06275   -1463.7487     483.2601    383.60387    181.11275    39194.267 
  110100    302.79109   -1434.7265    492.12945    420.27271   -166.81836    39194.267 
  110200    285.68413   -1427.3583    479.21933    337.73193    290.10588    39194.267 
  110300    312.80886   -1449.0291    452.65701    411.58783    370.07014    39194.267 
  110400     296.0694    -1455.714    472.90032    349.80158    308.90316    39194.267 
  110500    291.67737   -1426.6537    473.89667    360.08953    562.87355    39194.267 
  110600    306.87121   -1432.4832     492.4343    441.18557    648.23507    39194.267 
  110700    306.66968   -1447.4956     494.6179    427.44965    474.42664    39194.267 
  110800    307.75494   -1457.8692     482.5054    409.84833    432.16812    39194.267 
  110900    311.71117   -1472.8232    459.02081    389.21682    580.27816    39194.267 
  111000    294.72541   -1466.9081    460.74361     320.4014    316.10887    39194.267 
  111100    299.94458   -1446.8516    466.74396    369.94987    117.68625    39194.267 
  111200    291.13018   -1449.2596    474.12282    335.24685    128.27527    39194.267 
  111300    304.41968   -1451.0859     456.8934    376.00753     468.9926    39194.267 
  111400    298.70773   -1475.1715    479.82077    349.13964    364.79602    39194.267 
  111500    299.37637    -1435.912     467.4737    379.06165    510.58206    39194.267 
  111600    293.75975    -1411.898    476.39389    386.71529   -58.119705    39194.267 
  111700    306.73928   -1372.4658    477.11683    485.29168     396.8784    39194.267 
  111800    294.78198   -1421.2845    480.80141    386.33747   -33.858646    39194.267 
  111900    297.47878   -1405.6938     450.8034     384.0685   -662.68255    39194.267 
  112000    309.28359   -1425.0992    451.27477    418.26821   -262.11629    39194.267 
  112100     304.5136   -1378.8512    473.79496    465.56652    69.133121    39194.267 
  112200     301.0194   -1396.9858    471.54137    429.45086    164.24688    39194.267 
  112300    292.36935   -1419.7084    486.25593    382.50878    258.59917    39194.267 
  112400    298.12384   -1455.4416    463.30859    349.72934   -185.62077    39194.267 
  112500    300.82339    -1432.371    453.33626     374.9783   -344.59969    39194.267 
  112600    295.61148   -1409.4345    443.60918    364.72878   -186.44798    39194.267 
  112700    297.37174   -1374.0485    471.26449     435.6931    69.402486    39194.267 
  112800    298.11045   -1383.0545    465.29224    424.03978    -140.2092    39194.267 
  112900    303.85871   -1377.2997    469.47278    459.84817   -391.27698    39194.267 
  113000     285.6903    -1409.823    478.44237    354.51805   -524.35585    39194.267 
  113100     298.3374   -1372.7813    474.79446    444.83673    381.08866    39194.267 
  113200    294.45061   -1353.0436     477.9889    450.27427    580.06599    39194.267 
  113300     298.0113   -1395.6086    459.82603    405.57318    560.01765    39194.267 
  113400    301.31936   -1392.4437     462.5044    426.30611    138.75537    39194.267 
  113500    308.00617   -1416.9863    468.05119    437.40778    575.82328    39194.267 
  113600    304.66473   -1390.4803    498.32977    479.15244    833.59963    39194.267 
  113700    307.46435   -1393.3757    489.08643    479.61487    456.98524    39194.267 
  113800    297.84783   -1359.3617     483.6789    464.93714    625.31991    39194.267 
  113900    296.89187   -1340.1268    484.50595    480.69631    409.82401    39194.267 
  114000    302.56653   -1341.7006    486.37407    506.53239    553.35836    39194.267 
  114100    298.95452   -1343.0982    491.84754    494.35059     628.7204    39194.267 
  114200    302.25522   -1385.1476      473.281    448.59117    228.38345    39194.267 
  114300    297.44825   -1365.2727    478.65802    452.20674    562.46589    39194.267 
  114400    303.16927   -1361.1168    507.33194    510.78706    837.18553    39194.267 
  114500    300.84633   -1380.4527     480.0182    453.68177    255.11018    39194.267 
  114600    285.91711   -1399.2284    472.71853     360.4097    4.3762746    39194.267 
  114700    293.96417   -1415.6527     486.7392    394.22608    10.391467    39194.267 
  114800    307.87997    -1411.307     480.1586    454.62645    297.26154    39194.267 
  114900    295.44589   -1393.8477    492.11381    428.07487   -330.27723    39194.267 
  115000    302.34063   -1425.4623    485.71715    421.09705   -102.19955    39194.267 
  115100    293.78656   -1406.5159     490.8214    406.64566   -422.37971    39194.267 
  115200    304.70574    -1383.607    464.66329    452.54393   -134.18249    39194.267 
  115300    290.09707   -1411.1625    479.58792    374.15905    199.07286    39194.267 
  115400    303.62541   -1394.1903    480.15083    452.58556    300.96233    39194.267 
  115500    310.18671   -1379.5622    485.38307    501.97846    419.72035    39194.267 
  115600    304.76918   -1415.7529    494.27754    450.29781   -136.29869    39194.267 
  115700    291.34382   -1385.3318    492.89147    418.90497    186.92489    39194.267 
  115800    300.03187   -1431.4338    479.74676    398.76337    56.898037    39194.267 
  115900    307.26044   -1416.7702    458.07457    424.29077   -366.27785    39194.267 
  116000    291.42776   -1413.4496     491.2734    389.54693   -122.89292    39194.267 
  116100    298.52282   -1460.4592    463.70126     346.9002    62.384193    39194.267 
  116200    307.07656   -1413.3717    495.29219    464.07915    449.48101    39194.267 
  116300    307.79355   -1406.9661    460.62887    439.04871    492.08045    39194.267 
  116400    306.01706   -1411.0362    458.48735    424.84102    586.83101    39194.267 
  116500    298.69306    -1388.166    479.05897     435.3173     314.0434    39194.267 
  116600    309.67619    -1368.839    472.82927    497.85004    525.38941    39194.267 
  116700    304.53963   -1406.0249    463.77893    428.49396   -72.730592    39194.267 
  116800    299.60046   -1455.8057    462.43227    355.13517    170.27203    39194.267 
  116900    299.78326   -1433.9545    477.01378    392.39066   -398.34483    39194.267 
  117000    296.63817   -1449.7009    470.59574    356.07011   -473.51461    39194.267 
  117100    293.86005   -1437.6671    476.42678     361.4306    -575.5652    39194.267 
  117200    295.68031   -1442.3795    458.08541    346.56979   -840.44922    39194.267 
  117300     299.3486   -1436.0459    469.06291      380.392   -977.21304    39194.267 
  117400    296.37385   -1485.1173    458.19263    307.06089   -813.24723    39194.267 
  117500    311.72148   -1433.7108    452.21429    421.56906   -341.78424    39194.267 
  117600    295.99272   -1415.2203     444.7878    361.83755   -801.79064    39194.267 
  117700    305.45868   -1449.0157    469.69978    395.56068   -64.614826    39194.267 
  117800    295.74926   -1446.6489    441.78743     326.3128   -111.34545    39194.267 
  117900     302.0938   -1453.6666    462.25641    368.32096   -318.10202    39194.267 
  118000    306.55112   -1462.0062    460.39064    378.17812    220.45086    39194.267 
  118100    304.80216   -1399.6973    461.38643    433.61076    297.89036    39194.267 
  118200    305.13086   -1411.7202    495.16958    456.85046   -82.482183    39194.267 
  118300     303.0189   -1459.8771    477.50354    381.52153    85.288793    39194.267 
  118400    296.83221   -1446.7765    463.02418    352.29637    451.77516    39194.267 
  118500     306.0346   -1434.2892    484.01004    427.18964    485.14951    39194.267 
  118600     306.3745   -1404.2495    464.98703    439.73623     432.1575    39194.267 
  118700    296.69878   -1396.3217    495.01052    434.13692    556.64928    39194.267 
  118800    300.88529   -1353.3362    484.53476    485.49026    491.03534    39194.267 
  118900    302.70636   -1364.4171     457.2949    455.36617   -51.368675    39194.267 
  119000    302.08075   -1403.2204    475.65669    432.10877   -747.44677    39194.267 
  119100    306.83777   -1390.3471    470.08253    460.81936    -217.5868    39194.267 
  119200    299.87127   -1437.5628    450.66453     362.8293    402.68545    39194.267 
  119300    308.74578   -1390.0482    459.03855    458.66227    290.45935    39194.267 
  119400    299.95582   -1391.1771    473.88568    432.81665    379.10624    39194.267 
  119500     300.0375   -1392.0076    470.15642    428.62458    323.59544    39194.267 
  119600    296.39183   -1399.1583    474.85656     409.7647    70.484831    39194.267 
  119700    293.18021   -1401.9869    465.16502    382.78904   -248.81225    39194.267 
  119800     299.4349   -1379.5172    450.46011     418.7063   -221.89366    39194.267 
  119900    299.00143   -1424.6278    486.41077    407.59536   -300.38394    39194.267 
  120000    306.41077   -1416.0699    477.73638    440.82841    255.96261    39194.267 
  120100    298.55525   -1403.2919    494.07293     434.5851    310.63206    39194.267 
  120200     294.2185   -1381.4022    474.41027    417.29239    -167.0447    39194.267 
  120300    301.77094   -1399.1416    435.01905    394.15545   -1.6405124    39194.267 
  120400     293.2879    -1379.189     459.4522    400.35886    453.46165    39194.267 
  120500    309.56612   -1411.8058    463.57993    445.13842   -64.694146    39194.267 
  120600    302.05937   -1417.9057    460.09976     401.7703    214.64116    39194.267 
  120700    293.84245    -1380.051    468.68042    411.22111   -469.28802    39194.267 
  120800    298.93885   -1406.8657    452.14278    390.80774   -266.24312    39194.267 
  120900    305.68481   -1394.0192    466.86285    448.73806   -465.43462    39194.267 
  121000    298.01362   -1397.4389    468.01354    411.94081    -270.7157    39194.267 
  121100    302.62314   -1390.3081    433.25985    405.06553   -110.68513    39194.267 
  121200      300.047   -1333.6503    473.09927    489.96751   -298.16077    39194.267 
  121300    300.64604   -1383.3286    455.37282    425.25903   -238.25256    39194.267 
  121400    308.01585   -1404.5769    468.02732     449.8369   -56.014422    39194.267 
  121500    298.88098   -1418.5591    481.37584    408.08693    333.44049    39194.267 
  121600     301.3161   -1439.6705    475.66269    392.22295    24.274649    39194.267 
  121700    309.94516   -1411.8254    454.05679    437.30179    336.85162    39194.267 
  121800    295.86964   -1414.4627    478.77131    396.02477    496.89837    39194.267 
  121900    304.17635   -1411.6557    461.73005    419.17914     786.0115    39194.267 
  122000    302.06491   -1407.1557    486.09798    438.54342    860.10188    39194.267 
  122100     303.5418   -1441.1101    459.67042    384.80895     787.0227    39194.267 
  122200    300.77749   -1430.5166    483.91631    407.20618    462.19343    39194.267 
  122300    298.71127   -1413.4155    498.23562    429.32647    259.19715    39194.267 
  122400     306.1351   -1358.3989    451.28446    470.80668    645.38105    39194.267 
  122500    305.49602   -1420.9752    448.82536    402.89479    235.56852    39194.267 
  122600    297.08626   -1435.8833    468.43296    369.74178    150.20076    39194.267 
  122700    305.37265   -1389.3289    503.56073    488.72116   -4.3670468    39194.267 
  122800    308.05066   -1396.3146    470.33133    460.55994   -310.88803    39194.267 
  122900    301.75709   -1397.8769    475.30537    435.64408   -478.95641    39194.267 
  123000    305.04337   -1433.3357    429.88444    369.55603   -720.58088    39194.267 
  123100    291.30191   -1410.7015    483.46859    383.92377   -126.94979    39194.267 
  123200    297.62435   -1418.0437     475.4245    396.99492    242.28508    39194.267 
  123300    303.27163   -1393.4404    470.58845    442.18064    175.61174    39194.267 
  123400    299.48593   -1401.8861    469.24914    415.35618   -161.84521    39194.267 
  123500    296.71763   -1398.0095    463.64221    401.16565   -20.528762    39194.267 
  123600    308.97721   -1376.8135    482.95955    496.85958    306.21273    39194.267 
  123700    306.55442   -1388.3144    465.69041    457.18459    37.876062    39194.267 
  123800    305.59014   -1411.4663    451.91057    415.91257    399.21638    39194.267 
  123900    305.99634   -1431.7745    454.71018    400.23231   -203.07001    39194.267 
  124000    299.75781   -1411.3726    494.50158    432.34583    396.91321    39194.267 
  124100    297.11544   -1436.9529    460.61017    360.98072    364.95531    39194.267 
  124200    299.82513   -1413.2868    466.12696    402.35999    523.26859    39194.267 
  124300    297.39078   -1479.5554    449.13518    308.14252    327.40973    39194.267 
  124400    309.13703   -1436.2143    451.98386    407.20248     582.5998    39194.267 
  124500    300.37035   -1446.2048    495.91254    401.68171    630.81535    39194.267 
  124600    305.59117   -1442.6009    455.83305    388.70506    434.31629    39194.267 
  124700    303.60696   -1402.1502    490.37919    454.77094    345.33999    39194.267 
  124800    289.26056   -1431.9075    475.11974    345.18074    92.194023    39194.267 
  124900    299.23212   -1469.4047    450.71446    328.16042    125.78066    39194.267 
  125000    297.65237   -1430.4734    466.35135    375.61819    360.67904    39194.267 
  125100    301.25739   -1419.1192    499.87753    436.72479    470.22173    39194.267 
  125200    303.38286   -1443.2675    473.11453    395.38034    -240.5968    39194.267 
  125300    307.24369   -1411.4925     485.9744    457.39285    -24.38755    39194.267 
  125400    311.79971    -1439.984     477.2199    440.65357   -373.17446    39194.267 
  125500    294.77282   -1406.2909    486.60771    407.09614   -73.852808    39194.267 
  125600    296.04118   -1364.0612    497.56542    465.99248   -76.818481    39194.267 
  125700    306.62049   -1390.6817    481.08425    470.50844   -564.73957    39194.267 
  125800    286.79248   -1360.5838    479.12067    409.39651   -336.53419    39194.267 
  125900    303.60343   -1377.1804    494.93047    484.27617   -125.76215    39194.267 
  126000    298.36588   -1400.0845    452.88396    395.75118    105.50429    39194.267 
  126100    304.49864    -1425.601     501.6019    446.55631    12.042552    39194.267 
  126200    302.48562    -1382.177     479.2509    458.56867     108.6968    39194.267 
  126300    305.47065   -1393.5313     482.9037    464.30287    84.176256    39194.267 
  126400    296.24636   -1418.0208    454.44051     369.8314     198.7138    39194.267 
  126500    296.60009   -1409.4005    471.68545    397.28887   -320.58072    39194.267 
  126600    302.40898   -1441.1921    514.57703    434.53477    74.817466    39194.267 
  126700    297.20888   -1396.6365    468.12099    409.22858    -120.7475    39194.267 
  126800    295.22686   -1384.2483    475.35465    419.92925   -8.8944164    39194.267 
  126900    303.21445   -1364.3317    524.93235    525.37588    175.91202    39194.267 
  127000    285.38739   -1404.8202    480.08724     359.8023    -389.1485    39194.267 
  127100    290.44058   -1373.0512    455.48396    389.71256    37.707282    39194.267 
  127200    305.64965   -1377.3831    499.21518    497.56826   0.79625178    39194.267 
  127300    292.94688    -1388.293    480.53698    410.80469    409.32868    39194.267 
  127400    298.60504   -1385.5301    472.74509    431.24323    509.47103    39194.267 
  127500    299.60737   -1384.7801    474.53472    438.29437    708.87305    39194.267 
  127600    310.12867   -1366.4089    489.37091    518.85835    190.59514    39194.267 
  127700    306.86623   -1375.3309    461.20192    467.08303   -139.67695    39194.267 
  127800    291.54842   -1404.2823     478.0782    386.06213    92.900864    39194.267 
  127900    301.50324   -1390.4218    464.55829    431.20954    552.91793    39194.267 
  128000    315.61049    -1349.718    496.21586    567.06794    455.19916    39194.267 
  128100    295.53184   -1368.8888     510.1603    471.46716    -3.053442    39194.267 
  128200    296.80467   -1368.2354    453.08853    420.77776    88.203753    39194.267 
  128300    294.84349   -1401.2848    468.31837    394.13092    -257.7823    39194.267 
  128400     298.8205   -1406.1321    467.28813    406.15405   -20.979194    39194.267 
  128500    298.59151   -1409.5689    438.65546     373.0539   -34.580816    39194.267 
  128600    297.63104   -1428.7451    455.81219    366.71128     87.21281    39194.267 
  128700    309.37608   -1399.0543    451.53606    444.99065      142.139    39194.267 
  128800    309.93904   -1361.7995    476.21281    509.45617    642.39318    39194.267 
  128900    300.47585    -1351.484     493.7651    494.72987    253.67959    39194.267 
  129000    305.01532   -1330.4831    510.97111    553.36908   -403.03839    39194.267 
  129100    304.30123    -1359.407    464.82571    475.08564    48.138209    39194.267 
  129200    300.34151   -1358.7237    489.01397    482.13439   -747.69243    39194.267 
  129300    309.49494   -1367.0277    469.18553    495.20171   -804.89844    39194.267 
  129400    296.86249   -1332.6792    485.89585    489.40165    -708.7719    39194.267 
  129500    300.65754   -1339.5738    482.61702    496.30974   -835.91466    39194.267 
  129600    293.44932   -1363.6234     469.0277    426.22651   -334.96921    39194.267 
  129700    295.86546   -1364.7926    516.09103     482.9957    18.564862    39194.267 
  129800    304.75425   -1361.5143    487.38462    497.57621    113.10048    39194.267 
  129900    294.17409   -1399.8204    464.27882    388.54277    72.190099    39194.267 
  130000    298.54712   -1336.6929    486.21333    493.28795      364.511    39194.267 
  130100    296.64121   -1379.3522    467.07958     422.9164   -26.721883    39194.267 
  130200    298.47857   -1391.1993    482.89005    435.14966   -460.90637    39194.267 
  130300    304.47416   -1362.8843     494.3818    501.94274    99.086534    39194.267 
  130400    292.61415   -1417.5264     473.0166    372.55325   -414.21082    39194.267 
  130500    293.22598   -1403.7787    477.46704    393.50527    819.33121    39194.267 
  130600    298.00303   -1388.3099    467.76486    420.77347    477.96952    39194.267 
  130700    292.30104   -1391.9177    498.44019    422.17621    100.21673    39194.267 
  130800    299.03603   -1344.8598    489.71236    490.82065     71.60882    39194.267 
  130900    301.49582    -1392.701     476.5387    440.87743   -36.877986    39194.267 
  131000    296.62498   -1412.6198    467.00645    389.50251   -331.12368    39194.267 
  131100    301.49652   -1419.0953    473.45105    411.39861   -464.61978    39194.267 
  131200    300.65181   -1373.9417    482.26332    461.56245   -386.47987    39194.267 
  131300    308.80463   -1377.7993    481.31643    493.45396   -268.86371    39194.267 
  131400    303.02276   -1340.8604    478.77377    501.82588   -307.31899    39194.267 
  131500     289.2802   -1389.2452    446.70485     359.5165   -222.86963    39194.267 
  131600    304.59263   -1415.1566    478.43006    434.25189   -66.325152    39194.267 
  131700    284.05805   -1450.0426    467.18378    295.69308    212.92804    39194.267 
  131800     302.5956   -1403.8371    476.10252    434.25523    35.605978    39194.267 
  131900    307.16074   -1405.7667    452.18509    428.95607  -0.83026422    39194.267 
  132000    292.61815   -1368.1279    486.61144    435.56459   -118.33517    39194.267 
  132100     301.6206   -1414.5785    461.37365    404.39645   -74.560641    39194.267 
  132200    302.37915   -1406.1685    479.78845     434.6355   -132.23732    39194.267 
  132300    291.23459   -1377.4548    496.16694    429.56573    499.06312    39194.267 
  132400    304.21291   -1375.7711    498.39603    491.89424    482.94928    39194.267 
  132500     298.2125   -1417.4041    467.54798     392.4052    11.813967    39194.267 
  132600    307.96207   -1369.8162    467.76503    484.09322   -99.622499    39194.267 
  132700    299.42143   -1385.3446    489.25065    451.60886    378.98765    39194.267 
  132800    295.91425   -1380.0951    500.98865    452.81046    458.90999    39194.267 
  132900    304.20363   -1373.9977    485.13161    480.36152    810.83037    39194.267 
  133000    309.50465   -1398.4876    480.13866    474.73865    671.58964    39194.267 
  133100    306.54191    -1398.795    480.81098     461.7682    573.00928    39194.267 
  133200    299.97564    -1382.214    478.10487    446.08817    32.199009    39194.267 
  133300    298.69169    -1395.227    468.49305    417.68429   -457.55232    39194.267 
  133400    300.50231   -1383.5976    471.00985    439.98012   -771.40269    39194.267 
  133500    303.41745   -1413.6773    467.16214    419.17385   -972.97259    39194.267 
  133600    297.75968   -1394.7789    500.89333    446.33771   -725.82882    39194.267 
  133700    299.97302   -1394.1909    475.65308    431.64768   -259.76464    39194.267 
  133800    298.75673   -1384.0047    460.83538    421.54168    128.21518    39194.267 
  133900    304.14898    -1396.218     470.0336    442.79719     113.2942    39194.267 
  134000    295.89723   -1401.3888    489.86167     420.3132    130.06722    39194.267 
  134100    293.92794   -1383.5683    463.72869    403.13686    109.47287    39194.267 
  134200    304.07799   -1418.6973    476.89474    426.85949   -84.481435    39194.267 
  134300    282.12721   -1423.0341    472.23796    319.06497   -469.51928    39194.267 
  134400    288.63424   -1409.2945     493.4606    383.31547   -195.13667    39194.267 
  134500    308.52044   -1413.0521    480.72167    456.32728   -505.37609    39194.267 
  134600    295.88513   -1400.3452    504.44523    435.88585   -498.82701    39194.267 
  134700    299.65637   -1428.7987    472.82164    392.78318   -76.778307    39194.267 
  134800    297.72693   -1407.2396    469.70569    402.54196    134.50425    39194.267 
  134900    292.00222   -1423.0334    473.28457    364.55998   -739.12493    39194.267 
  135000    301.62962   -1413.4799     486.2202    430.38216   -77.729454    39194.267 
  135100    307.57438   -1436.2873     480.4944    428.60652   -303.10127    39194.267 
  135200     300.1938   -1417.4181     466.7115    400.47261   -89.292478    39194.267 
  135300    298.81308   -1406.8964    479.53515    417.60339    44.492356    39194.267 
  135400    300.17253   -1429.6197    473.49497    394.95875   -184.81177    39194.267 
  135500    310.17889   -1423.0487    463.29036    436.36402   -197.72792    39194.267 
  135600    304.03364    -1396.459     484.8092    456.81267   -107.58839    39194.267 
  135700    294.70572   -1457.4692    467.00777    336.01589    42.659282    39194.267 
  135800    299.57554   -1391.6407    507.84822     464.6039     51.48077    39194.267 
  135900    296.92201   -1424.9617    475.42586    386.91697    587.15112    39194.267 
  136000    301.93225   -1435.5642    474.18877    397.62863   -841.93963    39194.267 
  136100    304.58435   -1440.2076    491.21936    421.95294   -404.37899    39194.267 
  136200    308.26119   -1475.0178    447.54172    360.01465   -296.49947    39194.267 
  136300    301.28802    -1430.955    464.15839    389.30774    -404.5732    39194.267 
  136400    309.83702   -1476.6577    471.88565    389.81155   -54.444347    39194.267 
  136500    299.33104   -1463.6602    481.20659    364.84228   -411.30155    39194.267 
  136600    296.45242   -1444.9243    500.25084    389.66577    -364.1122    39194.267 
  136700    302.02998   -1435.2072     476.2577    400.49439    -399.1831    39194.267 
  136800    297.01431   -1403.2761    465.57982    399.17203   -320.19126    39194.267 
  136900     291.3736   -1430.4333    490.63769     371.6837   -184.57535    39194.267 
  137000    298.83337   -1397.6466    479.43096    426.84023   -6.4947294    39194.267 
  137100    285.22154   -1434.7623    498.50912    347.53554   -495.69164    39194.267 
  137200    311.06059   -1400.6544    499.15304    498.58956   -257.13137    39194.267 
  137300    298.33493   -1467.8659    473.32367     348.2702    155.30238    39194.267 
  137400    291.12456   -1436.8955    494.17996    367.64284   -671.29016    39194.267 
  137500    295.71931   -1452.7695    471.91016     350.1801   -387.22627    39194.267 
  137600    284.23852   -1420.7326     503.2291    361.86071   -262.41252    39194.267 
  137700    297.45487   -1451.0963    466.20429    353.95921   -151.59122    39194.267 
  137800    297.31284   -1473.5103    510.17463    374.87633    221.78825    39194.267 
  137900    294.21458   -1463.1535    484.15896    345.27213    346.07827    39194.267 
  138000    301.59141   -1454.7129    497.94776    400.70479    594.78148    39194.267 
  138100    288.26504   -1439.0304    506.06897    364.52616    460.92909    39194.267 
  138200    286.95162   -1415.8847    470.53834    346.22956    343.22194    39194.267 
  138300    294.96448   -1399.4591    503.47116    431.65403   -284.93344    39194.267 
  138400    293.00351   -1381.3071    476.97616    414.48469    103.61047    39194.267 
  138500    302.76275   -1382.7174    474.98575    455.01047   -149.92832    39194.267 
  138600    294.24235   -1381.1483    492.64991    435.89323   -76.317291    39194.267 
  138700    297.70204   -1423.9298    467.82674    383.86075   -500.65971    39194.267 
  138800    315.35034   -1420.1625    467.03533    466.27205     172.2901    39194.267 
  138900    291.64522   -1420.6651    491.38322    383.42001    -292.2218    39194.267 
  139000    304.81123   -1367.4193    470.30185    474.84493   -242.02678    39194.267 
  139100    295.01297   -1367.8834    468.68038    428.65722   -444.98945    39194.267 
  139200    297.79054   -1435.6496    476.39839    381.11095   -460.20174    39194.267 
  139300    292.05017   -1404.5186    476.87656    386.88248    47.910871    39194.267 
  139400    304.35705    -1422.569    467.08962    414.43878   -133.94274    39194.267 
  139500    303.53725   -1398.2706    467.85393    435.81154   -151.75009    39194.267 
  139600    297.77799   -1429.4982    449.45941    360.26682    91.232933    39194.267 
  139700    293.24511   -1392.6452    476.69588    403.95378     190.9724    39194.267 
  139800    298.65257    -1383.424    480.84689    441.66505    358.28294    39194.267 
  139900    311.15867   -1397.5183    465.87083    468.88493    91.508685    39194.267 
  140000    308.34257   -1377.0465     479.5619    490.37242    16.592254    39194.267 
  140100    292.80211   -1364.9377    462.11255    415.08391   -480.29253    39194.267 
  140200    288.96956   -1368.0019    450.71762    383.37439    381.72498    39194.267 
  140300    304.82155   -1378.9552    500.53186    493.58554    498.69369    39194.267 
  140400    308.21427   -1380.5763     473.1449    479.84818    926.02868    39194.267 
  140500    301.32487   -1390.3717    493.49534    459.39382    543.83759    39194.267 
  140600    304.61734   -1379.6545    475.99193     467.4271     93.11955    39194.267 
  140700    298.31859   -1349.4823    468.60828    461.86489    426.09489    39194.267 
  140800    290.36642   -1355.0625    495.52068    447.40416    15.446778    39194.267 
  140900    299.17244   -1343.8397    495.76157    498.50391   -200.12993    39194.267 
  141000    297.39726   -1363.2899    474.62496    449.92697   -99.085203    39194.267 
  141100    290.95745   -1332.1303    454.14675    431.62264      279.658    39194.267 
  141200    300.50295   -1378.8765     504.5039    478.19818   -544.96748    39194.267 
  141300    301.65702   -1373.2983     475.1929    459.65986    170.23911    39194.267 
  141400    302.51431   -1377.6582    478.99517    462.96093    454.83047    39194.267 
  141500    293.95268   -1353.3262    469.06047    438.82207    247.14708    39194.267 
  141600    302.68761   -1381.2125    480.82402     462.0155    380.71284    39194.267 
  141700    308.54824   -1387.3728    478.61239    480.02233    814.81181    39194.267 
  141800    286.98644   -1421.4738    483.20262    353.46145      62.9235    39194.267 
  141900     288.4372   -1396.6403    476.55199    378.17418   -136.12672    39194.267 
  142000    294.22101    -1364.343    468.82403    428.77665   -96.008375    39194.267 
  142100    295.82106   -1411.0616     469.3727    389.80862   -409.47587    39194.267 
  142200    302.73356   -1346.3442    461.79098    478.05749   -531.92815    39194.267 
  142300    301.69818   -1398.0395    478.13395    438.04496    74.420057    39194.267 
  142400    295.40454   -1335.3994    494.11265    488.33592   -136.13255    39194.267 
  142500    310.54229   -1378.6801    467.74594    486.82394   -67.996262    39194.267 
  142600    291.47818   -1395.4699    476.10522    392.58536    239.25802    39194.267 
  142700    302.65682   -1397.4027    490.43375    455.29643   -88.009613    39194.267 
  142800    298.81237   -1386.0058    486.90674    445.86233   -145.36584    39194.267 
  142900    299.79719   -1343.3141    481.99197    488.07194   -113.03768    39194.267 
  143000    305.94108   -1358.5617     482.1934     500.6796   -183.90995    39194.267 
  143100    296.60839    -1350.313    484.56679    469.29506    503.14645    39194.267 
  143200    303.00487   -1400.4557    451.11683    414.49302    112.52691    39194.267 
  143300    293.38551   -1364.9773    479.51534    435.07299    253.28004    39194.267 
  143400     302.7727   -1364.4067    476.89361    475.27383    283.14625    39194.267 
  143500    301.57075   -1359.2004    454.72442    452.90096   -54.701576    39194.267 
  143600    303.23366   -1391.3784    475.75652    449.23986   -82.319072    39194.267 
  143700    291.02109   -1402.8762    469.87754    376.89402    -36.35522    39194.267 
  143800    296.25913   -1383.2038    462.89532    413.16073    41.696735    39194.267 
  143900    307.46748   -1370.2739    469.82891    483.47327   -31.118819    39194.267 
  144000    296.28582   -1373.8267    505.85007    465.61271    119.25065    39194.267 
  144100    288.58284   -1399.9828    477.82735    376.76258   -522.95388    39194.267 
  144200    291.46479   -1370.5586    463.61399    404.94517   -79.930009    39194.267 
  144300      303.231   -1384.6766    488.49077    468.66394   -427.42423    39194.267 
  144400    297.92256   -1381.0078    479.41684    439.36532   -552.94415    39194.267 
  144500    307.70746   -1368.0911    460.19233    477.09967   -463.36594    39194.267 
  144600     310.6527   -1368.2566    475.04536    505.04376   -500.31044    39194.267 
  144700    301.29778   -1417.2801    492.40807    431.27629   -486.02116    39194.267 
  144800    289.47648    -1378.805    484.22766    408.36305    242.63841    39194.267 
  144900    298.79896   -1452.4625    458.34834    350.78685    638.85744    39194.267 
  145000    299.32475   -1416.1434    484.12503    415.24931    488.41221    39194.267 
  145100    294.38823   -1398.0394    482.51224    409.52105    384.27489    39194.267 
  145200    305.10341   -1382.1091    510.77714     501.9455    140.29594    39194.267 
  145300    294.21092   -1377.9778    487.47371    433.74605    -8.312819    39194.267 
  145400    299.81903   -1355.3313    446.73679    440.89788    77.003438    39194.267 
  145500    301.75311   -1355.1232    491.75214    494.82673   -137.45944    39194.267 
  145600    302.34983   -1333.5476    453.04301    480.37905   -310.01429    39194.267 
  145700    304.04941   -1363.6401    485.49388    490.38724   -4.2733059    39194.267 
  145800    292.63612   -1367.3422     484.4301    434.24987   -319.50584    39194.267 
  145900    315.09428   -1334.4299    450.39867     534.2154    341.90434    39194.267 
  146000    292.77672   -1334.2476    484.58409    468.13131   -37.399691    39194.267 
  146100    307.19715    -1345.393    469.97233    507.28081    94.160812    39194.267 
  146200    303.78324   -1368.0246    460.27042     459.5812    416.81431    39194.267 
  146300    298.71477   -1330.7546    483.54973    497.31722    415.28178    39194.267 
  146400    288.08149   -1335.3173     480.9783    442.32251    348.51705    39194.267 
  146500    291.90708   -1358.0967    477.50199     433.2858     218.8866    39194.267 
  146600    295.52007    -1351.481    486.97894    465.64059    421.91606    39194.267 
  146700    309.56316   -1371.4721    490.80739    512.68627    157.81508    39194.267 
  146800    304.71733    -1355.841    510.53962    526.23842   -84.230205    39194.267 
  146900     292.1152   -1372.6957    475.39943    417.52106   -939.00983    39194.267 
  147000    305.40609   -1371.4731    494.50192    497.66875   -760.23986    39194.267 
  147100    287.18672   -1329.2345    496.58391    459.98351   -299.01224    39194.267 
  147200    301.06533   -1387.6566    468.70935    436.15477   -515.85315    39194.267 
  147300    301.03509   -1356.5887    478.36297    476.74019    260.76045    39194.267 
  147400    295.08778   -1357.1971    485.56824    456.56812    586.63635    39194.267 
  147500    300.09968    -1366.599    477.14609    461.30272    312.47309    39194.267 
  147600    299.74069   -1402.0565    477.08588    424.16916    482.20823    39194.267 
  147700    304.81485   -1395.5466    467.25679    443.68889    656.83252    39194.267 
  147800     312.4965   -1390.9974    469.04821     484.6048    524.83765    39194.267 
  147900    296.57042   -1431.8647    462.72972    365.73541    361.64913    39194.267 
  148000    303.28245   -1407.4093    480.70386     438.3759    978.22463    39194.267 
  148100    304.11028   -1389.8023    469.25253    448.25768    1163.6141    39194.267 
  148200    302.71843   -1395.0985    455.61449    423.05865     1037.025    39194.267 
  148300    294.91578   -1407.9624    469.15406    388.61443    375.17091    39194.267 
  148400    306.40854   -1418.8192    451.57066    411.90335      535.299    39194.267 
  148500    302.34278   -1388.0565    480.09597    452.89127      62.0344    39194.267 
  148600     297.4328   -1391.4902    490.35596    437.61771    657.24164    39194.267 
  148700    296.83546   -1395.5036    474.03053    414.59019    696.58058    39194.267 
  148800    293.93129   -1424.5882    490.41944    388.82282    849.60947    39194.267 
  148900    299.41826   -1399.2857    465.87448    414.27726    1153.2301    39194.267 
  149000    302.86008   -1419.3518    489.19037    433.01881    774.52486    39194.267 
  149100    311.69507    -1398.816    478.52937    482.66009    716.05163    39194.267 
  149200    297.79945   -1408.6974    431.88967    363.59453    123.63604    39194.267 
  149300    311.68233   -1395.0992    489.51067     497.3009   -303.96346    39194.267 
  149400    297.06679   -1338.1312    483.80412    482.77746    55.896498    39194.267 
  149500     300.5582   -1358.0728    480.54232     475.2889     245.2811    39194.267 
  149600    297.65284   -1371.2088     450.3689    418.90243   -147.31424    39194.267 
  149700    291.46459   -1361.2108    449.65632    400.33441    -14.27574    39194.267 
  149800    298.96367   -1370.6642    468.00654     442.9847    27.681504    39194.267 
  149900    304.08792   -1386.0886    489.54719    472.16539    669.51145    39194.267 
  150000    304.45269   -1397.0023    459.94161    433.28791    786.92692    39194.267 
  150100    312.88906   -1418.9553     446.3661    435.73166    159.12225    39194.267 
  150200    294.33684   -1449.2118    447.97292      323.578    78.904496    39194.267 
  150300    303.39432    -1365.211    448.71027    449.08417    659.11995    39194.267 
  150400    303.40156   -1402.8472    458.62205    421.39227    812.56138    39194.267 
  150500    299.03317   -1379.4236    507.60477    474.13638    611.64252    39194.267 
  150600    299.62378   -1418.4434     465.7343    395.90448    530.88218    39194.267 
  150700    299.65374   -1429.4815    453.71469    372.98159    681.77312    39194.267 
  150800    309.24318   -1429.0395    480.64609    443.51732    1166.1793    39194.267 
  150900     288.0979   -1424.1524    488.82631    361.40926    716.64531    39194.267 
  151000    299.09993   -1431.1673    454.02138    369.10975    484.39987    39194.267 
  151100    297.16482    -1391.757    476.09604    421.88475    123.21493    39194.267 
  151200    298.69104   -1363.8311      463.896    444.48022   -130.84009    39194.267 
  151300    302.06458   -1375.8547    462.29064    446.03563    33.924739    39194.267 
  151400    305.11125   -1396.2244    496.20764    473.29611   -318.56015    39194.267 
  151500    297.45852    -1441.651    449.50048    346.71717   -582.92783    39194.267 
  151600    305.27002   -1382.1393    467.14777     459.0359    97.995012    39194.267 
  151700    303.93025   -1370.2325    501.09383    498.85839   -38.736801    39194.267 
  151800    297.47411   -1421.2242    465.25853     382.9722    164.02252    39194.267 
  151900    298.04343   -1384.9813     453.7593    410.27834    372.96548    39194.267 
  152000    296.47987    -1385.307    505.53449    454.69021   -245.21305    39194.267 
  152100    293.53112   -1370.3751    462.99805    413.81331    202.75555    39194.267 
  152200    300.13962   -1365.7842    496.68861    481.83973    925.72651    39194.267 
  152300    301.70443   -1359.7847    475.48009    473.67407    575.22061    39194.267 
  152400    290.88975   -1395.5023    463.66124    377.46045   -102.09412    39194.267 
  152500    285.67243   -1377.1183    467.03924    375.73923   -243.97292    39194.267 
  152600    304.94843   -1387.5337    466.96408     452.0103    -607.5475    39194.267 
  152700    292.81519    -1378.528     469.5532    408.99317   -252.35217    39194.267 
  152800    297.35689   -1397.4179    455.58797     396.5803   -495.06177    39194.267 
  152900    298.94424   -1400.1456    499.64422    445.05354   -279.21689    39194.267 
  153000    298.92177   -1432.7763    474.94436    387.62186   -520.98101    39194.267 
  153100    300.10413   -1374.1724    491.02659     467.6298     156.9282    39194.267 
  153200    288.40054   -1405.3825    487.86168    380.57672   -587.83504    39194.267 
  153300    290.41779   -1378.6492    480.78655    409.31452    -136.2287    39194.267 
  153400    289.53956   -1410.0138    461.97135    355.18179     230.1812    39194.267 
  153500    291.24193   -1388.0145    477.86349    400.73568    295.28075    39194.267 
  153600    304.20909   -1427.7471    487.74392    429.24902     591.6545    39194.267 
  153700      304.913   -1387.3872    489.68351    474.71673    313.62337    39194.267 
  153800    301.55225   -1403.1442    450.25715    404.40663    389.31062    39194.267 
  153900    296.06147   -1382.6106    460.75655    410.72546    672.55609    39194.267 
  154000      294.888   -1388.7349    478.70272    417.26556     455.8078    39194.267 
  154100    300.08052   -1371.1407    481.28968    460.81836    175.51594    39194.267 
  154200    299.66113   -1387.8076    475.79569    436.76981    623.20165    39194.267 
  154300    293.62159   -1353.3601    507.97474    476.21222    465.16502    39194.267 
  154400    301.70566   -1363.6366    463.39282    457.74037    267.74573    39194.267 
  154500    298.00667   -1386.8894    512.66579    467.11137    515.09869    39194.267 
  154600    293.90577    -1389.772     475.3937    408.49836    -237.9599    39194.267 
  154700    304.04455   -1421.6531    465.43727    412.29579    344.22955    39194.267 
  154800    297.82422   -1407.4505    455.97387    389.03707   -753.76136    39194.267 
  154900    294.17209   -1428.1978    460.10323    355.98088    119.88934    39194.267 
  155000    300.84904    -1397.255    479.60448    436.47795    432.23612    39194.267 
  155100    300.30668   -1400.8327    507.50701     458.3616    461.40446    39194.267 
  155200    306.30178   -1411.9404    475.18915    441.92016    505.11645    39194.267 
  155300    304.56241   -1375.9294    472.24897    467.16205    1135.1757    39194.267 
  155400     293.6347   -1358.6635    498.06337    461.05643    627.67664    39194.267 
  155500    305.71019   -1391.2808    490.39363    475.12151      577.026    39194.267 
  155600    289.93494   -1401.9289      492.643    395.71799    328.83893    39194.267 
  155700     296.6434   -1419.5645    460.53678    376.17116    -239.4137    39194.267 
  155800    300.22411   -1429.8265    466.04424    387.53339    117.83271    39194.267 
  155900    293.12679   -1425.1372    445.14823    339.38149   -156.63695    39194.267 
  156000    298.17615   -1433.0712    482.54322    391.56983   -209.75763    39194.267 
  156100    290.05075   -1466.7663    477.22272    315.98153    869.74817    39194.267 
  156200    307.81664   -1457.9446    492.28629    419.83154    -42.93568    39194.267 
  156300    305.48965   -1396.0171    497.92188    476.92083      69.2015    39194.267 
  156400    304.17149    -1419.204    463.62461    413.50358   -150.16232    39194.267 
  156500     309.7109   -1391.9528    468.06217    470.12535   -40.165943    39194.267 
  156600    295.66752   -1404.4131    476.98003    403.37332   -394.72078    39194.267 
  156700    303.12626   -1410.6105    479.79578    433.56362    46.762486    39194.267 
  156800    301.74188   -1422.3868    477.93921    413.69966     98.51459    39194.267 
  156900    307.73184   -1413.8052    457.40753    428.71052    473.25181    39194.267 
  157000    311.90604   -1400.7389    473.62082    476.77823    424.01865    39194.267 
  157100    298.27632   -1412.4716    473.19399    403.27102    503.97741    39194.267 
  157200    296.92365   -1417.3359    454.13798    373.26234    1047.9011    39194.267 
  157300    298.53362   -1412.4069    505.30252    436.60238    224.37116    39194.267 
  157400    296.18686   -1354.8024    462.03854    440.38008    469.49476    39194.267 
  157500    305.33581   -1352.1605    478.58966    500.75268    336.41496    39194.267 
  157600    294.61887   -1369.8719     490.7994    447.01388   -507.03621    39194.267 
  157700    292.13628   -1357.5162    455.90522    413.30119   -54.156915    39194.267 
  157800    308.58878   -1349.2763    484.37845    524.06737   -234.69655    39194.267 
  157900    296.90385     -1342.03    476.36625    470.70733   -462.90017    39194.267 
  158000    303.54815   -1364.2505    454.85053    456.87729   -218.09846    39194.267 
  158100    304.60399   -1338.7863    481.90439    514.14772   -189.69778    39194.267 
  158200     308.4746    -1402.866    480.94021     466.5255    191.99091    39194.267 
  158300    299.59735   -1349.5718    466.41167    465.33451    500.07547    39194.267 
  158400    300.18145    -1380.852    493.52787    463.79948   -215.36513    39194.267 
  158500    298.82073   -1365.4694    474.66629    454.19591     414.0964    39194.267 
  158600    303.65885    -1387.077    459.36399    439.06251    320.11746    39194.267 
  158700    308.66028   -1380.7737    458.19341    466.70673    387.92192    39194.267 
  158800    302.07196   -1362.7068    481.34778    478.27382   -173.80133    39194.267 
  158900    300.85662   -1340.4858    472.33628    486.01309    -527.7484    39194.267 
  159000    306.84211   -1366.4891    465.73601    480.35036   -190.51964    39194.267 
  159100    302.04484   -1387.3249     481.8314    454.01735   -402.33582    39194.267 
  159200    305.67851   -1355.9785    469.90258    489.79011   -232.47804    39194.267 
  159300    295.70889   -1384.4938    497.88812    444.38688   -544.05663    39194.267 
  159400    308.33922   -1419.6114    447.11535    415.34596   -141.69698    39194.267 
  159500    286.21646   -1374.2696    465.56722    379.56451   -135.75325    39194.267 
  159600     300.3634    -1418.793    484.53428    417.68397   -134.89059    39194.267 
  159700    303.43765    -1396.356    455.93968    425.36355    225.01555    39194.267 
  159800    296.45443   -1379.3739    458.17219    413.14657     350.9321    39194.267 
  159900    299.78095   -1343.9419     499.5143    504.89343    382.32635    39194.267 
  160000     294.1215     -1361.48    468.87682    431.24448    325.36791    39194.267 
  160100    296.33923   -1391.2532    466.06992    408.64646    904.83316    39194.267 
  160200    303.80832   -1355.5807    477.71347     489.5811    299.76885    39194.267 
  160300    302.63389   -1375.5923    475.95391    462.52374    600.48608    39194.267 
  160400     307.4756   -1415.4958    486.97497    455.43399    293.38568    39194.267 
  160500    296.03568   -1333.8419    467.55898    466.18059    66.061632    39194.267 
  160600    300.36571   -1340.3867    480.82496    492.39125   -176.70831    39194.267 
  160700    303.09236   -1352.5931    487.05631    498.68896    48.768558    39194.267 
  160800    310.37668   -1323.4113     511.3743    584.97562   -300.65678    39194.267 
  160900    301.59411    -1349.535    471.31214    479.25921   -183.15951    39194.267 
  161000    300.31351   -1312.6968    479.38882    518.41007   -301.00727    39194.267 
  161100    296.17203   -1346.7256    496.39892    482.75048   -57.837357    39194.267 
  161200    304.16186   -1356.1135    479.80222    492.72828    649.56658    39194.267 
  161300    292.26295   -1348.3388    474.52025    441.66376    473.23928    39194.267 
  161400    292.72691   -1392.0583    478.19993    403.71224    99.832119    39194.267 
  161500     299.2665   -1366.9743    481.57204    461.60318    441.17145    39194.267 
  161600    296.35808   -1375.1542    484.83102    443.59138    346.29424    39194.267 
  161700    303.13869   -1401.2994     458.4937     421.6286   -7.6521143    39194.267 
  161800    298.45847   -1369.6614     460.7991    434.50615    344.34615    39194.267 
  161900     296.9695   -1354.6684    472.32786    454.32602    2.4654529    39194.267 
  162000    308.77392   -1374.8005    497.36525    512.36333   -70.316308    39194.267 
  162100    294.67742   -1374.0045    458.18172    410.52715    129.38988    39194.267 
  162200    297.92764   -1348.6734    471.24854    463.55429   -428.59761    39194.267 
  162300    299.37667   -1329.6059     484.1685    502.06394   -714.96271    39194.267 
  162400    292.59299    -1332.088    448.94178    433.82158   -713.33987    39194.267 
  162500     305.0034    -1355.815    494.66998    511.68236   -670.76113    39194.267 
  162600    299.72096   -1378.8536    474.18601    444.38336    -518.7914    39194.267 
  162700    296.38586   -1394.9955    447.07639    386.12047    274.93578    39194.267 
  162800    304.15718   -1378.7665    515.66238    505.91436    63.614244    39194.267 
  162900    305.92764   -1397.4506    465.72693    445.26366   -23.682119    39194.267 
  163000    293.11228   -1383.8643    462.38172    397.82263   -4.8262706    39194.267 
  163100    304.76535   -1362.0911    493.02911    502.69384   -592.60124    39194.267 
  163200    301.59373   -1348.8929    473.53475    482.12221   -523.53202    39194.267 
  163300    299.43825   -1332.0887    471.57821      487.268    87.256496    39194.267 
  163400     286.3673   -1329.4507    494.77101    454.26622   -232.88382    39194.267 
  163500    304.92772   -1357.6292    466.72567    481.58322    36.117503    39194.267 
  163600    292.75491   -1400.6668    468.83918    385.86901   -240.72386    39194.267 
  163700    304.72065   -1421.4549    459.82576    409.92551   -66.114025    39194.267 
  163800    297.15916   -1417.1507    484.88839    405.25798    140.14415    39194.267 
  163900    301.97974   -1431.8114    451.52255    378.92894    271.04739    39194.267 
  164000    296.87991   -1404.7573    486.87099    418.37699    283.74495    39194.267 
  164100    303.72982   -1382.6181    509.77399    494.25087    502.19228    39194.267 
  164200    295.58345    -1370.068    480.47523    440.83514    83.515202    39194.267 
  164300    299.82403   -1417.5257    449.07552    381.06478   -66.516013    39194.267 
  164400    294.15311   -1394.9665    454.65299    383.67643    393.60765    39194.267 
  164500    296.27043   -1408.2431    500.23676    425.51379   -136.23082    39194.267 
  164600    293.33184   -1399.1306    477.93499     399.0978   -379.67995    39194.267 
  164700    296.44213   -1362.1203    453.55976    425.73236    93.731549    39194.267 
  164800    309.81962   -1363.5762    481.11278     512.0419    47.404765    39194.267 
  164900     291.2696   -1383.5352    468.91729    396.39334   -374.51725    39194.267 
  165000    301.17287   -1377.9994    456.26627     433.8529   -302.70958    39194.267 
  165100    310.33798   -1398.5889    498.73882    496.98837   -336.01404    39194.267 
  165200    287.15409   -1348.3783    455.23214    399.34102   -53.112708    39194.267 
  165300    288.83665   -1376.2382    469.67156    393.49376    336.25921    39194.267 
  165400    305.11836   -1347.4559    495.93761    521.82657    667.75105    39194.267 
  165500    308.49943   -1378.5622    492.36298    502.36392    536.97929    39194.267 
  165600    294.61439   -1370.9833    467.18428    422.26713    302.20745    39194.267 
  165700    300.97479   -1392.8693    482.68428    444.50951     638.3308    39194.267 
  165800    305.39545   -1378.9932    480.39681     475.9956    265.24181    39194.267 
  165900    289.95941   -1363.9785    457.35166    398.48722   -61.868745    39194.267 
  166000    301.01518   -1371.4297    485.88623    469.33278   -229.77481    39194.267 
  166100    291.16393   -1375.3413    475.97608    411.17038   -427.89589    39194.267 
  166200    289.42157   -1394.9023    466.39148    374.18241   -360.12063    39194.267 
  166300    301.34704   -1388.3573    485.06064    453.07333   -381.64557    39194.267 
  166400    300.53977   -1396.1053    445.58886       402.22   -480.51877    39194.267 
  166500    301.83869   -1356.8063    477.48201    479.25865   -441.62789    39194.267 
  166600    296.18004   -1374.7239    482.81251     441.2018   -549.44845    39194.267 
  166700    301.96712   -1371.8705    451.04203    438.33256    136.65264    39194.267 
  166800    300.58403   -1387.3764    490.53089    456.09016   -324.44976    39194.267 
  166900    299.57702   -1406.4711    474.51472    416.44673   -322.92074    39194.267 
  167000    306.65429   -1371.8376    461.41826    469.83869    961.66815    39194.267 
  167100    304.14787    -1456.566    495.63764    408.04828    227.95781    39194.267 
  167200    296.31909   -1421.8483      456.735    368.62578    341.25335    39194.267 
  167300    299.17212    -1397.291    480.88997    430.17959    501.75148    39194.267 
  167400    298.65396   -1394.5101    477.15533    426.89361    103.14816    39194.267 
  167500    297.25167   -1370.4133    453.70964    421.23301   -501.97309    39194.267 
  167600    306.13833   -1337.4469    474.27242    514.76128    175.45635    39194.267 
  167700    301.48966   -1352.0469    482.74823    487.71325   -94.512651    39194.267 
  167800    295.56959   -1412.2332    476.98514    395.11752    18.539291    39194.267 
  167900     290.5112   -1393.0203    468.41121    382.98857    322.65491    39194.267 
  168000    302.48051   -1364.9815    493.62706    490.11732     368.2593    39194.267 
  168100    297.71731   -1357.3034    484.52489    467.25399    531.85524    39194.267 
  168200    306.19211   -1351.1132    486.71661    513.78119   -180.47293    39194.267 
  168300    302.42677   -1416.0309    487.87305    433.07203    265.01236    39194.267 
  168400    287.80295   -1388.3741    504.56204     411.5957    -210.7604    39194.267 
  168500    310.87979   -1398.4951    436.72886    437.51094    144.01894    39194.267 
  168600    305.14023   -1392.6214      479.776    460.59785   -420.12541    39194.267 
  168700    290.94863   -1344.3147    486.35932    451.61114    614.40177    39194.267 
  168800    293.25039   -1370.8372    475.78136    424.87096     373.7829    39194.267 
  168900    302.95856   -1345.6333    503.93111    521.92126    84.304524    39194.267 
  169000    299.26139   -1364.0899    455.64718    438.53975     290.0284    39194.267 
  169100    289.70613   -1363.1034    473.89963    414.77026   -4.9989342    39194.267 
  169200    297.62235   -1366.5424    508.81049     481.8732   -441.91209    39194.267 
  169300    290.31848   -1398.8308    468.25015    376.14949    -135.9102    39194.267 
  169400    297.31847   -1390.5969    473.15149    420.79188    171.73047    39194.267 
  169500    299.81874   -1396.5371    496.39288    449.34692   -176.09781    39194.267 
  169600    307.63968   -1379.2769    456.22285    461.63927   -197.41362    39194.267 
  169700    288.00696   -1427.6951    460.76414    329.39507   -278.59732    39194.267 
  169800    303.09134   -1434.1913    486.67095    416.70076   -554.36642    39194.267 
  169900    298.48797   -1385.3334    440.29172    398.45964   -289.24491    39194.267 
  170000    296.04037   -1362.1047    502.60036    472.98018   -203.57706    39194.267 
  170100    308.55711   -1355.1006     480.6236     514.3457   -533.37037    39194.267 
  170200    305.13224   -1361.5658    473.53593     485.3774    -406.8489    39194.267 
  170300    306.56687   -1349.8076    481.49313    511.55014   -386.27854    39194.267 
  170400    301.72778   -1364.6551    473.75741    467.18598   -448.46451    39194.267 
  170500    305.42498   -1367.7789    471.21132    478.15729   -21.941636    39194.267 
  170600    296.31556   -1366.3657    483.85811     451.2156   -70.058022    39194.267 
  170700    299.30219   -1374.1147     462.2657    435.31714    26.200189    39194.267 
  170800    304.40047   -1372.0221    455.65698    453.74841    54.779881    39194.267 
  170900    294.87252   -1377.3485    490.61944    440.49903   -161.83622    39194.267 
  171000    312.79486   -1377.3342    468.88025    499.44297   -293.69256    39194.267 
  171100    299.47526   -1348.8298    457.16815    456.28348   -747.60668    39194.267 
  171200    298.77692   -1378.1281    483.74282    450.41661   -440.80525    39194.267 
  171300     304.3671   -1346.2133    490.52779    514.27789    116.42995    39194.267 
  171400    299.68161   -1318.2755    458.70464    489.30298    10.035087    39194.267 
  171500    286.21496   -1350.5514    514.43677    452.14552    282.19329    39194.267 
  171600    296.67115   -1323.5074    467.43721    479.25354    451.83041    39194.267 
  171700    301.21659   -1332.3748    509.83837    533.24639    396.13368    39194.267 
  171800     302.7122   -1341.9601     484.2191    504.77365    371.69073    39194.267 
  171900    302.74865   -1343.6108    471.77821    490.84616    616.29811    39194.267 
  172000    301.13664   -1368.3633    485.43447    472.49411    24.109657    39194.267 
  172100    303.43407   -1372.5351    479.68556    472.91419   -19.101668    39194.267 
  172200    312.28119   -1353.5373    464.44712    516.49463    385.75009    39194.267 
  172300    299.88034   -1392.1314    461.06828    418.70527   -86.531002    39194.267 
  172400      297.818   -1403.6135     459.4686    396.34079   -349.39316    39194.267 
  172500    301.84863   -1405.7309    461.93855    414.83537   -270.26844    39194.267 
  172600    303.26687   -1446.9347    456.69061    374.76714   -574.92707    39194.267 
  172700    293.79259   -1392.3209    474.91656    404.96292   -739.45608    39194.267 
  172800    308.07585   -1355.6105    461.49725    492.54332   -446.63486    39194.267 
  172900     308.1687   -1379.3994     460.3304    468.00543   -157.02095    39194.267 
  173000    291.02496   -1418.2307    457.34531    349.02469   -163.16112    39194.267 
  173100    308.36078   -1359.6731    474.20416    502.47002    337.05291    39194.267 
  173200    298.15938   -1408.4762    451.45369    384.99976    294.74326    39194.267 
  173300    298.28334   -1410.8891    482.65819    414.34935   -404.61373    39194.267 
  173400    301.82473   -1383.2467    471.39472    446.66809    453.02366    39194.267 
  173500    314.42439   -1395.2767    461.94656     481.9013   -475.11058    39194.267 
  173600    295.31835   -1373.9804    481.91211    437.16641    161.51668    39194.267 
  173700    291.67293   -1367.2216    449.67509    395.28013   -196.97381    39194.267 
  173800    302.20978    -1372.832    484.61923    472.04044    -386.1493    39194.267 
  173900    290.18959   -1341.2163    464.20204    429.13579   -2.0967772    39194.267 
  174000    298.99422   -1411.4892    493.77531    428.06599    253.95758    39194.267 
  174100    308.02518   -1363.7707    472.04743    494.70522    229.88492    39194.267 
  174200     289.6767   -1341.5614    479.84571    442.12583    29.509092    39194.267 
  174300    305.87527   -1369.9211    473.78343    480.61401   -70.974413    39194.267 
  174400    299.02269   -1343.2302    474.78135    477.45921    328.58445    39194.267 
  174500     292.7099   -1371.5378    479.58051    425.53675   -245.97948    39194.267 
  174600    283.08368   -1340.7351    477.61807    411.04918   -501.75942    39194.267 
  174700     296.6382   -1362.6856      479.114    451.60378   -151.81179    39194.267 
  174800    304.87704   -1382.3545    435.74591    425.65006   -159.31171    39194.267 
  174900    302.34178   -1366.0131    475.26059    470.09481   -524.43299    39194.267 
  175000    303.72962   -1380.3597    474.05525     460.7896   -153.17062    39194.267 
  175100    299.66599    -1393.391    490.26415    445.67673   -55.598042    39194.267 
  175200    301.40308   -1355.9135    470.81493    471.52366   -247.12313    39194.267 
  175300    305.74836   -1378.4478    467.52996    465.26267   -334.45613    39194.267 
  175400    314.27661   -1331.4158    457.67518     540.8257   -163.79465    39194.267 
  175500    298.17373   -1332.8265    481.23957    490.49992    274.46487    39194.267 
  175600    296.39629   -1318.6475    480.94785     496.3869   -191.80374    39194.267 
  175700    303.95307   -1324.3297    470.56156    514.33166    528.74276    39194.267 
  175800    301.73144   -1329.8215    470.64151    498.92025    698.24236    39194.267 
  175900    301.13816   -1388.3119    493.22407    460.34196    -73.68273    39194.267 
  176000    304.29432   -1390.4557    475.45585    454.63593    147.22955    39194.267 
  176100    292.68495   -1373.0307    473.75162    418.10264    379.62961    39194.267 
  176200    295.00496   -1374.2765    494.57149    448.11918   -685.02223    39194.267 
  176300      291.558   -1380.5367    465.14915    396.92172   -277.80019    39194.267 
  176400    302.52694   -1419.1619    449.33817    391.85703   -375.72493    39194.267 
  176500     303.2664   -1380.7074     473.7079    458.00961   -529.14476    39194.267 
  176600     307.2059   -1385.6574    472.99369    470.07718    45.641225    39194.267 
  176700    296.73893   -1428.0649    472.03058    379.59451    375.25274    39194.267 
  176800    295.76631   -1405.3337    477.12448    403.04184    472.95045    39194.267 
  176900    303.38301   -1416.0317     456.9907    406.49299    593.20741    39194.267 
  177000    310.41268   -1426.6322    487.34336    457.88577    239.31375    39194.267 
  177100    302.76547   -1431.9311    463.89735    394.72067    274.44143    39194.267 
  177200    290.70637   -1440.0274    491.04307    359.49177   -304.02682    39194.267 
  177300    295.17686   -1446.9714    475.53711    357.16358   -710.21772    39194.267 
  177400    294.97718     -1421.75    477.75727    383.70634   -773.77075    39194.267 
  177500    294.63972   -1431.6449    466.80204    361.33736   -245.42728    39194.267 
  177600    306.31353   -1426.1278    423.97169    376.56816   -517.25414    39194.267 
  177700    303.78579   -1447.9972    487.17364     406.5233   -681.06162    39194.267 
  177800    305.40426   -1392.0457    488.37622    470.96215   -133.25369    39194.267 
  177900     292.8477   -1398.5584      485.904    405.45988    15.476823    39194.267 
  178000    309.08623   -1392.7515    463.98434    462.43712    227.51963    39194.267 
  178100    295.48172   -1383.8863    476.58748    422.67129   -358.39655    39194.267 
  178200    290.36766   -1331.0176    500.13361    476.06756   -508.30957    39194.267 
  178300    307.02597   -1406.6864    486.34057    461.58511   -478.45888    39194.267 
  178400    317.27325   -1367.0122    471.90369    532.94579   -355.07513    39194.267 
  178500    302.89873   -1408.8511    469.61349    424.11659   -613.13974    39194.267 
  178600    298.57716    -1407.906    446.37519    382.37191   -360.05095    39194.267 
  178700    299.51251   -1364.5555    478.29109    461.84835   -234.09933    39194.267 
  178800    305.70187   -1432.7441    492.08231    435.30936    163.92966    39194.267 
  178900    297.94638   -1441.3978    474.17753    373.84332   -238.97194    39194.267 
  179000    297.82396   -1406.2178    485.82101    420.11573   -105.14918    39194.267 
  179100    314.67182   -1392.6002    475.67235    499.41731    115.99312    39194.267 
  179200     291.2156   -1409.4698    476.98247    378.28079     35.28308    39194.267 
  179300     299.2646   -1430.8592    482.99453    399.13228    -41.53546    39194.267 
  179400    291.53576    -1426.685    513.85786    399.38205    135.09465    39194.267 
  179500    306.08994   -1435.6773    455.58036    397.62099     142.0676    39194.267 
  179600    289.08146   -1467.8645    496.66111    329.95896    465.99258    39194.267 
  179700    295.30227   -1478.2933    491.80911    342.67816    223.29698    39194.267 
  179800    299.18169   -1449.4112    486.73898     383.9515    400.35154    39194.267 
  179900    306.35348   -1448.5045    479.32016    409.71982    -166.8425    39194.267 
  180000    291.50247   -1459.1743    461.63108    314.51612   -702.99164    39194.267 
  180100    298.36163   -1398.0182    498.84914    443.76353   -814.12749    39194.267 
  180200    309.19948   -1468.0143    483.17076    406.87046   -589.99733    39194.267 
  180300     295.7799   -1467.7202    472.71397    336.30596   -612.98601    39194.267 
  180400    297.44415   -1456.0055    477.92586    360.72336    -567.3409    39194.267 
  180500    303.13173   -1474.9519    457.93643    347.38749   -648.53679    39194.267 
  180600    301.39703   -1463.1495    452.68918     346.1347   -333.27017    39194.267 
  180700    307.27202    -1485.356    474.36214    372.04457   -277.95252    39194.267 
  180800    292.63616   -1436.7889    495.49933    375.87253   -204.39795    39194.267 
  180900    304.39703    -1477.851    463.46469    355.71176    231.63402    39194.267 
  181000    293.78124   -1449.3128    487.09592    360.09932    132.49975    39194.267 
  181100    296.09772   -1419.0297    481.27257    394.98556   -308.69084    39194.267 
  181200    297.40673   -1449.3504    481.74364    371.02777   -10.636027    39194.267 
  181300    299.73529   -1444.1771    474.99028    379.92871   -575.88808    39194.267 
  181400     302.0769   -1440.6727    491.92394    410.90638     30.76549    39194.267 
  181500    307.52738   -1421.3977    485.60208    448.39224    764.24861    39194.267 
  181600    305.66942   -1497.1093    501.12458    379.84045    567.49688    39194.267 
  181700     289.1361   -1417.0539    498.12747    382.48186    662.36303    39194.267 
  181800    304.65744    -1377.319    477.21156    471.16276    341.95557    39194.267 
  181900    299.82747   -1430.5682     503.2001    422.16226    457.02763    39194.267 
  182000    295.13121   -1403.0593    469.33772    394.67081     301.1581    39194.267 
  182100    294.92386   -1419.4506    507.68147    415.68997    489.37756    39194.267 
  182200    304.82835   -1423.6119    465.46853    413.89605   -131.04749    39194.267 
  182300    315.08953   -1414.0742    490.50835    494.65946   -262.98039    39194.267 
  182400    304.22125   -1420.3101    490.08077    439.07757    338.49053    39194.267 
  182500    303.27237   -1409.0131    493.03573    449.05856    548.01484    39194.267 
  182600    297.92886   -1393.1681    469.20486    417.02146    567.75301    39194.267 
  182700    306.39278   -1407.3052     512.3685    484.14429    43.246969    39194.267 
  182800    294.58361   -1431.5308      466.686    361.08282    323.80662    39194.267 
  182900    292.84767   -1413.8194    479.61819    383.91291   -461.78876    39194.267 
  183000    302.44913   -1437.5287    465.60184    389.40372   -482.79812    39194.267 
  183100    287.04943   -1474.2739    498.09817    315.84039   -11.668648    39194.267 
  183200    292.60801   -1478.8011    495.14922    333.38357    48.568857    39194.267 
  183300    302.61004   -1450.0937    475.63653    387.59767     210.9613    39194.267 
  183400    294.96319   -1436.3967    498.26805    389.50755    429.00618    39194.267 
  183500    301.38731   -1416.0296    454.65245    395.17411   -357.26111    39194.267 
  183600    293.05372   -1427.6444    486.23791    377.63509   -281.03309    39194.267 
  183700    293.08506   -1417.5314    485.92743    387.57872    73.877794    39194.267 
  183800     305.8952   -1406.5707    460.87443    431.14508    607.18933    39194.267 
  183900     299.5826    -1387.806    497.43762    458.05983    37.525525    39194.267 
  184000    296.34137   -1431.4796    485.32549    387.68527   -277.27608    39194.267 
  184100    310.86262   -1402.7224    479.07369    475.55112    40.258147    39194.267 
  184200    302.99778   -1382.6707    482.67147    463.80074    79.381855    39194.267 
  184300    293.76797   -1408.8104    484.09994    397.54598    -120.9484    39194.267 
  184400    298.64654   -1398.2252    499.40653     445.3963    563.56303    39194.267 
  184500    300.83449   -1415.7645    484.54009    422.83857   -178.74473    39194.267 
  184600    292.56203   -1403.7508    480.52295    393.60061   -235.52262    39194.267 
  184700    293.92131    -1408.126    469.59415    384.41483   -251.76049    39194.267 
  184800    294.40401   -1414.7348    508.60439     418.9888   -404.32047    39194.267 
  184900    298.62692   -1463.5242    491.40428     372.0067   -433.76871    39194.267 
  185000     297.7845   -1426.3823    493.68155    407.63421   -241.86934    39194.267 
  185100    297.81416   -1442.6742    484.46298    382.25723   -123.55883    39194.267 
  185200     315.5892   -1433.5879    494.26719    481.15362   -9.1899538    39194.267 
  185300    309.18455   -1436.9476    457.93687     412.6361    167.13363    39194.267 
  185400    289.87164   -1457.9634    458.42356    305.17913   -183.10035    39194.267 
  185500    303.05117   -1419.9518     502.2504    446.33889   -143.94178    39194.267 
  185600    299.09477   -1421.9626    477.28226    401.55218    349.80831    39194.267 
  185700    292.64749   -1394.9235    511.76344    434.05305     103.3721    39194.267 
  185800    299.16083   -1401.9702    484.65234    429.21197    512.16413    39194.267 
  185900    294.27613    -1414.923    471.63724    381.25793   -190.40906    39194.267 
  186000    287.20508   -1425.2456    497.83948    365.31065   -630.88746    39194.267 
  186100    288.27722    -1443.164    488.80097    343.17947    283.67498    39194.267 
  186200    310.49016   -1489.7608    470.68995    378.45255   -22.450502    39194.267 
  186300    307.06442   -1440.1284    483.03146    425.00709   -160.62784    39194.267 
  186400    293.16801      -1411.6    493.58757    401.54358   -37.489396    39194.267 
  186500    306.84003   -1435.3868     466.9024    412.60966    63.849899    39194.267 
  186600    297.62003   -1414.5352    480.42871    405.48819   -566.45101    39194.267 
  186700    289.85894   -1419.3798    469.85586    355.13783   -101.74806    39194.267 
  186800    302.93245   -1431.5113     496.9981    428.99277   -434.04541    39194.267 
  186900    300.63005   -1396.6086    496.84707    453.38129   -444.32992    39194.267 
  187000    307.39798   -1400.8015    478.41597    461.21997    30.823334    39194.267 
  187100    298.70496   -1398.9087    508.46578    454.03507    265.24325    39194.267 
  187200    292.98226   -1418.3146    478.43046    378.83583    165.78404    39194.267 
  187300    296.50557   -1397.3118    508.03926    445.30591    502.44516    39194.267 
  187400    298.56183   -1434.1996    497.57594    407.21005    424.34038    39194.267 
  187500     301.0542   -1421.3777    482.57804    416.25226    287.03293    39194.267 
  187600    302.13788   -1435.9564    479.85639    403.82964     333.0356    39194.267 
  187700    306.34103   -1432.8609    493.86824    439.85538    224.19701    39194.267 
  187800    305.92165   -1472.2524    483.07019    387.77824   -255.25825    39194.267 
  187900    303.97088   -1419.7983    517.26781    465.64949   -401.83691    39194.267 
  188000    294.81879   -1435.0667    470.82424    362.74372   -122.79462    39194.267 
  188100    294.62029   -1407.0641    477.98477    397.01346   -655.17717    39194.267 
  188200    305.00456   -1433.4056    473.99154    413.41854   -624.28245    39194.267 
  188300    280.62623   -1442.9082    460.51496    280.71198   -462.03329    39194.267 
  188400    303.16692    -1451.788    490.25964    403.03294    189.83426    39194.267 
  188500    301.73951   -1456.7455    473.02051    374.41159   -160.89942    39194.267 
  188600     295.4278   -1483.4396    465.87195    312.15973    250.60624    39194.267 
  188700    301.60838   -1504.1656    484.93986     338.3206    324.72192    39194.267 
  188800    302.12176    -1507.203    466.96227     319.6163    937.07103    39194.267 
  188900    298.18157   -1533.3459    491.37784    300.15414    429.42445    39194.267 
  189000    296.41629   -1532.5581    449.04209    250.66059    584.56207    39194.267 
  189100    289.85672   -1519.5157    478.48517    263.62135   -207.22683    39194.267 
  189200    302.33342    -1476.862    471.72001    355.66778   -426.61038    39194.267 
  189300    297.41498   -1443.3576    481.20368    376.51774   -456.90503    39194.267 
  189400    306.67019   -1426.9318    486.80812    440.20595   -400.19155    39194.267 
  189500    294.39529   -1435.3485    481.42051    371.15204   -65.535002    39194.267 
  189600    295.51644   -1446.9886    498.86857    382.00629    213.12196    39194.267 
  189700    304.54634   -1493.3632    489.30749    366.71448   -297.32488    39194.267 
  189800       296.18   -1466.4516    466.40062    333.06208   -445.57648    39194.267 
  189900    286.17495   -1409.4883    485.41834    364.01015    -212.2389    39194.267 
  190000    302.70125   -1444.6013     468.9106    386.77462   -68.460937    39194.267 
  190100    298.55824   -1468.4908    485.73685    361.06359   -40.596349    39194.267 
  190200    291.52436   -1446.2655    499.19625    365.08866   -118.72844    39194.267 
  190300    298.38237    -1473.715    491.64824    360.95922    605.75595    39194.267 
  190400    298.15908   -1439.1954    488.55375     391.3793    468.61461    39194.267 
  190500    297.23838    -1458.831    517.15385    396.19968   -95.853324    39194.267 
  190600    296.42952   -1426.8774    482.71104    390.06981   -154.30649    39194.267 
  190700    291.66488   -1427.7772    500.88463    385.89785    101.82652    39194.267 
  190800    302.81316   -1443.0531    510.15821    430.07421    324.97095    39194.267 
  190900    298.48968   -1467.5246    489.40489    365.38928    438.51641    39194.267 
  191000    296.51086   -1462.2262    506.21308    378.58915    152.19726    39194.267 
  191100    288.23045   -1442.9066     491.6834    346.10876   -487.85315    39194.267 
  191200    295.21175   -1438.6027    486.99496     377.1472   -56.528434    39194.267 
  191300    310.85898   -1453.5818    495.89407    441.49575    281.54121    39194.267 
  191400    309.85402   -1430.4601    501.00332     465.2034    338.64738    39194.267 
  191500    304.49816   -1435.9556    491.32464    425.92231    189.94163    39194.267 
  191600    289.50316   -1435.2239    501.07927    368.91585   -49.476373    39194.267 
  191700    304.56189   -1424.8889    507.72655    453.67773   -55.796584    39194.267 
  191800    296.09106   -1477.5663    474.95658    330.10299   -484.38943    39194.267 
  191900    299.13423   -1418.4848    517.34822    445.27355    -566.5307    39194.267 
  192000    286.89064   -1397.0496    490.13936    384.39116   -616.51403    39194.267 
  192100    302.82313     -1455.48    460.17348    367.70736   -429.47118    39194.267 
  192200    295.73724   -1440.8356    473.97327    364.25789   -596.95336    39194.267 
  192300    302.02828   -1399.3302    493.69789    453.80395   -543.04198    39194.267 
  192400    305.74884   -1442.3815    506.35766    440.15883   -461.60447    39194.267 
  192500    301.80316   -1436.5892     481.5801    403.41392   -824.77924    39194.267 
  192600    320.83978   -1435.7886    461.96843    470.28714   -181.24836    39194.267 
  192700    294.82662    -1393.026    486.49294    420.48835     293.8434    39194.267 
  192800    299.50755   -1460.9396    496.74451    383.89532   -505.47743    39194.267 
  192900    310.60404    -1423.341    476.71169    451.40669   -392.61026    39194.267 
  193000    296.76137    -1392.885    486.29746    429.14222   -525.25519    39194.267 
  193100    301.51833   -1470.6385     472.5674    359.06992   -267.61192    39194.267 
  193200    296.40638   -1412.9544    507.25363    428.43118    50.117432    39194.267 
  193300    295.90727   -1383.8823    496.52147    444.52462    176.09336    39194.267 
  193400    302.37585   -1379.0807    509.37485    491.29484   -359.64793    39194.267 
  193500    308.61734   -1389.6782    494.78737    494.20293    220.23477    39194.267 
  193600    292.41771   -1380.6109    495.43538    431.00334   -185.23142    39194.267 
  193700    298.77143   -1431.6775    491.00644    404.10606    235.77453    39194.267 
  193800    300.96394   -1400.1407    496.01387    450.51883    607.34818    39194.267 
  193900    300.11861   -1401.9207    517.39473    466.31478    75.111824    39194.267 
  194000     306.1859   -1404.8083    504.66265    478.00414   -16.803788    39194.267 
  194100    293.16098   -1404.6108    477.92397    392.83751    319.57415    39194.267 
  194200    296.63005   -1410.9948    484.53673    408.68071   -207.41876    39194.267 
  194300    299.71275   -1424.6029    519.11696    443.52813    23.764366    39194.267 
  194400    292.08959   -1481.3618    474.17872    307.51896    125.60013    39194.267 
  194500    297.91062   -1421.4219    489.66512     409.1458   -424.55419    39194.267 
  194600    288.96558   -1425.1481    505.79389    381.28653   -3.4903807    39194.267 
  194700     305.4495   -1439.2768    504.39242    439.95094    496.23302    39194.267 
  194800    297.06752   -1434.0205    478.60578    381.69313    377.04435    39194.267 
  194900    304.43402   -1435.1858    482.65616     417.7349    593.58077    39194.267 
  195000    309.88318   -1435.3709    497.80742     457.2279    383.73515    39194.267 
  195100    296.17956   -1419.9829    498.39747    411.52564    641.34926    39194.267 
  195200    301.40383   -1456.7133    496.00583    395.91818    250.17817    39194.267 
  195300    303.07404   -1457.8323    500.79773    407.10869    191.09793    39194.267 
  195400    302.48195   -1494.5942    478.78989    345.67395   -84.064467    39194.267 
  195500    302.97281   -1501.9632    504.35588    366.08034    52.863284    39194.267 
  195600    298.69092   -1466.4844    474.15355    352.08389    529.53327    39194.267 
  195700    300.48942   -1472.5584    506.56834    386.51975    289.80272    39194.267 
  195800    294.03332   -1473.0523    485.98027    336.37876    524.41267    39194.267 
  195900    308.58836    -1457.802    518.28525    449.44663   -121.79707    39194.267 
  196000    304.15032    -1487.469    479.47586    360.99451   -512.32385    39194.267 
  196100    294.83779   -1457.5947    482.54784    352.02482   -569.41594    39194.267 
  196200    295.84551   -1495.6844    484.61588    320.53902   -836.45896    39194.267 
  196300    304.82859   -1498.3222    466.58916    340.30756    -981.4169    39194.267 
  196400    294.10645   -1511.3998    484.87886      297.259     145.4138    39194.267 
  196500    299.70951    -1509.941    477.14496    316.20335   -147.11019    39194.267 
  196600    313.91703   -1512.9678    474.14777    374.12784   -50.740056    39194.267 
  196700    309.21798   -1486.4804    483.64463    388.96152     20.03037    39194.267 
  196800    293.36371   -1472.6033    478.70021    326.53373   -274.55556    39194.267 
  196900    305.36764   -1472.3026    471.71486    373.87904   -241.13857    39194.267 
  197000     302.8289   -1475.0436    521.51999    409.51628   -202.50949    39194.267 
  197100    286.96682   -1477.2487    471.31629    285.71184    217.67631    39194.267 
  197200    290.98254   -1476.5835    515.41411    348.54977    585.81877    39194.267 
  197300    304.46119     -1485.96    497.44998    381.87682   -385.87361    39194.267 
  197400     303.4097   -1457.7526    475.17377    383.07528   -121.70701    39194.267 
  197500     295.7926   -1494.6641     472.2327    308.93796   -129.10906    39194.267 
  197600    315.70313   -1473.1283    519.48742    467.34622   -404.72325    39194.267 
  197700    303.58813    -1434.497    484.75519    416.71543   -168.00177    39194.267 
  197800    294.40082   -1462.1036    501.38334    364.38462    269.74338    39194.267 
  197900    292.50637   -1451.7651    478.48926    343.30212   -361.20145    39194.267 
  198000    309.87916   -1394.5595    495.87778    496.09159    322.41044    39194.267 
  198100      296.145   -1448.9122    502.91718    386.96045    99.661949    39194.267 
  198200    297.63007   -1464.8194    454.76074    329.58118   -57.411441    39194.267 
  198300     296.2173   -1421.0698    501.38407    413.59517    222.58588    39194.267 
  198400    310.67732    -1453.868    489.69406    434.19186   -524.69113    39194.267 
  198500    304.54192   -1476.7317    499.20774    393.22627   -438.95753    39194.267 
  198600    301.73773   -1412.5402    503.75908    449.34745   -26.246938    39194.267 
  198700    299.09795    -1474.554    499.80614    371.49889   -271.34669    39194.267 
  198800    306.00117   -1461.9668    476.40754    391.75912   -203.42333    39194.267 
  198900    297.53827   -1430.3791    504.11514    412.96276   -199.45872    39194.267 
  199000    297.95821   -1471.7686    495.05374    364.40195    -110.5325    39194.267 
  199100    304.97132   -1411.6835    507.08133    468.08082   -27.356417    39194.267 
  199200    300.90998   -1438.6325    490.00761    405.77794   -142.79372    39194.267 
  199300    305.05189   -1480.6878     488.8527    381.21053    -593.0143    39194.267 
  199400    296.24963    -1452.299    500.37823    381.50569   -446.64705    39194.267 
  199500    297.02473   -1470.9457    474.46527    340.43472   -360.44598    39194.267 
  199600    303.07478   -1460.7834    505.36306    408.72625   -126.57574    39194.267 
  199700    311.91597   -1434.6067    490.29411    459.62837    119.02705    39194.267 
  199800     304.5683   -1477.5434    495.70781    389.03342    36.331436    39194.267 
  199900    296.06574    -1478.002    501.61981    356.21654    -295.8249    39194.267 
  200000    305.61481   -1504.2955    482.04408    353.32792     381.4665    39194.267 
  200100     301.0611   -1507.5056     489.4263     337.0037     63.86763    39194.267 
  200200    292.58086   -1489.9202    492.74696    319.74004    90.119285    39194.267 
  200300     299.8245    -1474.184    505.78928    381.12226    167.77522    39194.267 
  200400    301.13726   -1479.8647    518.15535    393.71645   -154.54293    39194.267 
  200500    302.80443   -1521.5899    486.46066    327.80051    27.749207    39194.267 
  200600    298.00667   -1467.8872    498.51886    371.96663   -37.265337    39194.267 
  200700     314.3598   -1467.0999    510.03854    457.87945  -0.71339086    39194.267 
  200800    299.97404   -1494.1835    490.69292    346.69951   -281.90518    39194.267 
  200900    297.23391   -1476.4142    508.48308    369.92563   -266.27373    39194.267 
  201000    296.09239   -1447.0453    501.62498    387.29841    37.016787    39194.267 
  201100    291.69067   -1451.8446    507.73093     368.7928    26.294071    39194.267 
  201200    307.85031   -1481.0965    503.20605    407.75093    551.22943    39194.267 
  201300    300.50533   -1456.3952    501.88512    398.07136    718.24189    39194.267 
  201400    293.66875   -1461.8977    516.06903    375.98115    518.33916    39194.267 
  201500    296.57883    -1452.507     500.0557     382.4569    267.40179    39194.267 
  201600    305.77407   -1484.8923    491.46434    382.86823    459.47379    39194.267 
  201700    311.74286   -1489.7021    477.48319    390.94287    217.02493    39194.267 
  201800    301.04317   -1476.2038    508.55359    387.35205    486.37662    39194.267 
  201900    290.86281   -1481.0466    502.11392    330.24751    207.03183    39194.267 
  202000    299.39035   -1497.5584    493.40138    343.40592    38.193549    39194.267 
  202100     299.2603   -1471.7586    495.85919    371.07808   -258.06915    39194.267 
  202200    294.69153   -1453.1269    485.82248    359.10897    133.70097    39194.267 
  202300    305.99499   -1459.1164    474.78439    392.95853    276.13233    39194.267 
  202400     300.0674   -1507.9874    494.53038    337.15333    218.53745    39194.267 
  202500    305.77899   -1466.3928    494.85097    404.77649     252.2776    39194.267 
  202600    302.70833    -1464.954    482.59165    380.13487    138.39288    39194.267 
  202700    302.80556   -1443.9127    477.93502    396.95718    416.04143    39194.267 
  202800     301.6202   -1420.2517    526.32622    463.67402   -229.06407    39194.267 
  202900    298.32292   -1420.7649    478.46366    400.45716    431.24785    39194.267 
  203000    298.80634   -1423.6509    489.87028     411.1536    97.871557    39194.267 
  203100    301.16248   -1401.3818    491.54758    445.70508    145.62808    39194.267 
  203200    301.35103   -1452.9573    499.67278    403.10349    29.116529    39194.267 
  203300    306.49214   -1440.0901    513.26462    452.70272    396.69257    39194.267 
  203400     306.7799   -1457.0155    490.70591    414.51389    333.18569    39194.267 
  203500    293.22702   -1455.7983    511.12104    375.14442   -154.08923    39194.267 
  203600    301.51399   -1442.8145    505.66723    419.97419    351.25478    39194.267 
  203700    296.62905   -1427.1246    495.26787    403.27755    41.848479    39194.267 
  203800    296.37302   -1405.4436    499.57184    428.11004   -461.85049    39194.267 
  203900    291.07664   -1377.5042     495.3021    427.94064   -596.51924    39194.267 
  204000    299.14927   -1417.9981     519.5241    448.00377   -430.91613    39194.267 
  204100    298.56057   -1441.3469    499.22302    401.70419   -130.58766    39194.267 
  204200    299.08388   -1412.3966    504.96505    438.75194    72.956404    39194.267 
  204300    294.60735   -1419.0437    503.01623    410.00706    324.95842    39194.267 
  204400    294.02639     -1460.04    482.35889    345.73848   -227.89764    39194.267 
  204500    303.83986   -1461.3819     501.9148    408.12312   -164.88829    39194.267 
  204600    309.57096   -1428.8856    485.28625    449.78677    -102.9109    39194.267 
  204700    300.06084   -1398.3516    473.61847    425.84763   -455.97286    39194.267 
  204800     295.0434   -1443.0154     481.3334    366.31513   -963.89194    39194.267 
  204900    300.05037   -1449.5553    490.71789    391.69626    65.782152    39194.267 
  205000    308.46108   -1432.4814    492.79414     448.7032   -193.06153    39194.267 
  205100    300.58667   -1406.0981    500.28707    447.13657   -465.01746    39194.267 
  205200    314.91651   -1399.6549    516.61811    534.40976   -127.95285    39194.267 
  205300    294.48773   -1406.3269    495.31145    414.48061    61.365584    39194.267 
  205400      298.352   -1429.2572     484.7003    398.33239   -549.29613    39194.267 
  205500    295.97766   -1434.1161    540.86957    438.95576   -585.58755    39194.267 
  205600    298.67367   -1388.4606    493.60549    449.48198   -321.77984    39194.267 
  205700    298.55842    -1416.366    492.91512    420.36753   -676.69935    39194.267 
  205800     292.8597   -1384.0766    502.12425    436.21592   -168.91476    39194.267 
  205900    307.99562   -1406.9541    506.25807    485.59937   -88.624921    39194.267 
  206000    295.84195    -1440.193    509.88692    401.28533    139.89157    39194.267 
  206100     296.1131   -1460.7828    489.29025    361.31942    375.24641    39194.267 
  206200    305.25081   -1420.9156    512.85539    465.88079    734.55595    39194.267 
  206300     310.0009   -1460.7622    501.08785    435.64693    313.73683    39194.267 
  206400     297.6971   -1452.3325    498.97619    386.58522    280.11991    39194.267 
  206500    302.00229   -1451.6838    492.62892    400.26443    321.94202    39194.267 
  206600    292.72529   -1473.8575    508.11732    351.82314    778.28267    39194.267 
  206700    298.04411   -1519.5202    495.81788    317.80107     403.1875    39194.267 
  206800    299.90573   -1499.4103    478.96705    329.43942    426.43148    39194.267 
  206900    295.53244   -1489.3439    491.61169     332.4661    447.09783    39194.267 
  207000    296.96123   -1477.9724    498.43154    357.08853    169.17994    39194.267 
  207100     296.3927   -1457.4926    482.90509    359.48289    185.08167    39194.267 
  207200     286.0408   -1455.7004    519.63732    351.41312    119.32387    39194.267 
  207300    306.82972   -1459.2508    501.25372    423.05057   -76.285944    39194.267 
  207400     288.9019    -1492.323    491.46789    299.49904   -282.24066    39194.267 
  207500    304.51941   -1465.2372    514.90121     420.3129   -339.34576    39194.267 
  207600    303.92562   -1467.6203    480.46213     380.8181   -903.28246    39194.267 
  207700    296.55343   -1471.6785    501.35712    364.47246   -673.19984    39194.267 
  207800    304.70768   -1481.6929    491.14067    380.94406   -195.02953    39194.267 
  207900    302.24265   -1488.4425    498.93025    370.88891   -782.52775    39194.267 
  208000    301.05987    -1481.335     497.6935    371.43603   -170.89606    39194.267 
  208100    294.50205   -1510.5729    502.44123    317.42889   -467.54392    39194.267 
  208200    303.49897   -1480.6872    498.40632    383.77498    363.84685    39194.267 
  208300    302.13607   -1484.0512    499.16095    375.03122   -63.428535    39194.267 
  208400    298.71555   -1511.4995    497.89451    330.92065    679.29712    39194.267 
  208500    283.65313   -1522.9654    495.60044     249.3644    807.75011    39194.267 
  208600    302.69518   -1499.1566    459.86918    323.15062    821.97179    39194.267 
  208700    299.85253     -1491.67    502.24041    360.21363    724.63414    39194.267 
  208800    300.88421   -1467.3278    483.76989    370.72889    388.49522    39194.267 
  208900    288.59806   -1464.8091    468.30596    302.48338   -178.92571    39194.267 
  209000    304.92772   -1466.3358    505.93442    412.08539   -144.97734    39194.267 
  209100    306.21974   -1498.4101    486.28088    366.17297   -136.44264    39194.267 
  209200    311.33454   -1524.7541     502.0836    378.65349   -184.18169    39194.267 
  209300    309.24292   -1459.9364    519.31075    451.28388    89.352428    39194.267 
  209400     292.8559   -1455.3107    500.80945    363.64996   -210.99852    39194.267 
  209500    291.58308   -1448.6402    472.98431    336.76625    326.29712    39194.267 
  209600    292.03551   -1481.6981    528.25764     361.0181    245.76142    39194.267 
  209700    310.85357   -1469.3579    513.32548    443.12673    296.54774    39194.267 
  209800    297.95578   -1468.9624    450.53231    322.67583    519.02997    39194.267 
  209900    302.78804   -1468.7004    525.43334    419.58888   -268.51055    39194.267 
  210000    291.66035   -1446.8301    479.86497     345.8048   -174.87609    39194.267 
  210100    290.72966   -1494.2866     494.6915    308.98583   -303.27642    39194.267 
  210200    303.38637   -1481.1954    494.35287    378.70659    -522.7323    39194.267 
  210300    301.52728   -1490.5088    481.17705    347.84951   -63.292687    39194.267 
  210400     292.1196   -1505.4672    467.12444    276.49429    112.24285    39194.267 
  210500    299.60594   -1504.4925    494.62345    338.66419   -337.16014    39194.267 
  210600    304.82298   -1493.1296    490.56497    369.45067    46.081129    39194.267 
  210700    296.46729   -1477.2781    489.86045    346.98846    141.38917    39194.267 
  210800    291.95487    -1462.601     488.3934      339.888   -320.11011    39194.267 
  210900    304.17005   -1464.4706     475.2749    379.88075   -7.2555708    39194.267 
  211000    298.89975   -1476.9498    489.76239    358.16727   -114.13841    39194.267 
  211100    305.33218    -1474.927    497.85198    397.23225    146.14969    39194.267 
  211200     303.6751   -1475.0023    498.69226    390.53865    486.74734    39194.267 
  211300     300.5208   -1473.2538    484.36018    363.75743    601.95927    39194.267 
  211400    287.12761   -1456.8302    495.90976    331.44757   -399.70109    39194.267 
  211500     304.1775   -1481.0347    478.12851    366.20379   -408.41112    39194.267 
  211600    295.62608    -1459.816    492.22553    363.02939    18.942741    39194.267 
  211700    293.36962   -1467.5662     508.3486    361.24587   -520.44195    39194.267 
  211800    314.27214   -1483.3058    497.71209    428.95251    114.08809    39194.267 
  211900    306.06027   -1488.7133    498.13598    387.00704    119.10989    39194.267 
  212000     301.3866   -1465.1107    491.28518    382.72253     20.17065    39194.267 
  212100     312.6574   -1406.9063    487.82461    488.19653    654.11692    39194.267 
  212200    301.60588   -1456.1761    471.87246    373.23146    300.06705    39194.267 
  212300     305.0901   -1529.4196    495.23852    339.03651    296.80278    39194.267 
  212400    310.78275   -1467.2901    465.33462    396.88491    301.43662    39194.267 
  212500     290.2871   -1471.0864    489.04978    324.55238   -262.77483    39194.267 
  212600    295.80532   -1469.2944    500.83963    362.97184   -181.78627    39194.267 
  212700    304.37392   -1435.3898    465.62957    400.23389   -58.790648    39194.267 
  212800    307.67014    -1413.008    503.68542    475.50787    418.91292    39194.267 
  212900    288.88141   -1451.2854    519.56295    368.53948    601.07151    39194.267 
  213000    302.64207   -1449.6025    479.56017    392.15665     239.6893    39194.267 
  213100    299.62227   -1465.2288    509.29763    392.67555    656.07685    39194.267 
  213200    288.47909    -1448.203    504.62908    354.87719   -29.483354    39194.267 
  213300    295.14199   -1430.4775    467.48009    365.44354    482.99738    39194.267 
  213400    304.19914   -1419.9387    517.99116     467.2598    -13.88284    39194.267 
  213500    297.19282   -1490.1309    478.72941    326.27026    220.21071    39194.267 
  213600    299.92188   -1447.4432    477.17645    379.68853   -164.26882    39194.267 
  213700      301.805   -1427.1103    483.24909    414.57007   -322.65505    39194.267 
  213800    288.19077   -1433.7835    492.96759    356.33749   -134.70437    39194.267 
  213900    292.49645   -1446.8165     488.3916    358.10844   -128.43629    39194.267 
  214000    299.08101   -1442.0084    498.40685    402.56898    98.456263    39194.267 
  214100     299.8426   -1445.2995    496.04018    400.33918    19.477832    39194.267 
  214200    296.34776   -1438.6132    491.87816    387.13306    177.98522    39194.267 
  214300     293.6659   -1475.7844     502.9841    348.99676    556.47877    39194.267 
  214400    302.12784   -1414.0504     493.9865    439.82052    112.30357    39194.267 
  214500    307.47101   -1423.6361      492.725    453.02298    520.43959    39194.267 
  214600    306.19163   -1473.5137    499.22623    403.88816    477.29543    39194.267 
  214700    305.26141   -1421.9907    472.79915    424.79709    745.15052    39194.267 
  214800    307.49968   -1434.8128    476.82389    426.07428    128.04049    39194.267 
  214900    302.73435   -1431.9389    498.53672    429.21212      440.557    39194.267 
  215000    307.60457   -1484.1907    505.90706    406.25165    10.953816    39194.267 
  215100    305.40486   -1433.8582    487.67243    428.44857    530.22807    39194.267 
  215200    299.01801   -1477.5002    467.18982    335.57659   -29.879147    39194.267 
  215300    294.12356   -1445.9906    487.28933     365.1557    111.86683    39194.267 
  215400    288.57018   -1439.8464    487.17011    346.18481    598.37314    39194.267 
  215500     297.1991   -1475.4188    512.83458    375.11583    177.38012    39194.267 
  215600    305.46199   -1476.2995    479.83285    378.42483    420.10298    39194.267 
  215700    313.48831    -1458.746    493.98133    446.25346    753.35368    39194.267 
  215800    291.78489   -1491.4843     496.1669    318.01318    436.25894    39194.267 
  215900    296.06091   -1489.2462    487.93822    331.26905    367.97574    39194.267 
  216000    307.96339   -1464.7147    457.40377    378.83947    462.39962    39194.267 
  216100    303.82167   -1506.1534    485.44993    346.80489    482.00997    39194.267 
  216200     292.2507   -1494.0769    485.42425     306.7745    351.17784    39194.267 
  216300    308.31976   -1504.3557    483.23919    366.63785    405.63379    39194.267 
  216400     303.3257   -1494.4273    483.89426    354.74291    288.17319    39194.267 
  216500    296.15351   -1454.3911     471.7784    350.38107    465.58541    39194.267 
  216600    302.03495   -1450.0696    487.18888     396.5856    660.84774    39194.267 
  216700    300.31093   -1465.3167    481.66923    368.05898    816.95327    39194.267 
  216800     309.3634   -1484.2211    522.49657    430.72733    376.74433    39194.267 
  216900    288.20256   -1466.9968     502.6016    332.81117    290.08059    39194.267 
  217000    291.83916   -1488.5836    515.42267    340.41385    459.24454    39194.267 
  217100    295.91811   -1437.1862    478.66912    373.41721    340.73448    39194.267 
  217200    286.47067   -1439.1062    510.26715    360.57207   -126.45255    39194.267 
  217300    293.92168   -1437.8866    506.78716    391.84887    233.44249    39194.267 
  217400    294.89751   -1436.2748    487.14781    378.21352   -425.88821    39194.267 
  217500    287.60719   -1411.7859    511.12235    393.86304     2.632922    39194.267 
  217600    293.12411   -1429.5736    531.69294    421.47775   -52.963603    39194.267 
  217700    294.68216   -1434.8299    497.85846    389.39973   -44.859583    39194.267 
  217800     308.2789    -1462.208    484.05271    409.41515    51.910608    39194.267 
  217900    300.03112   -1377.4674    487.91999    460.89961   -98.939841    39194.267 
  218000    312.56961   -1453.2774    495.25314    448.85881    213.99412    39194.267 
  218100    298.67286   -1438.3077    499.81679    405.84251    -178.0629    39194.267 
  218200    292.01117    -1425.358    487.54614    376.53713    139.37953    39194.267 
  218300    301.99888   -1446.6389    489.81791    402.48291    707.18314    39194.267 
  218400    305.82417   -1488.4293    486.94249    375.03485    28.681754    39194.267 
  218500    293.93371   -1494.0823    489.61872    318.53889    366.16374    39194.267 
  218600    301.18038   -1461.6209    481.13054    375.12949    421.83478    39194.267 
  218700    297.90084   -1518.2133    493.92718    316.57247   -305.36313    39194.267 
  218800    294.81496    -1502.447    470.72301    295.24502   -100.93425    39194.267 
  218900    291.75959   -1503.1812    464.85687    274.89238   -87.740482    39194.267 
  219000    301.10707    -1504.122    465.38902    316.55689   -252.66014    39194.267 
  219100    295.38819   -1482.0434    473.60503    321.11075    91.589059    39194.267 
  219200    301.51173   -1501.6426    489.34031    344.80904    692.28249    39194.267 
  219300    301.42275   -1523.6829    499.99819    333.02605  -0.96462835    39194.267 
  219400    301.07508   -1503.5718    466.23332    317.80741   -152.70004    39194.267 
  219500    299.54026   -1486.9899    454.86954    316.11731    220.96444    39194.267 
  219600    297.64633   -1527.7183    494.16401    306.15877   -122.00664    39194.267 
  219700    298.81578   -1488.1239    487.60875    344.46165   -129.74605    39194.267 
  219800    301.32209   -1440.0011    466.96579    383.22244    166.07856    39194.267 
  219900    290.14973   -1477.7254    476.33241    304.57763   -253.32674    39194.267 
  220000     304.0032   -1424.8124    515.60466    459.11765    331.67396    39194.267 
  220100    304.68113   -1426.4867    478.82632    423.71645     478.0105    39194.267 
  220200    303.94668    -1467.519    500.65262     401.2047    258.28091    39194.267 
  220300    299.95358   -1480.1751     489.2447    359.16766    503.67067    39194.267 
  220400    302.61751   -1469.7712     468.2269    360.54414    191.24048    39194.267 
  220500    295.34737   -1492.7028    502.66941    339.33203    167.77641    39194.267 
  220600    292.48188   -1471.5196    468.53066    313.47877    -78.06293    39194.267 
  220700    289.42801   -1471.4922     498.1453    329.37527     20.89093    39194.267 
  220800    300.99724   -1448.1906    483.91014    390.51508    166.67086    39194.267 
  220900    306.02876   -1496.0404    480.58312    361.98529    490.93562    39194.267 
  221000     306.2888   -1451.2775    482.82611    410.16157    381.33319    39194.267 
  221100    294.70017    -1472.718    481.32454    335.05885   -549.62349    39194.267 
  221200    291.41462   -1427.1683    501.71926    386.21495    233.71978    39194.267 
  221300    314.18419   -1455.3934    484.92204      443.679    175.54755    39194.267 
  221400    294.30561   -1432.2833    503.06849    395.46157    78.003051    39194.267 
  221500    305.85098   -1430.9081    482.15949    427.89376    568.90731    39194.267 
  221600    302.19704   -1477.3023    461.45501    344.34856   -26.964533    39194.267 
  221700    295.42742   -1469.8995    500.93896     360.7651    133.72858    39194.267 
  221800    295.05021   -1457.5418    487.36022    357.84623    405.28443    39194.267 
  221900    293.87223   -1504.5984    498.15908    316.28637    76.109545    39194.267 
  222000    301.48767   -1468.9669    484.00014    372.03621    15.923512    39194.267 
  222100    299.00977   -1463.1088    486.81952    369.56065    522.96937    39194.267 
  222200    289.21311   -1495.1406      504.004    310.61834    89.650642    39194.267 
  222300     307.7955   -1474.3185    505.72792    416.80405   -198.51005    39194.267 
  222400    297.65022   -1407.4722    515.61142    447.86977   -669.34836    39194.267 
  222500    295.94758    -1472.063    464.88653     324.8904   -350.59798    39194.267 
  222600    296.34376   -1484.9886     505.3583    354.21985   -266.23767    39194.267 
  222700    295.78767   -1456.7572    507.52015    382.11011   -119.97807    39194.267 
  222800    299.15242    -1508.847    482.94715    320.59215   -741.58655    39194.267 
  222900    299.11694   -1495.4138    463.79559    314.71401   -586.14623    39194.267 
  223000      296.272   -1451.1017    501.22532    383.65078   -169.75243    39194.267 
  223100    294.68921   -1472.2329    505.40964     359.5797   -758.23526    39194.267 
  223200    307.36214   -1459.1976    495.75909    420.00564    -59.55238    39194.267 
  223300    298.55053   -1477.4302    491.60419    357.95686    354.27277    39194.267 
  223400    302.31296   -1486.4211     527.6691    401.96561    467.58168    39194.267 
  223500    292.80503   -1470.9359    495.98417    342.97043    352.82683    39194.267 
  223600    297.22652   -1437.3016    499.16599    399.68782    17.104842    39194.267 
  223700    289.02662   -1433.4789    490.12124    357.55785   -156.95899    39194.267 
  223800    297.49631   -1362.5974    516.89765    493.33807   -504.61047    39194.267 
  223900    292.75381    -1403.855    515.32152    429.15821   -128.78498    39194.267 
  224000    310.66876   -1435.6205    502.19554    464.90236   -49.868924    39194.267 
  224100    307.75936   -1491.0067    493.26949    387.49477   -274.93912    39194.267 
  224200    295.97279   -1503.9171    482.26697    310.53026   -481.78911    39194.267 
  224300    291.28684   -1435.9359    508.02173    383.17467     -539.644    39194.267 
  224400    293.30346   -1452.6187    507.35582    374.90276   -775.73771    39194.267 
  224500    318.83029   -1473.2546    495.70404    457.51203   -242.90709    39194.267 
  224600    292.36146   -1462.0309    477.37586    331.27063   -202.90141    39194.267 
  224700    299.79969   -1481.7495    501.35821     369.0141    688.64607    39194.267 
  224800    298.79855   -1508.6132    505.82826    342.11422    184.15801    39194.267 
  224900    309.73162   -1508.6269    493.69119    379.17347    608.73753    39194.267 
  225000    299.93501   -1449.1456    483.23139    384.10026    712.08778    39194.267 
  225100    299.03059   -1443.6193     521.4621    423.78643   -238.74698    39194.267 
  225200    303.96356   -1485.1486    499.92394    382.92237    2.0390549    39194.267 
  225300    306.14251   -1457.9352    499.11034    419.12972    249.57505    39194.267 
  225400    298.33952   -1424.5982     534.9137    453.14858    280.38093    39194.267 
  225500    293.36698   -1450.7286    505.69657    375.41958   -111.69089    39194.267 
  225600    297.46805   -1446.7413    505.91171    398.08106   -191.16751    39194.267 
  225700    306.59383   -1478.4486    511.90055    413.43793    -394.1902    39194.267 
  225800    294.34514   -1480.8825    470.90135    314.87319    -380.1949    39194.267 
  225900    302.33966   -1529.2084    506.80112    338.43056   -490.83809    39194.267 
  226000    298.79663   -1503.8222    475.02159     316.0899   -272.64966    39194.267 
  226100    301.84788   -1511.0557    508.25005    355.81869    322.81442    39194.267 
  226200    303.70902   -1511.6363    484.59662    339.96169   -116.01341    39194.267 
  226300     296.2628   -1525.5005     497.3656    305.35084    267.50701    39194.267 
  226400    310.75281   -1539.5379    523.62386     382.7916    226.48233    39194.267 
  226500    311.72126   -1487.0983     476.8807    392.84697    455.47819    39194.267 
  226600    302.11452   -1489.1292    515.31539    386.01061     -474.663    39194.267 
  226700    292.88461   -1447.0652    498.61647    369.83166    199.13592    39194.267 
  226800    307.45547   -1490.7115    499.41317    392.56586   -46.572324    39194.267 
  226900    306.45441   -1527.1628    501.68447    353.88005    571.41474    39194.267 
  227000    310.97511   -1525.3217    487.21666    361.60116    551.73781    39194.267 
  227100    305.92988   -1502.3367    485.67375    360.33447    90.695232    39194.267 
  227200    307.44241   -1507.2454      513.673    390.23304   -147.42237    39194.267 
  227300    297.77281   -1471.6725     495.1966    363.80646   -426.34061    39194.267 
  227400    290.74171   -1508.8799    514.16605    313.92136   -84.341566    39194.267 
  227500    303.40361   -1518.0772    478.12684    325.67627   -56.603454    39194.267 
  227600    291.95314     -1527.38    468.44364    255.15151    108.29132    39194.267 
  227700    300.21536   -1451.2152    502.11821    402.17934   -342.96539    39194.267 
  227800    299.50089   -1449.1324    507.55495    406.48295   -145.99937    39194.267 
  227900    305.06981   -1457.6258    507.72728    423.22779    -500.5935    39194.267 
  228000    307.71968   -1460.4841    511.12528    435.69457   -144.73509    39194.267 
  228100    294.75169   -1473.5358     523.8453    376.99369    39.290449    39194.267 
  228200    283.35856   -1468.1347    493.22622    300.49493    454.09495    39194.267 
  228300    300.98064   -1515.0618    497.92544    337.58448    408.10989    39194.267 
  228400    295.18731   -1524.0397    502.33305    306.93827    289.10656    39194.267 
  228500    311.26042   -1478.4438    514.37646    436.92305   -328.93522    39194.267 
  228600    311.03377   -1473.4296    516.61772    443.15832    37.690441    39194.267 
  228700    310.86479   -1467.4243    504.40245    436.18776   -114.09523    39194.267 
  228800    299.44084   -1463.0309    512.02556    396.78486    88.951228    39194.267 
  228900    298.78905   -1434.2236    536.53978    447.17264    174.54698    39194.267 
  229000    290.73003   -1466.0075    529.62412    372.19926   -300.86227    39194.267 
  229100    300.40877   -1445.6677    508.31846    414.79756   -491.18926    39194.267 
  229200    305.66758   -1467.3659    514.64667     423.0976    216.93914    39194.267 
  229300    310.19737   -1469.3286    507.46418    434.34116    483.88927    39194.267 
  229400    291.87818   -1508.2719    531.86924    337.34782    740.17263    39194.267 
  229500      295.035    -1432.642    509.15572    404.47307    131.93305    39194.267 
  229600    303.64141   -1437.2707     526.6289    456.05527    -106.2238    39194.267 
  229700    297.30113   -1437.9926    511.13101    411.29763    104.28759    39194.267 
  229800    294.00225   -1453.4978     512.7574    382.57057    200.87886    39194.267 
  229900    305.27585   -1467.4826    505.61401    412.18508    396.77604    39194.267 
  230000    300.30897   -1488.6098    520.44616    383.53396    367.61933    39194.267 
  230100    295.33624   -1469.8991    506.39924    365.81537    145.97038    39194.267 
  230200    304.01062   -1452.1567    478.22108    394.42324    497.60743    39194.267 
  230300    300.13914   -1458.7129    524.10727    416.32759    538.28277    39194.267 
  230400    310.83461   -1480.9435    489.59789    407.72813    4.1193065    39194.267 
  230500    300.96132   -1488.7851    504.40205    370.25088    195.17043    39194.267 
  230600    294.84134   -1479.7082    530.67234    378.05185    31.621522    39194.267 
  230700    300.19092   -1462.5074    524.40822    413.06705    126.52655    39194.267 
  230800    295.51125   -1462.4095    475.20165    342.89515   -60.990161    39194.267 
  230900    294.76472   -1461.1166    514.01189    379.63813   -341.11088    39194.267 
  231000    290.93803    -1495.041    515.92322    330.40103   -202.35974    39194.267 
  231100    308.29632   -1468.8565    473.67194    392.46426   -99.122287    39194.267 
  231200    302.32655   -1485.1008     531.1866    406.86455   -350.00033    39194.267 
  231300    298.93374   -1466.7874    505.72826    384.44853   -22.665109    39194.267 
  231400    298.02046   -1461.2405    493.87466     374.0312   -90.222749    39194.267 
  231500     302.8077   -1504.0889    516.70532    375.56088   -10.868057    39194.267 
  231600    293.20593    -1466.939    481.22748    334.01515    19.306228    39194.267 
  231700    293.29764   -1472.2961    457.89904    305.74236     111.1742    39194.267 
  231800    311.81004   -1478.9415    487.77002     412.2927   -198.54864    39194.267 
  231900    304.87725   -1474.9273    498.44886    395.78111   -196.93221    39194.267 
  232000    299.66987   -1448.9844    501.30537    401.14202    97.427843    39194.267 
  232100    293.10198   -1442.9694     482.7752    359.06458   -60.102296    39194.267 
  232200    300.96747   -1446.5874    510.70931    418.78342   -293.96564    39194.267 
  232300    303.78177    -1411.184    500.00205    456.14684   -100.92701    39194.267 
  232400    310.59701   -1381.5342    505.13943    521.60957   -307.66529    39194.267 
  232500    304.57768   -1408.6855    510.04308    472.26882   -319.48378    39194.267 
  232600    306.35377   -1414.6767    515.89512    480.12384    377.56031    39194.267 
  232700     300.5408   -1477.6109    488.59387    363.72404    283.39827    39194.267 
  232800    300.97766   -1473.5146     480.6821    361.87493   -448.26962    39194.267 
  232900     298.1153   -1438.5974    499.35898    402.58544    -812.5034    39194.267 
  233000    304.74757   -1445.5007    465.70436    391.87955   -346.68108    39194.267 
  233100    308.53548   -1459.5242    507.65528    436.85641   -264.19312    39194.267 
  233200    292.83858   -1499.3927    507.56404    326.24455    35.196547    39194.267 
  233300    297.91759   -1437.2548    485.67284    389.35201    195.27663    39194.267 
  233400    307.54281   -1398.1164    524.67115    510.81211   -189.53375    39194.267 
  233500    293.27735   -1424.0493     497.2273    393.22617    200.47249    39194.267 
  233600    305.01046   -1453.5095    510.24311    429.59279   -273.46275    39194.267 
  233700    296.28479   -1430.3373    485.77986    389.02723   -148.29245    39194.267 
  233800    298.93675   -1393.2726     508.1204    460.36907    208.36238    39194.267 
  233900    298.50329   -1436.3973    510.88105    418.05395   -278.43487    39194.267 
  234000     303.2131   -1415.8746    506.43093     455.3255    502.75108    39194.267 
  234100    301.82094   -1393.6481    504.03299    468.88797    317.91022    39194.267 
  234200    304.90682   -1404.0798    513.82717    482.14009    372.07236    39194.267 
  234300    298.84197   -1413.4369    506.15891    437.81667     236.7635    39194.267 
  234400    304.65119   -1415.5248    484.57809    440.29533    18.241172    39194.267 
  234500    302.43457   -1426.4307    494.22875    429.06308   -681.06693    39194.267 
  234600    290.18663   -1422.4526    488.78839    372.47252   -932.59464    39194.267 
  234700    292.71612   -1400.1069    508.75494    426.17007   -677.86523    39194.267 
  234800    285.10564   -1399.2062    500.42784    384.48869    -232.3155    39194.267 
  234900    305.20742    -1379.034     483.9809    478.69252   -72.442777    39194.267 
  235000    288.56131   -1424.7511    519.44218     393.5122    6.8401602    39194.267 
  235100    299.57658   -1428.5742    512.88679    432.71375   -90.814718    39194.267 
  235200    300.55068   -1419.7297    509.16978    442.22567    125.22576    39194.267 
  235300    299.40991   -1400.8152    527.16222    473.99794   -343.15865    39194.267 
  235400    307.97961    -1473.781    483.14245    395.58478    -337.7924    39194.267 
  235500    306.52132   -1424.2563    484.76956     440.1728    510.90575    39194.267 
  235600    296.21206    -1472.634    499.70698     360.3303   -552.71525    39194.267 
  235700    306.43595   -1444.6424    484.94321    419.57613    140.25713    39194.267 
  235800     293.1915   -1449.3044    483.44023    353.79759   -68.452746    39194.267 
  235900    295.67462   -1421.8164    480.10627    389.12813   -243.78327    39194.267 
  236000    294.87971   -1439.1052    525.04718    413.20234   -201.79048    39194.267 
  236100    292.26612   -1366.0323    484.47653    433.94082    25.641446    39194.267 
  236200    307.98393   -1396.9036    507.20377    496.54295   -232.59783    39194.267 
  236300    302.37944   -1362.4441    501.55867    500.13147    -125.6765    39194.267 
  236400    293.80823   -1378.2697    521.44407    465.61205   -226.64795    39194.267 
  236500    296.55662   -1373.7515    502.47386    463.53059   -639.25198    39194.267 
  236600    308.90477     -1368.09    504.37057    526.66806   -132.28395    39194.267 
  236700    299.84973   -1398.5948    505.39527    456.43101   -411.97118    39194.267 
  236800    311.36036   -1345.5335     503.2447    559.15143   -245.11356    39194.267 
  236900    303.95699   -1346.8795    517.17935    538.41728    -560.2977    39194.267 
  237000    300.15409   -1364.1082     462.4489    449.34122   -9.3342282    39194.267 
  237100    302.10868   -1450.0114    516.21867    426.00547    189.76874    39194.267 
  237200    302.41624   -1398.0326     525.3826    488.53256    502.90713    39194.267 
  237300    297.21621   -1474.3127     492.0639    355.52831    83.399342    39194.267 
  237400     292.4632   -1430.1926    497.02594    383.21702   -371.23429    39194.267 
  237500    298.47258   -1371.8605    496.66813    468.23962   -386.07022    39194.267 
  237600    289.97369   -1383.9366    519.02531    440.26697   -317.08919    39194.267 
  237700    307.03457   -1400.6977    518.06604    499.33807   -236.00466    39194.267 
  237800    303.21628   -1392.0301    512.47126    485.22465   -13.005898    39194.267 
  237900    297.70755   -1443.9854    479.25151    375.25466   -193.23961    39194.267 
  238000    307.09477   -1410.5466    510.97889    482.67297   -359.26802    39194.267 
  238100     304.6614   -1444.3878    480.07357    406.97379   -5.8313879    39194.267 
  238200    287.99276   -1433.6179    507.76493    370.40906   -661.90469    39194.267 
  238300    290.71484   -1429.9575    492.76551    371.32225   -603.30527    39194.267 
  238400    293.11678   -1411.0912    502.08336    410.31752      -452.97    39194.267 
  238500    290.30531   -1462.7936    474.95101    318.82839    -378.8656    39194.267 
  238600    305.43148   -1436.0419    487.33929    426.05153     -539.901    39194.267 
  238700    306.35145   -1409.4484    488.05835    457.50492   -497.13995    39194.267 
  238800    298.36925    -1435.918    502.47592    409.52485   -384.19993    39194.267 
  238900    303.65832   -1441.8075    482.76104    407.72669   -377.89633    39194.267 
  239000    307.97398   -1416.1532    503.69916    473.74401   -154.10054    39194.267 
  239100    310.37904   -1465.7853    493.38507    424.62306   -985.67999    39194.267 
  239200    301.62097   -1468.9516    506.00214    394.65352   -774.15534    39194.267 
  239300    295.50362   -1490.9535    497.85978    336.97495   -774.20376    39194.267 
  239400    291.40991   -1459.8468    473.41242    325.20838   -121.19325    39194.267 
  239500    294.18544   -1481.3019    516.16242    358.99599     178.7951    39194.267 
  239600    308.39838   -1458.7852    494.24223    423.56528    273.29834    39194.267 
  239700    301.19966   -1466.8701    512.94484    401.78133    164.52542    39194.267 
  239800    296.81506   -1465.1586    482.04352     352.8564   -134.31094    39194.267 
  239900    302.29974   -1475.8484    464.62437    349.43405   -166.38034    39194.267 
  240000    298.69102    -1436.672    498.03115    405.77439   -96.912801    39194.267 
  240100    311.02526   -1420.5633    486.79972    466.16836    415.11926    39194.267 
  240200    291.71605   -1428.8961    509.60263    393.72719    3.8639426    39194.267 
  240300     297.0407   -1426.7537    508.98049    419.21387    332.88311    39194.267 
  240400    290.48853   -1407.6681    490.75762    390.58513    39.863784    39194.267 
  240500    297.86347   -1398.8034    485.79951    427.68647   -147.22507    39194.267 
  240600    297.21432   -1438.1377    502.02063    401.65149    225.32618    39194.267 
  240700    294.24404   -1447.4342    466.24991    343.21495    611.18699    39194.267 
  240800    293.57646   -1402.9167    522.41138    440.88915      89.2225    39194.267 
  240900    292.25512   -1418.5065    492.46861    389.40921    68.979346    39194.267 
  241000    302.82136   -1400.5312    506.33802    468.81282   -223.80693    39194.267 
  241100    301.01857   -1431.5516    494.77705    418.11705   -425.11936    39194.267 
  241200     304.3329   -1424.0641    498.57976    444.32511    376.70641    39194.267 
  241300    306.10995   -1397.0107    512.15753    492.95481   -9.2959207    39194.267 
  241400    291.52749   -1395.1503    511.93839    428.96007    150.74204    39194.267 
  241500    294.76976   -1429.8509    521.63777    418.55232    14.497534    39194.267 
  241600    299.68531   -1430.6143    474.74588    393.02208    297.72127    39194.267 
  241700    295.59068   -1426.8887    498.01706     401.5889   -387.98627    39194.267 
  241800    300.60855   -1399.1671    501.63524    455.51418    8.4849205    39194.267 
  241900    303.71059   -1406.0062    493.76119    454.76345    113.98524    39194.267 
  242000    286.53966   -1435.5818     502.6444     356.7842      364.308    39194.267 
  242100    308.61888   -1469.7176    480.68523    400.06832    63.207843    39194.267 
  242200    292.70444    -1455.434    499.46533     361.5008    920.71133    39194.267 
  242300    304.11401    -1460.575    508.33465    416.58386    841.60576    39194.267 
  242400    300.46444   -1452.0002    494.73036    395.12758    357.77983    39194.267 
  242500    304.32362   -1443.8291    471.99325    397.93184    103.12608    39194.267 
  242600    303.40935   -1488.2871    507.08912    384.45448   -186.34236    39194.267 
  242700    290.68364   -1475.0316     504.4236    337.76581    48.362517    39194.267 
  242800    305.63462   -1497.9927    498.19927    375.87511   -173.03654    39194.267 
  242900     301.0133   -1489.2321     484.6826    350.31833    216.91696    39194.267 
  243000    299.71798   -1449.0597    507.04973    407.02757   -128.29363    39194.267 
  243100    301.20892   -1455.3624    481.75213     382.1381   -21.604866    39194.267 
  243200    292.54214    -1468.873     509.0477    356.91368   -95.437197    39194.267 
  243300    312.23872   -1445.8291    512.47741    472.04206    776.57499    39194.267 
  243400     301.3117   -1446.7201    522.96126    432.45212    454.91661    39194.267 
  243500    294.65509   -1442.3836    511.62082    395.48658    696.46861    39194.267 
  243600    302.14783   -1478.4382    502.74584    384.28205    1068.5379    39194.267 
  243700     299.8695   -1460.5556    493.53435    382.69837    656.40441    39194.267 
  243800    291.81376   -1445.2551    496.36192    364.56734    526.42787    39194.267 
  243900    291.93747   -1455.0386    479.09545     338.0742    309.94426    39194.267 
  244000    303.21899   -1463.5564    509.02456    410.26388     146.2924    39194.267 
  244100    291.81939   -1442.3045    494.23278    365.41414    292.06388    39194.267 
  244200    305.48494   -1443.6833    493.28287    424.59442    520.72022    39194.267 
  244300    305.35908   -1464.2652    516.17407    426.33714   -41.271246    39194.267 
  244400    293.64742   -1428.0222    485.09653    378.78815   -10.171545    39194.267 
  244500    300.26712   -1425.8679    505.74285    431.38416    516.73113    39194.267 
  244600    302.07432   -1456.5952    521.74856    424.79689    503.20633    39194.267 
  244700    307.33024   -1441.4492    493.45177    435.30308    146.64087    39194.267 
  244800    295.38943   -1431.1217    502.39119    400.82418   -226.77935    39194.267 
  244900    296.53336   -1449.5734    498.71316    383.84333   -231.61118    39194.267 
  245000    295.69098   -1450.1891    488.57525    369.29809    31.761866    39194.267 
  245100    309.42653   -1460.5691    499.92952    432.09637   -43.233436    39194.267 
  245200    301.93533   -1481.8916    480.04839    357.17473    16.402983    39194.267 
  245300    302.79014   -1452.4986     504.1855     414.5523     447.3509    39194.267 
  245400     296.2652   -1504.1506    449.71196    279.05786    230.93915    39194.267 
  245500    299.04285   -1489.7251    504.38617    360.65987   -40.699035    39194.267 
  245600    299.17118   -1479.9008    503.61362    370.28925    515.73132    39194.267 
  245700     300.5692   -1482.0134    460.96372    331.81928    455.15359    39194.267 
  245800    295.26619   -1484.0914    494.42998    339.33849    346.89418    39194.267 
  245900    296.96949   -1469.5384    467.30989    334.43808    550.48287    39194.267 
  246000    305.03267   -1481.8076    474.97691    366.12836    298.07947    39194.267 
  246100    297.39714   -1489.0608    488.45709    337.98776    222.62382    39194.267 
  246200    292.62485    -1462.692    487.74199     342.1612    844.65089    39194.267 
  246300    299.82116   -1429.6669    500.15708    419.99212     759.0829    39194.267 
  246400    304.57654   -1442.9043    494.35497    422.35671    409.83236    39194.267 
  246500     309.7682    -1428.523    512.72028    478.47113   -179.24431    39194.267 
  246600    301.59865   -1442.3323    487.30868     402.4789   -814.47529    39194.267 
  246700    299.02437   -1431.0222    515.29008    430.18346   -462.09628    39194.267 
  246800    299.89213    -1420.564    508.57329    437.83076    37.561497    39194.267 
  246900    301.97607   -1430.4522    516.48227    445.23139   -106.10462    39194.267 
  247000    297.01502   -1471.2499    476.44143    342.06306   -527.10161    39194.267 
  247100    299.32198    -1447.661    502.37634    401.97052   -4.4478835    39194.267 
  247200    296.26676   -1443.0446     514.2423    404.70127    81.624591    39194.267 
  247300    292.08265    -1380.222    508.64623    443.09501    456.17686    39194.267 
  247400    294.05788   -1406.1311    521.04556    438.47575    65.141472    39194.267 
  247500    302.17771   -1410.0779     486.6387    436.66966    22.498277    39194.267 
  247600    289.59284    -1445.004    494.75652    353.21659    36.980102    39194.267 
  247700     295.7989   -1460.0312    476.69699    348.06351    26.491844    39194.267 
  247800    313.04011   -1475.2318    484.09896    417.86793   -544.14494    39194.267 
  247900    297.00643   -1403.2524     466.4353    400.01575   -104.12003    39194.267 
  248000     305.7262   -1397.0841    485.19216    464.18879    29.167648    39194.267 
  248100    305.00903   -1407.5755    494.51068    459.78789    202.56864    39194.267 
  248200     297.9764   -1386.5879    525.96125    480.57203    152.19683    39194.267 
  248300    288.19504   -1415.1886     503.3152    385.29909    509.55468    39194.267 
  248400    303.58326   -1435.4349    500.08719    431.08757    284.23929    39194.267 
  248500    307.64522   -1422.7424    498.29424    460.27008    240.39526    39194.267 
  248600    289.61858   -1429.5093    494.71143    368.78213    293.93121    39194.267 
  248700    306.91613   -1417.2389    509.94908    474.14675   -356.18347    39194.267 
  248800    295.43746   -1443.4651    481.68506    367.99083   -132.05642    39194.267 
  248900    303.07732   -1439.4561    476.16701    400.86898   -232.84538    39194.267 
  249000    299.30364   -1437.2307    493.97518    403.91707   -97.908983    39194.267 
  249100    293.51073   -1414.1859    498.00657    404.91927    441.36118    39194.267 
  249200    294.22008   -1427.5447    488.56371    385.31044    108.14962    39194.267 
  249300    287.98532   -1403.4127    502.95897    395.77489   -61.993339    39194.267 
  249400    293.47061   -1432.9818    517.36669     405.3029    783.81405    39194.267 
  249500    288.59657   -1449.6615    479.64125    328.95961     501.4427    39194.267 
  249600    291.29224   -1454.8508    498.12461    354.38693   -259.68326    39194.267 
  249700    300.86109   -1465.7023    495.04628     383.5267    904.68762    39194.267 
  249800    296.54625   -1433.2724    490.52443    392.01356    630.52579    39194.267 
  249900    311.21428   -1471.3845    468.52936    397.92753    125.71788    39194.267 
  250000    293.97783    -1474.754    512.20793    360.65501    167.86169    39194.267 
  250100    296.34312   -1449.3113    500.06864    384.60461    65.926452    39194.267 
  250200     302.2754   -1476.2531    510.66237    394.95782   -262.14906    39194.267 
  250300    299.08746   -1441.1374      480.227    385.28922   -432.67197    39194.267 
  250400     304.8017   -1422.9037    502.87938    451.89513   -653.67976    39194.267 
  250500    306.48182   -1473.2415    507.09481    413.33507   -69.343406    39194.267 
  250600    295.15686   -1434.3277     499.3044     393.4846   -294.47468    39194.267 
  250700    304.73254   -1433.6118    510.74622    448.74263   -369.32121    39194.267 
  250800    299.20546   -1451.5721     491.5099    386.66849   -174.92818    39194.267 
  250900    304.70854   -1432.0464    492.65777    432.11153   -34.185523    39194.267 
  251000     303.7082   -1444.3911    493.19761    415.80411    43.895246    39194.267 
  251100    305.85546   -1455.2345    508.69704    430.12506    317.24557    39194.267 
  251200    307.70185   -1436.7976    489.01662     437.1922    961.46084    39194.267 
  251300    297.50428   -1438.4876    518.52731    419.11331     43.21068    39194.267 
  251400    300.81479   -1454.2532    505.63292    405.35404   -73.249835    39194.267 
  251500    286.13347     -1420.23    479.46246     347.1258    58.108425    39194.267 
  251600    303.89611   -1416.9463    511.41153    462.30866    41.486247    39194.267 
  251700    307.85827   -1462.9937    486.39647    409.07995    802.22824    39194.267 
  251800    295.13626   -1463.0158    479.80435    345.20373   -59.592981    39194.267 
  251900    299.95505   -1403.8594    497.12859    443.37378   -855.15962    39194.267 
  252000    290.54185   -1440.1791    506.32348    373.87999   -650.24815    39194.267 
  252100    298.30241   -1454.8942      497.287    385.05892   -130.27066    39194.267 
  252200    295.96006    -1456.606    492.71351    368.23058   -413.43723    39194.267 
  252300    304.18104   -1436.5399    482.26589     414.8519    391.59581    39194.267 
  252400    294.99238   -1439.5509    509.56325    397.77983    86.749946    39194.267 
  252500    307.76105     -1411.93     515.5829     488.8925    42.272635    39194.267 
  252600    290.61267   -1403.3367    497.05447    401.77216   -14.615427    39194.267 
  252700    291.66583   -1414.5989    493.35254    391.54827   -442.32643    39194.267 
  252800    300.80366   -1386.7304    498.20378    465.39757    -643.9684    39194.267 
  252900    299.00059   -1389.3697    496.80735    453.24623    -414.1999    39194.267 
  253000    306.78449    -1393.238    491.77136    479.37745    152.37172    39194.267 
  253100     299.9502   -1469.3527    526.15916    406.88929    105.36983    39194.267 
  253200    302.05785    -1460.909    487.50863    386.16898    588.04729    39194.267 
  253300    303.07742    -1403.628      494.204    454.73449    223.84028    39194.267 
  253400    314.24773   -1465.2733    489.37605    438.53905    976.92132    39194.267 
  253500    299.64995   -1426.3367    538.53158    460.92629     875.6144    39194.267 
  253600    301.25285   -1435.0581    504.26612    425.15411    544.00755    39194.267 
  253700    297.14829    -1436.802    483.82819    384.49751    445.78045    39194.267 
  253800     302.0363   -1428.1251    516.73114    448.07846    712.66054    39194.267 
  253900    294.38333   -1402.3266    470.10024    392.79978    136.74606    39194.267 
  254000    309.71752   -1433.7346     521.0282    481.33929    -545.1717    39194.267 
  254100    301.93423   -1383.6674    500.68619    476.03179   -81.704068    39194.267 
  254200    304.44464   -1386.7603    493.66577    477.21789   -358.51949    39194.267 
  254300    303.37875   -1415.2935    503.01034    453.23162   -195.13138    39194.267 
  254400    305.66838   -1392.8387    500.94417    483.92597     11.56106    39194.267 
  254500    296.90738   -1429.0805    506.09557    413.40203   -647.84265    39194.267 
  254600    296.84105    -1473.506    479.72997    342.31238   -143.27647    39194.267 
  254700    296.71302   -1460.5033    487.50635    362.51522    333.52426    39194.267 
  254800    290.86365   -1491.6388    512.71319    330.25845    113.59335    39194.267 
  254900    289.35878   -1442.1174    492.92102     353.2142   -73.976087    39194.267 
  255000    295.24894   -1406.4716    481.14199    403.59272   -143.52508    39194.267 
  255100    290.34991   -1388.1152    501.85365    420.61013   -275.18288    39194.267 
  255200    305.03695   -1376.9156    521.69929    517.76212    108.94636    39194.267 
  255300    298.48377   -1396.3613    487.52229    434.64336    398.61683    39194.267 
  255400    302.60933   -1380.4221    519.17365    500.80312     -223.058    39194.267 
  255500    297.84197   -1393.4972    497.07132    444.16768    96.983746    39194.267 
  255600    294.68425   -1374.0096    509.74247    462.11358    592.49163    39194.267 
  255700    303.05118   -1370.9581    499.10022    492.18245    326.58828    39194.267 
  255800    302.51131   -1370.8779    503.01864    493.75117     106.9823    39194.267 
  255900    302.83042   -1373.3447    505.05068    494.75272     522.0295    39194.267 
  256000     315.7841   -1413.8651     491.1276    498.61409    443.76009    39194.267 
  256100    295.43069   -1409.0735    479.32904    399.99598     202.3469    39194.267 
  256200    312.02344   -1384.3246    537.86715    557.96731    382.77364    39194.267 
  256300    294.51901   -1370.5958    469.67743    424.71852   -73.216197    39194.267 
  256400     310.8051   -1362.2224    491.85578    528.57434   -262.14146    39194.267 
  256500    305.19464    -1354.384      491.156    510.46013   -216.42199    39194.267 
  256600    297.37774   -1384.4087    508.86567    462.96108   -519.52239    39194.267 
  256700     306.0166   -1421.2938    490.49062    446.58463   -374.69541    39194.267 
  256800    298.66255   -1445.1584    493.15716     392.2858   -366.86086    39194.267 
  256900    288.88238    -1458.113    504.13799    346.29126   -612.24892    39194.267 
  257000    307.51526   -1425.0331    463.53592    422.63615   -300.03346    39194.267 
  257100     297.8704   -1437.2349    493.65098    397.13762   -665.76088    39194.267 
  257200    298.58281   -1422.5022    493.56842    414.99439    23.705908    39194.267 
  257300    293.32942   -1419.5615    502.14956    402.87055    935.25759    39194.267 
  257400    294.23733   -1446.2364    473.73649    351.86916    200.29154    39194.267 
  257500    296.03275   -1433.9105    507.26052    405.80025    333.73115    39194.267 
  257600    288.04088   -1431.0185    472.02936    337.48947    623.63878    39194.267 
  257700    296.89044   -1438.9878    501.13289    398.45588    152.64024    39194.267 
  257800    304.06991   -1440.5176    506.32636    434.43443    236.37695    39194.267 
  257900    299.05786   -1420.9512    477.92256    403.03772    70.125213    39194.267 
  258000     301.3114   -1437.8277    514.63486    433.01674   -133.64089    39194.267 
  258100    292.34115   -1487.8868     481.9258    309.87328   -217.67363    39194.267 
  258200    298.02331   -1429.7613    487.72013    399.36863      -481.49    39194.267 
  258300    295.82737   -1417.4728    498.85158    412.90468   -494.88789    39194.267 
  258400    309.07725   -1406.0167     475.1909    460.33809   -386.99977    39194.267 
  258500    305.97329     -1413.61      472.969    436.55191   -154.48331    39194.267 
  258600    300.51582   -1424.6736    492.92707    420.88215   -455.41191    39194.267 
  258700    287.35107   -1438.2991    487.52208    342.59678   -311.77339    39194.267 
  258800    303.77914   -1431.7111    481.64542     417.2513    143.09975    39194.267 
  258900    295.03032   -1381.8828    501.09625     447.1518    -229.6058    39194.267 
  259000    299.33083   -1413.4461    511.68431    445.53321   -36.540581    39194.267 
  259100    298.53781   -1435.3689    478.61024    386.96692   -163.34549    39194.267 
  259200    304.37649   -1478.4344    481.80607    373.37723   -269.40243    39194.267 
  259300    290.32333   -1449.3805    467.10812    324.47973     93.07625    39194.267 
  259400    299.25326   -1457.6589    459.94095    349.22793   -214.72674    39194.267 
  259500    305.81181   -1443.7419    488.82099    421.54515    327.19149    39194.267 
  259600    301.69225   -1415.6746    484.02537     426.2746    423.70679    39194.267 
  259700    309.99282   -1434.8903    479.61266    440.00724    219.22004    39194.267 
  259800    304.59628    -1415.734    475.70073    430.96162    324.10959    39194.267 
  259900    301.14257    -1438.181     472.6599    389.92858   -215.52313    39194.267 
  260000    294.82795   -1469.5083    475.82731    333.34648 -0.021075009    39194.267 
  260100    298.12959   -1476.0572    509.45167    375.28267    -53.31072    39194.267 
  260200     286.9367    -1435.135    493.00735    349.38109   -595.38252    39194.267 
  260300    296.35348   -1441.0416    478.14987    371.00214   -213.45647    39194.267 
  260400    297.00731    -1432.417    478.67994    383.09975   -641.89811    39194.267 
  260500    305.19184   -1407.2129    482.66586    449.12848   -183.22873    39194.267 
  260600    299.49835   -1443.9072    488.44668    392.58848   -743.35062    39194.267 
  260700    296.86554   -1409.5386    510.96526    437.62535   -805.58857    39194.267 
  260800    292.41373   -1407.2175    492.74934    401.69283   -386.38749    39194.267 
  260900    290.47609   -1416.5111     509.9066    400.83513   -387.67061    39194.267 
  261000    307.51712   -1404.9027    487.53747    466.77639   -194.34397    39194.267 
  261100    304.51811   -1426.7261    506.98275    450.89971   -810.71663    39194.267 
  261200    305.09316   -1404.8025    505.10848    473.53733   -603.56637    39194.267 
  261300    303.79974   -1414.7301    490.45928    443.13891   -408.88431    39194.267 
  261400    313.35958   -1392.2026    503.12811    521.36423   -7.6815184    39194.267 
  261500     304.9166   -1400.9465    488.28308    459.77333   -126.35453    39194.267 
  261600    291.51077   -1398.4926    506.33034    419.93453   -166.85208    39194.267 
  261700    304.37258   -1384.3363    500.92553    486.57728     238.9828    39194.267 
  261800    281.26045    -1430.686     521.2349    356.50871    391.93543    39194.267 
  261900    294.06074   -1438.9538    495.29615    379.91657   -15.211833    39194.267 
  262000    296.24117   -1458.6324    512.00263     386.7586    451.03033    39194.267 
  262100    301.96669    -1490.183    510.26115    379.23728    555.29593    39194.267 
  262200    300.35799   -1471.0092    474.67546    355.58458    448.47884    39194.267 
  262300    300.06744   -1489.4755    467.05794     328.1929    293.83801    39194.267 
  262400     305.1385    -1481.129     455.4709     347.7773    12.693262    39194.267 
  262500     298.2865   -1456.2387     495.8231    382.17889    -498.4514    39194.267 
  262600    296.97041   -1449.6328     476.5436    363.58154   -173.91194    39194.267 
  262700     300.3592   -1491.7534    491.38228    351.55258   -478.61466    39194.267 
  262800     299.2933   -1488.5683    476.53609    335.09392   -355.13369    39194.267 
  262900    296.63676   -1459.7231    491.10947     366.5553    68.827874    39194.267 
  263000    307.97098   -1510.3969    471.42463    347.21228   -306.90994    39194.267 
  263100    307.65567   -1505.9215    475.53046    354.37424    263.59527    39194.267 
  263200    295.81535   -1517.9621    472.38729    285.89693   -369.74261    39194.267 
  263300    303.47091   -1506.9662    487.52902    346.49246    141.15901    39194.267 
  263400    288.19344   -1496.3595    481.26397    282.06983    369.48477    39194.267 
  263500    292.60598   -1494.9139    480.71232    302.82475    7.9394497    39194.267 
  263600    289.24746    -1471.965    475.31642    305.26095   -180.97871    39194.267 
  263700    296.42931   -1511.2826     481.1599    304.11253    420.75161    39194.267 
  263800    296.10311   -1529.1383      502.994    306.62263    1002.9022    39194.267 
  263900    300.44105    -1513.315    512.25588    351.23301    726.59914    39194.267 
  264000     303.9699   -1480.9774    514.03265    401.23079   -72.298493    39194.267 
  264100    293.53239   -1500.3657    473.52724    294.35761   -220.04319    39194.267 
  264200     294.9488   -1509.0549    480.83788    299.35441    151.21932    39194.267 
  264300    301.86937   -1479.5479     516.2378    395.41097     29.98869    39194.267 
  264400     297.4579   -1483.1401    491.98462    347.70942   -335.55428    39194.267 
  264500    299.93437   -1417.7548    482.85436    415.11109    614.23389    39194.267 
  264600    305.03295   -1475.1747    501.29643    399.08208    400.48718    39194.267 
  264700    301.40892   -1487.6819    508.40435      377.371    579.44884    39194.267 
  264800    297.86488   -1444.5349    501.53652    397.69837    493.05217    39194.267 
  264900    298.07775   -1506.9823    475.11196    309.78454    250.21013    39194.267 
  265000    290.45897   -1459.4634    498.98361    346.88276    276.19793    39194.267 
  265100    307.91825   -1458.4989    476.20643    403.65474    112.49059    39194.267 
  265200     291.8804   -1475.5527    490.73479    328.94254    236.01357    39194.267 
  265300    306.84619   -1483.5985    511.46341    408.98668    59.877981    39194.267 
  265400    304.39201   -1433.7444    466.80368    403.13473    320.72873    39194.267 
  265500    293.57968   -1434.1836     480.6455     367.8708   -210.53149    39194.267 
  265600    295.19074   -1404.8438    516.88436    440.70091   -9.9365099    39194.267 
  265700    304.80691   -1430.6855    478.52866    419.78615    135.67754    39194.267 
  265800    305.04261   -1426.5516    476.00079    422.45306    326.50091    39194.267 
  265900    297.15313   -1430.7439    530.90648     437.6557   -43.946258    39194.267 
  266000    295.07786    -1451.523    486.17791    362.80717     403.7938    39194.267 
  266100    299.79118   -1496.4055    500.21743      353.179    274.96211    39194.267 
  266200    295.94088   -1468.3901    470.47572    334.12233   -518.05339    39194.267 
  266300    301.10469   -1434.1725     497.8672    418.97394    22.736233    39194.267 
  266400     303.8277   -1455.8287    522.66399    434.37084   -227.05901    39194.267 
  266500    302.70349    -1447.115    512.67082     428.0312    297.86083    39194.267 
  266600    298.91482   -1471.1814    514.16029    388.40144    651.40581    39194.267 
  266700    306.72651   -1459.7229    515.29463    436.15489    320.63826    39194.267 
  266800    290.17242   -1492.6049    487.07768     300.5456    107.98516    39194.267 
  266900    291.04095   -1488.5953    482.23717    303.62395    351.57924    39194.267 
  267000    294.91375   -1488.5326    492.47136    331.35236   -307.18649    39194.267 
  267100    299.12354   -1469.1531    496.56297    373.77182    68.405746    39194.267 
  267200    292.54566   -1422.6499    482.76992    376.87476   -267.86423    39194.267 
  267300    302.90025   -1451.3735    515.35394    427.34153    4.5537456    39194.267 
  267400    288.23225   -1490.9421    499.53656    305.93449    162.75112    39194.267 
  267500    300.40072   -1472.2377    502.22201    382.09495    744.87176    39194.267 
  267600    304.51769   -1475.6824    490.41994    385.37869     272.1472    39194.267 
  267700    294.62867   -1433.2268    504.84282    397.74647    692.24545    39194.267 
  267800    301.01388   -1479.3229    503.25269    378.80023    424.45042    39194.267 
  267900    311.55838   -1412.5057    512.23126    502.05705    4.3610079    39194.267 
  268000    308.54849   -1390.7157    524.03822     522.1064   -763.61276    39194.267 
  268100    298.77513   -1451.4765    480.38447    373.70171   -686.21301    39194.267 
  268200    302.70955   -1465.1282    521.43608    418.81057   -427.77452    39194.267 
  268300    305.22223   -1467.8933    513.49933    419.41833    149.43384    39194.267 
  268400      298.315   -1435.3469    501.66611    409.04197   -426.27803    39194.267 
  268500    297.95299   -1438.4417    488.28809    390.93969   -90.396404    39194.267 
  268600    304.76563   -1478.7687    483.60388    376.59239  -0.92806233    39194.267 
  268700    307.07943   -1446.9604    490.32325    425.53451    276.11427    39194.267 
  268800    287.76711    -1426.053     525.1844    394.37781    520.68106    39194.267 
  268900    303.40942   -1425.7966    487.73036    427.58661    539.49912    39194.267 
  269000    290.71372   -1468.1224    521.46428    361.85101    320.52448    39194.267 
  269100    309.54363   -1451.1855    490.44892    432.52643    31.108529    39194.267 
  269200    305.42219   -1420.4305     491.1527    445.43457   -166.63847    39194.267 
  269300    299.47452   -1418.9516    523.13265    452.12282   -458.00196    39194.267 
  269400    298.56538   -1423.9119    491.75439    411.69223   -137.38858    39194.267 
  269500    304.29769   -1435.1716    498.11628     432.5956    96.102473    39194.267 
  269600    300.56386   -1451.2871    506.35063    407.90843    187.64613    39194.267 
  269700     297.4321   -1422.4982    487.74391    403.99449     575.8321    39194.267 
  269800    303.61648   -1445.4148    511.85377    433.02376    567.83172    39194.267 
  269900    302.45445   -1476.7664    473.20557    357.79369    827.13301    39194.267 
  270000    300.24719   -1416.5109    495.65124    430.55989    713.97639    39194.267 
  270100    299.28492   -1421.9982    492.86121    417.95139   -184.19438    39194.267 
  270200    309.27293   -1449.1252    493.43691    436.35633   -19.636327    39194.267 
  270300     294.9785   -1448.5014     485.9624    365.16605   -312.45661    39194.267 
  270400     299.3866   -1447.0504    523.94508    424.44072   -246.93543    39194.267 
  270500    308.34465   -1439.0914    509.47998    458.25494    46.703409    39194.267 
  270600     297.5393   -1493.2307    496.97064    342.97129   -20.763592    39194.267 
  270700    300.18463   -1492.5466    502.15469    360.74607   -104.28922    39194.267 
  270800    304.77914    -1447.267    479.68075    404.23175    8.5063012    39194.267 
  270900     298.9864   -1510.1651    481.55659    317.13615    -18.69481    39194.267 
  271000    295.84572   -1496.7237    497.60167    332.48638    64.222334    39194.267 
  271100    307.76272   -1479.4576    465.47498     371.2645    230.52894    39194.267 
  271200     294.2766   -1479.7536    506.55933    351.35156    83.573438    39194.267 
  271300    305.15582   -1498.1865     503.2699    378.59676    144.02585    39194.267 
  271400    293.54308   -1464.4299    475.87161    332.68589    545.58335    39194.267 
  271500    300.20372   -1464.7035    494.04489    380.56528    770.81313    39194.267 
  271600    306.64285   -1458.2703    503.49393    425.43024    392.39602    39194.267 
  271700    304.33299   -1468.5626    469.21463    370.46191    453.23151    39194.267 
  271800    311.26197   -1443.5876    475.62399    433.03376    137.61768    39194.267 
  271900    309.24048   -1456.0041    477.15964    413.05407   -83.043787    39194.267 
  272000    307.85385   -1471.9087     494.6357    408.38429    210.80632    39194.267 
  272100     293.6776   -1486.1578    480.85219    316.54406    -52.43827    39194.267 
  272200    299.42287   -1491.7439    520.27662    376.24194    371.15191    39194.267 
  272300    289.51259   -1508.0355    487.44808     282.5155    158.81655    39194.267 
  272400    299.30097   -1441.9043    468.09206    373.34838   -229.62312    39194.267 
  272500    308.85928   -1496.1722    473.92442    367.93498   -26.404208    39194.267 
  272600    300.42934   -1468.0456    483.10466    367.29853   -91.671902    39194.267 
  272700    324.39753   -1465.3952    501.01841    495.74397   -7.9147349    39194.267 
  272800    302.46904   -1451.4678    495.04749    404.99987    244.19063    39194.267 
  272900    295.98383   -1437.7721     508.2923    402.75027    319.47606    39194.267 
  273000    305.85205   -1490.6611    486.84701    372.83309   -252.42952    39194.267 
  273100    295.62821   -1480.2108    487.96738    338.38602    13.557031    39194.267 
  273200     291.3069   -1471.1141    482.18688    322.25195   -289.20701    39194.267 
  273300    293.90805   -1486.6303    509.97278    346.22941   -90.189248    39194.267 
  273400    304.96082     -1443.46    482.61998    411.79567    175.34379    39194.267 
  273500    309.29683   -1442.3717    505.56027    455.34071    296.52337    39194.267 
  273600    305.52863   -1465.1646     531.5401    441.56692   -32.563005    39194.267 
  273700    295.97545   -1441.3566    458.51661    349.35239    -53.70214    39194.267 
  273800    303.31275   -1465.9201    496.73831    396.03598    -4.873009    39194.267 
  273900    295.13719   -1453.1911    484.03805    359.26626   -387.52299    39194.267 
  274000    294.00943   -1466.6828    492.16217    348.82259   -48.478236    39194.267 
  274100    298.68973   -1448.0878    498.19788    394.51947   -359.16304    39194.267 
  274200    306.42251   -1428.8969    510.35083    460.66877    31.796075    39194.267 
  274300    308.37042   -1449.6358    477.06803    415.41469    287.09776    39194.267 
  274400    290.14569   -1418.5732    520.43996    407.81924    604.57488    39194.267 
  274500    305.43475    -1443.377    513.99478    445.38673    68.201788    39194.267 
  274600    306.44694   -1419.4536    512.03735    471.90854    558.11616    39194.267 
  274700    306.37231   -1435.2805    494.34224    438.05065    623.30466    39194.267 
  274800    297.24388    -1436.841    504.00565    405.06627    373.45457    39194.267 
  274900    298.35912   -1452.3216    505.92586     396.5256   -315.59061    39194.267 
  275000    306.92472   -1413.6546     492.4896    460.31031    207.08723    39194.267 
  275100    298.70053   -1422.0033    488.57079     411.0255   -499.13075    39194.267 
  275200    295.57145   -1430.8422    482.13739    381.66917   -352.98266    39194.267 
  275300    299.95809    -1437.174    506.04256    418.98688    412.08382    39194.267 
  275400    300.92639   -1473.3757    498.01512    379.11606    8.1177566    39194.267 
  275500     301.8333   -1470.5171    491.67688    379.71841    545.60732    39194.267 
  275600     302.2359   -1443.6016    493.10128    409.87048    747.32536    39194.267 
  275700    298.75339   -1429.4039    510.57667    425.86876    284.33945    39194.267 
  275800    298.59993   -1414.1619    497.67527    427.51856       733.67    39194.267 
  275900    302.31594   -1472.7212    504.97473     392.9846    214.33912    39194.267 
  276000    294.78038   -1447.3668    512.76673    392.21327    326.77316    39194.267 
  276100    308.03246   -1455.3819    510.33652    441.41583    162.41655    39194.267 
  276200    289.07133   -1469.1484    489.66946     321.6378    -497.8885    39194.267 
  276300    303.32912   -1449.2088    504.55842    420.64104    153.36334    39194.267 
  276400    305.63977    -1450.831    494.32635    419.18707    442.70094    39194.267 
  276500    298.91635    -1461.108    490.70728    375.02874   -365.06633    39194.267 
  276600    300.37303   -1407.3476     534.0395    478.67787   -142.19417    39194.267 
  276700    294.76358   -1409.7082    474.94784    391.97739    184.70998    39194.267 
  276800    299.30348   -1433.4749    504.83836    418.53536   -391.01678    39194.267 
  276900    299.20375   -1425.2175    499.22414    420.72961   -2.5192854    39194.267 
  277000    297.24922   -1454.0468    482.25372    366.13258   -404.40425    39194.267 
  277100    303.91835   -1441.9415    505.66634    431.66836   -579.80717    39194.267 
  277200    292.92004   -1413.9212    469.58468    374.10331   -19.668049    39194.267 
  277300    302.20088   -1410.6018     516.3983    466.00965    161.94752    39194.267 
  277400    303.34858    -1413.265    534.63876    486.75269    38.389616    39194.267 
  277500    304.94577   -1422.0072    514.58402    465.14484    290.16394    39194.267 
  277600     291.8613   -1405.1003    507.64312    416.21729    670.63584    39194.267 
  277700    293.28798   -1463.5643    497.28756    353.81923    127.97325    39194.267 
  277800    309.70176   -1410.3715    483.74475    467.34808    417.73641    39194.267 
  277900    297.09179   -1389.4025    512.15083    459.96536    192.42198    39194.267 
  278000    307.39898   -1404.6828    483.90479    462.83194    222.61894    39194.267 
  278100    304.61709   -1407.5672    491.49414     455.0155    501.85505    39194.267 
  278200    306.58081   -1431.3169    493.24079    441.85126    562.85859    39194.267 
  278300    300.26655   -1465.9843    508.49848    394.02087    131.98053    39194.267 
  278400     305.2369   -1430.8414    504.85331    447.89028   -89.805213    39194.267 
  278500    298.98674   -1427.6193    495.58991    413.71683    255.04275    39194.267 
  278600    293.28349   -1447.3331    494.95324    367.69593    49.823872    39194.267 
  278700    309.88535   -1408.6379    497.75872    483.92198    508.22133    39194.267 
  278800    296.06346   -1435.2397    515.37708    412.72587    178.22255    39194.267 
  278900    309.54605   -1433.4303    487.12547    446.96908    978.07447    39194.267 
  279000    293.01043   -1430.3742    507.65423     396.1268    1701.9013    39194.267 
  279100    303.88839   -1416.0486    494.45821    446.21832    183.63602    39194.267 
  279200    302.40124   -1380.2457    532.93359    513.80292    528.93753    39194.267 
  279300    291.15982   -1400.8252    514.90701    424.59893    958.96636    39194.267 
  279400    297.28364   -1390.7623    540.76758    488.08582     575.2034    39194.267 
  279500     292.0751   -1393.5721    472.15422    393.21886    54.943137    39194.267 
  279600    300.39102    -1410.314    499.58673    441.33964   -142.02041    39194.267 
  279700    305.81827    -1431.422    506.61871    451.69177    390.15009    39194.267 
  279800     300.2792   -1434.8536    497.19479    413.90486    595.02982    39194.267 
  279900    292.83837   -1429.1981    483.70084      372.575    743.13057    39194.267 
  280000     286.6629   -1437.9367    499.49201    351.83169    516.43789    39194.267 
  280100    307.03226   -1414.5567    521.58792    488.99055    784.43615    39194.267 
  280200    298.10907   -1418.8663    482.03927    404.96879   -184.31223    39194.267 
  280300     309.6314   -1435.7624    500.04142    457.93708   -93.272081    39194.267 
  280400    299.86344   -1392.4165    474.20726    431.48299    -547.4343    39194.267 
  280500    302.63379   -1370.0245    498.22065    490.35784      245.468    39194.267 
  280600    300.98987   -1453.6174    503.72153    404.86648    421.18494    39194.267 
  280700    293.64789   -1386.9705    494.94024    429.68573    684.71974    39194.267 
  280800     301.4479   -1423.9576    502.52338    435.38971     299.9973    39194.267 
  280900    294.61145   -1387.1411    502.27137    441.18323    1025.3345    39194.267 
  281000    292.54567   -1413.6458    474.39946    377.50852    534.30176    39194.267 
  281100    304.88001   -1434.0276    476.26891    414.51328    430.58093    39194.267 
  281200     297.6289   -1430.1922    480.52468    389.96708   -78.692059    39194.267 
  281300     300.1118   -1375.7731    489.79357    464.83062    111.39132    39194.267 
  281400    293.46577   -1391.1038    484.37473     414.1672   -192.21775    39194.267 
  281500    298.00284   -1404.9642    483.09428    419.44783   -340.60893    39194.267 
  281600    300.86635   -1371.2962    501.78482    484.69501    83.371014    39194.267 
  281700    299.91686   -1391.5358     502.1244    460.52137    481.25172    39194.267 
  281800    299.16727   -1445.6791    526.08408    426.96378    205.30173    39194.267 
  281900    292.92635   -1431.2787     515.8613    403.05096    990.72655    39194.267 
  282000    300.55107   -1458.9584     500.1641    393.99302    604.82377    39194.267 
  282100    298.98142   -1424.5157    487.71468    408.92131   -52.335707    39194.267 
  282200    306.29763   -1445.6971    495.43734    428.39293    71.311249    39194.267 
  282300    290.25671   -1452.9711    494.78995    348.27101   -114.92256    39194.267 
  282400    302.38871   -1449.6606     485.8363    397.23435   -103.32248    39194.267 
  282500    307.24937   -1424.0278    479.94844    438.85716    104.42345    39194.267 
  282600    291.34597   -1469.4826     530.2383    372.11069   -500.55263    39194.267 
  282700    309.30674   -1475.6928    453.51145    370.01543    -339.5416    39194.267 
  282800    302.74025   -1471.3398    536.56082    427.86189   -722.60346    39194.267 
  282900    303.01486   -1480.1671    475.10475    358.81451   -557.49722    39194.267 
  283000    289.20668   -1462.9868    483.41189    322.15107   -524.70677    39194.267 
  283100    303.83695   -1463.8324    492.84005    396.58481    79.920206    39194.267 
  283200    307.62462   -1453.0953    494.77856    426.30875   -223.86914    39194.267 
  283300    293.11629   -1457.6878    472.47184    334.10724   -326.97153    39194.267 
  283400    299.73492   -1448.3216    479.18261    379.97487   -308.65157    39194.267 
  283500    299.05144   -1482.3498    483.69693    347.38456   -167.06725    39194.267 
  283600    299.93567   -1416.0157    476.72071    410.72247    86.405028    39194.267 
  283700    297.32762   -1443.3686    494.05109    388.96102   -481.15914    39194.267 
  283800    305.50832    -1447.666    516.61045    444.04442   -205.23446    39194.267 
  283900    284.76931   -1447.9992    487.97328    321.72737   -359.65935    39194.267 
  284000    299.59225   -1463.6811    487.81052    372.60107    195.29729    39194.267 
  284100    286.33575   -1515.1654     480.7689    254.40738   -583.64051    39194.267 
  284200    300.76977   -1435.4603    473.03523    391.34665   -197.71405    39194.267 
  284300    291.81171   -1420.3676     501.2402    394.32386   -86.026837    39194.267 
  284400    301.67541   -1422.4284    517.61141    453.03102   -364.58562    39194.267 
  284500    290.99522   -1444.0947    479.96793    345.64943    310.12014    39194.267 
  284600    304.12024    -1426.815    506.09946    448.13667    480.91802    39194.267 
  284700     308.5951   -1433.2719    511.38629    467.10814     221.1347    39194.267 
  284800    305.24953   -1392.0199    476.48169    458.39698    596.94243    39194.267 
  284900    300.32655   -1409.3893    533.91631    476.30372    816.59487    39194.267 
  285000     289.3166   -1463.2243    508.56173    347.55819    435.65679    39194.267 
  285100    299.13976   -1418.9366    501.19641    428.69484    643.66018    39194.267 
  285200    307.39982   -1478.4825    488.74613    393.87735    255.62385    39194.267 
  285300    300.01692   -1452.6062    500.10098    397.87793    170.53719    39194.267 
  285400    304.77131    -1479.613     486.3631    378.53278    145.30861    39194.267 
  285500    297.65891    -1474.909    499.70333    364.56399   -286.70746    39194.267 
  285600    306.06873   -1477.1432    471.67031    372.14951   -545.94767    39194.267 
  285700    299.88608   -1440.0824    496.23914    405.95089   -304.47055    39194.267 
  285800    316.28287   -1454.0332    503.76758    473.33092   -78.242646    39194.267 
  285900    305.18213   -1448.9869    509.87623    434.52116    29.468396    39194.267 
  286000    303.61405   -1463.4314    481.37986    384.52233    304.44202    39194.267 
  286100    303.21082   -1455.3133     507.2312    416.67682   -232.56002    39194.267 
  286200    295.86706   -1437.3228    481.16731    375.54898    581.45235    39194.267 
  286300      300.836    -1464.034     490.0754    380.11119    705.58529    39194.267 
  286400    293.25285   -1448.7024    475.73144    346.96687     669.5222    39194.267 
  286500    290.98284   -1487.3615    503.97911    326.33808    527.20891    39194.267 
  286600    294.18818   -1453.0298    459.39142    330.50946    561.53562    39194.267 
  286700    304.23064   -1459.0392    482.02775    392.33767   -657.68296    39194.267 
  286800    302.42309   -1416.6521    479.50561     424.0669   -260.42437    39194.267 
  286900    304.34563   -1464.0415    471.66903    377.49426   -225.91592    39194.267 
  287000    299.71859   -1530.3872    442.09468    260.74779   -552.46636    39194.267 
  287100     298.5116    -1506.261    468.22792    305.57451   -572.21558    39194.267 
  287200    287.69954   -1485.5343    477.76066    287.16865    285.15331    39194.267 
  287300    299.40827   -1508.3576    473.27704    312.56302   -224.68085    39194.267 
  287400    306.59565   -1460.2829    483.72237    403.43358     -575.341    39194.267 
  287500    303.91997   -1481.1931    464.85526    351.61299     474.9221    39194.267 
  287600    296.19884   -1473.4546    491.75138    351.49462    116.69926    39194.267 
  287700    295.51184   -1497.0187    518.15081    351.23778    -29.01763    39194.267 
  287800    290.04033   -1465.4168    476.69374    316.75518    106.08388    39194.267 
  287900    302.95802   -1485.1368    489.81751    368.30173   -242.69979    39194.267 
  288000     294.8703   -1515.2249    472.34654    284.33973    42.067559    39194.267 
  288100    296.50717    -1450.378    488.80956    373.01721    296.96473    39194.267 
  288200    292.39982   -1480.1166    515.46487    351.44665    195.41231    39194.267 
  288300     300.2862   -1421.4257    494.47244    424.64187    297.89762    39194.267 
  288400      292.006   -1441.1057     500.0824    373.30245    75.959162    39194.267 
  288500    307.05411   -1467.8021    479.76746    394.02301   -237.70881    39194.267 
  288600    304.63239   -1444.9879    493.05191    419.22139    325.25234    39194.267 
  288700    293.19998   -1424.5847    483.14807    378.26334   -136.05623    39194.267 
  288800    287.81309   -1436.6757    501.48715    360.26479   -119.36281    39194.267 
  288900    299.91512   -1443.6336    487.94867       394.24    217.92659    39194.267 
  289000    290.76052   -1459.1004    497.03099    346.65045   -20.215371    39194.267 
  289100     308.9123   -1442.1232    486.78123    435.07942    586.77987    39194.267 
  289200    302.52071   -1421.4765    487.41944    427.59567    80.330063    39194.267 
  289300     300.1561   -1453.8471    493.48619    390.64867    727.34296    39194.267 
  289400    295.82046   -1419.2642    511.12144    423.35205    195.57869    39194.267 
  289500    298.56378   -1442.9965    503.76801    404.61398    526.89136    39194.267 
  289600    296.88186   -1492.3687     513.1453    357.04874    317.61162    39194.267 
  289700    297.66936   -1475.2371    502.75322    367.33286   -91.575342    39194.267 
  289800    297.29719   -1450.6553    517.93976    405.42598    38.720451    39194.267 
  289900    293.75603   -1411.7962    473.79207    384.19861    1.7783342    39194.267 
  290000    301.65583   -1419.5856    507.14194    445.31628   -395.71364    39194.267 
  290100    299.61823   -1423.0847    472.56141    398.06532   -445.87317    39194.267 
  290200     303.8886   -1463.3337    514.88353    419.35942    327.32436    39194.267 
  290300     303.6183   -1419.2435    506.27549    453.62497   -246.94162    39194.267 
  290400     291.2598    -1382.074    501.62726    430.52042    82.767139    39194.267 
  290500    306.46577   -1432.8515    512.66795    459.22593    8.2919133    39194.267 
  290600    304.79106   -1407.0204    477.26862    442.11989    457.56067    39194.267 
  290700    305.09794   -1399.4296    520.13993    493.96317    217.98451    39194.267 
  290800    290.96784   -1392.3106    506.82995    424.17234    476.10383    39194.267 
  290900    298.52689   -1437.0081    492.23786    398.90621      635.675    39194.267 
  291000    302.88231   -1403.9633    510.49553    469.81253    310.52456    39194.267 
  291100    298.53661   -1430.7181    516.97678    429.97894     78.84074    39194.267 
  291200    299.56493   -1434.0673     484.4724     398.7538   -306.75086    39194.267 
  291300    303.30228   -1448.6741    511.71087    428.20733   -176.26085    39194.267 
  291400    294.01017   -1452.9431    499.61139    370.01487    61.258258    39194.267 
  291500     303.5905   -1443.7419    471.91595    394.64196    335.95554    39194.267 
  291600    301.31797   -1464.2498    508.62244    400.61175    481.47124    39194.267 
  291700    292.36952   -1454.0131    507.81586    369.76468    282.27736    39194.267 
  291800    301.30912   -1474.8596    487.42325    368.76295    626.74812    39194.267 
  291900    303.42326   -1493.7304    536.60433    408.58899     671.0377    39194.267 
  292000    305.50347   -1471.0696    479.39268    383.40125    -323.0915    39194.267 
  292100    292.97434   -1474.1686    482.03771    326.55341   -50.673376    39194.267 
  292200    289.42503   -1482.1275    494.38564    314.96688    318.53702    39194.267 
  292300    295.95548   -1431.2824    499.23959    400.05967    378.70897    39194.267 
  292400    297.42521   -1486.7571    470.21123    322.17186    152.68505    39194.267 
  292500     304.8341   -1473.5265     501.7804    400.31923    384.04404    39194.267 
  292600    288.46238   -1498.9935    481.00952    280.39187   -131.31616    39194.267 
  292700    295.21831   -1476.3524    497.57819    350.01026   -450.58708    39194.267 
  292800    290.86886   -1458.0289    519.17888    370.35748   -947.34537    39194.267 
  292900    311.52705   -1445.7252    478.52108    434.98637   -481.80595    39194.267 
  293000      306.113   -1466.2049     495.3317    406.94856   -477.32493    39194.267 
  293100    299.77604   -1434.5909    505.61897    420.32695   -876.19055    39194.267 
  293200    297.68278   -1481.3828    497.24369    355.73798   -749.69634    39194.267 
  293300    287.41624   -1475.0591    480.44264    299.05075   -264.76741    39194.267 
  293400    288.83163   -1469.7092    494.71754    325.04617   -690.64672    39194.267 
  293500    299.35603   -1481.0469    485.70522    352.06672   -171.49477    39194.267 
  293600    304.39389   -1448.3392    510.96372     432.7085   -290.66815    39194.267 
  293700    302.42846   -1469.5086    488.56816    380.29704   -214.67291    39194.267 
  293800    292.86305    -1455.808    477.33301    339.70838    69.481161    39194.267 
  293900    293.92785   -1447.7186    502.73894    377.99639    89.979085    39194.267 
  294000    293.82575   -1461.1892    513.75793    375.08523   -212.95127    39194.267 
  294100    298.69734   -1445.7643    494.24463    392.92395   -252.49054    39194.267 
  294200    305.46614   -1464.1558    486.37101    397.12539   -679.81873    39194.267 
  294300    290.11991   -1444.9345    511.75949    372.66142   -1047.2568    39194.267 
  294400    303.47892   -1431.1526    485.34587    420.15891   -220.01459    39194.267 
  294500     309.5561   -1450.0724    520.61432    463.86105   -125.79258    39194.267 
  294600    294.00457   -1449.8313    499.96129    373.45136   -42.682956    39194.267 
  294700    310.88772   -1410.3159    536.64281    525.63972     385.4174    39194.267 
  294800     299.1497   -1425.4076    501.10553    422.17762    48.120306    39194.267 
  294900    301.51931   -1436.3585    504.28462    425.07153    484.97442    39194.267 
  295000    308.28912   -1433.9229     507.4924    461.18594    293.60405    39194.267 
  295100    297.41769   -1412.4937    508.03398    434.22422   -225.67476    39194.267 
  295200    294.02749   -1442.2197    458.18474    339.38958    -208.1238    39194.267 
  295300    295.34887   -1438.4991    491.09413    381.96715   0.80477384    39194.267 
  295400    287.16726    -1489.751    514.40578    317.20132   -236.16015    39194.267 
  295500    295.15614     -1478.96    485.49314     335.0378    163.78443    39194.267 
  295600    298.03552   -1485.2065    512.57705    368.83529    50.218981    39194.267 
  295700     298.7715   -1468.4082    477.43995     353.8092    128.78542    39194.267 
  295800    298.52034   -1469.6204    493.78465    367.81124     273.1232    39194.267 
  295900    302.58987   -1502.6259     490.7357    350.07381   -64.524395    39194.267 
  296000    286.52292   -1552.6221    499.70394    236.72812   -888.99352    39194.267 
  296100    298.66044    -1493.024    477.23653     328.4901    105.61898    39194.267 
  296200    295.57741   -1502.1289    488.11704    316.38888   -577.13218    39194.267 
  296300    298.71058   -1507.3298    502.16194    339.33544   -266.84695    39194.267 
  296400    302.01531   -1486.9619    493.03509    365.45113   -178.53297    39194.267 
  296500    300.97755    -1504.247    501.22737    351.68736    380.46806    39194.267 
  296600     303.9646   -1510.1919    493.63348    351.59327     173.2479    39194.267 
  296700    294.39952    -1514.041    495.83553    306.89354   -9.9122695    39194.267 
  296800    294.53898   -1488.8206    498.70761    335.61381   -203.57476    39194.267 
  296900    296.55387   -1500.4548    506.68397    341.02502    180.30305    39194.267 
  297000          298   -1497.6283    465.67023    309.34686   -327.50618    39194.267 
  297100    296.12556   -1524.8642    499.77074    307.77451   -1278.3595    39194.267 
  297200    298.29722   -1483.2944    506.10817    365.45647   -1093.2564    39194.267 
  297300     300.3671   -1510.2162    495.41816    337.16126   -564.40876    39194.267 
  297400     292.4797   -1448.8886    508.04431    375.61358   -514.15468    39194.267 
  297500    301.16822   -1499.9725    489.98075    345.57341   -758.24161    39194.267 
  297600    309.86094   -1462.9138    516.37761     448.1551    79.495465    39194.267 
  297700    280.78856   -1499.8341    511.29057    275.29226   -188.21386    39194.267 
  297800    299.86239   -1463.8007    514.43767    400.32451   -5.9140285    39194.267 
  297900    299.53946   -1514.1338    479.46083    313.56107   -39.374017    39194.267 
  298000     294.6041   -1485.8398    496.89734    337.07747   -189.62576    39194.267 
  298100    300.38661   -1477.2535    516.77563    391.56922   -168.68359    39194.267 
  298200    298.76758    -1480.211    506.12479    370.67363    881.44803    39194.267 
  298300    308.51382   -1472.9799     495.7917    411.43963    236.94887    39194.267 
  298400    294.35698    -1429.768    513.07249     408.2121     353.3419    39194.267 
  298500      307.888   -1424.2309    517.88019    479.46032    720.04586    39194.267 
  298600    310.12573   -1432.1749    504.38423    468.09235    279.99434    39194.267 
  298700    311.36127   -1440.5797    520.27157    481.13615   -43.017752    39194.267 
  298800    301.90113   -1417.8563    488.79144    429.79918    817.03831    39194.267 
  298900     304.3858   -1452.6744     521.3094    438.68258   -256.73346    39194.267 
  299000    300.08333   -1420.1741    535.89853    466.40642    20.808567    39194.267 
  299100    298.41106   -1473.4495    459.14865    328.85422    306.63638    39194.267 
  299200    303.71632   -1454.8557    510.07913    422.25758   -45.466082    39194.267 
  299300    300.25088   -1451.5677    501.05551    400.92399    147.50777    39194.267 
  299400    286.12357   -1427.1103     522.6899    383.42845    526.06722    39194.267 
  299500    315.85837   -1401.2046    500.04841    520.52965    364.28735    39194.267 
  299600    292.85128   -1483.4904    517.04584    351.68587    444.17677    39194.267 
  299700    303.30456   -1470.3329    506.19849    401.04638     305.2635    39194.267 
  299800    289.56591   -1447.3625     478.6485    334.62891    -136.1283    39194.267 
  299900    296.43647   -1440.3075    506.86352    400.82347   -83.134751    39194.267 
  300000    304.03257   -1431.1299    519.93814    457.26591   -265.59886    39194.267 
  300100    305.87962   -1461.6717    496.07224    411.17176   -467.10988    39194.267 
  300200    296.57173   -1436.1323    519.03717    417.78111   -344.15407    39194.267 
  300300    293.10785   -1450.0513    456.03155    325.26553   -254.79961    39194.267 
  300400    300.96373   -1465.7011    517.05367    405.99736   -453.33911    39194.267 
  300500    298.22505   -1458.1992    508.06407    392.18272   -311.37503    39194.267 
  300600    300.58203    -1445.263    496.83923    404.50286   -116.13395    39194.267 
  300700    291.20055   -1448.2629    518.27599    380.71347   -814.98099    39194.267 
  300800    290.84102   -1417.1787    488.51557    380.41907   -237.03168    39194.267 
  300900    310.28968   -1427.5255    521.54135     490.6369   -162.66581    39194.267 
  301000    292.51998   -1424.0163    504.06956    396.69242   -14.402123    39194.267 
  301100    303.16555   -1439.7806     490.6445    415.41913    125.49839    39194.267 
  301200    296.34453   -1461.6786    503.12179     375.2968   -275.74364    39194.267 
  301300    294.64972   -1484.6992    489.12081    330.64682   -144.26732    39194.267 
  301400    300.83124   -1464.9573    509.61479    398.70585     97.89142    39194.267 
  301500    307.26634   -1469.9539    486.00386    399.06292   -327.71894    39194.267 
  301600    298.28158   -1466.2004     499.9948    376.36671   -185.60314    39194.267 
  301700    302.94905     -1514.88    486.25177    334.95247   -70.698069    39194.267 
  301800    295.35929   -1465.3671    471.97804    336.02989     227.3054    39194.267 
  301900    300.37918   -1442.9386    510.02567    419.10074   -281.69132    39194.267 
  302000    297.62283   -1461.5563    496.98328    375.03424    337.29534    39194.267 
  302100     290.9376   -1489.2125     491.1766    311.48097   -230.29839    39194.267 
  302200     291.0172   -1477.4405    492.22005    324.65469   -756.11078    39194.267 
  302300    320.16477   -1439.2645    479.05196     480.8565     108.1011    39194.267 
  302400    301.55287    -1459.784     521.8298    419.34223    213.18198    39194.267 
  302500    315.84557   -1485.6934    505.99778    441.93263     234.0549    39194.267 
  302600    298.77229   -1483.7681    514.85355     375.8664    158.83557    39194.267 
  302700    304.54438   -1489.7604     520.2925     401.2934    308.87753    39194.267 
  302800     303.9583   -1439.3708    500.89881    429.65138    160.22435    39194.267 
  302900    305.94997   -1434.3263    503.64104    446.40267    1005.6897    39194.267 
  303000    299.44568   -1479.9375    513.08807    380.96254    771.87772    39194.267 
  303100    302.06713   -1446.6726     505.6436    418.58215    829.97227    39194.267 
  303200    308.85534   -1441.4442     509.0941    457.81498    830.61545    39194.267 
  303300    306.52184   -1467.9128    495.97456    407.72364    74.613324    39194.267 
  303400    299.94598   -1409.0196    489.87598    430.92023   -341.14047    39194.267 
  303500    286.20426   -1399.1889    534.68033    423.70347   -720.23736    39194.267 
  303600    308.78693   -1429.0281    523.46344    484.29243   -98.348546    39194.267 
  303700    307.75532   -1414.3498    523.30372    494.16776     321.3859    39194.267 
  303800    300.44376   -1437.4285    489.66352    404.53934   -164.99946    39194.267 
  303900    291.56244   -1448.4097    508.70018    372.61976   -623.01083    39194.267 
  304000    295.36276   -1450.9092    491.28609     369.8115    210.46997    39194.267 
  304100    307.56572   -1472.6126    495.47216    407.21999   -293.47901    39194.267 
  304200    298.53771   -1482.8628    505.95452    366.81688   -152.41685    39194.267 
  304300    301.19484   -1502.1707    498.24256    351.75678    87.078962    39194.267 
  304400    295.69681   -1479.9146    492.96305    343.98665   -281.13655    39194.267 
  304500    298.14979   -1491.5208    500.93575    351.39404   -194.65299    39194.267 
  304600    302.62694   -1506.0311    486.41929    342.51906   -211.81189    39194.267 
  304700    286.36102   -1476.2635    524.93848     337.5926   -563.69624    39194.267 
  304800    297.86539   -1449.2642    507.69867    399.13347   -252.37864    39194.267 
  304900    299.24898   -1457.3248    473.01399    362.61575    519.15698    39194.267 
  305000    300.93878    -1479.096    496.62439    372.06083   -371.78924    39194.267 
  305100    295.30055    -1411.523    509.36188     426.9935   -368.08367    39194.267 
  305200    303.00193   -1447.2375    492.35407    408.93525    236.10408    39194.267 
  305300    289.38196    -1451.986    507.91772    358.44669   -220.85712    39194.267 
  305400    295.83689   -1512.2586    485.53354    304.84366   -28.141503    39194.267 
  305500    303.41023   -1445.2363    518.31646    438.73667    25.937546    39194.267 
  305600    297.15112   -1469.3241    494.60861    362.76855   -127.43655    39194.267 
  305700    294.43814   -1497.9492    480.11483    307.43855    342.67011    39194.267 
  305800    293.95325   -1469.6803    507.39089    360.80096    254.47093    39194.267 
  305900    303.74061   -1484.7987    496.61979    378.96457    592.11389    39194.267 
  306000    293.73545   -1454.5625    509.30358    376.85113    854.03377    39194.267 
  306100    308.96433   -1466.4143    505.48979    429.73109    1062.7497    39194.267 
  306200    310.00603   -1499.9827    492.65637    388.01802    440.49724    39194.267 
  306300    306.83971    -1473.287    492.62067    400.42634    441.29813    39194.267 
  306400    301.31509   -1519.4067    501.05103     337.8705    470.26892    39194.267 
  306500    293.59858   -1503.2876    493.75518    311.96161    642.42681    39194.267 
  306600    297.37628   -1527.6045    499.14876    310.04182    121.94771    39194.267 
  306700    295.88273   -1516.8391    494.11012    309.04606    397.55506    39194.267 
  306800     304.3213    -1512.458    494.91393     352.2131   -300.92368    39194.267 
  306900    311.21645   -1479.9674    463.43901     384.2641    446.40158    39194.267 
  307000    297.15251   -1479.6962    486.04971    343.84386    111.86889    39194.267 
  307100    302.57099   -1536.9901    480.40176    305.29068   -258.89827    39194.267 
  307200    302.61286   -1495.7509    479.41557    345.73221     491.9284    39194.267 
  307300    298.46824    -1476.415    502.70169    369.69916    305.23004    39194.267 
  307400    297.02823   -1472.7305     526.4066    390.60709     265.6738    39194.267 
  307500     289.1099   -1418.6502    500.24421    382.88438   -4.1273504    39194.267 
  307600    303.84028   -1451.2134    502.91672    419.29543    455.35479    39194.267 
  307700    300.06908   -1436.9365    511.31903    425.00047     29.71541    39194.267 
  307800     292.9085   -1426.7496    500.72613    392.36448   -38.102919    39194.267 
  307900    304.20505   -1433.9513    506.99887    442.28158   -171.39346    39194.267 
  308000    306.95116   -1452.6192    513.78751    442.76257   -117.58144    39194.267 
  308100    299.91599   -1464.9428     496.2299     381.2159   -118.20579    39194.267 
  308200    295.99695   -1449.0984    489.41917    372.60987   -693.69431    39194.267 
  308300    296.18316   -1465.3805    526.40462    394.15139   -359.79385    39194.267 
  308400    293.93252   -1468.2544    495.40295    350.14559   -263.27821    39194.267 
  308500    300.86985   -1470.4167    490.88764    374.69308   -712.30512    39194.267 
  308600    305.51511   -1456.1507    498.91954    417.89943   -702.19382    39194.267 
  308700    304.26613   -1455.4156    501.32521    415.41853   -583.59158    39194.267 
  308800    294.09497   -1502.6814    490.89786    311.94469   -358.96707    39194.267 
  308900    300.60344   -1480.6892    508.95598    381.28985    133.13475    39194.267 
  309000    299.80963   -1452.5364    503.99848    400.91218    213.31146    39194.267 
  309100    304.21465   -1443.5832    511.68358    437.37754    558.07578    39194.267 
  309200    300.03506   -1474.5079    494.43726    370.39411    277.71275    39194.267 
  309300    297.30124   -1463.9219    488.71146    362.94929    -97.58807    39194.267 
  309400    300.46759   -1477.5836    474.71523     349.5432    312.14279    39194.267 
  309500    309.66539   -1515.3526    506.15303    384.61152    849.34817    39194.267 
  309600    298.14174   -1521.1103     494.8411    315.67364    258.65916    39194.267 
  309700    313.22477   -1468.3771    488.18423    429.63904    229.39012    39194.267 
  309800    310.09399   -1485.2343    474.86967    385.37561   -244.63743    39194.267 
  309900    294.33719   -1490.0959    487.44596    322.16858    149.98224    39194.267 
  310000    301.20525   -1497.5035    497.27722     355.5055    263.56707    39194.267 
  310100    302.57165   -1455.4967    525.74974    432.13504     204.1538    39194.267 
  310200    301.01328   -1486.6344    483.14924    351.38257    711.71329    39194.267 
  310300     301.7332   -1494.7191      483.213    346.60202    85.583326    39194.267 
  310400    295.30844   -1482.0149    465.24912    312.42435    -54.00375    39194.267 
  310500    305.95575   -1495.7047    491.71624    373.12545    403.03547    39194.267 
  310600    299.42205   -1502.4962    476.62876    321.83813    409.09241    39194.267 
  310700    298.71533    -1498.424    493.13737    339.23801    297.41451    39194.267 
  310800    306.34129   -1514.6752    499.38424    363.55825     142.8492    39194.267 
  310900     306.0883    -1503.566    473.36302    347.50757   -54.775501    39194.267 
  311000    287.59979   -1524.7951    482.50492    252.20317   -312.93543    39194.267 
  311100    300.07274   -1477.1234    471.87727    345.38826   -204.41439    39194.267 
  311200    296.66211   -1478.6033    500.11813    356.79792   -31.633935    39194.267 
  311300    303.44453     -1477.77     514.8364    402.87728    435.52124    39194.267 
  311400    307.74086   -1465.3088    498.09968    417.93962    451.86027    39194.267 
  311500     299.9149   -1509.1906    498.57382    339.30712    554.87656    39194.267 
  311600    304.55249   -1518.3267    476.01633    328.48749     238.6984    39194.267 
  311700    297.59192   -1506.5706    494.75189    327.64945    472.25467    39194.267 
  311800    315.53606    -1494.104    490.79588      416.927    279.90462    39194.267 
  311900    306.04919   -1462.7833    511.28993    426.04114    308.26173    39194.267 
  312000    312.36112   -1451.8344    502.55824    456.66854     1075.787    39194.267 
  312100    295.12045   -1446.7878     499.9549    381.51109    99.341642    39194.267 
  312200    294.35902   -1465.8443    481.74452    340.81698    228.07263    39194.267 
  312300    315.23727   -1494.4146    505.01047    429.48617    520.74615    39194.267 
  312400    291.28249   -1507.7579     487.4056    290.71691    114.51034    39194.267 
  312500    289.06202   -1533.7533    495.58104    262.90261   -22.974881    39194.267 
  312600    303.94328   -1526.6416    504.16457    345.57867    242.53663    39194.267 
  312700    299.17227    -1472.043    482.21625    356.75455    87.830901    39194.267 
  312800    293.15829   -1518.0565    475.57167    277.02744     79.55056    39194.267 
  312900    313.03244    -1485.615    496.21791    419.56918    43.888714    39194.267 
  313000    297.43415   -1433.0623    492.82569    398.52136   -191.84198    39194.267 
  313100    311.01931    -1461.194    500.20916    438.92025    613.16285    39194.267 
  313200    299.78129   -1448.6852    503.63528    404.27266    493.23325    39194.267 
  313300    298.68924   -1470.5236    513.00268    386.88631   -69.094152    39194.267 
  313400    305.00063   -1439.2889    501.90528    435.43128    18.774619    39194.267 
  313500     299.4039   -1473.8234    496.41931    370.21981    542.84331    39194.267 
  313600    300.99617   -1494.9756    505.05247     364.8676    113.04967    39194.267 
  313700    291.82836    -1455.592    501.10543    359.03967    296.88564    39194.267 
  313800    296.13781   -1426.9993    471.63975    377.56358    260.27544    39194.267 
  313900    296.45765   -1454.4559    485.04572    364.95255    213.28164    39194.267 
  314000    292.71879    -1446.778    486.62237    357.37844    18.288695    39194.267 
  314100    300.59201    -1444.345     493.8248    402.45146    209.29625    39194.267 
  314200     299.3122   -1451.6847    498.75229    394.27875    366.70393    39194.267 
  314300    300.14331   -1426.2561    508.82943    433.52529    384.38168    39194.267 
  314400    296.36251   -1432.2112    492.33267    394.05602   -168.50812    39194.267 
  314500    295.93574   -1414.3588    489.28765    406.94248   -630.18635    39194.267 
  314600    290.04703   -1392.9562    491.32512    403.87728    -49.25788    39194.267 
  314700    300.58027   -1422.3695     494.6384    425.18764   -24.035869    39194.267 
  314800    306.40844   -1447.6285    486.03649    417.55949   -934.86772    39194.267 
  314900    307.05135   -1389.3678    491.61013    484.28752   -290.95741    39194.267 
  315000    300.49975   -1456.4071    486.27764    382.42689    -471.6721    39194.267 
  315100    303.18518   -1417.0333    464.12443    411.73459   -358.14581    39194.267 
  315200    297.16251    -1450.118    491.53575     378.9531   0.88577275    39194.267 
  315300    305.90944   -1436.8626    473.95467    413.99756    218.76257    39194.267 
  315400    308.03429   -1414.1619    487.99951    460.30708    129.24786    39194.267 
  315500    296.11205   -1457.1927    463.41612     339.0306    66.726934    39194.267 
  315600    300.83757   -1423.8768    484.69323    414.89329   -22.848142    39194.267 
  315700    306.46162   -1426.0446    507.72505     461.0713    166.12286    39194.267 
  315800    311.29959   -1436.9689    453.88977    418.08754    619.97315    39194.267 
  315900    307.47143   -1456.5047    493.39614    420.82746    189.77425    39194.267 
  316000    305.25575   -1439.2427    481.77207    416.49256    227.82687    39194.267 
  316100    310.02214   -1472.5938    476.96656    399.78958    448.03072    39194.267 
  316200    295.35817   -1491.3165    477.16958    315.26709    473.78385    39194.267 
  316300    302.20885    -1459.716    484.81167    385.34467    529.99589    39194.267 
  316400    304.77433   -1427.5652    500.89546    445.12657    701.61751    39194.267 
  316500    290.08036   -1413.3235    476.03855    368.37344    200.60534    39194.267 
  316600    298.62011   -1463.0495    500.02609    381.07266    -270.3669    39194.267 
  316700    287.25034   -1433.4581    482.14736    341.60965    -167.3474    39194.267 
  316800    301.09374   -1420.5969    491.89959    426.53261   -408.60701    39194.267 
  316900    299.02889   -1402.7041    518.35586    461.58771   -148.08861    39194.267 
  317000    299.60487   -1428.2728    490.92179    411.17749    91.587113    39194.267 
  317100    298.95995   -1428.5314    491.45395    408.54822    458.24809    39194.267 
  317200    309.36969   -1473.8297    464.12877    382.77917     139.3551    39194.267 
  317300    292.69289   -1422.2842    516.54342     411.6767    355.47562    39194.267 
  317400    310.10292   -1412.4845    495.13189    478.42783    559.63492    39194.267 
  317500    304.52514   -1431.0727    510.09804    449.70003    61.867504    39194.267 
  317600    299.05647   -1422.6063    477.08522    400.53906    847.18281    39194.267 
  317700    305.72964     -1444.75    481.46945    412.81565    288.52173    39194.267 
  317800     309.1172   -1424.6294    474.11588     440.8302   -420.00931    39194.267 
  317900    300.70194   -1429.2616    490.03784    414.24266    452.65513    39194.267 
  318000    294.82379   -1453.7968    504.90766    378.11956    -216.6512    39194.267 
  318100    298.32789   -1429.5906    516.70504    429.89525    253.93804    39194.267 
  318200    300.11431   -1438.6514     497.6251    409.79516    356.49037    39194.267 
  318300    301.87153   -1434.2352    487.39193    411.88747    407.52705    39194.267 
  318400    293.37839   -1425.2127    508.03272    403.32291    306.67956    39194.267 
  318500    301.90688    -1438.484    506.65794    427.06381     163.8518    39194.267 
  318600    305.42217   -1404.4866    494.74345    464.96916   -171.51648    39194.267 
  318700    296.58162   -1416.4053    507.92441    426.43984   -466.57901    39194.267 
  318800    307.66114   -1446.2848    484.26385    422.76895   -67.944794    39194.267 
  318900    303.34292   -1464.7517    484.16159    384.76344   -254.84991    39194.267 
  319000    302.31726    -1447.199    470.09049    383.62855    -33.70652    39194.267 
  319100    298.01762   -1440.6862    511.23631    411.93435    93.729115    39194.267 
  319200    300.43153   -1460.0246    501.12342    393.34809    186.57334    39194.267 
  319300     296.2689   -1451.5154    484.10342    366.10118   -80.870052    39194.267 
  319400     297.5862   -1427.0508    498.54506     410.9366     593.5652    39194.267 
  319500    308.75683   -1457.1211    500.71278    433.31328    399.66642    39194.267 
  319600    308.19037   -1433.5967    489.81264    443.38793    374.34891    39194.267 
  319700    290.68317   -1473.6858    487.15875    321.84463    239.25553    39194.267 
  319800    296.89762   -1441.3762    494.28063    389.24745   -373.56833    39194.267 
  319900    293.54873   -1399.7883    531.12215    452.60348   -36.661451    39194.267 
  320000    297.95781   -1444.2368    498.97033    395.84854   -396.11866    39194.267 
  320100      309.101   -1456.7016    505.67104    440.24021   -250.27123    39194.267 
  320200      292.589   -1484.8362    504.62481    336.73851   -233.10925    39194.267 
  320300     302.0679   -1450.5294    500.48828    409.57353   -21.289963    39194.267 
  320400    316.53376   -1518.3445    510.18218    416.56343   -76.312262    39194.267 
  320500    312.40229   -1452.3699    502.60393    456.36401     -24.7893    39194.267 
  320600    299.92315   -1479.6297    494.07563    364.40698    519.98776    39194.267 
  320700    291.90415   -1488.4109    532.39415    357.85056    551.85259    39194.267 
  320800    296.03873   -1439.0115    525.71723    419.18291    793.16295    39194.267 
  320900    308.47902   -1480.0045    497.63237    406.09911    996.25348    39194.267 
  321000    289.90691   -1455.8848    525.28325    374.27621    495.17089    39194.267 
  321100    291.11404   -1454.8389    485.31586    340.78805    374.68723    39194.267 
  321200    293.33799   -1385.5555    516.21082    450.97639    1008.8983    39194.267 
  321300    302.53828   -1467.6605    504.96042    399.03173    137.68852    39194.267 
  321400    300.28186   -1453.5201    505.56134    403.61689    300.31081    39194.267 
  321500    304.43007   -1438.1531    497.03246    429.12613    458.13015    39194.267 
  321600    302.88454   -1468.5447     485.3751    380.12074    425.87678    39194.267 
  321700    296.20771   -1451.8054    513.21046    394.64286    349.24356    39194.267 
  321800    305.74028   -1435.4721    512.87887    453.55085     316.1784    39194.267 
  321900    301.36988   -1434.3049    481.15133     403.3192    -55.55426    39194.267 
  322000     304.2959   -1470.1182    496.00019    395.52491   -100.52916    39194.267 
  322100    302.77588   -1485.8659    475.42366    352.35901   -39.748154    39194.267 
  322200    292.58726    -1444.338    527.04532    399.64939    63.744742    39194.267 
  322300    300.67652   -1413.9178    494.85621    434.29038    106.52165    39194.267 
  322400    299.66891   -1414.9871    506.58216    440.41173    -603.8139    39194.267 
  322500    308.75174   -1438.4028    502.83454    454.13049    135.05508    39194.267 
  322600    301.01968   -1451.1535    501.57084    405.31386    189.72135    39194.267 
  322700    299.37344   -1494.7811    521.01973    373.72544    327.93736    39194.267 
  322800     307.1066   -1453.9298    514.50238    442.86646    853.05743    39194.267 
  322900    292.94669   -1430.6321    486.22946     374.1572    354.40478    39194.267 
  323000    285.28327   -1444.9491    519.37836    358.49591    357.67675    39194.267 
  323100     297.2566   -1470.4997    490.86632    358.32544    400.14149    39194.267 
  323200    310.70826   -1478.3239    505.93627    426.11749    583.30408    39194.267 
  323300    306.77107   -1499.7446    504.79065    385.82973    199.76154    39194.267 
  323400    297.85722    -1472.948    489.35511    357.06937     -268.658    39194.267 
  323500    290.66684   -1446.6883    501.72735    363.33728   -189.65477    39194.267 
  323600    307.21474   -1421.9336     513.7587    474.60573    490.04976    39194.267 
  323700    303.97939   -1445.8299    508.41314    430.80149    591.94939    39194.267 
  323800    294.66824   -1495.2196    505.22587    336.31479    179.99104    39194.267 
  323900    306.65504   -1457.8815    491.86885    414.24876    251.38627    39194.267 
  324000    306.41082   -1455.7159    510.41699    433.86332    663.00995    39194.267 
  324100    299.41108   -1418.0849     543.6335    473.20479    -506.6317    39194.267 
  324200     294.0826   -1469.7099    509.76086    363.72358   -759.59156    39194.267 
  324300    298.42144   -1421.9721    505.74725    426.97692   -693.37239    39194.267 
  324400    294.30439   -1476.0583    508.60698    357.21958    -586.3127    39194.267 
  324500    302.39027   -1439.4686    499.58161    421.17866   -485.68769    39194.267 
  324600    299.54217    -1475.106    481.65954    354.79981   -4.3336296    39194.267 
  324700    286.63429   -1448.1923    507.98308    349.93838   -367.79234    39194.267 
  324800    307.26088   -1485.1911    493.95563    391.75293   -16.587901    39194.267 
  324900    290.90453   -1437.8908    520.99164     392.4689   -403.89486    39194.267 
  325000    301.61077   -1455.8837    472.75875    374.43215   -405.74431    39194.267 
  325100    306.95981   -1463.3851    505.76485    424.01297   -179.60229    39194.267 
  325200    302.70887   -1434.3122    491.98671     420.1742    88.070351    39194.267 
  325300    303.12368   -1464.2307     491.8473    391.98329    166.70688    39194.267 
  325400    295.43834   -1456.4201    494.03481    367.38957    280.29519    39194.267 
  325500    301.33977   -1466.6885    536.76648    426.41526   -178.71366    39194.267 
  325600    301.43178   -1459.7169    478.56868    375.60318    569.79225    39194.267 
  325700    286.76513   -1502.9729      502.766    290.52964    -260.0466    39194.267 
  325800    301.17223   -1452.7091     496.8135    399.68764    165.88007    39194.267 
  325900    299.63309   -1417.9318    480.84711     411.5708   -82.599801    39194.267 
  326000    304.76235   -1458.9667    519.38842     432.1641   -202.94072    39194.267 
  326100    311.34854   -1450.1859    501.95833     453.1594    21.372929    39194.267 
  326200    297.22552   -1435.8984    514.59646    416.51707   -185.74181    39194.267 
  326300    303.34167    -1458.021    527.39453    434.72141   -66.525592    39194.267 
  326400    296.53345   -1453.9173    473.79068    354.57734    660.05971    39194.267 
  326500    299.78494   -1454.7779    519.89592    414.45701    312.89831    39194.267 
  326600    312.19705   -1484.0775    479.91022    401.03888    483.17267    39194.267 
  326700    292.67966   -1470.3427    521.60675    368.62202    580.28656    39194.267 
  326800    295.47981   -1455.2551    506.81443    381.52082    442.98132    39194.267 
  326900    304.82697   -1434.4971    510.73671     448.2729    214.81941    39194.267 
  327000    304.71169   -1425.2948    504.50656     450.7261    28.567415    39194.267 
  327100    303.05688   -1437.2871    533.99705    460.77596    311.15155    39194.267 
  327200    299.83716   -1475.5126    497.06907    371.13049    144.32668    39194.267 
  327300    300.68862   -1450.0659    536.07832     439.4189    111.64251    39194.267 
  327400    306.95013   -1449.9362    510.12002    441.77347   -700.33245    39194.267 
  327500    303.62077   -1422.8531    520.06141    463.81244   -969.94303    39194.267 
  327600    291.97813   -1451.4985    486.85642    349.55821   -733.34477    39194.267 
  327700    301.52252   -1484.4988     522.2131    394.87418   -378.76251    39194.267 
  327800    295.85628   -1433.3456    497.29268    395.60307    413.79364    39194.267 
  327900    309.11899   -1439.9722    519.33815    470.71769    -517.8993    39194.267 
  328000    290.32815   -1428.9239    520.17795    398.02775   -151.48492    39194.267 
  328100    307.96333   -1445.6209    469.44571    409.97486   -68.834441    39194.267 
  328200    304.50315   -1424.7824    548.82686    494.62014   -321.54446    39194.267 
  328300    304.47913   -1433.8954    499.90349    436.47567    181.31688    39194.267 
  328400    296.83322   -1467.7317    514.60434     382.9258   -181.59281    39194.267 
  328500    300.82155   -1459.9453    499.24068    393.30018   -97.064867    39194.267 
  328600    300.74719   -1443.1534    495.92118    406.43787    413.20781    39194.267 
  328700    290.07694   -1481.1322    503.19908    327.70987    521.47908    39194.267 
  328800    300.37142   -1501.7977    517.89315    368.07419    220.82668    39194.267 
  328900    303.11813   -1463.5477    504.92355    405.71757    535.99919    39194.267 
  329000    300.83738    -1473.071      496.294      377.299    385.94096    39194.267 
  329100    293.42847   -1489.0596    515.18554    346.85433    434.65408    39194.267 
  329200     294.5548   -1448.4207    509.47717    386.85448     233.7196    39194.267 
  329300    297.23933   -1463.0829    524.20148    398.99967    240.22699    39194.267 
  329400    295.71721   -1509.6696    499.17706    320.53746    76.170822    39194.267 
  329500    290.08959   -1470.4029    513.82099    349.11806    792.15338    39194.267 
  329600    290.34851   -1449.1112    510.32554    368.07975    524.63365    39194.267 
  329700    306.84287   -1435.5665    515.55879    461.09918    348.18103    39194.267 
  329800    301.77622   -1426.8914     510.9195    442.32983    103.95725    39194.267 
  329900    301.27001   -1432.0587    498.13682    422.10144   -45.171661    39194.267 
  330000    305.32188   -1454.2166    507.85857    427.90288   -92.152123    39194.267 
  330100      298.082    -1456.567    504.10435    389.21137   -154.76503    39194.267 
  330200    283.12846   -1451.4578     511.7844    334.69441   -523.84907    39194.267 
  330300    298.69385   -1452.9131    512.75264    404.26748   -353.19989    39194.267 
  330400    295.60843    -1465.977    526.73386    391.29729   -29.157858    39194.267 
  330500    294.67132   -1472.7089     491.3086    344.92211   -434.27455    39194.267 
  330600    291.09286    -1484.099    490.45996    316.57665   -141.07965    39194.267 
  330700    300.57843   -1491.1859    488.21642    349.94095   -299.29416    39194.267 
  330800    298.60371   -1506.7361    501.62122    338.90738   -11.391183    39194.267 
  330900    304.34059   -1519.2816    511.79114    362.35361   -622.80135    39194.267 
  331000    299.95019   -1483.8022    497.97893    364.25947   -325.69118    39194.267 
  331100    302.36986   -1459.9764    507.36562    408.36295   -169.75107    39194.267 
  331200    291.08423   -1439.6846    510.65585     381.1481    160.59532    39194.267 
  331300    308.13065   -1439.7205    518.62566    465.80839    552.43334    39194.267 
  331400    306.98142   -1425.9633    524.94353    480.71068    478.42851    39194.267 
  331500    311.61123   -1461.3044    494.07956    435.34455    42.364886    39194.267 
  331600    301.68675    -1486.373    507.07315    378.59922   -171.16283    39194.267 
  331700    285.55086    -1450.601     506.8145    341.48456   -408.55837    39194.267 
  331800    292.92839   -1426.0872    514.66367    407.05392   -650.35527    39194.267 
  331900    299.00523   -1467.1141    520.71168    399.42705   -399.95746    39194.267 
  332000    305.92321   -1462.4783    541.37927    455.86842   -451.69627    39194.267 
  332100    305.63456   -1429.5521    508.84092    454.95704   -488.00554    39194.267 
  332200     291.5795    -1471.773    516.21804    356.85109   -608.81914    39194.267 
  332300    306.61061    -1436.171    549.25807    493.14849   -787.63522    39194.267 
  332400    296.70088   -1453.0773    501.07441    383.45463   -279.66577    39194.267 
  332500    291.19933   -1438.6532    523.02545    395.06717   -407.91513    39194.267 
  332600    297.76044   -1494.2029    482.30472    328.32845   -332.07601    39194.267 
  332700    299.59445   -1448.6632    525.39362    425.21195   -165.78914    39194.267 
  332800    301.98803   -1465.1337    492.36053    386.48198   -937.98254    39194.267 
  332900    305.16966   -1473.7931    523.31247    423.09509   -551.81397    39194.267 
  333000     300.2699   -1472.0832    482.75637    362.19501   -678.39081    39194.267 
  333100    302.58503   -1466.0709    502.70816    398.57951     -261.435    39194.267 
  333200    298.70655   -1442.4412    529.94704    431.99092   -113.91333    39194.267 
  333300    302.36196   -1500.6928    504.62889    364.87424    108.03947    39194.267 
  333400    289.64178   -1514.1101    490.19391    279.76815   -150.99603    39194.267 
  333500     305.1986   -1506.9769    508.58129    375.31033    86.949996    39194.267 
  333600    287.75118   -1499.0201    500.68318    296.83779     -357.184    39194.267 
  333700    295.44858   -1476.8403    498.29219    351.27279   -25.647922    39194.267 
  333800    303.14535    -1485.096    506.42954    385.79785    298.64457    39194.267 
  333900    302.63947   -1473.9272     521.4677     409.7278   -161.73913    39194.267 
  334000    299.00101   -1497.8803    508.78196    356.71211    151.73834    39194.267 
  334100    308.23616   -1461.9455     527.1175    452.55015   -244.85047    39194.267 
  334200     300.5633   -1481.7408    497.48507     368.5866   -880.08498    39194.267 
  334300    293.10682   -1461.9837    521.45561    378.75243    163.93031    39194.267 
  334400    299.40731   -1478.9628    526.69552    395.37195    -77.76689    39194.267 
  334500      303.551   -1447.6582    542.72992    461.36176    165.52337    39194.267 
  334600    294.57605    -1450.151    525.28809    401.03071     157.2958    39194.267 
  334700    302.34892   -1465.0288    503.38984    399.24053     75.04298    39194.267 
  334800    291.73358   -1456.8368     507.2469    363.50966   -343.05776    39194.267 
  334900     287.8983   -1466.1365    515.57314    345.27351   -1042.2929    39194.267 
  335000    293.93292   -1495.2655    501.13107    328.86445   -513.36265    39194.267 
  335100    308.94425   -1468.5533    512.58769    434.59956   -412.32094    39194.267 
  335200    298.20532   -1495.9914    526.56118    372.79882   -108.33726    39194.267 
  335300    294.29703   -1509.0803    489.56153    305.11893   -317.46761    39194.267 
  335400    298.73396   -1520.5249    501.78582    325.86937   -138.50799    39194.267 
  335500    313.64407   -1527.8988    541.12361     424.9441   -522.38025    39194.267 
  335600    303.68417   -1484.3479    489.32723    371.86884   -328.03792    39194.267 
  335700    301.61446   -1519.6204    493.76356    331.71682   -125.29769    39194.267 
  335800    309.18911   -1542.4694    490.80458    340.00253   -25.961363    39194.267 
  335900    294.05741    -1538.468    496.74309    281.83431   -47.621993    39194.267 
  336000    306.17363   -1530.4973    524.54478    372.14211    -77.18752    39194.267 
  336100    304.80279   -1532.3287    509.41768    349.01346    167.50021    39194.267 
  336200    294.46285    -1526.606    506.45418    305.23226   -116.19587    39194.267 
  336300    297.88377   -1513.4153    503.05352    330.42001    259.53677    39194.267 
  336400    302.05757   -1535.0268     520.4897    345.03099    178.87308    39194.267 
  336500    310.74512   -1520.5785    484.93062    363.02311    568.08016    39194.267 
  336600    294.88179   -1541.6232    507.87242    293.51894   -163.44901    39194.267 
  336700    306.66521   -1499.0237    493.59104    374.87458   -218.02033    39194.267 
  336800    298.28738   -1498.9307    504.46787     348.1356   -61.904441    39194.267 
  336900    299.88957   -1515.8323    511.99966     345.9773   -388.45652    39194.267 
  337000    287.23814   -1485.2037    503.90917    311.57098   -437.71434    39194.267 
  337100    306.97479   -1481.4554    509.69861    409.94386    -565.8327    39194.267 
  337200    284.87816   -1476.7174    541.49943    347.02524   -780.67123    39194.267 
  337300    300.88701   -1497.7002    539.30738    395.90656   -485.64526    39194.267 
  337400    299.16211   -1490.3868    494.78001    350.92879    75.494165    39194.267 
  337500    303.27925   -1507.9102    538.25814    395.41492   -2.9197028    39194.267 
  337600    297.25848   -1504.6602    507.17938    340.48644   -275.20435    39194.267 
  337700    302.35696   -1536.6993    521.85974    346.07617   -11.890815    39194.267 
  337800    303.33179   -1531.7988    543.40158    376.90622   -455.38317    39194.267 
  337900    306.92136   -1504.9802    502.17771    378.65767   -432.50221    39194.267 
  338000    299.49491   -1501.7232    534.54247    380.85276   -94.572362    39194.267 
  338100    295.67231   -1512.1965    538.76685    357.39829    -164.3167    39194.267 
  338200     299.2907   -1528.8271     503.2614    321.54867   -369.41124    39194.267 
  338300    302.96929   -1486.4977    523.77828    400.95241    -22.21266    39194.267 
  338400    310.72881     -1501.65    508.47639    405.42398   -112.66327    39194.267 
  338500    293.73738   -1538.1381    483.66097    267.64169   -18.268211    39194.267 
  338600    299.42339   -1529.8093    500.60706     318.5094   -530.98435    39194.267 
  338700    290.59503   -1537.0232    498.84107    269.79288   -210.38396    39194.267 
  338800    297.75722   -1542.9477    514.40583    311.67029   -137.63626    39194.267 
  338900    311.77919   -1560.1949    498.95484    342.08528   -266.01712    39194.267 
  339000    301.38166   -1564.7667    522.48053    314.23964    1193.0602    39194.267 
  339100     299.7685   -1542.7094    505.71248    312.26804    688.93111    39194.267 
  339200    293.56359   -1545.3493    522.04285    298.03007    768.15049    39194.267 
  339300    303.49394   -1553.5508    512.28945    324.77196     570.2582    39194.267 
  339400     302.2315   -1544.1581    495.14501    311.33788    231.59445    39194.267 
  339500    303.26968   -1542.7083    511.11268    333.42827    110.61079    39194.267 
  339600    289.83605   -1532.1509    514.26698    286.67492    198.18827    39194.267 
  339700    302.64791   -1527.9565    492.90916     327.1779    992.81325    39194.267 
  339800     301.6286   -1529.1347    536.69021    365.19284    681.76188    39194.267 
  339900     294.3046   -1490.2336     502.4989    336.93712    766.82612    39194.267 
  340000    293.04052   -1541.0075    521.35921    299.33386    308.70987    39194.267 
  340100    296.36233   -1505.7101    492.80078    321.02438    502.23706    39194.267 
  340200    310.91938    -1521.035    519.60515    398.02546    130.39422    39194.267 
  340300    301.81806   -1542.8575    490.06479     305.6974    148.62763    39194.267 
  340400    303.48234   -1502.8994    516.54999    379.63163    145.36442    39194.267 
  340500    309.67862   -1526.4219    522.51193    389.96066    173.14861    39194.267 
  340600    291.73102    -1477.381    504.02929    339.73636   -177.21779    39194.267 
  340700    294.22761   -1467.9584    545.59523    401.96208   -564.26466    39194.267 
  340800    304.11592   -1477.8319    530.67703    421.67797    181.47347    39194.267 
  340900    295.33516   -1435.0687    523.53014    417.77184   -74.005716    39194.267 
  341000    304.60313   -1490.8458    502.61364    382.79354   -471.73357    39194.267 
  341100    309.22527     -1502.77    503.80315    392.86329   -511.54667    39194.267 
  341200    299.47837   -1482.9195    506.31433    371.35393   -231.89411    39194.267 
  341300    307.78356   -1525.1335    501.09894    361.30638    27.463009    39194.267 
  341400    309.59371   -1477.7651    508.43216    424.15558    971.32225    39194.267 
  341500    311.81109   -1487.4661    489.53161    405.53442    615.47219    39194.267 
  341600    301.70569   -1461.3023    511.13176    407.81378    1026.0864    39194.267 
  341700    297.71787   -1486.5816    486.37588    339.82929    641.09726    39194.267 
  341800    296.87674   -1496.9301    515.35854    354.67754   -307.29219    39194.267 
  341900    310.65518    -1485.945    490.09853    402.41974   -335.25269    39194.267 
  342000    296.31769   -1473.9643      519.835    379.60346   -5.3376758    39194.267 
  342100    298.71408   -1459.0481    515.45989    400.93078    310.36167    39194.267 
  342200     306.7647   -1490.5459    518.66245    408.87157    373.86784    39194.267 
  342300     301.8912    -1469.717    511.52355    400.62585    32.028766    39194.267 
  342400     303.9102   -1492.1181    469.84706    345.63585     164.7669    39194.267 
  342500    295.10466   -1518.8683     506.5632    315.96784   -171.78671    39194.267 
  342600    298.64806   -1481.8234    484.13278     346.5312   -379.96688    39194.267 
  342700    301.89909    -1479.138    509.63287    389.34968   -178.43624    39194.267 
  342800    298.10914   -1489.3412    490.63051    343.08543   -229.62623    39194.267 
  342900    294.18454   -1500.0054    497.79559    321.92159   -310.20711    39194.267 
  343000    306.35997   -1473.6849    493.15935    398.40774   -82.977424    39194.267 
  343100    298.91038   -1458.6358    505.98519    392.75196   -88.685095    39194.267 
  343200    295.51075   -1461.1689     485.4292    354.36101   -253.20726    39194.267 
  343300    288.39289   -1484.8328    513.07657    326.30688   -339.58455    39194.267 
  343400    314.57517   -1472.1916    488.06433    431.78287    538.49929    39194.267 
  343500    310.11888   -1429.0977    541.81528    508.56989    454.78058    39194.267 
  343600    297.65877   -1441.2849    509.81579    408.29992   -186.42783    39194.267 
  343700    290.88311   -1460.0457    495.99346    345.21945   -62.337596    39194.267 
  343800    304.22631   -1461.4271    483.56252    391.46511    18.942173    39194.267 
  343900    294.71846   -1471.6369    515.45352    370.35123    213.80554    39194.267 
  344000    306.71367   -1454.3639    528.80233    454.96374   -161.68362    39194.267 
  344100    311.65766    -1426.023     519.7424    496.49775    423.36499    39194.267 
  344200    299.71725   -1483.1719    509.04619    374.90856    56.699174    39194.267 
  344300     300.9611   -1455.4136    491.36807    390.58734    326.47974    39194.267 
  344400    299.70494   -1470.1244    497.85668    376.71114    275.39213    39194.267 
  344500    293.87316   -1470.4703    517.10125    369.36086    544.12392    39194.267 
  344600    293.46158   -1438.1447    505.59821    388.33092    398.06726    39194.267 
  344700    299.18084   -1455.4772     512.4741    403.61675    250.48301    39194.267 
  344800    291.93324   -1422.6059    504.38584    395.77818    19.723157    39194.267 
  344900    315.56073   -1462.8078    504.69211    462.23049   0.62769153    39194.267 
  345000    293.99907   -1479.5763    510.08817    353.80847   -314.83432    39194.267 
  345100    303.53596   -1488.8976    489.99399    367.31883   -812.95882    39194.267 
  345200    291.96874   -1466.9984    500.45091    347.61056   -315.73593    39194.267 
  345300    301.23157   -1513.5255    506.73865    349.06347    24.944078    39194.267 
  345400    290.88825   -1505.6872    487.34952    290.95709   -270.51888    39194.267 
  345500    309.41493   -1451.6336    527.19296    468.24312    923.19793    39194.267 
  345600    293.49362   -1492.0126    524.41276    353.42169    16.346427    39194.267 
  345700    300.29298   -1486.9103     505.3128    370.02817    182.67018    39194.267 
  345800    289.38143   -1487.9032    508.79074    323.40004    479.73424    39194.267 
  345900    294.28861   -1462.6449    517.03062    378.98558    645.40945    39194.267 
  346000    290.54215    -1423.457    514.75409    399.03402    89.093887    39194.267 
  346100    301.97867   -1450.2536    492.71929    401.67865    581.09522    39194.267 
  346200    298.93581   -1449.0578    520.76852    417.22772    320.28874    39194.267 
  346300    289.97431    -1442.867    496.36399    358.67811    636.61807    39194.267 
  346400    303.99462   -1415.6924    504.26752    456.86195    618.79595    39194.267 
  346500    294.01833   -1440.4307    518.78066    401.73332    55.737297    39194.267 
  346600    295.48373   -1398.4839    534.36088    465.85608    577.76762    39194.267 
  346700    294.04876   -1441.9344    533.71413    415.29996    416.34436    39194.267 
  346800    300.13555   -1397.8169    516.80129    469.90143    4.3652482    39194.267 
  346900    304.06077   -1408.4269     519.7858    479.94345     144.7423    39194.267 
  347000    299.50066   -1448.4016    500.41673    400.07451   -26.088105    39194.267 
  347100    304.71069   -1427.5543    520.62431    464.57989    36.927164    39194.267 
  347200    294.03652   -1418.0922    501.08583    406.45884   -426.01255    39194.267 
  347300    302.87934   -1440.3323    500.78783    423.72248   -634.04295    39194.267 
  347400    306.50274   -1436.7525     494.9838    437.80722     -398.366    39194.267 
  347500     301.9325   -1452.9558    501.35321     407.4026   -380.62368    39194.267 
  347600    298.62203    -1439.988    485.75933    389.87605   -319.42555    39194.267 
  347700    295.59446   -1447.6966    526.39454     409.1755    6.9589231    39194.267 
  347800    295.35283   -1382.4266    501.45874    448.42205    428.69076    39194.267 
  347900    300.45906   -1402.0661    492.93773    443.24484     79.24895    39194.267 
  348000    300.03417    -1455.023    506.86964    402.30734    206.08101    39194.267 
  348100    293.05357   -1409.5043    531.02692     440.5635    73.259333    39194.267 
  348200    303.62475   -1463.8675    489.29562    392.05019   -255.12749    39194.267 
  348300    305.01494   -1500.5767    503.93443    376.23702    275.18617    39194.267 
  348400    304.66345   -1498.9385    503.60283    375.96154    444.50289    39194.267 
  348500    295.09995   -1487.9214    484.80333    325.13366    394.31264    39194.267 
  348600    309.65322   -1488.7587    490.69312    395.69077    745.80385    39194.267 
  348700    302.12501   -1498.5433    491.16558    352.49395    776.23518    39194.267 
  348800    310.12283   -1537.2102    477.43422    336.09402     510.7758    39194.267 
  348900    297.57236   -1530.8316    509.38415    317.93266   -57.859442    39194.267 
  349000    288.21888   -1511.0636     486.1701     272.3864    113.15211    39194.267 
  349100    297.69245   -1525.5292    479.41838    293.80981    640.91808    39194.267 
  349200    302.74902   -1522.0949    496.51174    337.09715    393.29286    39194.267 
  349300    292.00527   -1498.0939    496.76601    312.99461    387.76879    39194.267 
  349400    290.39122   -1510.1129    502.89697    299.84165    313.89687    39194.267 
  349500    302.38716   -1501.5722    477.26874    336.74818   -174.38404    39194.267 
  349600    292.24182   -1508.1835    495.87326      303.077   -548.30919    39194.267 
  349700    297.13659   -1520.7203    513.62041    330.31878    125.37717    39194.267 
  349800    307.38646   -1557.3372    502.08991    328.30633   -337.60534    39194.267 
  349900     291.8763    -1502.428    475.91771    287.23172   -405.99906    39194.267 
  350000    311.87887   -1518.0802    492.34774    378.04157    18.064962    39194.267 
  350100    294.83271   -1538.2846    467.72444    256.48876   -3.1121359    39194.267 
  350200    308.62112   -1531.4442    483.46124    341.12788   -439.40492    39194.267 
  350300    291.88892   -1511.3307    461.96058    264.42866    26.418883    39194.267 
  350400    289.97083   -1502.3203    494.13505    296.98018    32.249555    39194.267 
  350500    307.67018    -1489.179    474.58817     370.2398    431.00359    39194.267 
  350600    298.16619    -1495.965    502.03644    348.12435    239.39574    39194.267 
  350700    296.04117   -1470.3764    497.61679    359.72862    667.33496    39194.267 
  350800    306.64264   -1469.5279    520.14836    430.82611   -102.97323    39194.267 
  350900    295.58346   -1518.5686     477.9712    289.83057   -673.11269    39194.267 
  351000    300.48024    -1525.462    486.45888    313.46538    -321.6514    39194.267 
  351100    316.36027    -1511.793    486.47456    398.62644    339.26994    39194.267 
  351200    312.60162   -1513.3159    474.66591    368.37713    461.75097    39194.267 
  351300    302.16462   -1487.4151    495.11156    367.74643    896.66973    39194.267 
  351400    296.24726    -1474.566    490.05202    348.90177     745.8837    39194.267 
  351500    299.16723   -1451.7191     511.0838    405.92329    150.53343    39194.267 
  351600    297.01874   -1480.5953    489.01521    345.30811   -99.590679    39194.267 
  351700    302.33286   -1496.5701    485.24102    349.47811    440.08713    39194.267 
  351800    297.83755   -1486.8647    495.49808    349.20709   -50.950784    39194.267 
  351900    292.99331   -1468.2178    467.66302    318.21488   -265.07171    39194.267 
  352000    309.49549   -1472.0737    480.61383    401.58648    -1007.216    39194.267 
  352100    296.25094   -1428.1725    524.10602    429.36585   -654.10451    39194.267 
  352200    307.61463   -1449.1224    466.94456     402.4028   -284.16999    39194.267 
  352300    300.39878    -1433.145    462.74335    381.70018   -271.10874    39194.267 
  352400    302.90488   -1441.5742    531.64429      453.452     12.24715    39194.267 
  352500     313.2311   -1452.8958    470.25144    427.21605    100.08775    39194.267 
  352600    293.45249   -1447.7956    499.98862    373.02945    125.23417    39194.267 
  352700    293.15442   -1482.4978    505.36665    342.36363   -110.01649    39194.267 
  352800    301.08647   -1455.6788    491.77181     391.2902    712.02893    39194.267 
  352900    307.66773   -1465.7116    500.17213    419.28011    670.42265    39194.267 
  353000    299.19329   -1461.5813    500.43883    385.53348    316.64593    39194.267 
  353100    303.70532   -1440.7184    495.21844     421.4847    612.72446    39194.267 
  353200    300.71445   -1418.8119    491.27019    425.98099   -123.01752    39194.267 
  353300    307.30832   -1406.5265    507.81668    484.49205   -562.17221    39194.267 
  353400    294.23184   -1434.3484    482.01275    372.00867    -322.1088    39194.267 
  353500    305.73788   -1421.3393    477.21965    432.01362   -664.18508    39194.267 
  353600    299.93677   -1424.7975    484.91814    410.14298   -433.64266    39194.267 
  353700    292.31242   -1448.6212    497.02445    364.10825     153.5041    39194.267 
  353800     308.0015   -1410.8414    538.24191    513.72237   -62.333148    39194.267 
  353900    302.04107   -1410.5582    504.03405    452.96973    36.744608    39194.267 
  354000    298.15208    -1389.731    517.15583    469.41419   -96.231115    39194.267 
  354100    296.58075   -1397.0543    499.25338    437.11593   -260.19108    39194.267 
  354200    291.84526   -1390.0832    498.40535    421.92441   -342.44614    39194.267 
  354300    284.34379   -1414.6891    483.42627    348.57512   -129.70618    39194.267 
  354400    286.75142   -1412.4391    493.19564    371.43134    -487.6415    39194.267 
  354500     310.2767   -1446.4224    461.12804    411.26825   -353.71816    39194.267 
  354600    297.90568   -1445.6863    482.07074    377.26477   -250.17705    39194.267 
  354700    299.21115   -1446.5921    480.50478    380.66898    26.765741    39194.267 
  354800    299.28462   -1451.3209    468.14044    363.90654   -161.21293    39194.267 
  354900    304.05438   -1440.6574    496.94501    424.84348    183.26525    39194.267 
  355000    295.55783   -1483.7311    508.34036     354.9219   -106.82194    39194.267 
  355100    293.88569   -1496.1925    490.54747    317.14127   -69.980385    39194.267 
  355200     302.9259   -1474.7427    490.13973    378.87354   -312.58475    39194.267 
  355300    318.07963   -1448.6689     498.2145    481.22936    59.857836    39194.267 
  355400    298.62789   -1435.0557    507.09153    416.16692   -261.23381    39194.267 
  355500    295.70312   -1409.2619    496.84408     418.5488   -255.27304    39194.267 
  355600    295.71066    -1427.548    513.78012    417.23272   -582.27343    39194.267 
  355700    298.42929   -1431.8118    497.77155    409.19695    354.96947    39194.267 
  355800    293.89147   -1417.6598    493.43727    398.58978     437.7709    39194.267 
  355900    297.30788   -1434.2733    513.35417    417.27058    407.74093    39194.267 
  356000    306.81972   -1416.2097    512.11316    476.90612    297.99003    39194.267 
  356100    300.35314   -1463.1882    499.99437    388.70265   -286.61519    39194.267 
  356200    312.18836   -1436.2661    474.21168     443.1126    406.88083    39194.267 
  356300    288.53205   -1432.5174    510.63355    376.80562    -85.09459    39194.267 
  356400    306.89526   -1439.5385    500.23948    442.04362   -1.4690794    39194.267 
  356500    308.81608   -1440.6523    493.43533    442.77138    26.767167    39194.267 
  356600    305.41626   -1425.3463    485.01131    434.35067   -26.721189    39194.267 
  356700    303.99977   -1420.5825    510.72095     458.4485   -538.38541    39194.267 
  356800    301.75308      -1456.6      512.327    413.92457   -857.76147    39194.267 
  356900     297.9716   -1469.3039    485.89565    357.76881    -1075.628    39194.267 
  357000     298.4747   -1486.8047    507.30621    363.94306   -138.07643    39194.267 
  357100    305.24982   -1460.4839    507.37789    420.83049    536.89769    39194.267 
  357200    291.81036   -1510.3341    468.60691    271.71799   -16.602061    39194.267 
  357300    298.98911   -1479.5675    492.82247    359.01183    100.89523    39194.267 
  357400    286.74764   -1467.7056    501.49029    324.44245   -8.9481424    39194.267 
  357500    295.55477   -1467.2162    476.82153    339.90421    11.815314    39194.267 
  357600    305.41948   -1412.0133    497.29894    459.98578   -86.528069    39194.267 
  357700    306.82335   -1434.0706    479.74184    426.69023   -82.993602    39194.267 
  357800    306.74281   -1487.6694    489.39219    382.37932   -701.79319    39194.267 
  357900    296.63278   -1496.4735    509.81037    348.48794    43.129256    39194.267 
  358000    307.01994   -1464.3513    459.45435    377.00688   -24.540711    39194.267 
  358100    309.08626   -1535.0683    476.08546    332.22161   -295.08245    39194.267 
  358200    294.79996   -1510.6968    484.56394    300.76858    38.798009    39194.267 
  358300    304.64609   -1494.6677    485.59821    362.14962   -49.245429    39194.267 
  358400    304.91431   -1479.1559    492.55741    385.82791   -803.49779    39194.267 
  358500    300.00513   -1482.6251    478.86453    346.56941   -131.50176    39194.267 
  358600    304.25109   -1471.0474    500.72274    399.11654   -324.02098    39194.267 
  358700    299.79491    -1490.314       500.13    359.19987   -793.24394    39194.267 
  358800    307.18504   -1490.0136    473.47403    366.10742    -153.1916    39194.267 
  358900    298.80201   -1482.6523    485.38723    347.64965   -427.48236    39194.267 
  359000    302.80837   -1510.4446    468.71758    321.22044   -194.45802    39194.267 
  359100    298.71349   -1478.8354    502.03591    367.71684    137.34233    39194.267 
  359200    301.94415   -1462.9016     485.6136    381.76961    89.460706    39194.267 
  359300    306.31011   -1461.3026    509.23023    426.63651    167.61098    39194.267 
  359400     313.0136    -1441.893    505.16333    472.15176    504.53979    39194.267 
  359500    309.48637   -1455.5503    497.78351     435.2385    670.18181    39194.267 
  359600    292.03217   -1470.4869    510.89427    354.85089    800.48441    39194.267 
  359700    294.39568   -1460.9287    495.61255    359.76561    139.93812    39194.267 
  359800    302.61775   -1438.6856    491.22896     414.6329    686.94967    39194.267 
  359900    291.29332   -1409.8162    517.68459    418.98638    883.14126    39194.267 
  360000    295.64649   -1455.0526    495.04458    370.70367    239.64982    39194.267 
  360100    304.19645    -1408.431     498.0551    458.81937    530.18829    39194.267 
  360200    295.67631   -1462.1516    504.44243    373.13681    612.62053    39194.267 
  360300    305.48842   -1490.9189    497.96625    382.05784    820.99981    39194.267 
  360400    294.55982   -1489.6439    479.39373    315.57045    192.23545    39194.267 
  360500    289.51637   -1454.2928    517.24671    366.07378    258.84572    39194.267 
  360600    302.83483   -1434.3709     507.1375    435.83318   -249.97464    39194.267 
  360700    296.33876   -1468.2898    495.46605    361.00389   -385.85492    39194.267 
  360800    301.00617   -1448.2476    515.49961    422.08779    188.32429    39194.267 
  360900    301.28419   -1458.2065    502.54608    400.42664   -224.67286    39194.267 
  361000    306.00261   -1448.9844    515.91517    444.25562   -209.95848    39194.267 
  361100    283.66913   -1404.9075    498.33711    370.23094   -594.12246    39194.267 
  361200    288.44733   -1437.5887    504.99553      365.715   -1003.8047    39194.267 
  361300    297.17376     -1402.64    468.79062     403.7366     -916.781    39194.267 
  361400    299.30753   -1408.9958    513.25929    451.45365   -969.41783    39194.267 
  361500    302.84408   -1396.9003    496.67392    462.88186   -469.07659    39194.267 
  361600    301.66766    -1411.821    494.55385    440.54594   -883.98799    39194.267 
  361700    295.28975   -1398.3961    499.74407    430.45398   -734.38634    39194.267 
  361800    296.92775   -1418.0723    502.01967    420.42602   -292.18268    39194.267 
  361900    292.62338   -1426.4897    518.62686    409.24179   -215.20198    39194.267 
  362000    296.06582   -1503.0704    508.62261    338.15135   -24.651315    39194.267 
  362100     298.1173   -1418.5672     493.3926    416.65832    754.67234    39194.267 
  362200    290.61038   -1444.8675    502.85095    366.02751    3.3943848    39194.267 
  362300    305.37127   -1434.8867    464.69547    404.29196   -63.218618    39194.267 
  362400    296.87808   -1434.2585     502.7091    404.70568   -248.79363    39194.267 
  362500     299.4321   -1475.4358    497.03681    369.35181    35.940191    39194.267 
  362600    294.07123     -1453.77    517.15987    387.01134    41.076683    39194.267 
  362700    304.54659   -1432.7323    496.17559    434.21451    391.65928    39194.267 
  362800    303.02014    -1485.647    490.41367    368.66732    98.495334    39194.267 
  362900    301.65946   -1448.7395     450.1094    359.14606    138.09657    39194.267 
  363000    299.29444   -1435.7255    530.94838    442.35405    14.078661    39194.267 
  363100    297.19092   -1463.7674    484.45543    358.35123   -330.50275    39194.267 
  363200    310.53486   -1443.9499    477.70581    431.48056    59.961967    39194.267 
  363300    301.74068   -1450.8795    512.58296    419.84529   -135.30461    39194.267 
  363400    306.91299   -1445.8367    488.05762     423.6434    220.05171    39194.267 
  363500    299.22423   -1424.6715    500.80253    422.94617   -179.43513    39194.267 
  363600    301.57135   -1411.1267    482.04687    428.29984    61.744995    39194.267 
  363700    306.66836   -1407.5294    502.64053    475.43256    431.44103    39194.267 
  363800    293.94777   -1380.5338    520.22019    462.75215   -6.4930195    39194.267 
  363900    287.86627    -1390.371     502.0804     407.4021    112.11002    39194.267 
  364000    314.77372    -1419.229    506.21551    503.79029    148.40442    39194.267 
  364100    298.43802   -1417.3432    500.82551    426.75873    401.97516    39194.267 
  364200    303.44143   -1415.1116     501.3193    452.00465    174.99587    39194.267 
  364300    304.50844   -1373.4589    506.76164    503.90233    428.82239    39194.267 
  364400    301.09041   -1430.5444    528.42663    453.09719    385.83974    39194.267 
  364500    309.58024   -1396.1747    486.84931    484.10246    199.76111    39194.267 
  364600    292.51351   -1449.9068    503.72151    370.42481    -229.5855    39194.267 
  364700    292.70746   -1433.9576    496.43377    379.95925   -300.62216    39194.267 
  364800    284.61329   -1463.8326    503.46931    320.68775   -384.72035    39194.267 
  364900    307.26293   -1417.0652    513.84404    479.77637    2.2114721    39194.267 
  365000    298.01191   -1420.0856    491.63753    412.91042   -210.03691    39194.267 
  365100    300.86949   -1482.1785     518.8305    390.87254   -661.23577    39194.267 
  365200    300.69008   -1443.8045    480.11229    389.72084   -245.30907    39194.267 
  365300    292.80143     -1436.45    511.85136    393.30734   -103.37681    39194.267 
  365400    297.14507   -1471.6764    474.15526     339.9357    96.382782    39194.267 
  365500    302.51679   -1474.2197     494.0699    381.48526    106.22417    39194.267 
  365600    298.41159   -1441.4308    482.89822    384.62486    313.83266    39194.267 
  365700    298.97228   -1456.8335    521.96365    410.81134    307.58642    39194.267 
  365800    305.94915   -1449.7511    535.39847    462.73163    545.25992    39194.267 
  365900    303.23102   -1461.0575    496.46007    400.25237   -156.20579    39194.267 
  366000    293.13693   -1466.1757    512.10021    365.34065    53.324192    39194.267 
  366100    299.93947   -1439.3418    514.39697    425.08969     306.6346    39194.267 
  366200    300.35756   -1494.9306    496.13995    353.12571   -245.52175    39194.267 
  366300    292.15459   -1487.6777    512.98774    340.30461    18.851232    39194.267 
  366400    297.03263   -1426.1461    518.59086    429.39553     210.6437    39194.267 
  366500     301.3394   -1458.1249    497.52125    395.73198    498.31667    39194.267 
  366600    304.57894   -1464.3654    526.18199    432.73344    426.06346    39194.267 
  366700    300.99126   -1458.5257    491.02454     387.2675    459.19177    39194.267 
  366800    300.03259   -1464.1213     537.8149    424.14723    334.92849    39194.267 
  366900    300.07465   -1463.3861    510.79714    398.05399    556.93008    39194.267 
  367000    294.63159   -1474.2913    523.28587     375.1382    175.14132    39194.267 
  367100    292.34883   -1449.4121    493.42802     359.8848   -231.08294    39194.267 
  367200     306.6549   -1444.8533    532.39891    467.80645   -73.622286    39194.267 
  367300    295.99314   -1453.8844    493.54138    371.92901    337.02216    39194.267 
  367400    299.72374    -1493.384    486.37202    342.05156   -111.84206    39194.267 
  367500    298.20037   -1418.8868    528.78223    452.10223   -147.04057    39194.267 
  367600    306.51976   -1421.5792    493.05259    451.12588   -365.10984    39194.267 
  367700    294.97293   -1459.9795    507.79487    375.49537    -122.7002    39194.267 
  367800    299.63145   -1453.7847     514.1288    408.99224    17.462685    39194.267 
  367900    304.01719   -1437.3538    486.59591    417.63051   -30.242956    39194.267 
  368000    302.45132   -1434.2791    516.49412    443.55546    9.0141389    39194.267 
  368100     300.6352   -1452.5024     500.3267    400.99024    84.751347    39194.267 
  368200    299.85025   -1466.3767    502.17707    385.43331    31.253002    39194.267 
  368300    306.26746   -1426.6705    527.42639    479.27285   -200.09859    39194.267 
  368400     308.5972   -1495.9986    490.28394    383.28846   -612.40311    39194.267 
  368500    290.62323   -1509.6199    527.50814    325.99009   -176.59431    39194.267 
  368600    309.70366   -1456.1855    506.49161    444.28949    133.57862    39194.267 
  368700    293.14767   -1490.0284    514.91763     344.3537    253.41056    39194.267 
  368800    304.72369   -1441.4758    532.96347    463.05608   -518.64344    39194.267 
  368900    292.46455   -1455.9641    529.96224    390.38783   -442.59981    39194.267 
  369000    301.42707   -1486.0831    505.18508     375.8322   -367.75841    39194.267 
  369100    308.52868   -1430.4676    497.07624    455.30337    287.12162    39194.267 
  369200     303.5259   -1436.5783    507.11517    436.71402    -116.6868    39194.267 
  369300    291.53189   -1452.4941     509.2519     368.9496   -451.71603    39194.267 
  369400    306.54406   -1434.8754    518.37197    463.25848   -557.05939    39194.267 
  369500    286.32829     -1399.68    476.73557    365.82587   -326.86719    39194.267 
  369600    290.61218   -1388.2262     534.7447    454.57071   -226.10484    39194.267 
  369700    301.18004   -1388.3763    512.34419    479.58628   -401.06704    39194.267 
  369800    294.76702   -1399.0914    523.68269    451.34446   -187.83074    39194.267 
  369900    288.40267   -1414.2196    517.95663    401.84414   -172.83003    39194.267 
  370000    311.12004   -1406.3868    520.83093    514.80262     155.1995    39194.267 
  370100    310.79993    -1432.539    501.07391    467.45255   -109.51877    39194.267 
  370200    295.30411   -1432.7495    529.60227    426.02343   -168.90348    39194.267 
  370300     297.5884   -1405.9267    558.86714    492.39268   -134.71091    39194.267 
  370400    297.79532   -1420.4436    512.12014     432.0602   -5.7548706    39194.267 
  370500     295.6664   -1418.2005    525.71211    438.31296    404.99324    39194.267 
  370600    289.33525   -1469.2441    509.21967    342.28025    197.37456    39194.267 
  370700    293.51051   -1438.4483    504.53346    387.18273       64.999    39194.267 
  370800    307.70202   -1399.3681    500.71291    486.31873    568.72954    39194.267 
  370900    303.21313   -1480.7038    501.67864    385.74422    58.148649    39194.267 
  371000    296.09207   -1449.4256    496.89869    380.19039   -355.44507    39194.267 
  371100    293.07462    -1414.828    519.53603    423.84368    33.232905    39194.267 
  371200    291.77631   -1475.7886    516.49587    353.99921    132.03065    39194.267 
  371300    298.41273   -1450.1508    520.68701    413.69881    145.53112    39194.267 
  371400    300.58438   -1494.1142     510.2508    369.07388    42.972258    39194.267 
  371500    297.35721   -1451.5994    501.46965      388.282    140.33178    39194.267 
  371600    296.87947   -1488.4847     510.2091    357.98582   -122.37276    39194.267 
  371700    298.94778   -1465.3838    483.32409    363.51112   -800.55853    39194.267 
  371800    306.06841   -1437.3348    526.58069    466.86689   -449.70983    39194.267 
  371900     298.0254   -1469.7408    495.81875     367.4972   -232.78821    39194.267 
  372000    301.77088   -1476.6894    512.11834    393.70668    248.61905    39194.267 
  372100    305.66712   -1468.1875    507.19663    414.82396    458.02224    39194.267 
  372200    297.16053   -1478.1352    548.55692    407.94816    875.87532    39194.267 
  372300    289.76829   -1487.0819    512.75585    329.92772    486.82728    39194.267 
  372400    299.58858   -1470.3335    484.26628    362.38789    296.82853    39194.267 
  372500    302.38816   -1465.4669    495.39617    390.98535    308.86812    39194.267 
  372600    302.67142   -1472.2711    493.46679    383.52674    80.053491    39194.267 
  372700    304.62609   -1451.3915    501.59143    421.32903   -350.79629    39194.267 
  372800    302.78664   -1452.7151    502.07194    412.20655   -354.10886    39194.267 
  372900    283.62235   -1489.4461    494.91907    282.06378   -458.02232    39194.267 
  373000    301.05282   -1453.5746    506.56649    408.03765   -76.628867    39194.267 
  373100      303.033   -1526.5277    497.29836    334.72922    24.362872    39194.267 
  373200    301.44744   -1527.1383    495.15156    324.83519   -139.28702    39194.267 
  373300    292.92868   -1561.3068    504.20585    261.37785   -215.21106    39194.267 
  373400    291.47559   -1531.1495    494.64666    275.43558   -246.90435    39194.267 
  373500    299.00809    -1520.398    502.89906     328.3434    59.854102    39194.267 
  373600    307.28627   -1506.9174    492.41041    368.59556    124.33941    39194.267 
  373700    295.75005   -1519.4499    500.27482    312.00279    563.96505    39194.267 
  373800    295.22425   -1492.1525    516.63491    353.29361   -102.11602    39194.267 
  373900    293.98591    -1511.757    487.41165    298.89202   -411.97922    39194.267 
  374000     301.0898   -1483.0961    519.61595      391.732   -72.034073    39194.267 
  374100    308.68464   -1490.0118    492.37513     391.7601   -262.46958    39194.267 
  374200    298.81459   -1479.4067    523.50607    389.07079    237.31202    39194.267 
  374300     304.6892   -1498.0583     512.7315    386.08633    284.34099    39194.267 
  374400    310.05801   -1460.8728    498.67677    433.38223    174.69565    39194.267 
  374500     291.2128   -1451.9557    531.15127    389.95111   -344.51985    39194.267 
  374600    298.43442   -1447.4258    498.20268    394.03714    55.749447    39194.267 
  374700    301.12951   -1495.3491    525.36009    385.40195    51.738033    39194.267 
  374800    308.00605     -1483.19    515.74499    418.89734    157.44329    39194.267 
  374900    293.35063   -1495.4836    480.85237    305.74675   -14.069377    39194.267 
  375000     309.4953   -1493.0684     523.4082    423.38536   -146.69999    39194.267 
  375100    303.55112   -1484.5121    524.15871    405.93721   -3.5954993    39194.267 
  375200    310.09499   -1446.5549    504.55278    453.74265    125.51336    39194.267 
  375300    307.70172   -1437.0805    512.55974    460.45175   -179.06783    39194.267 
  375400    294.75624   -1441.6335     508.9523    394.02343    95.003052    39194.267 
  375500    310.55061   -1466.5438    508.26273    439.51438      477.057    39194.267 
  375600    305.33521    -1435.937    504.48712    442.87099    60.378845    39194.267 
  375700    312.65481   -1409.0531    514.23606    512.44953   -214.19978    39194.267 
  375800    300.62565   -1453.2536    515.85464    415.72409   -230.78881    39194.267 
  375900    300.83359   -1442.4943     549.1855    460.75021     491.3072    39194.267 
  376000    306.34544   -1459.8112    519.01224    438.06893    584.81189    39194.267 
  376100    310.91492   -1453.7698    517.29022     462.9557    528.38796    39194.267 
  376200    310.44649   -1471.6266    500.35923    426.05947    395.74423    39194.267 
  376300    299.82077    -1461.398    502.07909    390.18129   -83.225707    39194.267 
  376400    308.08218   -1454.0018    502.59583     435.2791   -154.14812    39194.267 
  376500    305.62426    -1477.567    490.22009    388.27496   -91.490232    39194.267 
  376600    297.12343    -1472.618    497.84885    362.59031   -372.86504    39194.267 
  376700    306.03126   -1481.1229    508.50337    404.83427    -277.3787    39194.267 
  376800    293.32334   -1487.1035    504.89709    338.04868    205.69544    39194.267 
  376900     292.3516   -1479.1977    490.05476    326.73839     145.0627    39194.267 
  377000    304.03629   -1444.5876    504.64372    428.53045    351.11629    39194.267 
  377100    297.78614   -1495.9826    513.90097    358.26066    21.472256    39194.267 
  377200     291.8049   -1471.9596    503.22379    344.68476    513.56155    39194.267 
  377300    287.99615   -1465.9908    530.84105    361.12761    135.04804    39194.267 
  377400    294.99057   -1443.4317    488.28945    372.61715    401.23847    39194.267 
  377500    305.97178   -1429.9542    509.50905    456.74093     701.0455    39194.267 
  377600    300.01365   -1459.9078    499.01876    389.47931    64.841519    39194.267 
  377700    309.25304   -1455.9911     509.4805    445.44445      425.999    39194.267 
  377800    291.28738   -1443.9476    502.46167    369.60529    97.292862    39194.267 
  377900     299.6878   -1453.2933    504.01775    399.62622    336.28955    39194.267 
  378000    307.98231    -1462.469    497.18358    420.95011    492.44071    39194.267 
  378100    305.02695   -1451.9658    502.86132    423.82893    319.14987    39194.267 
  378200     299.3221   -1493.2312    482.62607    336.65062   -377.01443    39194.267 
  378300    312.86913   -1451.3175    486.17541    443.08907    136.24467    39194.267 
  378400    305.14951   -1489.5669    517.24696    401.16503   -333.71132    39194.267 
  378500    299.11419   -1464.8964    451.51444    332.93791   -686.27812    39194.267 
  378600    307.40638   -1502.5133    520.51378    401.64366   -321.77228    39194.267 
  378700    296.85841   -1474.6227    482.58237    344.12624   -347.40536    39194.267 
  378800    298.67183   -1453.9923    506.42834    396.76487   -463.31039    39194.267 
  378900    290.31436    -1442.957    494.32349    358.07811   -877.01387    39194.267 
  379000    308.55538    -1462.094    510.41171     437.1327   -984.79747    39194.267 
  379100    297.68646   -1454.4733    528.86476    414.28508   -601.46129    39194.267 
  379200    290.26456   -1441.4054    511.58629    376.66837   -578.23252    39194.267 
  379300    298.09593   -1446.3039    486.39608     381.8289    -220.4334    39194.267 
  379400    302.38666   -1420.2489     517.9483    458.74877   -353.28161    39194.267 
  379500    295.80961   -1454.1012    496.98739    374.33214    347.99776    39194.267 
  379600    300.07354   -1439.5219    485.65569    396.77179   -450.20664    39194.267 
  379700    294.35271   -1473.1315    497.39207    349.14887   -704.49745    39194.267 
  379800    297.44787   -1462.9473    479.49822    355.37068   -583.99968    39194.267 
  379900    303.39985    -1477.586    513.80296    401.82671   -49.366848    39194.267 
  380000    313.59342   -1454.6041    496.09164    452.97876   -33.624191    39194.267 
  380100    289.64583   -1467.0335    516.06513    352.73417    28.099174    39194.267 
  380200    305.85112   -1464.1661    512.15721    424.63403    316.90133    39194.267 
  380300    305.13341   -1466.1362    506.31278    413.58915    174.52829    39194.267 
  380400     298.3975    -1447.462     542.7292    438.36122    447.47423    39194.267 
  380500    303.53158   -1436.0444    521.97573    452.13403    256.86498    39194.267 
  380600    298.96657   -1455.7726    533.84426    423.72712    489.64408    39194.267 
  380700    306.59741   -1489.0151    473.89056    364.87746    292.81916    39194.267 
  380800    301.50805   -1461.6075    509.64361    405.13088    -27.59987    39194.267 
  380900    302.63552   -1467.2501    483.10311    378.02247    70.983611    39194.267 
  381000     303.0139   -1503.5243    499.75252    360.10086    102.89116    39194.267 
  381100    308.47182   -1452.6037    483.68922     419.5243   -206.51104    39194.267 
  381200    309.32177   -1486.6739    506.32236    411.91296    -337.9583    39194.267 
  381300     299.2546   -1463.6335    508.73579    392.05413    478.54055    39194.267 
  381400    298.01676   -1478.2739    516.41866    379.52513    215.94575    39194.267 
  381500    297.89373   -1444.4458    516.54257    412.92333     693.2954    39194.267 
  381600    309.76146     -1460.57    515.99543    449.66895     771.0574    39194.267 
  381700    302.27116    -1449.266    506.29361    417.55713    432.71017    39194.267 
  381800    309.96809   -1496.0641    531.45438    430.56384    37.889898    39194.267 
  381900    310.47605   -1507.7357    454.94323     344.6674   -8.0945742    39194.267 
  382000     306.5265    -1507.613    493.88141     365.9513   -54.622826    39194.267 
  382100    302.68278   -1484.7603    480.69851    358.32043    124.15107    39194.267 
  382200    297.98389   -1505.2392    526.04276    362.03594    487.80048    39194.267 
  382300    322.46329   -1507.7819    501.98696    445.61973    295.43541    39194.267 
  382400    309.51823   -1508.7917    463.20909    347.56611   -111.63044    39194.267 
  382500    305.91617   -1453.7916    524.91869    448.06291    120.31689    39194.267 
  382600    308.68982   -1461.8041    492.85336    420.46928    106.40344    39194.267 
  382700    301.97812   -1493.6431     490.6605    356.22789   -159.70527    39194.267 
  382800    308.35391   -1504.0999    483.23027    367.03846   -33.013387    39194.267 
  382900    292.69711   -1487.1832    494.35745    324.61069   -659.59776    39194.267 
  383000    293.89398    -1466.762    505.52021    361.58184   -60.111328    39194.267 
  383100    299.71055   -1491.8871    480.80688    337.92393   -727.20913    39194.267 
  383200    295.23128    -1495.817     496.3715    329.39733   -1047.9491    39194.267 
  383300     304.4684   -1490.9844    501.12846    380.56332    -595.2136    39194.267 
  383400     286.2247   -1478.7696    472.57133    282.10576   -293.54992    39194.267 
  383500    294.07146   -1433.1488    510.73218    401.20584    228.35621    39194.267 
  383600    299.75297   -1459.5662    527.80865    417.43753    367.76121    39194.267 
  383700    307.13502   -1448.3465    506.57907    440.65437    468.81151    39194.267 
  383800     293.2127   -1459.2688    512.53551    373.02381    61.732925    39194.267 
  383900    309.42435   -1444.7414    526.57788    474.56264    148.04192    39194.267 
  384000    307.96502   -1520.8695    528.71307    394.00129   -459.86727    39194.267 
  384100    297.20887   -1514.3004    502.82858    326.27217   -288.83675    39194.267 
  384200    298.47558   -1477.7728    513.62525      379.298    548.94555    39194.267 
  384300     294.8134   -1552.5199    514.04665     288.4887    270.77477    39194.267 
  384400     296.6856   -1540.3216    508.24042    303.30758    585.28144    39194.267 
  384500    301.42518   -1473.1705    523.36976    406.92103    75.037957    39194.267 
  384600    308.65721    -1474.219    530.19439    445.24861    137.17747    39194.267 
  384700    301.04056    -1469.816    513.28866    398.46318    227.98586    39194.267 
  384800    303.31896   -1485.4496    498.24005    378.03611    57.553094    39194.267 
  384900    289.88592   -1478.3202    507.25367    333.71672   -373.40585    39194.267 
  385000    304.75051   -1461.8183    488.79549    398.66624    330.87244    39194.267 
  385100    296.18918   -1475.0427    495.31695    353.42866    135.63219    39194.267 
  385200    302.37538   -1471.7943     516.7041    405.90841    403.96879    39194.267 
  385300    298.32816   -1506.5497     514.1053    350.33754    394.56006    39194.267 
  385400    307.44143   -1506.2207    500.25777    377.83811    589.88763    39194.267 
  385500    296.49165   -1525.4112    510.65254    319.75714    308.43685    39194.267 
  385600    292.96815   -1515.6798     517.9777    320.95438   -117.08502    39194.267 
  385700     295.8787   -1461.9714    495.61184    365.39734   -370.33746    39194.267 
  385800    299.02572   -1501.5065    482.56619     326.9814   -391.32332    39194.267 
  385900    306.39251   -1493.8271    502.93867    388.19135   -350.58428    39194.267 
  386000     297.6839   -1457.3271    517.15443    399.70949   -188.10027    39194.267 
  386100    311.04853   -1469.3573    515.01169    445.69104    108.83247    39194.267 
  386200    301.51171   -1474.8272    527.48953     409.7735   -928.66787    39194.267 
  386300    299.16571   -1493.7024    499.22211    352.07152   -418.65252    39194.267 
  386400    294.89807   -1466.6129    496.20117    356.93127   -613.70106    39194.267 
  386500    295.11948   -1436.8558    519.34951    410.83333   -485.32427    39194.267 
  386600    294.89613   -1461.0713    502.19457    368.45762   -329.80312    39194.267 
  386700    295.22574   -1422.1904    521.19042    427.81798   -523.07714    39194.267 
  386800    294.70708   -1453.1825    506.34795    379.64879   -659.24091    39194.267 
  386900    295.48678   -1451.9832    522.86119    400.87083   -64.504549    39194.267 
  387000    289.43669   -1412.1108    504.17845    394.82888    217.18966    39194.267 
  387100    307.88162    -1428.526    521.75636    479.01271    485.82456    39194.267 
  387200    293.11017   -1422.9561    503.57855    399.91808    465.55043    39194.267 
  387300    295.69051   -1456.9854    512.02339    385.94787     876.8317    39194.267 
  387400    302.72324   -1432.7526    492.92185    422.73355    802.60461    39194.267 
  387500    304.23146   -1410.2231    532.48536    491.61507    176.66762    39194.267 
  387600    294.98461   -1447.5694    514.45278    394.61596    170.02548    39194.267 
  387700     305.7875   -1440.9868     511.6677    447.03752    158.66692    39194.267 
  387800    294.76323   -1436.8577    509.43008    399.30851     55.66156    39194.267 
  387900    295.60363   -1428.7979    518.34726    420.06819   -223.82911    39194.267 
  388000    303.67425   -1381.3768    537.96911    523.43718    6.3757996    39194.267 
  388100    298.28396   -1385.9797    534.71536     491.3187   -103.87769    39194.267 
  388200    291.59261   -1428.7237    524.70937    408.45082   -212.78454    39194.267 
  388300      295.571    -1412.492    507.72931    425.60929    300.37999    39194.267 
  388400    303.41859   -1434.4821    518.16772    449.37966    224.60316    39194.267 
  388500    287.70122   -1439.4646    525.71004    381.19528    4.4033661    39194.267 
  388600    293.77376   -1441.1527    534.27746    415.40722    663.38962    39194.267 
  388700    294.27951   -1427.4611    535.81957    432.91738     728.5046    39194.267 
  388800    294.93322   -1455.4174    530.96675    403.05057    730.80496    39194.267 
  388900    291.37434   -1441.8554    495.74706    365.37433   -321.56654    39194.267 
  389000    295.17076   -1441.5593    531.84789    418.85898   -458.18116    39194.267 
  389100    297.44599   -1434.1446    481.86549    386.53222   -639.63415    39194.267 
  389200    304.44001   -1446.7438    508.85069    432.39849   -410.29155    39194.267 
  389300     296.8085   -1458.4028    518.99658    396.53574   -72.716963    39194.267 
  389400     301.4333   -1488.4456    517.24747    385.56012   -222.97944    39194.267 
  389500    303.64502   -1482.3117      498.063    382.46461     132.4891    39194.267 
  389600    303.10893    -1445.432    507.69037    426.55872   -384.56976    39194.267 
  389700    298.00734    -1461.937    520.83193    400.23282   -542.73638    39194.267 
  389800    294.65365   -1431.5548    520.42272    415.11085   -416.86623    39194.267 
  389900    305.88308   -1440.9583    510.96023    446.78879   -107.20126    39194.267 
  390000    294.20332   -1422.1428    522.84792    424.92105   -492.58415    39194.267 
  390100    302.81066   -1455.8154    490.77344    397.91584   -133.45826    39194.267 
  390200    300.19726   -1427.3092     519.4538    443.33942   -741.72734    39194.267 
  390300    298.49399   -1442.2638    500.42971    401.69432   -444.92637    39194.267 
  390400    302.72454   -1445.3235    521.43866    438.68529   -379.74568    39194.267 
  390500     305.9546   -1427.0848    485.48572    435.50965     41.72349    39194.267 
  390600    295.86554   -1441.7101    514.73111    404.71869   -198.35452    39194.267 
  390700    299.06858   -1422.7713    517.39446    440.73774   -1.8794234    39194.267 
  390800    287.74658   -1442.3432    513.15758    365.96842    -522.3845    39194.267 
  390900    304.73305   -1459.2714    494.40403    406.74315    83.662949    39194.267 
  391000    295.20294    -1465.915    515.31612    378.11643    222.41677    39194.267 
  391100    292.61025   -1473.9361    472.38555    315.49498    99.700898    39194.267 
  391200    302.70506   -1450.2159    507.12486    419.39151    360.88015    39194.267 
  391300    297.30136   -1444.4607    510.01273    403.71235   -413.30809    39194.267 
  391400    301.06202   -1486.9053    487.85034    356.03216   -88.025802    39194.267 
  391500    295.40993   -1473.3425    504.09682     360.4013   -157.65117    39194.267 
  391600    306.19977   -1458.2227    527.74332    447.73285   -72.019485    39194.267 
  391700    295.47056   -1496.0252    502.26845    336.16312    356.23796    39194.267 
  391800    310.74371   -1518.3739    508.46129    388.75204     99.13404    39194.267 
  391900     287.1116   -1510.6596    498.38358    280.01995    491.24405    39194.267 
  392000     293.6539   -1476.9301    500.91358    345.72652   -473.04495    39194.267 
  392100    299.08054   -1504.8357    500.97885    342.31159   -440.07739    39194.267 
  392200    296.93588   -1526.9256    473.92988    283.51959   -509.47957    39194.267 
  392300    291.91309   -1509.4374    493.07515    297.54528   -470.34115    39194.267 
  392400     301.1582   -1505.4222    497.20404    347.30186   -370.97351    39194.267 
  392500    306.99784   -1511.5203     475.7998    346.08388    179.90353    39194.267 
  392600    297.18885   -1458.5792    516.43027    395.50492    186.99039    39194.267 
  392700    295.99191   -1474.6707    482.76645    340.36226    691.32482    39194.267 
  392800    301.71251   -1497.9724    523.14932    383.19186     275.5661    39194.267 
  392900    289.74064   -1504.4568    487.02424    286.69682    134.08969    39194.267 
  393000    292.60564   -1488.5472    487.88992    316.36744    281.08542    39194.267 
  393100    304.04294   -1484.8617    506.37983    390.02247    488.77842    39194.267 
  393200    311.38183   -1452.5393    480.30615    429.30367   -141.25544    39194.267 
  393300     291.9906    -1473.685    486.60708    327.17859   -660.94766    39194.267 
  393400    300.08419   -1489.2981    504.48838    365.87614   -229.41742    39194.267 
  393500    292.93194   -1477.3998    502.24633    343.33998   -435.46309    39194.267 
  393600        306.8   -1437.4581    496.37566    439.83146   -121.13347    39194.267 
  393700    301.13162   -1449.6578    529.83051    435.57316   -515.58014    39194.267 
  393800    292.80378   -1423.1545    486.65378    381.41581   -252.78165    39194.267 
  393900    293.16222   -1463.6402    510.43617    366.32588   -120.36079    39194.267 
  394000    298.70777   -1477.5778    459.88909    326.80186    173.37728    39194.267 
  394100    316.21052   -1449.2194    548.65351    522.70498   -138.38749    39194.267 
  394200    298.25749   -1429.4402    506.89674    419.92036    277.19817    39194.267 
  394300    306.06974   -1438.8959    501.96979    440.70086    -56.97255    39194.267 
  394400    295.17564   -1451.2515    468.74352     346.0844   -103.03673    39194.267 
  394500     309.7212   -1483.1191    512.41149    423.35476     40.95439    39194.267 
  394600    293.13302   -1475.7631    503.10073     346.7361   -205.32551    39194.267 
  394700    296.01081   -1477.2496    488.34867    343.45062   -542.44768    39194.267 
  394800    302.00913   -1478.9109    508.75076    389.18998   -17.849989    39194.267 
  394900    295.05065   -1490.6735     500.5385    337.89486   -44.787083    39194.267 
  395000    305.01411   -1493.5978    493.81481    373.09255    78.100222    39194.267 
  395100    308.49571    -1460.898    541.42031    469.06864    844.11381    39194.267 
  395200    307.98554    -1485.148    499.07745    400.17949     680.1517    39194.267 
  395300    299.32333   -1527.2849    488.03693    308.01325    660.69543    39194.267 
  395400    302.90063   -1517.4815    518.29927    364.18053    309.74827    39194.267 
  395500    297.62788   -1495.0623    467.47471     312.0424    273.77851    39194.267 
  395600    302.85721   -1503.7661     494.1001    353.50132    127.39172    39194.267 
  395700    296.56509   -1473.2838    498.64474    360.20733   -687.09903    39194.267 
  395800    304.70673   -1496.6319    485.41875    360.27894   -352.67286    39194.267 
  395900     306.8244   -1507.1678    492.80007    366.65597   -123.38128    39194.267 
  396000     291.2572   -1487.1425    478.67349    302.48641   -373.59492    39194.267 
  396100    295.74853   -1517.8537    498.22065    311.53791   -368.66182    39194.267 
  396200    305.38433   -1507.6605    496.24329    363.12471   -35.590997    39194.267 
  396300    303.66301   -1458.2161    497.45557    406.03372   -367.50288    39194.267 
  396400     304.2832   -1509.1042    474.67029    335.15183   -209.87688    39194.267 
  396500    294.60213   -1499.9099    491.93711    318.03824    156.77277    39194.267 
  396600    305.61831   -1491.1104    510.85856     395.3433    480.50019    39194.267 
  396700    300.74364   -1511.9078    475.19535    316.94166    764.54415    39194.267 
  396800    299.68792   -1486.2237    505.60258    368.28112    1278.7565    39194.267 
  396900    306.03787   -1473.2143    487.50305    391.77234    612.31822    39194.267 
  397000    296.89622   -1495.0533    487.42871    328.71214    557.82617    39194.267 
  397100    299.69822   -1527.8217    505.31042    326.43734    352.55879    39194.267 
  397200    296.91622    -1525.688    482.30599    293.04483    542.95446    39194.267 
  397300    300.83042   -1531.9127    528.89405    351.02601     684.8661    39194.267 
  397400    289.70512   -1522.2192     466.5503    248.30059    516.87223    39194.267 
  397500    291.84795   -1505.0444    507.05301    315.62299    -306.9354    39194.267 
  397600    304.05207   -1479.0926    480.27852    369.73138    167.53761    39194.267 
  397700    294.80803    -1531.972    478.79963    273.76542   -600.90816    39194.267 
  397800    308.68515   -1520.5704    488.77848    357.60714    256.23597    39194.267 
  397900    297.62511   -1487.1895     487.1799    339.60795   -384.62756    39194.267 
  398000    290.37054   -1469.0912    495.18592    333.05931   -315.02758    39194.267 
  398100    298.79617   -1497.7166    494.43034    341.60227   -160.84254    39194.267 
  398200    300.51118   -1495.9976    495.30734    351.91747   -48.678167    39194.267 
  398300    289.24293   -1503.0655    504.34536    303.16904   -275.52831    39194.267 
  398400    293.70371   -1481.0765     501.2441    342.13481    280.27544    39194.267 
  398500    295.32181   -1464.2553    501.25767    366.25272    491.33474    39194.267 
  398600    312.14284   -1453.7499    508.31062    459.52285    382.82225    39194.267 
  398700    298.70609   -1452.8563     493.6752    385.30191    228.41233    39194.267 
  398800    292.40393   -1427.6563    498.04367    386.50428   -92.205177    39194.267 
  398900    302.67709   -1452.4132    505.69724    415.64067   -170.20044    39194.267 
  399000    304.42624   -1503.3217    487.24725    354.15506   -185.93414    39194.267 
  399100    302.57373   -1519.2199    487.86771    330.53915    4.7096636    39194.267 
  399200    302.56071   -1482.3326    483.67703    363.17725    152.94903    39194.267 
  399300    303.43864   -1455.7981    496.74532     406.7316    204.57351    39194.267 
  399400     305.8008   -1507.7358    501.63342    370.31416   -182.79679    39194.267 
  399500    295.74544   -1511.7666    500.45516     319.8456    282.45067    39194.267 
  399600     297.6964   -1492.8927    488.16825    335.21388   -259.93788    39194.267 
  399700    297.86129   -1469.4902    482.59088     353.7812    650.59832    39194.267 
  399800    298.17677   -1475.3862     513.6841    380.39847    771.28526    39194.267 
  399900    304.37871   -1485.6062    499.10279    383.51225    448.80831    39194.267 
  400000    307.26364   -1506.2798    504.65746    381.37839    451.00004    39194.267 
  400100    298.06219   -1488.5698    500.36166    353.37667    327.59047    39194.267 
  400200    295.05939   -1487.7786    517.18551    357.47605    1179.6305    39194.267 
  400300    301.38316   -1482.7422     521.6893     395.4797    1329.5437    39194.267 
  400400    306.82722   -1514.7658    519.52824     385.7989    1056.7306    39194.267 
  400500    288.65854    -1472.129    506.01147     333.1412    943.09685    39194.267 
  400600    306.56503   -1474.4793    511.80041    417.17744   -223.02499    39194.267 
  400700    303.77435     -1480.75    493.54622    380.09163   -15.558506    39194.267 
  400800    303.44578   -1451.0171    494.69741    409.49686    213.92184    39194.267 
  400900    293.85019   -1453.5268    497.38689    366.48655   -56.559069    39194.267 
  401000    301.57675   -1453.4824    523.72759    427.64912    408.81318    39194.267 
  401100    290.95673   -1450.7167    501.00763    359.89397   -568.43994    39194.267 
  401200    299.79532   -1446.4876    510.46082    413.35889   -308.93558    39194.267 
  401300    298.43776   -1481.9302     489.9922    351.33721   -323.52063    39194.267 
  401400    297.91232   -1426.3783    510.09419    424.62618   -94.130343    39194.267 
  401500    310.34437   -1453.7595    533.42193    476.52962    302.58868    39194.267 
  401600    307.20951   -1450.8536    493.92602     425.8296    65.944553    39194.267 
  401700    293.25584   -1461.9662     488.8889    346.87406    210.57195    39194.267 
  401800    301.17186   -1479.2714    512.46418     388.7743   -285.08635    39194.267 
  401900     306.7945   -1458.2571    514.48607    437.11813   -29.641726    39194.267 
  402000    295.89402    -1474.387    487.80883    345.24768    46.425906    39194.267 
  402100    309.57392   -1482.4118    501.27299    412.26063   -2.6055842    39194.267 
  402200    298.45377   -1422.7016    494.47106    415.11687   -333.12874    39194.267 
  402300    304.27147   -1448.3811    523.42477    444.57661    217.26311    39194.267 
  402400    308.58162   -1467.2905    478.26068    399.90319    383.42773    39194.267 
  402500    309.94138   -1497.5277    479.15325    376.67888   -28.420163    39194.267 
  402600    304.29195   -1481.4888    489.01869      377.155   -166.45985    39194.267 
  402700    302.98293   -1522.8179     502.9172    343.83251   -189.65212    39194.267 
  402800    309.29113    -1503.923    468.47814    356.68165   -136.11009    39194.267 
  402900    307.74703   -1465.0059    483.88425    404.05491   -290.01911    39194.267 
  403000    297.92957   -1444.5044     525.0891    421.57256   -751.89281    39194.267 
  403100      286.494   -1443.4923    517.75157    363.77547   -147.13049    39194.267 
  403200    298.16429   -1448.5224    515.48941    409.01136   -308.39881    39194.267 
  403300    294.65677   -1505.6986    486.91057    307.46889   -236.57934    39194.267 
  403400    290.80977   -1530.9349    483.18802    261.19465   -299.56813    39194.267 
  403500    307.07559   -1488.0903    504.24133    398.30535    31.856901    39194.267 
  403600     295.8627   -1453.8864    502.69875    380.49722    354.46643    39194.267 
  403700    303.37675   -1486.9797    487.14856    365.67462    336.81737    39194.267 
  403800    296.64484   -1446.8295    515.71411    404.08986   -295.93564    39194.267 
  403900    298.93737   -1440.3372    520.20629    425.39318   -395.21781    39194.267 
  404000    293.29159   -1435.1152    527.58222    412.57927   -303.10136    39194.267 
  404100    301.32788   -1453.2535    491.81664    394.84688   -519.47911    39194.267 
  404200    297.58824   -1468.5027    510.00241    380.95126    43.272843    39194.267 
  404300    292.94868   -1471.7417    491.81068    338.63776   -639.21167    39194.267 
  404400    292.12055   -1498.3457    486.48207    302.97774     -633.323    39194.267 
  404500    297.22121   -1491.8119    469.44787    315.43553   -201.49821    39194.267 
  404600     308.2143   -1485.6113    495.82563    397.49405    145.91245    39194.267 
  404700    309.52604   -1492.4827    494.34113    395.04228   -131.58665    39194.267 
  404800    292.67665   -1435.3504    502.72957    384.72355    -738.4378    39194.267 
  404900    295.85544   -1433.2123    495.22684    393.66673    -453.1243    39194.267 
  405000    295.00584    -1458.317    485.63151    355.14268   -242.14224    39194.267 
  405100    298.44968   -1448.7348    500.08046    394.67459   -102.23839    39194.267 
  405200    306.42728   -1420.5092     507.0106    465.73773    50.480432    39194.267 
  405300    307.71828    -1438.639    525.89029    472.29842    80.539699    39194.267 
  405400    293.93185    -1443.612    498.65923    378.04126    343.28146    39194.267 
  405500    299.12581   -1463.6152    477.22762    359.98456   -116.07454    39194.267 
  405600    300.90039   -1495.8925    483.98612    342.45321    230.70582    39194.267 
  405700    298.84684   -1477.0399    481.86092    349.93757    218.62722    39194.267 
  405800    300.46477    -1458.708    486.48975    380.18068    573.16919    39194.267 
  405900    297.51433   -1494.2125    491.92909    336.83545   -70.101337    39194.267 
  406000    305.90159   -1495.5684    517.61615    398.91791    245.60729    39194.267 
  406100    306.79194   -1477.6029    508.18449    411.45923    74.016846    39194.267 
  406200    286.85191   -1472.1118    515.63023    334.64553   -146.87585    39194.267 
  406300    301.30822   -1510.9031    487.09211    332.38425   -182.75447    39194.267 
  406400    283.73797   -1465.6354    501.16723    312.64298   -484.78736    39194.267 
  406500    302.38264    -1436.335    504.67023    429.36644   -65.434836    39194.267 
  406600    293.61986    -1495.575    479.08611    305.10086   -408.71701    39194.267 
  406700    297.47188   -1473.4482    493.07718    358.55685   -496.13683    39194.267 
  406800    296.76174   -1449.8029    496.53865     382.4672   -759.83467    39194.267 
  406900    295.87618   -1400.4945    508.26899    439.52002   -472.91528    39194.267 
  407000    302.88649   -1442.7039    472.94874    393.54398   -449.40395    39194.267 
  407100    297.43551   -1443.2761    481.40887    376.89693   -591.90455    39194.267 
  407200    311.68192   -1430.0825    482.46981    455.27487   -308.55921    39194.267 
  407300    304.37386   -1444.4287    495.24477    420.80985   -555.46851    39194.267 
  407400    311.67425   -1474.2951     468.0551      396.613    34.982309    39194.267 
  407500    308.87016   -1482.5548     510.1351    417.81208    8.4838025    39194.267 
  407600    298.73086   -1484.1373    493.15454    353.61181   -277.52571    39194.267 
  407700    293.17046   -1478.5941    480.73838    321.71136   -539.25614    39194.267 
  407800    295.55589    -1465.584    541.68002    406.39988     -165.475    39194.267 
  407900    295.72943   -1433.6672    470.21063    367.62846   -326.30357    39194.267 
  408000    298.83347   -1476.9981    498.50666      366.565    11.530488    39194.267 
  408100    291.28526   -1431.0999     482.3938    362.37555   -174.79147    39194.267 
  408200    303.48073   -1429.8189    499.74824    435.90317   -725.71502    39194.267 
  408300     294.3146   -1403.6566    501.10344    422.16369   -649.00998    39194.267 
  408400    309.27195   -1440.1028    485.41592    437.35335   -621.95279    39194.267 
  408500    295.12453   -1403.3993    506.20058    431.16359   -368.17562    39194.267 
  408600    305.21062   -1443.1896    506.15941    436.72992   -463.06019    39194.267 
  408700    315.02973   -1429.0065    514.80698    503.75665   -143.16172    39194.267 
  408800    297.75618   -1394.3541    495.00875    440.86215   -168.38637    39194.267 
  408900    306.18505   -1448.8811    508.81695    438.08181   -386.45402    39194.267 
  409000    288.45411   -1410.6224    492.05524    379.77145   -183.07056    39194.267 
  409100    300.56255   -1445.2926    505.69067    413.23701    466.01038    39194.267 
  409200    297.16464   -1453.4221    515.33832    399.46112    16.661792    39194.267 
  409300     290.3153   -1435.6333    518.31114    389.39374   -196.37024    39194.267 
  409400    307.57644   -1416.5136    522.77338    490.66844   -834.81841    39194.267 
  409500    299.33863   -1425.6894    513.97452    435.61522   -312.52433    39194.267 
  409600    293.49118   -1443.7019    504.05464    381.36336   -274.13771    39194.267 
  409700    306.04318   -1414.6323    519.12227    481.99738   -652.69527    39194.267 
  409800    302.04716   -1424.4938    499.37179    434.39928    -216.8541    39194.267 
  409900    310.17467   -1440.4376    494.41448    450.08028   -301.47475    39194.267 
  410000     302.6074   -1437.7033    506.83321    431.17282   -175.54199    39194.267 
  410100     303.8829   -1442.5954     481.8077    406.99625    163.80371    39194.267 
  410200    307.69943   -1481.6255    484.41084    387.74759     366.3435    39194.267 
  410300    289.65334   -1456.1206    500.53661    348.15238    793.07521    39194.267 
  410400    297.53708   -1457.9314    491.81486    373.10478    356.30968    39194.267 
  410500     298.3418   -1437.2925    485.48253    391.03344    299.09634    39194.267 
  410600    304.01638   -1458.8459    485.06007    394.59892    40.192558    39194.267 
  410700    307.30772   -1424.4413    510.30466    469.06247    54.866391    39194.267 
  410800    296.27426   -1423.9142    518.00311    427.62627    194.28709    39194.267 
  410900    293.86912    -1447.624      521.368    396.45568    278.84001    39194.267 
  411000    303.37763     -1469.76    503.24289    398.99264   -43.836239    39194.267 
  411100    293.15779   -1460.5897    484.36744    343.28772    269.98441    39194.267 
  411200    305.55338   -1450.5826    504.70778    429.42803   -50.596001    39194.267 
  411300    303.09855   -1401.0888    526.77025    489.93502   -187.66923    39194.267 
  411400    296.20416    -1445.826    476.81331    364.20909   -209.79813    39194.267 
  411500    306.00739   -1422.1281    514.20181    469.42002    4.6704868    39194.267 
  411600    305.67783   -1455.6094    495.57934    415.83292   -174.09878    39194.267 
  411700    306.56812   -1459.2435    495.43868    416.06532     100.4812    39194.267 
  411800    306.79576   -1466.0913    485.63507     400.4386    69.475713    39194.267 
  411900    304.48367   -1438.0591    531.12571    463.55462     33.51292    39194.267 
  412000    298.79216   -1477.2393     492.1739    359.80501    197.66095    39194.267 
  412100    308.30323   -1499.4977     490.2596    378.44185    321.39983    39194.267 
  412200    294.84639   -1479.1788    492.27654    340.20821    481.83954    39194.267 
  412300    301.46563   -1506.0813    493.25011    344.07265    406.28361    39194.267 
  412400    288.65929   -1444.2136    540.09678    395.14533    708.56973    39194.267 
  412500    301.59048   -1452.9984    500.48649    404.95381    790.60899    39194.267 
  412600    300.56162   -1426.2592     504.5693    431.14492    188.18812    39194.267 
  412700    304.79849   -1441.0012    490.12744    421.03126    460.13732    39194.267 
  412800    297.20577   -1398.4355    489.77913    429.07369     193.9644    39194.267 
  412900    294.70079   -1480.3882    513.78557    359.85251    -11.86943    39194.267 
  413000    291.14559   -1426.2917    516.41611    400.57746    71.524368    39194.267 
  413100    288.88496   -1417.4178    518.01735     400.8775   -83.301278    39194.267 
  413200    292.61031   -1454.5635    520.35794    382.84025     -347.289    39194.267 
  413300     292.8196   -1468.9038    506.49011    355.57416   -760.40118    39194.267 
  413400    306.24284   -1435.2429    498.64311    441.80632   -287.24317    39194.267 
  413500    301.49543   -1478.7312    511.68075    389.98747   -64.816794    39194.267 
  413600    298.29484    -1506.089     499.1514    335.69445   -99.253583    39194.267 
  413700    309.63489   -1449.5324    493.77363     437.9151    354.92007    39194.267 
  413800    294.20065   -1475.3501    503.93185    352.78565   -132.86646    39194.267 
  413900    314.19634   -1469.0681    484.01259    429.14949    5.7613327    39194.267 
  414000    294.28324   -1448.9155     498.8973    374.55754   -678.13831    39194.267 
  414100    297.55698   -1415.9675    508.93539    432.27878   -217.96963    39194.267 
  414200    299.35118   -1447.2164    515.78484    415.95504   -50.194986    39194.267 
  414300    314.76791   -1451.6628    496.22771    461.34262    371.13943    39194.267 
  414400    295.38714   -1498.5177    506.34154    337.36816    -95.66676    39194.267 
  414500    304.66415   -1469.2489    537.20337    439.25487    226.37421    39194.267 
  414600    300.14303   -1428.5943    506.34232     428.6987   -126.51133    39194.267 
  414700    301.44684   -1463.4944    525.07605     418.4009    114.13587    39194.267 
  414800    292.79835   -1416.1012    509.77342    411.56433    -119.1114    39194.267 
  414900    302.97977   -1438.1211    498.64806    424.24594   -605.37254    39194.267 
  415000    297.18669   -1470.8355    493.42904    360.23769   -658.40448    39194.267 
  415100    294.41188   -1452.7263    488.23737     360.6658   -356.75367    39194.267 
  415200    309.55638   -1434.6505    503.77451    462.44449    -538.3601    39194.267 
  415300    299.48614   -1453.9025    510.64664    404.73816   -586.46444    39194.267 
  415400    290.01797   -1470.8883    493.77179    328.26112   -485.05636    39194.267 
  415500    303.75745   -1461.8834    497.63937     402.9753    567.94498    39194.267 
  415600    305.73466   -1513.6243    494.29681    356.79124    74.460254    39194.267 
  415700    300.42696   -1471.3195    517.27885     398.1881    143.95995    39194.267 
  415800    306.49419   -1510.0223    514.92445    384.43956    603.08599    39194.267 
  415900    295.96175    -1473.642    483.75923    342.24796   -30.436069    39194.267 
  416000    300.64563   -1452.5469    547.93907    448.60514   -394.40595    39194.267 
  416100    297.23528   -1472.3346    502.86985    368.39809   -429.35829    39194.267 
  416200    306.07411   -1520.8781    507.56722    364.33582   -55.850298    39194.267 
  416300     311.3445   -1487.4244    494.41266    408.35708    40.111752    39194.267 
  416400     310.8835    -1464.444     495.4707    430.32058   -246.58898    39194.267 
  416500    295.39567    -1464.555    506.64315    371.67093   -747.26222    39194.267 
  416600    299.00623   -1415.9364    487.47159     417.3692    -344.4403    39194.267 
  416700    305.06884   -1473.1346    477.64243    377.62972     -460.683    39194.267 
  416800    293.81013   -1442.2752    533.26493    413.43598    -108.5731    39194.267 
  416900    301.98443    -1424.568    489.85576    424.52665     288.8622    39194.267 
  417000    290.69513   -1476.5611    512.71726    344.58166    149.29407    39194.267 
  417100    305.34762   -1480.3039    502.76239    396.83516    2.8416749    39194.267 
  417200    293.54814    -1464.913     493.6292    349.98315     226.8599    39194.267 
  417300    294.58157    -1474.394    505.52136    357.04581    155.89277    39194.267 
  417400    294.96217   -1479.7713     492.8324    340.69263   -19.541612    39194.267 
  417500    304.33052   -1481.8878    491.29125    379.20215    201.65153    39194.267 
  417600    290.05123    -1472.993    505.93851    338.47279   -174.24631    39194.267 
  417700    300.24221   -1465.5513    500.72854    386.57439   -281.46263    39194.267 
  417800    293.06151   -1458.2461    515.82037    376.65089     75.70801    39194.267 
  417900    327.33048    -1493.432    481.84136    461.73141   -23.451855    39194.267 
  418000    301.81251   -1456.5141    508.89581    410.84677   -475.87815    39194.267 
  418100     307.1189    -1510.812    494.30347    365.84073   -495.55493    39194.267 
  418200    296.65122   -1495.9583    525.18388    364.45961   -46.550286    39194.267 
  418300     311.7763   -1480.3129    486.51769    409.51713    103.92803    39194.267 
  418400     306.4169   -1468.7133    496.57968    407.05592   -554.34465    39194.267 
  418500    304.04747     -1478.62    519.09001    408.99473   -562.43568    39194.267 
  418600    284.78324    -1484.013    485.51165    283.31467   -557.80451    39194.267 
  418700    291.36931   -1535.2483    514.84682    291.05851   -484.09247    39194.267 
  418800    291.67003   -1472.8286    516.26148    356.24647    142.77794    39194.267 
  418900    298.22812   -1502.3781    502.44429    342.39787    388.73747    39194.267 
  419000    290.07096   -1498.3614    518.68131    325.93605    245.09931    39194.267 
  419100    308.86576   -1517.5179    492.72536     365.4194    86.443548    39194.267 
  419200    294.32367   -1497.7551    530.42995    357.43248    190.54672    39194.267 
  419300    295.12043   -1496.8542    485.28082    316.77049   -14.903968    39194.267 
  419400    298.13216    -1490.041    512.08006    363.93884    57.080464    39194.267 
  419500    305.43554   -1513.2695    471.92601    333.42894    206.24828    39194.267 
  419600    304.12673    -1530.888     494.3909    332.38441   -183.74149    39194.267 
  419700    306.36874    -1521.971    499.15512     356.1569   -354.51097    39194.267 
  419800    310.36916   -1543.9532    487.15602    340.18163   -154.59094    39194.267 
  419900    300.76302   -1580.3743    485.93415    259.30114    347.04179    39194.267 
  420000    311.13146   -1545.6659    505.21485    359.95887     78.68672    39194.267 
  420100    298.17154   -1474.3342    491.62024    359.36304    129.14339    39194.267 
  420200    311.75265   -1499.3643    491.56359    395.40515    161.61054    39194.267 
  420300    308.75433   -1504.9123    487.18134    371.97943    709.61191    39194.267 
  420400    303.65784   -1518.0715     501.7576    350.45705    487.42781    39194.267 
  420500    302.06338   -1536.9865    476.09341     298.7012    289.65026    39194.267 
  420600     288.0794    -1462.648    487.01221    321.01624     168.6883    39194.267 
  420700    294.79102   -1437.6487    512.71732    401.92983   -83.785316    39194.267 
  420800    311.94953   -1481.3218    491.23662    414.00682    58.685223    39194.267 
  420900    299.65883   -1516.3774    502.42295    334.81688   -58.183872    39194.267 
  421000    303.68559   -1482.7421    478.39169    362.54544     81.72511    39194.267 
  421100    300.17427   -1495.9451    501.07968    356.22592   -70.152898    39194.267 
  421200    279.67759   -1461.6912    512.37404    309.51814   -418.74499    39194.267 
  421300    300.47748   -1473.8902    473.00318    351.56909    104.38194    39194.267 
  421400    290.04513   -1483.9577    508.79021     330.3324   -152.86848    39194.267 
  421500    305.27734   -1488.3625     489.7031    375.40102    366.47958    39194.267 
  421600    306.60494   -1467.7522    493.09314    405.37689    549.06902    39194.267 
  421700    308.64483    -1484.838     514.0579    418.43741    766.86205    39194.267 
  421800      299.168   -1470.4271    477.85036    353.98534    -250.0917    39194.267 
  421900    295.85926   -1442.3609    502.49387    391.80235   -228.93055    39194.267 
  422000    313.32741    -1489.385    488.75758    409.66649   -106.27601    39194.267 
  422100    296.52308   -1516.4832    469.64367     287.8177     72.16351    39194.267 
  422200    293.11892   -1498.4189    503.03243    323.94856    399.75124    39194.267 
  422300    304.60788    -1440.132    499.77686    430.69198   -214.68579    39194.267 
  422400    287.02401   -1458.2114    469.02828    302.71858   -330.03515    39194.267 
  422500    301.41704   -1463.4463    508.90231    402.14112   -782.68093    39194.267 
  422600     295.4282    -1482.252    486.49086      333.968    46.674605    39194.267 
  422700    301.12597   -1489.4367    485.93052    351.86881    61.352713    39194.267 
  422800    295.90408   -1460.4415     517.1271     388.5567    14.788214    39194.267 
  422900    306.90924   -1429.8792    514.19233    465.71874   -314.56985    39194.267 
  423000    291.80848   -1420.1227    495.89999    389.21401   -52.014187    39194.267 
  423100    294.10888   -1398.0052    505.66019    431.44588   -370.15285    39194.267 
  423200    305.41936   -1439.3903    530.54562     465.8549    759.63808    39194.267 
  423300    299.58648   -1422.2602    503.54951    429.73496    270.27224    39194.267 
  423400    295.65703   -1443.3213    505.21544    392.65326   -490.20403    39194.267 
  423500    294.81479   -1466.1447    475.80853    336.63206   -339.72606    39194.267 
  423600    306.62595   -1430.8962    494.54843    443.78269    49.570219    39194.267 
  423700    300.27407   -1423.6866    514.41791    442.27186   -65.082097    39194.267 
  423800    301.51134   -1430.7299    482.77869    409.15827    180.19485    39194.267 
  423900     294.3898   -1478.2991    487.97318     334.7294    641.28735    39194.267 
  424000    301.45776   -1490.1388    519.64623    386.37584    306.07109    39194.267 
  424100     296.0167   -1495.6816    466.28441    302.98081    88.120909    39194.267 
  424200    296.01231   -1448.9924    507.88346    391.24929    425.20297    39194.267 
  424300    310.47453   -1486.5101    498.06167    409.00458   -462.50179    39194.267 
  424400    298.61281    -1481.792    476.66375    338.93496    353.73379    39194.267 
  424500    301.44169   -1496.8236    493.44271    353.41514   -37.434548    39194.267 
  424600    318.88114   -1466.8789    500.50708    468.91958   -308.07303    39194.267 
  424700    305.98617   -1477.8118    514.68787    414.12696    71.599353    39194.267 
  424800     290.2574   -1465.2715    502.58245    343.76623     -138.714    39194.267 
  424900    286.02201   -1472.2768    487.15837    302.27322     196.3999    39194.267 
  425000     295.0388   -1465.3153    493.14516    355.80637   -99.328864    39194.267 
  425100    301.67805   -1482.1358    494.40699    370.13108   -536.32001    39194.267 
  425200    309.20726   -1474.1478    511.94137    429.54259   -103.79574    39194.267 
  425300    302.72617   -1470.4514    467.60566     359.7318   -234.07869    39194.267 
  425400    292.77349   -1435.5877    501.51437    383.70697   -467.55337    39194.267 
  425500    307.09886   -1420.1973    502.81032    464.87212    -7.184205    39194.267 
  425600    295.59282   -1440.6611    493.56065     383.3697    155.70138    39194.267 
  425700    290.07813    -1457.105    477.63886    326.18225     436.8717    39194.267 
  425800    296.55608   -1448.5599    524.92485    411.17078    352.28399    39194.267 
  425900     308.0599   -1450.7968    496.50487    432.29287    196.81753    39194.267 
  426000    294.31317   -1462.1488    479.84885    342.41047   -544.47692    39194.267 
  426100    308.26286     -1444.82    503.60822    446.28647   -550.79864    39194.267 
  426200    303.92658   -1409.6475    473.26354    431.59658   -561.02343    39194.267 
  426300    308.48844   -1430.7382    483.62443    441.39982   -517.24873    39194.267 
  426400     301.5214   -1413.9686    508.33634    451.52258    -962.4253    39194.267 
  426500    294.18091   -1458.8702    482.33868     347.5836   -241.65951    39194.267 
  426600    292.93279   -1478.1026    477.24815    317.64281   -68.305526    39194.267 
  426700    289.14942   -1474.1247    522.97357    350.31712    136.28568    39194.267 
  426800    292.52787   -1439.8516    514.73627     391.5594      314.635    39194.267 
  426900    298.47679   -1504.8053    477.99006    316.63572    99.324194    39194.267 
  427000    306.10882   -1499.8056    506.87264    384.86995   -170.22601    39194.267 
  427100    291.80485   -1483.5373    494.52085    324.40392    86.975028    39194.267 
  427200    298.34431   -1507.3155    500.67353    336.21264    83.424496    39194.267 
  427300    309.03184   -1497.4416    490.32275    383.84065   -158.29628    39194.267 
  427400    299.51221   -1510.7518    489.83628    327.19588   -275.52487    39194.267 
  427500    302.94141   -1475.0897    490.27124    378.72785   -168.81263    39194.267 
  427600    302.89059   -1504.4425    484.15806    343.03316    51.346712    39194.267 
  427700    297.37094   -1499.3682    484.57802    323.68329     378.3838    39194.267 
  427800    300.38912   -1508.6155    476.51078    319.95368   -190.44348    39194.267 
  427900    293.82275   -1445.0581    492.49546    369.94039    414.61223    39194.267 
  428000    301.22774   -1451.3435    502.83197    407.32149     538.3601    39194.267 
  428100     291.8934   -1468.5485    504.33013    349.60058    437.50832    39194.267 
  428200    299.44108   -1454.4741    480.43117    373.74829    798.17135    39194.267 
  428300    298.06943   -1436.2483    492.42554    397.79463    199.60603    39194.267 
  428400    297.26605   -1445.1988    494.96599    387.76855   -17.887097    39194.267 
  428500    297.18962   -1430.0836    486.07414    393.64785    261.19623    39194.267 
  428600    294.36836   -1429.4041    503.68588    399.24062    437.13494    39194.267 
  428700    302.31219   -1420.7007    487.28505    427.29846    156.23623    39194.267 
  428800    296.86371   -1424.0248     512.0814    424.24704   -78.486281    39194.267 
  428900    298.44434   -1378.8255    478.92792    443.40733   -198.87012    39194.267 
  429000    303.99099   -1427.6284    507.09177    447.73381    661.83699    39194.267 
  429100    306.58788    -1447.714    519.18681    451.43198    277.95958    39194.267 
  429200    290.37752    -1444.357    517.84502    380.48395    126.54451    39194.267 
  429300    304.43737   -1435.0237    499.49873    434.75466    166.85019    39194.267 
  429400    306.67752   -1472.2705    485.67427    393.76641   -323.82944    39194.267 
  429500    289.26117   -1436.4334    502.06538    367.60321   -264.98245    39194.267 
  429600    291.63614   -1409.9563    485.33454    388.03926   -329.19407    39194.267 
  429700    299.18658   -1405.9783    482.08505    422.75254   -619.40255    39194.267 
  429800    304.43875   -1418.8457    492.85803    444.29823   -698.30133    39194.267 
  429900    300.90424   -1431.5986    526.20692    448.98535   -235.77394    39194.267 
  430000    306.36338   -1410.2476    491.20711    459.90821     32.55979    39194.267 
  430100    303.73421   -1403.8947    512.60806    475.82809    34.107732    39194.267 
  430200    291.36229   -1395.9451    498.95113    414.43441     360.1843    39194.267 
  430300    292.16049   -1434.7574    530.83219    411.09591    386.04354    39194.267 
  430400    302.74077    -1441.456    504.59411    425.78137    264.63514    39194.267 
  430500     294.3099   -1441.0922    482.41583    366.01936    -158.4685    39194.267 
  430600    304.66428   -1464.1404    498.59463     405.7552    453.12403    39194.267 
  430700    307.99386   -1442.4847    499.57434    443.37712    407.96165    39194.267 
  430800    301.27612   -1490.3145    491.23647     356.9728    387.08061    39194.267 
  430900    301.65522   -1517.7309    486.83823    326.86449    485.12786    39194.267 
  431000    287.62221   -1548.7572      489.417    235.25399    348.79329    39194.267 
  431100    302.78575   -1509.5246    487.08487    340.40598    162.06671    39194.267 
  431200    292.94633   -1485.4545    486.46328    319.56699   -408.78116    39194.267 
  431300    300.46332    -1527.308    494.70934    319.79374    55.307814    39194.267 
  431400    299.88774   -1484.6136    505.94848    371.13654     329.9635    39194.267 
  431500     307.9019   -1473.0401    485.21551    398.04901    355.60212    39194.267 
  431600    300.45501   -1479.9191     490.7129    363.14873    392.74351    39194.267 
  431700    296.27345   -1475.5661     498.9059    356.87342    341.80364    39194.267 
  431800    299.31214   -1457.7252    511.44322    400.92886    219.45188    39194.267 
  431900    303.07795   -1426.8964    503.46223    440.72664    231.55494    39194.267 
  432000    306.99559   -1467.9161     475.7766    389.65471    112.44794    39194.267 
  432100    307.06124   -1438.6925    492.93935    436.33661   -97.452276    39194.267 
  432200    292.32804   -1450.9796    501.38498    366.18066    124.52346    39194.267 
  432300    296.61412   -1425.3974     507.7545    417.42415   -105.22826    39194.267 
  432400    300.40563   -1400.8239    517.85809    469.16691   -146.32991    39194.267 
  432500    294.62158   -1480.6697    503.38326    348.81208   -222.12461    39194.267 
  432600    303.30974   -1453.9195    484.80766    396.09234   -23.852724    39194.267 
  432700     300.4218   -1437.1009      493.925    409.02955   -324.63923    39194.267 
  432800    300.43417   -1443.2867    494.63363    403.60809    560.82027    39194.267 
  432900    293.85928   -1450.5854    500.98721    373.06919    240.54675    39194.267 
  433000    295.88332    -1475.674    493.25045    349.35413    870.25644    39194.267 
  433100    289.27193   -1453.8297    494.31656    342.50653    239.80774    39194.267 
  433200    298.29976   -1415.4537    497.22117    424.42162    102.76878    39194.267 
  433300    299.09376   -1405.0389    492.86776    434.05686   -93.846754    39194.267 
  433400    298.80277   -1431.9138    503.80458     416.8089    93.728818    39194.267 
  433500    290.62152   -1425.6979    474.89981    357.29607    280.54989    39194.267 
  433600    308.17882   -1429.5041    498.33518    455.95106    455.52576    39194.267 
  433700     299.9822   -1448.7456    501.43598    402.91717    650.46554    39194.267 
  433800    302.27695   -1403.0542     503.2528    460.75415    204.70211    39194.267 
  433900    297.35315   -1435.2457    492.46887    395.61655    112.67641    39194.267 
  434000    309.51482   -1474.6106    479.69872    398.22151     364.7984    39194.267 
  434100    310.69256   -1437.4004    486.88183     447.9158    63.808351    39194.267 
  434200    295.84906   -1452.2349    475.57195    354.96049   -358.98454    39194.267 
  434300    292.81066   -1463.8026    486.44269     340.5877   -818.81603    39194.267 
  434400    294.76066   -1445.5414     511.1907    392.37385    159.06563    39194.267 
  434500    304.10354   -1457.7359    497.00789    408.04907   -266.65554    39194.267 
  434600    294.26933   -1441.8683    469.38248    352.02726   -386.10453    39194.267 
  434700    291.76753   -1478.0802    486.50017    321.67241   -119.14177    39194.267 
  434800    300.64589   -1440.2094     477.0473    390.05206    716.84125    39194.267 
  434900    299.14226   -1461.7818    506.44295     391.1074   -256.86774    39194.267 
  435000    291.88509   -1430.8543    483.87942    366.80667   -128.53374    39194.267 
  435100     301.9697   -1435.1569    510.71548    434.73117   -99.716382    39194.267 
  435200    293.90697   -1429.1307    475.02863    368.77998   -189.72254    39194.267 
  435300    293.92692    -1415.425    527.89612    435.44298   -116.44499    39194.267 
  435400    303.86519   -1447.1678    491.48318    412.01966   -613.34577    39194.267 
  435500    298.15117   -1456.6601     482.9383    368.26349   -457.23403    39194.267 
  435600    297.40547   -1417.7764     520.5236    441.37612   -681.64249    39194.267 
  435700    296.62886   -1416.0805     500.3574    419.41031    -905.2609    39194.267 
  435800    306.52211   -1438.1627     521.0647    462.56511   -866.51077    39194.267 
  435900    306.98545   -1443.9353    499.40813    437.22145    -164.8099    39194.267 
  436000    296.35873   -1377.7021    511.69509    467.91046   -223.84728    39194.267 
  436100    306.95258   -1439.0727    517.13424    459.66225     55.07376    39194.267 
  436200    305.60429    -1416.882     471.2452    429.89522    296.50524    39194.267 
  436300    294.60743   -1448.6142    515.75592    393.17656    219.49849    39194.267 
  436400    304.88524   -1434.5426    491.51352    429.26642    521.88158    39194.267 
  436500    284.84929   -1476.2589    499.66519     305.5195    523.50631    39194.267 
  436600    299.53083   -1455.3892    512.38793     405.1939   -211.24404    39194.267 
  436700    309.55943   -1449.3072    522.53872    466.56571    800.07624    39194.267 
  436800    294.46435   -1481.5576     503.7724    347.60566    696.33101    39194.267 
  436900    298.86375   -1449.6708    546.27423    441.79611    648.75959    39194.267 
  437000    300.12162   -1404.3667    521.82033    468.30804    209.23944    39194.267 
  437100    306.47331   -1436.0839    508.49388    451.85341    602.39094    39194.267 
  437200    300.95486   -1402.8262    531.57035    483.34889    114.15497    39194.267 
  437300    303.28632   -1400.1356     524.3172    489.28038    54.705452    39194.267 
  437400    311.39608   -1454.5304    497.24109     444.3117   -49.602422    39194.267 
  437500    306.06115   -1396.2846    519.88237     501.1861   -46.853714    39194.267 
  437600    300.39894    -1449.521    524.44262    427.02425    326.86703    39194.267 
  437700    297.57414    -1434.589     513.6334    418.43248    10.819152    39194.267 
  437800    298.87437   -1444.5134    514.99028    415.71728    0.7589838    39194.267 
  437900    308.32624   -1423.6783    493.43469    457.53994    162.36271    39194.267 
  438000    309.48539   -1420.9545     505.3422    477.38856   -251.40429    39194.267 
  438100    287.14432   -1414.4361    499.17564    377.18283    396.80486    39194.267 
  438200    298.09885   -1443.9013    533.36374    431.21231    538.57836    39194.267 
  438300    293.65219   -1410.3192      528.136    439.55209    500.43975    39194.267 
  438400     291.6487   -1458.7389     518.3022    372.28092   -279.27392    39194.267 
  438500      297.819   -1419.8931     521.4242    442.02136    497.61066    39194.267 
  438600    293.68888    -1426.902    506.55623    401.55469    162.67915    39194.267 
  438700    303.11351   -1415.6772    540.55833    489.20204    159.46741    39194.267 
  438800    294.78503   -1389.1962    521.00225     458.6403    154.25175    39194.267 
  438900    301.50927   -1392.7554    530.47439    494.81917   -646.63497    39194.267 
  439000    298.11845   -1411.5284    520.85068    451.16028    67.693649    39194.267 
  439100    308.75685   -1423.1788     506.7168    473.25975   -91.701841    39194.267 
  439200    292.19067   -1453.0977    501.69692    363.75617   -668.07493    39194.267 
  439300    314.48499   -1442.2295    497.28414    470.55883   -60.822712    39194.267 
  439400    295.31552   -1469.8508    507.60862     366.9798     -281.996    39194.267 
  439500    308.79126    -1440.891     531.1268    480.11247    432.54406    39194.267 
  439600    297.98452   -1439.3097    526.60198    428.52754    547.61265    39194.267 
  439700    297.71849   -1466.6949     538.6357    411.97869    167.90372    39194.267 
  439800    311.59677   -1504.8542    490.58621    388.23633    365.47995    39194.267 
  439900    303.18884   -1464.5178    495.58055    395.72276    592.39585    39194.267 
  440000    305.16251   -1490.5589    493.05251    376.03713    308.24851    39194.267 
  440100    307.87882   -1418.2629    519.36653    486.87333    452.65435    39194.267 
  440200    300.47823   -1483.4389    467.06806    336.08864    -94.78559    39194.267 
  440300    295.65721   -1481.3589    510.16517     359.5662   -39.849355    39194.267 
  440400     302.7344    -1523.561    512.97591    352.02942    184.14232    39194.267 
  440500    305.38989   -1507.3499    503.37443    370.59147     19.83208    39194.267 
  440600    286.06558   -1496.3791     503.9714    295.18017   -282.11086    39194.267 
  440700    307.84987   -1508.1886    487.84837    365.29918    212.14932    39194.267 
  440800     301.1989   -1506.3218    471.98332    321.36473   -10.915738    39194.267 
  440900    306.72839   -1444.6255    534.46102    470.42706    100.32841    39194.267 
  441000    298.49663   -1486.3546    494.72504    351.91066     15.90131    39194.267 
  441100    292.61712   -1463.5566    522.00845    375.52831   -126.37232    39194.267 
  441200    295.16237   -1489.1569    498.00843     337.3842   -202.88703    39194.267 
  441300     301.7228   -1470.4585    471.12955    358.73234    28.715266    39194.267 
  441400    306.87952   -1447.0038    525.25249    459.52051   -296.91031    39194.267 
  441500    296.65687   -1463.2629    522.77037    394.76687   -370.77946    39194.267 
  441600    302.64354   -1412.4523     489.8861     439.6394   -40.838485    39194.267 
  441700    308.07901   -1409.6866    519.65023    496.63436   -516.87715    39194.267 
  441800    294.91302   -1415.0757    503.51293    415.84755    -278.1666    39194.267 
  441900    297.33565   -1467.0551    498.61079    369.87031    -88.79491    39194.267 
  442000     303.0661   -1448.8764    535.42398    450.65512   -327.73644    39194.267 
  442100    295.53117   -1451.8404    478.42399    356.77624     452.1283    39194.267 
  442200    298.04928   -1465.7879    528.43725    404.17602   -45.484451    39194.267 
  442300    299.50679   -1465.0546    495.81238    378.84479   -577.13196    39194.267 
  442400     302.2035   -1453.0746    512.95634    420.10668   -709.08676    39194.267 
  442500    294.84409   -1462.5049    488.44154    353.03671   -512.63675    39194.267 
  442600    309.25668   -1483.6377    478.55659    386.89043   -188.89418    39194.267 
  442700    290.80374   -1451.0939     513.1234     370.9439   -195.53882    39194.267 
  442800    297.51837   -1436.9374     493.0189    395.21859   -250.44533    39194.267 
  442900    296.66234   -1430.5116    515.17409    419.94661    520.50662    39194.267 
  443000    300.51258   -1433.3754    511.19791    430.43656    822.57259    39194.267 
  443100    289.30072   -1450.3375     535.9249     387.7366    613.59181    39194.267 
  443200     296.1339   -1432.7523    488.07159    388.22478    595.81902    39194.267 
  443300     296.3486   -1463.7514    505.91806    376.03862    187.24516    39194.267 
  443400    304.21867   -1424.6316     489.2521    433.91581    188.01314    39194.267 
  443500    289.24534    -1460.208    502.68316    344.37509   -334.97375    39194.267 
  443600    295.17764   -1418.2555    489.66847    400.01438   -602.35841    39194.267 
  443700    304.27665   -1429.7882    514.58927    454.35736   -216.57355    39194.267 
  443800     295.9776   -1444.7486    510.82895    398.28239    289.78192    39194.267 
  443900    307.81531   -1384.6773    528.21413    529.02067    244.88851    39194.267 
  444000    297.05007   -1410.7054    501.82296    428.14676    394.48908    39194.267 
  444100    292.25715   -1395.4926    544.67716    464.64075    270.08895    39194.267 
  444200    289.78747   -1429.1543    498.88752    374.07331    181.17538    39194.267 
  444300    295.45555   -1426.5157    538.39661    441.73315    207.28486    39194.267 
  444400    297.20274   -1420.1562    504.08149    421.64175   -183.20805    39194.267 
  444500    302.75449   -1395.7241    530.89966    497.88051    185.39757    39194.267 
  444600     308.7041    -1445.247     509.5324    453.76967    244.31122    39194.267 
  444700     292.3969   -1460.0514    496.56372    352.59754   -105.95734    39194.267 
  444800    292.14451   -1448.6002    522.59772    388.94676    70.561495    39194.267 
  444900     293.7467   -1439.3276    500.57695    383.41008    397.37986    39194.267 
  445000    297.44586   -1427.7901    513.52946     424.5501    325.41911    39194.267 
  445100    300.99818   -1441.8526    498.39371    411.34093    143.09641    39194.267 
  445200    296.04863   -1419.8455    511.61859     424.2948    634.54813    39194.267 
  445300     296.6763   -1461.8356     484.5982    358.10951    753.98399    39194.267 
  445400    306.33032   -1457.0563    515.95355    437.69713    637.62609    39194.267 
  445500    304.25492   -1488.0526     514.4062    395.81205     44.47814    39194.267 
  445600    304.53465   -1446.9279    501.10131    424.89096   -580.34275    39194.267 
  445700    292.48786   -1485.4824    484.64041    315.65268   -546.10762    39194.267 
  445800    294.02306   -1466.1058    494.71939    352.01817   -477.30845    39194.267 
  445900    307.75706   -1475.6869    509.69616    419.23088    8.4646874    39194.267 
  446000    312.72035   -1458.8846    502.23662    450.91358     245.5472    39194.267 
  446100    300.04342   -1453.5942    484.52221    381.43039    278.04903    39194.267 
  446200     301.6122   -1482.4121    502.35748     377.5089    -55.11293    39194.267 
  446300    314.86809   -1427.3333    490.69102    480.58635    502.03519    39194.267 
  446400    300.68264   -1482.7148    496.01795    366.68269    111.75522    39194.267 
  446500    302.83708   -1469.6008    500.41271    393.88859    420.36689    39194.267 
  446600    294.98609    -1453.146    515.05539    389.64865    340.08106    39194.267 
  446700    295.50974   -1473.4138    481.02984    337.71221   -42.636966    39194.267 
  446800    297.25875    -1461.128    536.42608    413.26661    323.51418    39194.267 
  446900    296.19513   -1441.6982    479.22851    370.71145   -858.89012    39194.267 
  447000    307.95241   -1428.7591    501.54968    458.89148   -918.39294    39194.267 
  447100    291.01774   -1475.3675    485.08146    319.59152   -640.17881    39194.267 
  447200    311.78059   -1463.4282    481.79697    421.70044    -992.4577    39194.267 
  447300     303.5793   -1485.3965    513.27578    394.29678   -136.80945    39194.267 
  447400    294.10917   -1430.3388    490.19206    383.64543   -685.77663    39194.267 
  447500     314.8153   -1444.4609       505.12    477.65004   -411.17527    39194.267 
  447600    298.31514   -1426.2102    523.09986    439.61302   -183.44431    39194.267 
  447700    291.47086   -1439.2631    507.53387    380.18785   -202.60946    39194.267 
  447800    307.25837   -1446.6393     493.0451    429.38287   -62.994562    39194.267 
  447900    305.10995   -1442.7756    493.53335    424.06475    206.86307    39194.267 
  448000    299.00454   -1444.7249     490.0999    391.20138    134.57343    39194.267 
  448100    298.16367   -1476.5835    490.54027    355.99834   -261.06636    39194.267 
  448200    296.65893   -1479.0863     490.2805    346.46295   -294.15239    39194.267 
  448300    303.56239   -1441.6153    486.94823    411.67427    336.76946    39194.267 
  448400    305.70459   -1453.3011    457.19214    379.87445     44.07384    39194.267 
  448500    296.56207   -1431.3793    497.54946    401.00292   -236.71168    39194.267 
  448600    306.96267    -1443.279    504.09698    442.46409     388.4241    39194.267 
  448700    308.32204   -1432.8443    507.36435    462.28466   -289.82676    39194.267 
  448800    305.41027   -1428.8178    488.82939    434.67036   -344.07424    39194.267 
  448900    297.42608   -1395.2612     506.0651    449.52562   -393.43537    39194.267 
  449000     308.4674   -1421.8661    494.87242    461.42526   -83.265518    39194.267 
  449100     304.6354   -1372.7984    527.11489    525.48744   -216.49133    39194.267 
  449200    292.13711   -1388.6309    504.51425    430.79921   -389.13834    39194.267 
  449300    305.88894   -1375.6772    496.24564    497.38168   -619.46767    39194.267 
  449400    295.70632   -1387.5041    523.26966    466.74653   -183.57225    39194.267 
  449500    318.37398   -1432.3777    538.28645    538.91743   -338.03349    39194.267 
  449600    296.65205   -1442.4875    491.55597    384.30618   -327.52141    39194.267 
  449700    305.78711   -1431.0774    516.73638     462.0138    142.10797    39194.267 
  449800    308.06148   -1419.1136    493.07795    460.55618    259.92215    39194.267 
  449900     290.5761   -1404.2141     513.1293    416.80502   -327.03314    39194.267 
  450000    303.54939   -1439.7933     498.2878    424.77732     268.8472    39194.267 
  450100    292.49994   -1440.0395    503.62018    380.12972    353.97935    39194.267 
  450200    305.22489   -1449.0959    520.82543    445.55387   -269.16306    39194.267 
  450300    309.59869   -1428.4065    498.20622    463.31064    409.68442    39194.267 
  450400    304.35495   -1420.1295    512.00762    461.78682   -157.40546    39194.267 
  450500    309.77206    -1401.936    501.74714    494.10232   -685.54759    39194.267 
  450600    298.05012   -1355.5397    498.87428    484.86512   -302.24421    39194.267 
  450700    313.45016   -1392.2992     500.4703    519.01753    297.75081    39194.267 
  450800    303.13361   -1434.4933    509.93244    439.85051   -137.22826    39194.267 
  450900    306.03687   -1459.5399    497.22608    415.16527    344.83096    39194.267 
  451000    293.26724   -1440.5413    507.18705    386.64845   -110.68607    39194.267 
  451100    305.07157   -1456.2208    523.63305    440.54641   -113.63799    39194.267 
  451200     304.8009   -1447.0053    476.73727    401.64792   -478.56117    39194.267 
  451300    297.69975   -1420.1074    491.20958    411.05564   -352.84776    39194.267 
  451400    307.33858   -1429.1465     520.1735    474.36507   -343.21158    39194.267 
  451500    322.74375   -1415.9977    513.51045     550.1899   -309.79762    39194.267 
  451600    298.40795   -1392.2473    513.35665    464.25049   -345.67549    39194.267 
  451700    306.37693   -1429.1135    486.79341    436.68961   -38.868989    39194.267 
  451800    298.33358   -1412.0162    512.05927    442.84947    256.79757    39194.267 
  451900    294.82295   -1429.4869    508.89096      406.409    315.34709    39194.267 
  452000    294.06411   -1487.1822    504.52329    340.93047    607.03953    39194.267 
  452100    293.11215   -1419.4112    528.38197    428.27533    640.35989    39194.267 
  452200    295.72314   -1477.8501    513.81535    367.02195    111.11098    39194.267 
  452300    301.03606    -1437.938    517.10647    434.13876    517.88674    39194.267 
  452400    292.29363   -1452.9021    506.04985    368.76812     387.8295    39194.267 
  452500    304.89053   -1498.8657    491.37419    364.82788    156.98766    39194.267 
  452600     303.4683   -1494.2862    508.95633    380.58797   -49.806965    39194.267 
  452700    307.92268   -1440.0773    504.59917    450.48902    467.09213    39194.267 
  452800     295.9139   -1408.8352    513.43397     436.5141     441.9884    39194.267 
  452900    292.92338   -1416.6278    507.98977    409.81688    407.88977    39194.267 
  453000    297.20902   -1408.1636     480.2724     409.8535    358.90179    39194.267 
  453100    290.42438   -1454.5209    508.67039    361.35633    90.999018    39194.267 
  453200    290.27594   -1433.9173    506.88775     379.5092    162.59501    39194.267 
  453300    293.18352    -1476.477    469.89035    313.03914    42.758776    39194.267 
  453400    297.90298   -1458.2144    522.22247    404.87629    346.83048    39194.267 
  453500    294.07583   -1480.9335    476.95355    319.66213    840.71483    39194.267 
  453600    297.24656    -1433.282    513.53314    418.16476    678.96057    39194.267 
  453700    298.71636   -1498.1983    490.68964    337.02062   -122.95514    39194.267 
  453800    302.59281   -1528.7859    477.88199    311.07339    15.545391    39194.267 
  453900    309.72424   -1525.6249    502.33282     370.7839    60.186089    39194.267 
  454000    302.93887   -1527.7196    452.66257    288.47787    -417.0108    39194.267 
  454100    300.27695   -1493.3342    488.93784    347.15718   -209.10358    39194.267 
  454200    301.93901   -1518.8329     476.6338    316.83534   -33.938997    39194.267 
  454300    298.76283   -1482.2972    518.00875    380.44995    -31.93219    39194.267 
  454400    292.33866   -1480.4584    511.33226    346.69696    175.84555    39194.267 
  454500    299.78424   -1500.4965    482.84556    331.68486   -105.19992    39194.267 
  454600     291.8274   -1492.2366    518.57352    339.85886   -834.76482    39194.267 
  454700    300.80735   -1493.7306    482.51292    342.72315   -399.99292    39194.267 
  454800    305.92715   -1479.9707    473.77585    370.79029   -399.95477    39194.267 
  454900    294.29612   -1485.5097    488.14185    327.26581   -994.50846    39194.267 
  455000    299.23106   -1410.2498    460.87972    397.47588   -569.85148    39194.267 
  455100    297.13667   -1436.8509    506.67826    407.24642    -593.7695    39194.267 
  455200    297.91102   -1540.0889    483.21161    284.02708   -213.63139    39194.267 
  455300    296.88944   -1493.6877    473.41228    316.03081   -56.235765    39194.267 
  455400    290.68779   -1491.1794    508.13015    325.34322   -202.61653    39194.267 
  455500    294.38217   -1502.1249    497.27715    320.17323   -377.80976    39194.267 
  455600    293.02584   -1443.6889    497.09611    372.32328   -401.44106    39194.267 
  455700    307.51409   -1461.0784    500.69057    423.74019   -221.08684    39194.267 
  455800    301.33283   -1471.1221    488.81514    373.99905   -141.97175    39194.267 
  455900    297.41844    -1469.671    501.32574    370.34207   -469.20091    39194.267 
  456000    297.81979   -1477.0583    455.18858    318.62411   -369.28314    39194.267 
  456100    295.68662   -1492.8787    487.23226    325.24589   -289.37271    39194.267 
  456200    291.97589   -1440.9297    492.79188    366.05242    177.78183    39194.267 
  456300    296.92528   -1457.0487    499.74629    379.16512   -72.921844    39194.267 
  456400    286.63896   -1459.3779    456.00524    286.79597    44.520701    39194.267 
  456500     302.5167   -1481.4301    490.25649    370.46113    721.32291    39194.267 
  456600    296.68424   -1490.6185    507.59393     352.3581   -154.77158    39194.267 
  456700    299.39694   -1492.8613    480.49459    335.22592   -395.73065    39194.267 
  456800    302.02732   -1458.5697    504.52841     405.3907   -549.11053    39194.267 
  456900    306.27065   -1413.2425    503.49805    468.78687   -844.50151    39194.267 
  457000    298.27201    -1483.507    483.28933    342.31156   -800.21328    39194.267 
  457100    298.02369   -1479.7185     489.4029    351.09594   -436.95324    39194.267 
  457200    303.40542   -1447.6661    525.54505    443.51375    384.68007    39194.267 
  457300    303.54577   -1452.5176    500.40252    414.15148    221.55608    39194.267 
  457400     294.7553    -1436.469    484.34176    374.57317     459.5957    39194.267 
  457500    295.77418    -1450.232      528.386    409.44042    329.89177    39194.267 
  457600    291.18429   -1466.4981    502.40206     346.5312   -284.48324    39194.267 
  457700    306.54857   -1445.4943    513.87029    448.15826   -377.22132    39194.267 
  457800    303.34199   -1434.4688    507.63495    438.51545   -764.87096    39194.267 
  457900    297.54913   -1439.8916    513.40524    412.78919   -163.33738    39194.267 
  458000    294.24437   -1409.7239    501.67992    416.35675    40.382291    39194.267 
  458100    314.04693   -1418.7736    544.37089    539.12974    35.772084    39194.267 
  458200    307.01187    -1419.769     508.0571     470.1557    618.03231    39194.267 
  458300    300.57415   -1468.5734    522.96179    407.27954    122.76953    39194.267 
  458400    296.31463   -1454.6094    506.77223    385.88185    197.13847    39194.267 
  458500    307.41624   -1469.6906    491.60941    405.60642   -81.125936    39194.267 
  458600     298.9172    -1437.804    510.41979    418.04901   -51.646141    39194.267 
  458700    294.07739   -1453.6947    514.11147    384.06591    95.846707    39194.267 
  458800    299.78813   -1445.9511    521.98023     425.3825    112.45145    39194.267 
  458900    292.31944   -1455.9262    472.98787    332.79819   -44.072722    39194.267 
  459000    292.00976   -1460.5276    506.82501    360.64008   -8.2618196    39194.267 
  459100    296.21231   -1478.2684    500.39581    355.38591    1336.9454    39194.267 
  459200    299.43743   -1499.9616      493.474    341.28722    840.39492    39194.267 
  459300    307.00417     -1501.78    485.81625    365.86919    556.50313    39194.267 
  459400    301.86587   -1476.2427    481.40213    363.86467    406.90022    39194.267 
  459500    309.91315   -1446.7876    468.72044    416.85913    168.93663    39194.267 
  459600    303.92917   -1477.9446    472.89651    362.94418     510.4884    39194.267 
  459700    289.32557    -1464.509     507.8417    345.59382    10.048056    39194.267 
  459800    303.65244   -1495.8611    493.42851    364.31414    193.40945    39194.267 
  459900    306.32247   -1460.0192    480.37731    399.12269    137.64809    39194.267 
  460000    311.34881   -1444.1844    490.16266    447.36644    259.46423    39194.267 
  460100    295.75689   -1464.5411    499.30403    365.97154   -626.30051    39194.267 
  460200    302.16564   -1474.2323    475.76385    361.58615   -122.49515    39194.267 
  460300     300.2839   -1491.9833    512.51955    372.12102   -47.757119    39194.267 
  460400    306.83882   -1466.8433    505.85859    420.10387    -40.35776    39194.267 
  460500    298.06425   -1431.2494    487.78881    398.13349    295.56423    39194.267 
  460600    302.75637   -1496.7528     516.1526    382.11325    500.85015    39194.267 
  460700    302.99345    -1461.588    489.96553    392.15807    328.13078    39194.267 
  460800    289.58394   -1447.2764    485.89381    342.04143    176.58574    39194.267 
  460900    300.61783   -1479.7002    474.18023    347.56785   -141.25136    39194.267 
  461000    297.16177   -1430.0687     521.5368    429.00006   -284.92351    39194.267 
  461100    308.91252    -1497.956    459.31047    351.77681    13.935907    39194.267 
  461200    304.38772   -1490.7002    492.76987    372.12588    -262.6537    39194.267 
  461300    288.99001   -1450.6727    500.87268    350.95072   -321.92383    39194.267 
  461400    288.65829   -1445.9632    497.54951    350.84396    68.604202    39194.267 
  461500     296.6787   -1478.2989     484.7254    341.78419   -457.20736    39194.267 
  461600    303.32083    -1448.066    495.96996    413.15802   -756.59086    39194.267 
  461700    297.86177   -1477.4419    476.85997    340.10078   -372.91655    39194.267 
  461800    306.56164   -1498.8635    509.93845    390.91596   -196.73228    39194.267 
  461900    298.83671   -1486.2842    496.53396    355.32073   -288.88172    39194.267 
  462000    307.61858   -1452.1202    491.65679    424.13497    421.10114    39194.267 
  462100    305.45468   -1479.1756     496.2407    391.92368    137.36972    39194.267 
  462200    300.99619   -1487.0786    485.59053    353.30281    159.66902    39194.267 
  462300     302.7946   -1478.9448    482.00511    365.94583    -41.96991    39194.267 
  462400    300.99342   -1476.7371     488.9551    366.99632   -137.51401    39194.267 
  462500    293.27112   -1500.1842    502.23783    322.07376    1.6754657    39194.267 
  462600    303.85469   -1472.8848    469.88245     364.6546    58.931723    39194.267 
  462700    300.92728   -1480.0313    488.27113    362.72053    187.72218    39194.267 
  462800    295.17221   -1444.0605    513.69379    398.21023    743.50891    39194.267 
  462900    294.76714   -1413.2424    486.89258    400.40396    710.57369    39194.267 
  463000    307.38279   -1447.1223    501.83361    438.24839     569.4408    39194.267 
  463100    299.26846   -1428.7973    491.59938    409.81634    584.16435    39194.267 
  463200    294.96098   -1444.6169    493.24163    376.25093    140.43219    39194.267 
  463300    291.68449   -1433.3729    493.87487    373.38059    511.05597    39194.267 
  463400    317.11041   -1443.7756    492.36423    475.90992    49.231136    39194.267 
  463500    303.07689   -1468.6458    498.75266    394.26293    53.976054    39194.267 
  463600    296.55701   -1483.3643    472.59017     324.0358    47.919468    39194.267 
  463700    293.96556   -1463.3532    481.17888    340.97142    42.232499    39194.267 
  463800    304.39772   -1439.7738    478.45104    408.77838    463.28929    39194.267 
  463900    310.40712   -1457.6816    508.56248    448.03052    628.41359    39194.267 
  464000    317.48923    -1456.087    524.78984    497.72922    967.70963    39194.267 
  464100    304.57102   -1423.0172    516.22303    464.08712    763.37202    39194.267 
  464200    303.67104   -1386.1559    491.10115    471.77564    64.867058    39194.267 
  464300    301.96708   -1377.2353    513.71549    495.64102    42.452613    39194.267 
  464400    294.55692   -1401.3741    474.57806     399.0115    272.51444    39194.267 
  464500    292.28559   -1409.4735    487.88819     393.9989    275.61963    39194.267 
  464600    303.33083   -1396.9628    514.20974    482.54606     89.15534    39194.267 
  464700    303.40173   -1404.8144    510.25022    471.05398    553.38105    39194.267 
  464800    314.59544   -1417.0196    505.51197    504.49377     504.8825    39194.267 
  464900    302.18363   -1413.5939    495.29723    441.83886    461.17348    39194.267 
  465000    292.43753   -1433.9031    507.61199    389.97703    69.548811    39194.267 
  465100    300.02663   -1438.2596    509.85472    422.02198   -248.04582    39194.267 
  465200     302.6352   -1392.7447    482.56302     451.9864    418.59271    39194.267 
  465300    287.26707   -1403.1346    527.76523    417.62641   -373.94711    39194.267 
  465400    305.98303   -1414.2986    519.67453     482.6127    361.85638    39194.267 
  465500    293.82746    -1386.181     480.7644     417.1076   -194.42684    39194.267 
  465600    307.24465   -1372.8861    530.35282    540.38198   -294.93964    39194.267 
  465700    299.75536   -1379.7645    478.73008    448.17141    316.77878    39194.267 
  465800    303.49637   -1413.2972    514.33054    467.07755    611.23208    39194.267 
  465900    295.82434   -1419.1258    512.41914    424.80559    925.40497    39194.267 
  466000    301.40044   -1457.0527    486.74771    386.30534    577.83257    39194.267 
  466100    303.26147   -1426.8971    513.35395    451.44372    592.28961    39194.267 
  466200    303.02371   -1412.5671    510.20841    461.55803    321.52934    39194.267 
  466300    298.65906   -1376.6307    524.81896    492.45957    116.30726    39194.267 
  466400    295.44211   -1447.2576    511.26094    393.79516   -97.212978    39194.267 
  466500    301.04297   -1415.3329    505.39433    445.06282    199.38933    39194.267 
  466600    291.24759   -1398.0865    516.95804    429.78371    81.342498    39194.267 
  466700    292.64564   -1432.6752    498.45634    382.98593   -604.24009    39194.267 
  466800    304.97792   -1450.9022    506.59888    428.40939    -492.9336    39194.267 
  466900    289.95647   -1421.0125     509.5123    393.60056   -607.92332    39194.267 
  467000    303.92089    -1381.467    514.01729    500.50523   -473.60495    39194.267 
  467100    295.80183   -1428.2988    483.03558    386.14762    400.30751    39194.267 
  467200    308.43663   -1480.9928    526.40385    433.69143    74.095055    39194.267 
  467300    294.44235   -1474.0056     495.2767    346.56289    189.15602    39194.267 
  467400    303.26729   -1489.0354    519.23033      395.208    351.00331    39194.267 
  467500    301.90411   -1452.7567    484.82057     390.9413    413.29565    39194.267 
  467600    296.85839   -1489.9324    488.80047     335.0345   -4.3403525    39194.267 
  467700    304.03486   -1473.3788    512.31114    407.40024    380.55065    39194.267 
  467800    297.36744   -1456.0942    480.60031    362.96389    150.06229    39194.267 
  467900    308.93806   -1439.5741    507.80345    458.76675    40.830977    39194.267 
  468000    308.90058   -1486.8852    500.16998     403.6534    589.31452    39194.267 
  468100    301.88952   -1470.5659     508.0113    396.25715    667.18881    39194.267 
  468200    295.88609   -1434.6532    494.61055    391.74748     552.7648    39194.267 
  468300    308.66671   -1486.9348    499.21421    401.59539    512.58839    39194.267 
  468400    296.17756   -1438.0535    513.79924    408.84783    198.24984    39194.267 
  468500    298.10271   -1476.3212    481.84873    347.29477    41.456548    39194.267 
  468600    306.73128   -1467.0363    492.69974      406.268     227.0474    39194.267 
  468700    292.49361   -1462.3036    493.69347    347.91038   -213.56617    39194.267 
  468800     288.1265      -1463.3    512.47084     346.0349   -364.77677    39194.267 
  468900    298.54297   -1447.6863    502.60529    398.66781   -157.31524    39194.267 
  469000    302.24755   -1495.9926    499.10707    363.53766    54.235823    39194.267 
  469100    295.61994   -1504.8337    483.81214    309.57068    504.42066    39194.267 
  469200    290.41427   -1503.8414    503.91721    307.23715    449.44988    39194.267 
  469300    295.32711   -1511.3894    486.90692    304.79163    643.39415    39194.267 
  469400     309.2757   -1532.0553    483.74311    343.74491    36.202504    39194.267 
  469500    308.47183   -1502.9753    463.89987    349.36341    827.12051    39194.267 
  469600    297.23206   -1518.4452    490.72887    310.13206     1016.629    39194.267 
  469700    293.11779   -1505.7118     493.1526    306.77074    125.36398    39194.267 
  469800      303.034    -1501.939    485.64459    347.66859    346.62014    39194.267 
  469900    303.88097    -1490.782    504.24707    381.24034    379.51818    39194.267 
  470000    290.97798    -1490.951    482.99573    301.74335    118.54524    39194.267 
  470100    292.77739   -1475.1035    491.76584    334.46016    112.45772    39194.267 
  470200    305.86912   -1501.3126    493.60842    369.01978   -332.67064    39194.267 
  470300    296.37919   -1477.1173    461.82903     318.7213    190.70577    39194.267 
  470400     298.0307   -1520.7948     502.8244    323.47266   -51.485474    39194.267 
  470500    297.73704   -1468.6321    494.87932    366.36851   -473.97429    39194.267 
  470600    301.98723   -1502.2311    513.21368    370.23407   -12.427747    39194.267 
  470700    298.92228   -1484.9344    490.64219    351.16393    119.78283    39194.267 
  470800     302.9521   -1495.4838     507.8648    375.97545    261.82293    39194.267 
  470900    302.64365   -1512.0523      468.435    318.58881    501.36862    39194.267 
  471000    304.26231   -1481.4276     480.7492     368.8133    610.28733    39194.267 
  471100    299.37297   -1436.0074    538.75066    450.22795    623.12001    39194.267 
  471200    298.79404   -1466.6067    478.73121    357.00338    422.67903    39194.267 
  471300    306.31882   -1483.7979    505.03062    399.98082    585.08975    39194.267 
  471400    289.56387   -1465.1542    510.15557    348.33499    261.39277    39194.267 
  471500    300.93824   -1452.8894    494.94893    396.58958    88.146301    39194.267 
  471600    297.51201   -1424.7106    513.28736    427.68525   -167.16092    39194.267 
  471700    296.19612   -1466.8814    504.70594    371.01013   -553.35205    39194.267 
  471800     290.0719   -1464.5015    467.43342    308.55228   -176.04691    39194.267 
  471900    305.33832   -1455.9428    504.77923    423.17124   -321.76637    39194.267 
  472000    294.99234   -1496.5413    473.83335    305.05943   -915.55936    39194.267 
  472100    306.83496   -1505.9817    489.64204    364.73157   -218.28734    39194.267 
  472200    297.27128   -1502.0051    491.35344    327.37327   -454.80685    39194.267 
  472300    295.12964   -1518.5793    490.84654    300.65266    185.61396    39194.267 
  472400    297.64823   -1523.6283    465.47369    281.56693    81.167645    39194.267 
  472500    306.72487   -1517.1484    499.45668    362.88398    17.834612    39194.267 
  472600    308.95092   -1494.6075    489.45335    385.44109    254.13346    39194.267 
  472700    304.85437    -1428.675    510.32686    453.80848    353.84416    39194.267 
  472800    290.31943   -1439.0395     498.2786    365.97358    202.25034    39194.267 
  472900    293.87704     -1503.77     494.5519    313.52929    69.054345    39194.267 
  473000    310.30916   -1444.6466    499.27078    451.33289    393.63014    39194.267 
  473100    294.73343   -1439.5437    532.58407    419.64242   -178.32727    39194.267 
  473200    291.39482   -1457.0931    485.84017    340.32195   -482.79333    39194.267 
  473300    306.83173   -1416.7336    497.22556    461.54873    -81.75908    39194.267 
  473400    296.11224   -1425.9722    498.97523    405.81107   -208.66745    39194.267 
  473500    299.72838   -1456.3972    487.56011     380.2473    -278.2584    39194.267 
  473600     303.6493   -1463.4104    486.52492    389.84708     323.3605    39194.267 
  473700    304.59401   -1482.5584    487.97802     376.4043     209.2496    39194.267 
  473800    299.71313   -1455.7246    514.54172    407.83288    40.992074    39194.267 
  473900    303.29246   -1395.4386     474.7038    444.39158   -502.31918    39194.267 
  474000    302.16268   -1457.5252    494.75192    397.26798   -349.37698    39194.267 
  474100       307.95   -1438.8776    483.90935    431.12186   -310.53328    39194.267 
  474200    300.07678   -1419.2577     479.9979    411.39278   -129.98881    39194.267 
  474300    306.77992   -1450.5759    487.11977    417.36743   -263.97472    39194.267 
  474400    309.74841   -1439.2111    505.46989    460.44353   -78.448349    39194.267 
  474500    293.41035   -1453.0539    516.18354    383.77643    129.82885    39194.267 
  474600    299.26815    -1455.503    501.29945    392.80931    -541.1883    39194.267 
  474700     301.4351   -1420.1441    509.58783    446.21009   -181.46579    39194.267 
  474800     295.8192   -1446.1681    484.04166    369.36262   -459.72273    39194.267 
  474900    309.15031   -1424.1517    484.83638    452.17735   -433.44014    39194.267 
  475000    298.59608   -1422.9297    485.14908    406.20724    238.83357    39194.267 
  475100    299.89626   -1444.4404    473.27221    378.67183   -386.57077    39194.267 
  475200    293.25123   -1440.2227    506.20688    385.91473    234.76616    39194.267 
  475300    303.97258   -1436.3487    514.40362    446.24257    353.06895    39194.267 
  475400     313.8731   -1421.8264    497.65629    488.58002    258.54093    39194.267 
  475500    298.09471    -1394.491    497.22379    444.46394    130.35464    39194.267 
  475600    297.83045   -1406.9449    481.69739    415.29422    23.284868    39194.267 
  475700    292.13908   -1365.6732    510.90325    460.15482    -82.54154    39194.267 
  475800    303.93274   -1396.0262    477.56929    449.55137   -391.26233    39194.267 
  475900    304.49243    -1380.508     494.4817    484.50116   -60.936988    39194.267 
  476000    304.62238   -1410.5681    517.97322    478.51756    60.230885    39194.267 
  476100     292.7207   -1364.9886    476.57986    429.13394   -101.21915    39194.267 
  476200    304.88144   -1434.3912    517.41282        455.3   -116.17145    39194.267 
  476300    307.74779   -1419.9784    479.55153    444.75308   -51.915677    39194.267 
  476400    291.56682   -1407.0648    467.14603    372.43019   -541.41745    39194.267 
  476500    308.52388   -1424.8087    504.85038     468.7148   -188.96612    39194.267 
  476600    305.98066   -1461.0909    517.10424    433.23943   -171.69446    39194.267 
  476700    300.77206   -1427.4137    481.55269    407.92103    60.913066    39194.267 
  476800    304.78184   -1429.2991    515.72395    458.25499    191.25277    39194.267 
  476900    294.97972   -1432.8565    487.93456    382.78866    466.05181    39194.267 
  477000    304.37121   -1417.6023    509.11282    461.49241   -101.19157    39194.267 
  477100     300.9931   -1418.8111    496.45212      432.418   -503.22518    39194.267 
  477200    309.64385   -1421.4043    498.31393    470.62378    253.80996    39194.267 
  477300    300.66235   -1396.0217    494.18327    451.44974   -601.31974    39194.267 
  477400    300.21281   -1410.3709    518.11457    459.00849   -155.18017    39194.267 
  477500    295.65834   -1413.8893     500.1321    417.00783   -243.73289    39194.267 
  477600    286.17837   -1465.7949    505.38087    327.68144   -311.59475    39194.267 
  477700    304.83261   -1514.0463    476.57638    334.58871   -144.25349    39194.267 
  477800    293.89423   -1459.8141    482.37239      345.383   -395.02136    39194.267 
  477900    290.03655   -1489.1663    454.59757    270.89246    331.86562    39194.267 
  478000    295.67902   -1477.9344    511.24596    364.16969    42.797396    39194.267 
  478100    299.20448   -1420.7214    509.49011    435.49503    185.28537    39194.267 
  478200    302.66119   -1420.3619    484.94531    426.86844    550.28166    39194.267 
  478300    304.53919   -1450.2347    501.50818    422.01148   -11.378761    39194.267 
  478400    297.73997   -1411.3109    522.97393    451.79752    394.83783    39194.267 
  478500    301.10829   -1439.7857    487.15202    402.66171    787.44543    39194.267 
  478600    289.99816   -1410.0168      481.564    376.83567   -103.93731    39194.267 
  478700    300.28291   -1407.6644    478.47374    422.38967    393.09276    39194.267 
  478800    298.51096   -1434.5678    501.29662    410.33356    70.513634    39194.267 
  478900    291.42676   -1431.8297    500.57203    380.46089    45.163914    39194.267 
  479000    294.60212   -1441.2577     525.3056    410.05887    -37.74084    39194.267 
  479100    303.17369   -1436.2189    471.16675    399.53964   -239.07883    39194.267 
  479200    305.31056   -1416.5544     546.4287    504.08423   -499.32046    39194.267 
  479300    290.72035   -1385.0898    490.07018    413.51939   -462.79083    39194.267 
  479400    302.58071   -1395.1247    513.88382    480.68192   -516.84685    39194.267 
  479500    300.26194   -1428.0324    490.09195    413.54546   -762.08477    39194.267 
  479600     294.4997   -1391.8163    540.70067    474.43437    190.56106    39194.267 
  479700    293.27909   -1403.6188    501.03485    417.47204   -216.87695    39194.267 
  479800     297.7383   -1432.7625    509.63778     417.0023    284.50168    39194.267 
  479900    293.59678   -1429.5436    493.27164    385.21391    264.20496    39194.267 
  480000    287.65537   -1446.1027    510.19776    358.83852    731.17439    39194.267 
  480100    301.02446   -1458.9396    486.43331    382.41179     393.2849    39194.267 
  480200    310.30071   -1454.3251    474.01284     416.3584    448.09991    39194.267 
  480300    299.33424   -1432.2033    484.27726    399.38434    523.57573    39194.267 
  480400     301.1669   -1419.1001    496.39865     432.8578    393.48888    39194.267 
  480500    306.81007   -1470.8542    493.77018    403.87523    601.18867    39194.267 
  480600    302.75935   -1438.6884    495.48982    419.52826    822.87338    39194.267 
  480700    296.38845   -1462.5539    476.02991    347.52728    118.62745    39194.267 
  480800    294.74417   -1459.6523    497.88451    364.88254    193.81546    39194.267 
  480900     286.5331   -1432.6838    461.80862    318.81692    98.659511    39194.267 
  481000    294.89519   -1456.5882    509.18831    379.93015   -168.53639    39194.267 
  481100    298.19776   -1449.9285    476.32016    368.58666    13.464206    39194.267 
  481200    308.16033   -1452.8509    488.98595    423.17187   -250.88346    39194.267 
  481300    290.90154   -1465.2414    503.16012    347.27326   -169.88742    39194.267 
  481400    296.19575   -1452.1508    524.23096    405.26412    156.68108    39194.267 
  481500     301.0005   -1445.2884    503.15883    412.68068   -63.061321    39194.267 
  481600     305.0512   -1435.8524    511.71265    448.90278    331.83775    39194.267 
  481700    298.65728   -1449.4678    466.77479    361.57038    591.65017    39194.267 
  481800    303.75715   -1420.5469    510.47538    457.14646    271.61823    39194.267 
  481900    301.53271   -1421.0719     467.8294    403.96317    505.52895    39194.267 
  482000    293.17153   -1408.0488    500.13029    411.65338   -195.28494    39194.267 
  482100    292.86358   -1434.1344    498.09102    382.14236    450.16344    39194.267 
  482200    304.44092   -1410.1554    513.41505    473.55526    269.15449    39194.267 
  482300     300.8667   -1405.5426    505.23938    453.90479    41.849565    39194.267 
  482400    307.91594   -1423.7211    513.68682    475.90252   -162.52999    39194.267 
  482500     309.7086    -1411.375    487.97667    470.60719   -50.511842    39194.267 
  482600    300.68704   -1431.1684    513.20541    435.43635   -291.14148    39194.267 
  482700    303.64865   -1434.1697    502.79499    435.35494   -131.59448    39194.267 
  482800    295.23898   -1433.4553    486.53593    381.95818    105.23054    39194.267 
  482900     289.4954    -1474.689    484.65622    312.99276   -33.967317    39194.267 
  483000    299.75604   -1460.3763    523.18999    412.02263     14.12957    39194.267 
  483100    290.64349   -1455.8294    482.67752    335.04123   -394.20817    39194.267 
  483200    291.58766   -1454.1031    515.95884    374.29857   -267.08382    39194.267 
  483300    297.58937   -1464.1985    503.94687    379.20496   -908.33628    39194.267 
  483400    293.31481   -1424.4558    482.36956    378.13049   -661.88545    39194.267 
  483500    310.82096    -1413.718    511.93714    497.23153   -482.48934    39194.267 
  483600     301.3495   -1445.0143    498.57383    409.94064   -416.65458    39194.267 
  483700    290.06592   -1449.1156    509.10091    365.57874   -461.76584    39194.267 
  483800    288.88907   -1479.0112    494.98391    316.26914   -486.97753    39194.267 
  483900    309.40509   -1442.6106    490.10781    440.13672   -125.72549    39194.267 
  484000     305.8017   -1418.1121    483.41143    441.71982   -659.16233    39194.267 
  484100    294.83053   -1416.1519    482.91423    393.80137   -312.32055    39194.267 
  484200    304.38249   -1400.4965    492.37372    461.90985    58.171782    39194.267 
  484300    286.38909   -1410.2116     499.4663     378.2986    336.20936    39194.267 
  484400    295.93055     -1397.05    481.36062    416.30088    398.81812    39194.267 
  484500    295.15447   -1425.9347    500.40166    402.96404    266.72848    39194.267 
  484600    301.72438   -1427.9705    484.55576    414.65372   -156.76117    39194.267 
  484700    296.89326   -1456.9479    507.69067    387.06624   -407.75988    39194.267 
  484800    285.49356   -1424.9328    484.55962    344.63997    -63.52783    39194.267 
  484900    314.97111   -1432.3095    500.09161    485.47433    21.805918    39194.267 
  485000    309.26484   -1435.4605    492.65545    449.20313    166.64253    39194.267 
  485100    309.78528   -1434.8953    503.35424    462.80966    310.56817    39194.267 
  485200    285.77055   -1421.5694    470.12918    334.81964   -69.432195    39194.267 
  485300    296.94861    -1456.373    513.00976    393.20929   -659.68009    39194.267 
  485400     299.1196   -1458.8908    473.69727    361.15073   -198.96097    39194.267 
  485500      291.774   -1493.6621    467.00677    286.62618   -107.09316    39194.267 
  485600    305.23616   -1491.9283    453.06214    335.00883   -570.14568    39194.267 
  485700    304.25987   -1453.5053     471.8771    387.85254   -101.68943    39194.267 
  485800    297.11715   -1448.8855    503.45549    391.90123    310.05409    39194.267 
  485900    307.82733   -1451.0246    489.71615    424.22946   -48.383367    39194.267 
  486000    291.57129   -1450.4857    471.90018    333.78356   -767.43576    39194.267 
  486100    291.86905   -1436.0906    489.87413    367.49294   -657.04194    39194.267 
  486200    294.28779   -1430.5339    499.91081    393.97306   -458.63746    39194.267 
  486300    299.25245   -1436.7882    466.32306    376.47711   -176.68911    39194.267 
  486400    295.63992   -1494.3742    470.59688    306.90481    18.393287    39194.267 
  486500    295.66493   -1487.9739     498.2157    341.03649    26.094476    39194.267 
  486600    295.83688   -1488.2365    495.22585      338.558   -151.26593    39194.267 
  486700    286.93856   -1433.5885    480.74656    338.67517    30.142156    39194.267 
  486800    297.21953   -1402.1673     516.3242    451.94882   -348.27927    39194.267 
  486900    289.88347   -1400.7673    502.22348    406.22841   -413.19783    39194.267 
  487000    303.66215   -1377.4829    536.94441    526.25183   -92.932647    39194.267 
  487100     303.5113   -1427.1446    498.55204    437.51884    66.616694    39194.267 
  487200    309.70251   -1430.4386    508.51414    472.05365    99.752954    39194.267 
  487300    304.38876   -1401.4784    531.06031    499.64275    107.64108    39194.267 
  487400    291.62592    -1415.119    496.50417     394.0002    363.72965    39194.267 
  487500    306.14528   -1458.0755    505.05495    424.94641    372.65013    39194.267 
  487600    294.39955   -1439.6857    500.74388    386.15743    400.29578    39194.267 
  487700    293.03076   -1440.9898    486.77658    364.72503    438.92008    39194.267 
  487800    303.68006   -1474.4278    486.26169    378.70489    10.486166    39194.267 
  487900    291.02058   -1439.2647    473.04071    343.66632   -588.80362    39194.267 
  488000    297.97963   -1425.1729    492.96502    409.00536   -307.66432    39194.267 
  488100    299.16378   -1469.3642    467.54114    344.72007    81.194813    39194.267 
  488200    290.13699   -1440.9645     503.3213    368.27011    -22.28946    39194.267 
  488300    307.02455   -1399.1886    520.20403    502.94004     274.0244    39194.267 
  488400       303.59   -1367.9398    489.32026    487.84604    42.243059    39194.267 
  488500    296.96809   -1390.8049    500.25057    446.10596   -477.23003    39194.267 
  488600    309.43518   -1437.5796    493.90168    449.09703   -418.33389    39194.267 
  488700    292.63659   -1421.2134    491.65633    387.60705    -230.0847    39194.267 
  488800    306.63747   -1377.1399    487.66378    490.70629   -450.63384    39194.267 
  488900    307.56651   -1432.7828    491.92862    443.50977   -196.78375    39194.267 
  489000    295.48191   -1407.2288    489.84631    412.58843   -781.09668    39194.267 
  489100    307.43314   -1437.7304    501.49869    447.53198   -643.14785    39194.267 
  489200    287.48604   -1428.5696    501.99844    367.41016   -202.11931    39194.267 
  489300    316.90081   -1432.0148    493.23082    487.59394    157.51434    39194.267 
  489400    295.10055   -1421.4725    489.37678    396.15866   -607.56515    39194.267 
  489500    298.38182   -1424.4963     477.3361    395.86332    499.77479    39194.267 
  489600     303.3974   -1429.5024    479.51182    415.60816   -18.658297    39194.267 
  489700    299.03452   -1423.0013    481.29935     404.2594    212.04395    39194.267 
  489800    307.82765   -1412.4811    488.50636    461.56468    371.06311    39194.267 
  489900     301.5272   -1413.2817    474.26578    418.16495    213.68029    39194.267 
  490000    293.63678   -1404.9122    478.67279    395.42655   -226.51589    39194.267 
  490100    295.37788   -1377.6358    493.46733    445.33426    -354.7952    39194.267 
  490200    303.33249    -1416.305    484.48843    433.49004    677.74447    39194.267 
  490300    293.32694   -1451.9475    472.11303    340.43693     136.0071    39194.267 
  490400    297.46697   -1464.3942    479.97696    354.48852   -112.30857    39194.267 
  490500    305.16213   -1457.9094    459.95473    375.58716    253.51979    39194.267 
  490600    305.46941   -1454.8215    488.83928    408.94271    57.681189    39194.267 
  490700    296.52709   -1480.6461    475.28167    329.31087   -444.10996    39194.267 
  490800    303.36533    -1483.515    466.01109    347.95053   -163.77276    39194.267 
  490900    306.71078   -1438.4532    474.00503    416.06413   -85.488732    39194.267 
  491000    292.31069    -1475.646    476.21054    316.26169   -313.05322    39194.267 
  491100    305.06654    -1486.121     474.5742    361.56476    103.67061    39194.267 
  491200    305.87159   -1505.9927    466.54665    337.28905    -347.4295    39194.267 
  491300    295.62357   -1463.4909    490.49872    357.61635   -378.65447    39194.267 
  491400     298.2332   -1409.7521    467.28512    399.88758   -827.75383    39194.267 
  491500    309.04189   -1421.0678    502.15927    472.09621   -23.329537    39194.267 
  491600    310.98226   -1397.4824    480.16801    482.42396     -199.401    39194.267 
  491700    305.10937    -1433.627    473.43416    413.11147   -279.99077    39194.267 
  491800     288.1296   -1416.7642    465.21978    345.33355    41.871854    39194.267 
  491900    309.20223   -1388.1133    481.12229    484.73544   -84.761758    39194.267 
  492000    303.91652   -1375.7496    490.09399    482.27971    218.97508    39194.267 
  492100    304.93867   -1421.1993    492.41871    443.75543    169.40789    39194.267 
  492200    306.93503   -1448.3662    498.01162    431.16713    479.80885    39194.267 
  492300    297.52444   -1433.3473    506.80739    412.62448    890.41558    39194.267 
  492400    293.59612   -1417.6856    485.21035    389.00771     786.0788    39194.267 
  492500    302.83362   -1438.8419    470.23235    394.45162     373.8953    39194.267 
  492600    298.82448   -1441.9401    462.03733    365.11319     615.5483    39194.267 
  492700    296.61953   -1431.8633     475.3867    378.61482    260.86483    39194.267 
  492800    299.79039   -1448.8981    474.32021    374.78559   -6.8001569    39194.267 
  492900    301.55714   -1446.2511    474.13757    385.20213    751.86124    39194.267 
  493000    294.84076    -1467.583     479.1111    338.61324    387.87544    39194.267 
  493100     293.6692    -1460.751    504.34266    365.40357   -131.83165    39194.267 
  493200    293.99667   -1441.8073    478.21495    359.69345   -32.031056    39194.267 
  493300    293.49725   -1416.5436    496.13135    400.62574    305.69028    39194.267 
  493400    306.54199   -1416.5722    520.68804    483.86844    521.27909    39194.267 
  493500    307.65439   -1399.5922    487.11186    472.27923    80.449679    39194.267 
  493600    313.35082   -1399.2778    488.78389    499.90536    -253.4502    39194.267 
  493700    292.47601   -1430.1227     495.7355    382.05408   -545.60039    39194.267 
  493800    300.62309   -1406.8217    491.53846    437.82822   -397.41687    39194.267 
  493900    302.27572   -1444.8809    492.24271    407.91179    9.4954356    39194.267 
  494000    293.88507   -1493.4525    540.96593    370.29693    -593.9131    39194.267 
  494100    302.41372   -1428.1885    489.49098    422.47365    82.078367    39194.267 
  494200    301.61685   -1426.5162    472.44886    403.51708   -335.03965    39194.267 
  494300    299.37692   -1433.3408    486.84113    401.00277   -145.49872    39194.267 
  494400    305.50101   -1436.9344    485.07374    423.20645    259.19823    39194.267 
  494500    307.87245   -1462.2977    499.87512    423.31845   -14.510789    39194.267 
  494600    312.54216   -1452.7363     491.8267    445.84992    211.33615    39194.267 
  494700      304.195   -1479.5673    480.99493    370.61634    461.45544    39194.267 
  494800    299.27442   -1475.2412    469.29045    341.09033     88.06221    39194.267 
  494900    298.41149   -1481.2575    491.95729    353.85681    171.57627    39194.267 
  495000    299.40895   -1450.0267    491.19857    388.81846   -212.94352    39194.267 
  495100    303.08907     -1452.99    484.35647    395.57739   -207.69553    39194.267 
  495200    308.13484   -1434.9149    468.83175    420.83889   -553.27258    39194.267 
  495300    296.08669   -1439.9314    464.60465    357.36625   -625.82393    39194.267 
  495400    303.70634   -1439.0943    472.87127    400.76629   -635.63263    39194.267 
  495500    301.89419   -1474.3172    498.04288    382.55846    198.21844    39194.267 
  495600    303.86538   -1478.6175    486.98461    376.07227    55.790633    39194.267 
  495700    290.43072   -1453.6301    490.24594    343.85123     136.5571    39194.267 
  495800    297.38703   -1454.1793     460.4183     344.7849   -206.91762    39194.267 
  495900    312.37231   -1455.5702    485.81029    436.23513    420.25516    39194.267 
  496000    293.64224   -1487.1401     479.1999    313.75032   -495.50776    39194.267 
  496100    313.71583   -1493.3094    500.68685    419.41963   -176.17671    39194.267 
  496200    303.03707   -1424.8197    490.05446    429.21166   -583.82954    39194.267 
  496300    294.92239   -1423.9067    485.67109    389.21691   -49.152395    39194.267 
  496400    298.36005   -1404.5139    486.96862    425.38024   -190.92735    39194.267 
  496500    297.37852   -1391.0111    490.54793    438.04445    3.0877747    39194.267 
  496600    259.57798   -1431.9433     547.4615     283.8847   -512.10445    39194.267 
  496700    337.98934    -1410.007    426.76625    538.05712    558.33047    39194.267 
  496800    324.30489   -1413.1648    535.67082    582.20987    539.16766    39194.267 
  496900    249.69419   -1458.9851    492.78717     157.6814   -273.14742    39194.267 
  497000    315.48904   -1412.9564    483.26063    490.32767    492.42965    39194.267 
  497100    302.07899   -1416.1622    502.60534    446.10766     615.3819    39194.267 
  497200    310.26711   -1464.5143    470.60416    402.60931    485.04117    39194.267 
  497300    303.00846    -1468.731    495.10895    390.22608    191.31959    39194.267 
  497400    295.29196    -1423.038    495.93476    402.01273    679.99622    39194.267 
  497500    300.48475   -1459.1931    487.44724    380.74298    310.13645    39194.267 
  497600    294.47791   -1437.5764    484.68499    372.56051    588.67037    39194.267 
  497700    293.96689   -1438.3628    468.54435    353.33337     104.5515    39194.267 
  497800    289.21071   -1482.4903    514.60313    333.85698    219.88369    39194.267 
  497900    296.95762   -1437.9341    478.33345    377.01244    309.38033    39194.267 
  498000    306.19607    -1413.414    520.88834    485.66997      304.631    39194.267 
  498100    300.27363   -1397.9844    464.38555    417.93969     15.32415    39194.267 
  498200    294.11128   -1394.5855    495.57328    424.78946   -717.80327    39194.267 
  498300    303.53204    -1418.318    499.79274     447.6795   -740.98599    39194.267 
  498400    298.48308   -1435.2997    464.59821    372.77782   -602.33424    39194.267 
  498500    300.95477   -1439.9773      484.702    399.32915   -74.805756    39194.267 
  498600    291.59448    -1417.976    490.47693    384.97442   -549.60188    39194.267 
  498700    295.15312   -1421.9441    488.43398    394.98089   -123.71293    39194.267 
  498800    289.20788   -1425.9291     508.0045    383.80675    -643.7532    39194.267 
  498900    288.44686   -1428.7049    485.55682    355.15787   -1104.6406    39194.267 
  499000    290.92695   -1415.3762    483.77874    377.87154   -883.74348    39194.267 
  499100    293.63787   -1432.2515    488.12685     377.5462   -352.55764    39194.267 
  499200    308.61858   -1407.2342    505.74562    487.61076   -779.39417    39194.267 
  499300     298.1707   -1415.3236     499.6946     426.4442    36.124532    39194.267 
  499400      307.299   -1398.7334    482.74717    467.17365    19.679127    39194.267 
  499500    293.05003   -1426.5749    514.53693    406.98699   -117.30316    39194.267 
  499600    292.86533   -1426.9231    483.65145      374.922    3.6115638    39194.267 
  499700    296.06977   -1440.0134    498.51975    391.12324     0.929019    39194.267 
  499800    298.20876   -1454.6113    469.38457    357.01781     -47.5373    39194.267 
  499900    298.48444   -1455.3016    511.64103     399.8248   -168.08005    39194.267 
  500000    317.80112   -1420.8555    507.75563    517.33039    268.58029    39194.267 
  500100    293.68557   -1399.5556    495.07128    417.40123    119.63169    39194.267 
  500200    294.59175     -1394.69    483.37171    414.64603    108.37056    39194.267 
  500300    308.21919   -1415.4036    505.90939    477.80752    116.58016    39194.267 
  500400    293.61327   -1394.8177    503.62235    430.36484    524.87868    39194.267 
  500500     305.9103   -1431.4067    496.41375    441.91637    654.17393    39194.267 
  500600    307.70342   -1483.5173    494.15795    395.62086    393.35013    39194.267 
  500700    303.21255   -1475.4441      481.293    370.61561    326.89666    39194.267 
  500800    294.84148   -1474.0594    478.07839    331.10735    775.59406    39194.267 
  500900    306.02632   -1483.3039    481.47082    375.59849    326.38758    39194.267 
  501000    291.23222    -1431.531    482.69505    362.00707    31.563117    39194.267 
  501100    289.81757   -1417.1935    491.96753    379.24968    516.47835    39194.267 
  501200    293.74427   -1437.1979    482.13877    367.09066   -466.70396    39194.267 
  501300     295.1525   -1442.6712    502.76747    388.58452    20.189157    39194.267 
  501400    297.68059   -1424.3034    489.14891    404.71271    323.81896    39194.267 
  501500    307.89027   -1425.4307    492.39827    452.78877   -86.275501    39194.267 
  501600    291.20329    -1440.685    491.67797    361.70576    563.78836    39194.267 
  501700    292.03975   -1455.1523    513.38116    372.70653    285.53301    39194.267 
  501800    313.57843   -1383.2841    490.77346    518.91311    126.56005    39194.267 
  501900    288.62279   -1440.8564    485.32598    343.56741   -141.99893    39194.267 
  502000    305.88021   -1416.9936    514.19339    473.97374    422.23194    39194.267 
  502100    300.53563   -1450.6105    498.81389    400.92123    278.37649    39194.267 
  502200    291.12384   -1413.0023    475.15463    372.50751    424.44991    39194.267 
  502300    295.78202   -1391.5156    506.29651    446.10261     382.1177    39194.267 
  502400    292.46705   -1446.7591    504.26463    373.90643     119.3976    39194.267 
  502500    301.64005   -1440.2771    475.87163    393.28336    136.31667    39194.267 
  502600    291.61092   -1453.4476    494.62396    353.72385   -130.32226    39194.267 
  502700    305.72853   -1422.2361    488.72856    442.58367    406.44598    39194.267 
  502800     293.6642   -1413.6357    499.26355    407.41722    495.58691    39194.267 
  502900    291.08613   -1454.1217    490.27291    346.33663    10.419704    39194.267 
  503000    293.92294   -1421.3512    495.31901    396.92178    1002.2151    39194.267 
  503100    310.54218   -1419.1627    472.42545    451.02024    579.30335    39194.267 
  503200      300.911   -1457.5162    498.00564    394.89685    214.17325    39194.267 
  503300    294.66955    -1468.649    474.04094    331.70638    494.87604    39194.267 
  503400    294.81954   -1426.7644    482.75098    382.97616    329.55519    39194.267 
  503500    303.56178   -1430.9918    470.13991    405.48666    527.93568    39194.267 
  503600    287.87246   -1425.4151    500.96018    371.26573     315.1144    39194.267 
  503700    299.51088   -1456.8589     501.9844    393.23089    400.36324    39194.267 
  503800    300.01683   -1490.2112    476.14637    336.31787   -105.27502    39194.267 
  503900     296.9337   -1467.3904    469.61369    338.72872   -411.22549    39194.267 
  504000    301.89524   -1468.2313    477.10074    367.70692   -43.906363    39194.267 
  504100    304.69248   -1446.9425    471.28925    395.77462    364.85602    39194.267 
  504200    314.47662   -1463.1629    498.58274    450.88639    283.71909    39194.267 
  504300    291.31525   -1514.4882    491.84969    288.57815   -32.663829    39194.267 
  504400    303.60585   -1491.4852    486.78762     361.8394    271.30807    39194.267 
  504500    298.11178   -1483.0077    449.86968    308.67006    523.00484    39194.267 
  504600    300.79083   -1495.0939    485.09495    343.86754    106.87258    39194.267 
  504700    303.73655   -1500.4063    473.28593    340.00494     293.6552    39194.267 
  504800    294.38157   -1506.7123    460.01032    278.31627    442.99546    39194.267 
  504900    305.72147   -1491.4664    514.36798    398.96099    412.27486    39194.267 
  505000    295.62385    -1467.244    458.79129    322.15704    295.80962    39194.267 
  505100     302.0011   -1455.9184    518.85803    422.25359    430.55587    39194.267 
  505200    297.59528      -1425.6     498.0535    411.93677    343.30112    39194.267 
  505300    301.74405    -1459.647    487.56783    386.07775   -252.67169    39194.267 
  505400    286.71434   -1429.7753    499.16555    359.89819   -231.49099    39194.267 
  505500    293.64481   -1446.9858    460.29438    335.01068   -500.23355    39194.267 
  505600    294.76134   -1526.4803     495.1392    295.38649   -229.19935    39194.267 
  505700    295.06561   -1472.7271    455.91329    311.28333     262.6252    39194.267 
  505800     304.4938   -1481.5251    481.35741    370.36598    533.14197    39194.267 
  505900    304.96491   -1431.8539    476.37041    417.17065    426.36138    39194.267 
  506000    289.66867   -1396.4146    509.52255    416.91329    -217.9107    39194.267 
  506100    293.02915   -1393.8768    508.68612    433.74037   -740.89391    39194.267 
  506200    296.38558   -1384.1425    489.30443    439.20027   -501.29819    39194.267 
  506300    299.27835   -1395.3519    498.11858    449.82548   -634.04015    39194.267 
  506400     299.2758   -1417.8192    485.73042    414.95852   -954.16674    39194.267 
  506500    298.99933   -1415.5631    512.46218    442.70203   -820.61244    39194.267 
  506600    304.17444    -1429.744     464.5494    403.90163   -456.69113    39194.267 
  506700    303.64144   -1368.6668    520.37216    518.40247   -145.09207    39194.267 
  506800     307.8244   -1406.9136    493.70229    472.31343    95.086392    39194.267 
  506900    296.55907   -1426.4282    495.81982    404.21089    397.91213    39194.267 
  507000    302.06044   -1445.1358    480.91866    395.36391    254.48465    39194.267 
  507100    294.60539   -1400.6403    489.12206    414.50742    615.84625    39194.267 
  507200    296.57992   -1419.5055    507.35633    422.76389    602.57048    39194.267 
  507300    301.26649   -1419.8708    504.91569    441.05234    606.63405    39194.267 
  507400    303.39424   -1422.9084    475.75226    418.42835   -78.378715    39194.267 
  507500    306.60405   -1421.7333    473.61557    431.91419    38.446326    39194.267 
  507600    305.65876   -1413.4694    498.24077    460.54857   -419.75493    39194.267 
  507700    311.76129   -1429.2135    492.65803    466.68934   -93.298415    39194.267 
  507800    300.13501   -1405.5297    502.07449     447.4594   -250.17282    39194.267 
  507900    291.73803   -1383.9039    501.80603    431.02175   -426.02128    39194.267 
  508000      307.674   -1379.9183    483.15387     488.0834   -222.19457    39194.267 
  508100    311.21668   -1405.6069    493.21378     488.4003   -541.50808    39194.267 
  508200    293.33348   -1407.6841    488.76797    401.38461   -426.41638    39194.267 
  508300     293.5249   -1373.3004    522.70542    470.56743    -33.13896    39194.267 
  508400    292.49883   -1437.6761     479.5032    358.37116   -447.22988    39194.267 
  508500     301.6743   -1370.7601    487.73121    474.81408   -94.887036    39194.267 
  508600    285.42368   -1415.6638    482.55476    351.58951    -749.7879    39194.267 
  508700    300.23503   -1453.4016    471.07213    369.03533    151.58887    39194.267 
  508800    309.36629   -1436.6424    499.81966    455.64208   -148.47968    39194.267 
  508900    293.38384   -1417.2453    510.78598    414.06813   -140.79729    39194.267 
  509000    304.26648   -1402.2908    505.33072    472.55043   -18.613118    39194.267 
  509100    293.12143   -1410.3875    498.85947    407.81829   -268.77486    39194.267 
  509200    290.70478   -1424.2238    495.11972    379.36492   -390.23768    39194.267 
  509300    302.71827   -1458.3838    516.83523    420.99339   -364.23117    39194.267 
  509400    297.88105   -1444.3028    479.61439    376.08109    116.10045    39194.267 
  509500     302.9176   -1436.9108    533.79577    460.32412    133.63508    39194.267 
  509600    301.62729   -1437.2869    477.31707    397.66158    31.947777    39194.267 
  509700    297.27475   -1443.2512    522.50449     417.2938    154.39281    39194.267 
  509800     305.9908   -1451.9229    506.96291    432.31167    -549.9609    39194.267 
  509900     299.1279   -1410.4211    480.63889    416.59944   -285.60761    39194.267 
  510000    303.80226   -1414.3722    493.32006    446.36888   -269.46325    39194.267 
  510100    299.65195   -1376.9273    505.45148    477.26457    19.443572    39194.267 
  510200    307.76891   -1419.8258    494.97787    460.42707    68.157825    39194.267 
  510300     289.0022   -1446.9992    514.50519    368.31154    401.62229    39194.267 
  510400    312.14478   -1472.7066     486.3506    418.61492    27.801171    39194.267 
  510500    300.01329   -1435.9834     490.4496    404.83294    452.02426    39194.267 
  510600    300.40676   -1437.2797    511.58307     426.4412    122.36116    39194.267 
  510700    309.15908   -1471.3547    488.24006    408.41756   -92.901694    39194.267 
  510800    287.88398   -1455.8279     495.1891     335.1337    574.04549    39194.267 
  510900    308.33841   -1451.2905    497.63442    434.18232    656.78081    39194.267 
  511000    297.72916   -1452.7103    499.23883    386.61438    1097.1618    39194.267 
  511100    305.48725   -1441.8615    495.65117    428.79486    826.08258    39194.267 
  511200    301.90257    -1458.419    483.00149    383.45301    337.70274    39194.267 
  511300    296.93208   -1447.8942     488.8208    377.42478    887.55096    39194.267 
  511400    296.86372   -1479.1941     472.0398    329.03621    613.49671    39194.267 
  511500    304.86694   -1430.1877    488.61002    430.63545    144.27248    39194.267 
  511600    296.81761   -1404.8284    522.80666    453.96118   -36.162203    39194.267 
  511700    288.89198   -1408.3895    497.24044    389.16043   -582.77967    39194.267 
  511800     302.3746   -1471.4817    513.87871    403.39203   -466.65096    39194.267 
  511900    304.61615   -1433.5223    501.51816    439.08021   -252.70753    39194.267 
  512000    291.51219   -1439.8393    496.52976    368.79356   -286.60232    39194.267 
  512100    300.69455    -1440.816    474.59253    387.20963   -185.23596    39194.267 
  512200     308.2871   -1444.7094    484.51684    427.41478   -440.86049    39194.267 
  512300    311.02838   -1382.8778    494.73718    511.80534     -888.186    39194.267 
  512400    295.20427   -1427.9464     485.2387    386.01352   -417.89822    39194.267 
  512500    298.09799   -1405.4686    496.47583    432.75316   -64.469725    39194.267 
  512600    302.43507   -1443.4952    502.25994    420.03195   -388.09642    39194.267 
  512700    306.08627   -1416.4885    497.15804    458.37095    33.945237    39194.267 
  512800    300.73969   -1456.7304    514.17928    411.08524   -135.81442    39194.267 
  512900    298.40256   -1423.6788    492.14311     411.5812   -384.69541    39194.267 
  513000    306.23594   -1420.9759    480.87889    438.27805   -531.81727    39194.267 
  513100    291.25077   -1416.5398    505.65737    400.04403    -95.74238    39194.267 
  513200    300.09399   -1451.8378    483.83283      382.725   -383.28732    39194.267 
  513300    300.18846   -1484.3026    526.65695    393.50958   -331.14604    39194.267 
  513400     291.0425   -1480.9124    475.24721    304.32383    366.36614    39194.267 
  513500    301.35606    -1500.209    472.34189    328.54347   -40.183237    39194.267 
  513600    294.56326   -1473.5926    495.57325    347.81674   -16.868597    39194.267 
  513700     300.1835   -1469.3908    487.90489    369.64702   -580.29346    39194.267 
  513800    302.00747    -1469.956     500.6526    390.03927   -531.65905    39194.267 
  513900     292.1919   -1481.8825    474.17236    307.45236   -636.44399    39194.267 
  514000    301.50703   -1459.6183    501.35588    398.82767   -781.39094    39194.267 
  514100    289.43683   -1448.1941    494.67433    349.24215   -844.95008    39194.267 
  514200    293.63967   -1446.2849    502.68597    378.08001   -1102.3443    39194.267 
  514300    303.79641   -1410.0908    455.25637    412.56026   -1066.2547    39194.267 
  514400    299.49641   -1439.3154    504.34844    413.07329   -1042.1448    39194.267 
  514500    302.60279   -1473.7612     485.0362    373.29723   -416.15787    39194.267 
  514600    303.00867    -1478.035    490.57901    376.39309    36.130735    39194.267 
  514700    295.60965   -1452.4785    501.85358    379.92092   -618.18526    39194.267 
  514800    302.77533   -1426.9526    470.28497    406.13113   -807.25777    39194.267 
  514900    288.33848   -1414.1844    492.51778    376.15158    -576.8394    39194.267 
  515000     299.8569   -1463.4475    496.56102    382.77633   -523.94684    39194.267 
  515100    292.96595   -1420.4062    492.51345    390.75381   -360.75473    39194.267 
  515200    293.73644   -1483.3654    465.70074    304.44988   -174.93431    39194.267 
  515300     299.2529   -1452.3422    499.58418    394.18621   -10.158935    39194.267 
  515400    297.11398   -1476.1422    484.34647    345.52113    159.96354    39194.267 
  515500    306.20494   -1481.5431    473.12244     369.8149    284.36497    39194.267 
  515600    293.04956   -1446.9291    490.48567    362.57941    404.80788    39194.267 
  515700     302.1507   -1486.6249    482.19575    355.55816   -199.99255    39194.267 
  515800    320.50718   -1436.6727    493.50239    499.43997    39.198422    39194.267 
  515900    297.94664   -1430.0424    487.81079    398.83318   -187.67241    39194.267 
  516000    303.72516    -1423.935    498.24361    441.38262    73.971106    39194.267 
  516100    299.33685   -1439.2543    491.11973    399.18751   -6.0843794    39194.267 
  516200    292.77874   -1469.9107    501.12565    349.01886    80.255627    39194.267 
  516300    302.97354   -1437.2269    472.79679    399.26083    420.73781    39194.267 
  516400     308.7701   -1438.7141    514.95379    466.02102   -20.885012    39194.267 
  516500    302.70958   -1437.2968    482.36649    407.57256   -29.379099    39194.267 
  516600    298.39426   -1402.2908    478.10791    418.89661   -159.34729    39194.267 
  516700    295.71575   -1439.5874    481.93553    373.37162   -579.69595    39194.267 
  516800     301.9123   -1413.0957    493.23523    439.05379   -602.82188    39194.267 
  516900    293.53534   -1433.0014    492.53983    380.74783   -411.89075    39194.267 
  517000    303.27176   -1461.6155    496.30724    399.72501    -666.4919    39194.267 
  517100     307.3581   -1431.9318    495.69813    447.19228    506.58854    39194.267 
  517200    287.52192   -1474.7794    509.42872    328.79222    53.523232    39194.267 
  517300    307.21164   -1448.0745    485.02044    419.71264    200.23174    39194.267 
  517400     291.6947   -1431.7175    508.57615    389.78326    651.17317    39194.267 
  517500    297.17755   -1444.8072    493.29446    386.09033    809.53104    39194.267 
  517600    318.89224   -1427.3226    510.46016     518.4789    971.14163    39194.267 
  517700    312.60199    -1465.829    492.67361    433.87342    1076.3738    39194.267 
  517800    290.62602   -1455.5548    518.07766    370.63729   -164.04231    39194.267 
  517900    303.03107   -1467.1437    487.75494    384.56108   -56.876003    39194.267 
  518000    305.31248   -1454.1362    475.03021    395.11257   -139.81143    39194.267 
  518100     300.3748   -1453.8023    521.09722    419.28887   -245.40168    39194.267 
  518200    303.23861   -1464.9745    477.54766    377.45715    157.87622    39194.267 
  518300    295.29632   -1479.3978    460.00604    309.74387     69.95489    39194.267 
  518400    302.00033   -1465.9156    507.54748    400.94235     160.3658    39194.267 
  518500    304.32125   -1403.6205    511.05114    477.18758   -46.349676    39194.267 
  518600    301.04672   -1432.5567    483.61367    406.07527   -418.55584    39194.267 
  518700    309.66907   -1428.9205    507.80338    472.71059   -213.70903    39194.267 
  518800    297.67494   -1428.3563    505.45497    416.94045    28.149655    39194.267 
  518900    291.72925   -1486.0091    487.80651    314.87755   -9.1529191    39194.267 
  519000    296.90304   -1450.1038    491.72188    377.98556   -185.53915    39194.267 
  519100    294.10854   -1480.9609    496.02038    338.84881   -196.37033    39194.267 
  519200    301.69321   -1475.2737    497.00826    379.66266    656.76753    39194.267 
  519300    306.23473   -1482.5815     490.0743    385.86247    610.54787    39194.267 
  519400    292.50808   -1501.0983    487.62526    303.11262   -180.93399    39194.267 
  519500    301.51313   -1488.5929    493.43193    361.95662   -389.41594    39194.267 
  519600    304.96374   -1456.6783    492.67839    408.64898   -642.13943    39194.267 
  519700     299.7647   -1481.1617    491.29725    359.38347   -886.83384    39194.267 
  519800    308.35603   -1466.2217    521.96461    443.66059   -650.32389    39194.267 
  519900    299.95003   -1476.7913    481.21347    354.50419   -658.66424    39194.267 
  520000    292.31242   -1483.1369    491.21906    323.78712   -749.73098    39194.267 
  520100    300.76869    -1485.135    505.25762     373.8895   -202.43995    39194.267 
  520200    301.32266   -1501.7435    495.20136    349.71814    817.12368    39194.267 
  520300    301.79308    -1509.302     484.5027    333.57834   -108.50019    39194.267 
  520400    284.62548   -1472.1098    500.81033    309.80643    156.54202    39194.267 
  520500    306.90047   -1463.6799    490.61974    408.30598    479.56289    39194.267 
  520600    294.51629   -1467.6998     500.7703    358.69516     50.34978    39194.267 
  520700    295.40782   -1488.7634    488.15284    329.02684   -642.84776    39194.267 
  520800    298.55325   -1447.5485    488.70775    384.95435   -826.86058    39194.267 
  520900    309.66968   -1454.3699    505.07847    444.53895   -534.97423    39194.267 
  521000    296.58121   -1457.8343    487.26453    364.34912   -35.677195    39194.267 
  521100    301.16356   -1498.6917    491.38047    348.23295   -104.27747    39194.267 
  521200    286.74904   -1470.3073    490.85469    311.21148   -101.41588    39194.267 
  521300    298.30126   -1462.3754    496.22549    376.51103   -465.57317    39194.267 
  521400    306.25154   -1462.8192    491.22908    406.85514    18.587661    39194.267 
  521500    295.16344   -1441.3585    504.47006      391.649    121.79602    39194.267 
  521600    304.18606   -1481.5117    483.31404    370.95083    404.15106    39194.267 
  521700    301.70629   -1464.3291    490.32867    383.98654    420.33502    39194.267 
  521800    289.85083   -1433.7141      493.673    364.58422   -151.80488    39194.267 
  521900    292.02981   -1435.3126    508.43035    387.55073    149.73942    39194.267 
  522000    299.13804   -1448.6935    519.09418    416.82797   -12.564988    39194.267 
  522100     301.1326   -1410.6038    466.23063    411.03163   -182.06536    39194.267 
  522200    304.36511   -1431.2516    508.18225    446.88506   -519.40657    39194.267 
  522300    297.82449    -1411.845    495.04642    423.71634   -199.54471    39194.267 
  522400    314.16086   -1421.4749    508.02745    500.59781   -255.43326    39194.267 
  522500     293.8663   -1432.4697     510.9893    401.21864    24.557599    39194.267 
  522600    292.71387   -1458.3049    516.96303    376.17007   -130.44525    39194.267 
  522700    301.90352   -1438.4312    516.73784    437.18143   -102.19309    39194.267 
  522800    304.61252   -1443.2521     501.4451    429.26103   -146.99325    39194.267 
  522900    300.50005   -1452.8588    498.61174    398.31067   -78.236797    39194.267 
  523000    296.49516   -1453.3752    520.74319    401.89962   -79.637468    39194.267 
  523100    300.93759   -1476.9934    501.86332    379.39703   -258.53538    39194.267 
  523200     296.8159   -1460.7055    479.66497    354.93471   -56.520532    39194.267 
  523300    300.62486   -1450.9132    494.06441    396.27069   -377.05006    39194.267 
  523400    303.81414   -1441.6078    518.14028    444.00694   -161.85855    39194.267 
  523500    304.37875   -1432.1927    497.13279    434.95591   -205.87666    39194.267 
  523600    298.87695   -1431.5882    502.28499    415.94881    351.69638    39194.267 
  523700    298.69439   -1451.2569    503.54732    396.72077   -122.02229    39194.267 
  523800    295.39566   -1415.0666    475.02411    389.54019   -325.17059    39194.267 
  523900    294.00405   -1444.9773    474.23594    352.57768   -668.81038    39194.267 
  524000    309.79909   -1446.5753     481.6784    429.51593   -398.35331    39194.267 
  524100    292.61244   -1388.8381     502.6734    430.89066   -70.571356    39194.267 
  524200    292.81431   -1475.4044    482.76896    325.32852   -389.64857    39194.267 
  524300     298.5212   -1457.2785    486.02386    372.39616   -248.76701    39194.267 
  524400    298.90538   -1465.8942    475.90651    355.39232   -576.72782    39194.267 
  524500    302.13942   -1458.5417    497.23841     398.6333     205.4751    39194.267 
  524600    298.04886   -1432.0388    508.93587    418.42184    584.89204    39194.267 
  524700    300.52823   -1486.6575    500.01784    366.04486    -43.62019    39194.267 
  524800    298.93336   -1462.1366    465.92886    349.29827    656.30026    39194.267 
  524900    308.52498   -1458.3487    485.62949    415.95888    719.92614    39194.267 
  525000     298.0383   -1485.9821    486.17178    341.66702    318.06866    39194.267 
  525100    311.83817   -1471.0651    501.42046     433.9462    269.51921    39194.267 
  525200    305.21486   -1477.3554    480.97473    377.39851   -330.14984    39194.267 
  525300    288.63372   -1437.8428    480.95245    342.25677    181.36757    39194.267 
  525400    298.62212   -1413.0247    515.09299    446.17336     124.5086    39194.267 
  525500    288.93513   -1435.1113    481.36359    346.75603    115.17957    39194.267 
  525600    298.47257   -1467.5254     473.3692    349.27576    278.95992    39194.267 
  525700    299.86922   -1431.3556    492.97811    411.34084    76.888932    39194.267 
  525800    305.27542   -1465.9534    475.39372     383.4921   -359.71281    39194.267 
  525900    304.89455   -1428.9919     483.2333    426.57884    -205.8642    39194.267 
  526000    298.87671   -1447.7702    484.98277    382.46355   -342.73999    39194.267 
  526100     298.9557   -1445.7776    483.87332    383.70226   -558.75765    39194.267 
  526200    295.85318   -1440.6747    508.02298    398.99033   -290.12499    39194.267 
  526300    299.88524   -1447.5598    486.49693    388.72754   -3.8457084    39194.267 
  526400      297.315    -1437.327    496.59488    397.48963   -148.72533    39194.267 
  526500    301.30924   -1455.3513    473.94684    374.79537   -470.88049    39194.267 
  526600    310.80485   -1436.1359     480.4704    443.27431   -411.90538    39194.267 
  526700    297.53229   -1488.4493     480.0566    330.80704   -259.83273    39194.267 
  526800    295.88442   -1471.0451    464.67078    325.40832   -323.40475    39194.267 
  526900    304.74959   -1480.1599    472.12529    363.65035   -205.54392    39194.267 
  527000    300.94508   -1415.7928    489.61032    428.37831   -45.192765    39194.267 
  527100    308.69071   -1409.4688    478.06426     458.0195    419.26722    39194.267 
  527200    305.39078   -1410.3695    504.50928    468.71074   -71.021306    39194.267 
  527300    305.38628   -1438.6776    488.93505    424.80817    260.69471    39194.267 
  527400    301.99033   -1434.9071     491.4128    415.77116     760.0532    39194.267 
  527500    295.88535   -1415.2802    489.34253    405.84917    491.84641    39194.267 
  527600    291.92063   -1407.1146    511.17083    417.99771     421.7678    39194.267 
  527700    292.03203   -1422.5752    491.26387    383.13156    548.63895    39194.267 
  527800    294.31529    -1404.402    493.61352    413.93148    460.95735    39194.267 
  527900    297.32301   -1450.1391    499.97465    388.09334    400.77796    39194.267 
  528000    297.33971   -1427.7814    506.48252    417.03403    596.01248    39194.267 
  528100    305.15412   -1396.6387    490.48709    467.35418    889.65372    39194.267 
  528200    294.54879   -1400.8806    504.18374    429.07414    502.37782    39194.267 
  528300    290.17749   -1398.5802    501.25263    408.76798   -135.95873    39194.267 
  528400    296.33692   -1378.4434    484.86319    440.23917   -251.89092    39194.267 
  528500    293.33281   -1389.5327    515.17933    445.94441   -125.29611    39194.267 
  528600    296.41507   -1377.6773    517.64744    474.14121    301.89365    39194.267 
  528700    293.69221   -1383.7697    531.34719    469.49294    194.87841    39194.267 
  528800    290.00506   -1426.1139    518.87611    398.08166    177.85343    39194.267 
  528900    311.49459   -1431.9481    483.63195    453.72817   -189.60955    39194.267 
  529000    304.54952   -1399.9707    475.47089    446.28461   -406.06103    39194.267 
  529100    298.49938   -1399.2744    486.62607    430.90431   -859.50332    39194.267 
  529200    291.19334   -1408.5301    515.75814    417.89604    -626.9527    39194.267 
  529300    302.32846   -1436.9802    497.30875    421.11599   -463.45092    39194.267 
  529400    295.43702   -1439.2429    470.18868    360.71465   -101.17356    39194.267 
  529500    295.13412   -1451.7687     474.3336    350.97046   -299.20711    39194.267 
  529600    308.32983   -1437.8217    494.46683    444.44485   -253.09108    39194.267 
  529700    292.32118   -1417.7499    475.32941    373.32393   -392.37341    39194.267 
  529800    302.31372    -1394.653    482.49266     448.5607   -407.50965    39194.267 
  529900    294.46361   -1427.0103    493.94293    392.32018    17.315609    39194.267 
  530000    290.45769   -1402.7401    496.60137    401.21807   -392.24891    39194.267 
  530100    303.75005   -1422.2059    499.71988    444.69996   -143.15319    39194.267 
  530200     287.6099   -1400.6818    507.43202    401.28901   -344.41064    39194.267 
  530300    301.14354   -1396.2884    498.11525    457.28084    346.49955    39194.267 
  530400    297.69189   -1373.3837    518.82515    485.35956    441.15386    39194.267 
  530500    303.81805   -1387.3219    493.32503    473.49519   -55.406243    39194.267 
  530600    298.20976   -1430.8448    481.55161    392.95586    352.24321    39194.267 
  530700    298.88434   -1376.8283    514.60747    483.06449   -9.6671442    39194.267 
  530800    301.20707   -1367.8885    508.17663    496.02815    -380.1778    39194.267 
  530900    300.23061   -1412.4217     475.7191    414.64235   -687.43935    39194.267 
  531000     299.3034   -1406.8987    510.67049    450.94339   -184.05449    39194.267 
  531100    292.02399   -1396.1941    499.11282     417.3255   -460.34106    39194.267 
  531200    286.32302   -1393.6536    480.62614    375.71909   -565.04987    39194.267 
  531300    303.61177   -1414.4294    500.72293    452.85712   -288.49724    39194.267 
  531400    297.70095   -1423.1964     479.5704    396.33281   -148.80777    39194.267 
  531500    293.68436   -1467.9061    472.89133    326.86533   -153.87502    39194.267 
  531600    310.01931   -1458.2941    478.03289    415.14289    165.94717    39194.267 
  531700    308.63616   -1451.9734    472.94758    410.15267    404.17491    39194.267 
  531800    291.15662    -1449.357    485.14302    346.28874   -268.51631    39194.267 
  531900    307.44341   -1444.2798    499.01564    438.54578    781.61785    39194.267 
  532000    296.52306    -1410.328    510.94809    435.27728    241.33058    39194.267 
  532100    301.71808   -1391.4802    497.71745    464.27731    526.09845    39194.267 
  532200    297.15121   -1432.9297    479.04458    383.59935    540.64787    39194.267 
  532300     316.6063   -1426.9044    465.82892     463.9768    666.33264    39194.267 
  532400    297.92106   -1439.7458    499.47107    400.67493   -136.80452    39194.267 
  532500    304.80693   -1449.0635    468.12559    391.00519    441.20316    39194.267 
  532600    302.61831   -1478.9437    494.02871    377.17701    141.99241    39194.267 
  532700    305.65414   -1476.8091    491.74801    390.69526   -174.03503    39194.267 
  532800    293.96598   -1460.3333    480.62425    343.43868   -505.80742    39194.267 
  532900    294.43184   -1462.1866    453.03276     316.0907    249.66225    39194.267 
  533000    291.53015   -1419.6148    515.35611    407.92528    208.46368    39194.267 
  533100    303.19245   -1477.8317    469.00175    355.84628    491.02892    39194.267 
  533200    300.20718   -1434.6291    484.04974     400.6601    1032.8264    39194.267 
  533300    296.11692   -1474.3441    506.78048    365.26551   -153.26249    39194.267 
  533400    303.90337   -1466.8829        478.6     379.5932    188.40479    39194.267 
  533500    307.59526   -1464.6145    474.79042    394.66928     550.4101    39194.267 
  533600    302.40511   -1455.7715    473.70723    379.06811    457.50805    39194.267 
  533700    306.21412   -1409.8501    481.86236    450.28916    26.789872    39194.267 
  533800    294.25277   -1407.5505     478.3667    395.25469   -103.45906    39194.267 
  533900    307.10643   -1392.0354    500.20841     490.4662   -47.572144    39194.267 
  534000    308.26989   -1436.4312    473.48599    424.58476    139.47212    39194.267 
  534100    303.26707   -1482.7924    482.19441    364.41416    263.83906    39194.267 
  534200    290.37188   -1409.1997    466.31027    364.08115   -247.78284    39194.267 
  534300    280.13827   -1399.5742    469.57855    330.91322    144.77975    39194.267 
  534400    298.10616   -1387.2992    496.80424    451.28774    22.023949    39194.267 
  534500    308.31331   -1434.4872    490.51794    443.75606   -277.15959    39194.267 
  534600    306.55986   -1450.0971     497.4591    427.19498    120.09034    39194.267 
  534700    306.19533   -1438.9669    479.96328    419.18865      693.171    39194.267 
  534800    305.83962   -1403.5016    500.17627    473.26587     709.4061    39194.267 
  534900    312.12931   -1437.2111    494.40418    462.09439    1005.2954    39194.267 
  535000    299.14089   -1462.8321    533.72961    417.33761    1370.9444    39194.267 
  535100    303.97676   -1470.1161    469.23188    367.32224    667.57382    39194.267 
  535200    321.47467   -1458.6455    500.63177    488.95119    1098.8308    39194.267 
  535300    284.85146   -1434.4527    486.92361    334.59394    2.0834425    39194.267 
  535400    307.36523   -1445.5148    507.98971    445.93291    502.17126    39194.267 
  535500    297.32139   -1413.9955    506.34173    430.59669    325.95437    39194.267 
  535600     299.4608    -1458.069    498.71065    388.52171    91.490842    39194.267 
  535700    305.14273   -1465.6025    475.52527    383.37724    570.40842    39194.267 
  535800    300.43737   -1446.9855    471.26241    376.55248    672.24253    39194.267 
  535900    303.72246   -1446.8444    497.71795    417.93535   -252.80788    39194.267 
  536000    297.05664   -1458.3476    471.52151    350.23275   -64.478884    39194.267 
  536100     301.1782   -1476.7688    469.11609    347.95731   -438.53369    39194.267 
  536200    295.45887    -1473.667    483.38355    339.58373   -575.39137    39194.267 
  536300    299.43064   -1499.5413    508.23806    356.44105    -80.68099    39194.267 
  536400    299.52868   -1467.8141    471.15674    351.52817   -17.574022    39194.267 
  536500      305.339   -1464.3279    501.94895    411.95895    159.16372    39194.267 
  536600    303.28403   -1433.0281    503.21216    435.27255   -3.7988464    39194.267 
  536700    307.59489   -1393.7314    478.21321    468.97357   -130.67717    39194.267 
  536800    293.85615   -1448.8297    499.51291    373.33654   -504.04715    39194.267 
  536900    297.90776   -1448.0629    471.14624    363.97311    -620.7142    39194.267 
  537000    309.81372   -1438.8046    477.88851    433.56262   -548.85174    39194.267 
  537100    306.70576   -1448.3588    483.71455    415.84546   -191.21653    39194.267 
  537200    285.73818   -1425.5338    499.92121    360.50157    35.963514    39194.267 
  537300     293.0059    -1444.225    486.97851    361.57979    42.756544    39194.267 
  537400    298.56383   -1465.5723    478.43819    356.70862    18.253122    39194.267 
  537500    298.09154   -1460.5829    484.74863    365.88265   -215.94459    39194.267 
  537600    306.49727   -1446.8057    478.28467    411.03032   -390.33812    39194.267 
  537700    292.88074   -1469.8134    496.63884    345.08847    216.22512    39194.267 
  537800     295.2649   -1454.2932    487.78625     362.4872     137.3419    39194.267 
  537900    296.78524   -1458.8996    495.44447    372.38211    461.85202    39194.267 
  538000    311.42872   -1450.3025    464.61927    416.06471    95.579123    39194.267 
  538100    304.54046   -1436.1428    505.48595    440.08679   -267.33803    39194.267 
  538200    297.57503   -1430.2094    484.87148    394.05423   -176.91743    39194.267 
  538300    301.46236    -1420.634    501.04717    437.30228    239.41658    39194.267 
  538400    296.18427   -1413.8566    515.20922    434.48485    335.47479    39194.267 
  538500    293.02081   -1432.8526    499.91427    385.95516    143.08122    39194.267 
  538600     305.9451   -1411.6541    504.05599    469.46784    453.66186    39194.267 
  538700    299.87311   -1416.1594    466.79404    400.37042    423.07057    39194.267 
  538800    297.93288    -1438.987    523.07246    425.08828   -378.81229    39194.267 
  538900      304.887    -1388.575    471.18496    454.91343   -582.36408    39194.267 
  539000    314.42114   -1423.2182    486.86684    478.86552   -58.364257    39194.267 
  539100    299.01228   -1428.7178    490.46145    407.60483   -743.08714    39194.267 
  539200    288.16872   -1382.6556    499.81707    414.21557   -448.90527    39194.267 
  539300    302.22093   -1396.4348    465.96003     429.8287   -513.54909    39194.267 
  539400    299.06856    -1430.695    501.60671    417.02621   -914.62803    39194.267 
  539500    309.45321   -1434.3254    477.13568    435.66634   -642.91083    39194.267 
  539600    291.31034   -1419.1878    487.30185    379.30861   -986.87772    39194.267 
  539700    299.04671   -1413.3341    515.41067    448.09272   -474.26862    39194.267 
  539800    318.80663   -1364.5871     493.1935    563.56247   -488.55455    39194.267 
  539900    300.03315    -1407.707    500.14252    442.89165   -514.04376    39194.267 
  540000    297.46375   -1413.7014    492.87298    418.06281   -375.18267    39194.267 
  540100    301.79868   -1410.5073    504.06392    451.95952   -36.141491    39194.267 
  540200    279.72746   -1385.7288    486.64438    359.97539   -110.27425    39194.267 
  540300    308.17345   -1390.3713    491.75336    488.47791   -218.42188    39194.267 
  540400    307.89291   -1383.0634    478.79961    481.56936   -246.88756    39194.267 
  540500    303.47153    -1431.062    478.15359    413.02397    128.77872    39194.267 
  540600    296.14863   -1405.8035    482.44082     409.6092   -108.60612    39194.267 
  540700    293.61259   -1456.1074    490.20904    355.65875    241.27283    39194.267 
  540800    302.20459   -1413.8385    480.93147    427.32278   -197.92421    39194.267 
  540900     307.1046   -1409.2613    499.84983    472.87347    74.064761    39194.267 
  541000    315.97203   -1403.3594    495.65484    514.49291    245.60972    39194.267 
  541100    302.20469   -1430.3535    472.67771     402.5545     -8.80906    39194.267 
  541200    293.02307   -1428.4605    505.78537    396.22849    184.46725    39194.267 
  541300    296.32152   -1407.5932    480.48914    406.64597   -30.675514    39194.267 
  541400    306.15916   -1456.5166    518.96873    440.48161    33.914917    39194.267 
  541500     305.1874   -1408.2733    480.18052    445.56275   -238.39812    39194.267 
  541600    313.45452   -1387.2394     478.9545     502.5811   -211.97598    39194.267 
  541700    295.64967   -1443.5839    497.87717    385.01924    30.835508    39194.267 
  541800    301.91385    -1435.659    498.53232    421.79452   -262.88303    39194.267 
  541900    306.10969    -1409.839     468.1398    436.10762   -329.13315    39194.267 
  542000    304.35178   -1400.8294    487.67516    456.74012    161.85645    39194.267 
  542100     293.0416   -1417.8603    474.54562    375.67234    36.399418    39194.267 
  542200    312.56829   -1429.6639    481.87101    459.08422    575.90799    39194.267 
  542300    288.98355    -1458.986    511.39347     353.1291    492.81207    39194.267 
  542400    303.73536   -1443.8625    476.34654    399.60394    723.73929    39194.267 
  542500    294.23849   -1405.2351    481.19868    400.33786    851.46572    39194.267 
  542600    311.15248   -1432.6331    481.10278    448.97419     15.78324    39194.267 
  542700    299.30968   -1417.0062    511.76796    441.96158   -270.48079    39194.267 
  542800    302.61381    -1388.268    478.61261    452.41639    149.27646    39194.267 
  542900    302.38457    -1435.279    510.54868    436.30963   -206.16649    39194.267 
  543000    289.93049   -1409.9083    486.77569    381.85128    60.301284    39194.267 
  543100    303.33781   -1446.7549    494.48457    413.06023    422.88482    39194.267 
  543200     307.5644   -1427.6257    506.19976    462.92857     11.56648    39194.267 
  543300     295.4331   -1381.4534    480.58208    428.87989   -397.04043    39194.267 
  543400    311.33617   -1402.7229    509.68365    508.29208    52.741399    39194.267 
  543500    293.75199   -1434.9482    529.52261    416.75891    296.32035    39194.267 
  543600    293.39193   -1452.0227    476.59764    345.13884    772.41667    39194.267 
  543700    297.11726   -1462.4791    499.60513    374.45773    366.39064    39194.267 
  543800    292.14682   -1463.1674    492.74174    344.53393    373.62533    39194.267 
  543900    296.02539   -1460.9171    466.20659    337.70663    181.31176    39194.267 
  544000    301.37457    -1464.737    488.26363    380.02057    -517.4663    39194.267 
  544100    301.01664   -1455.1596    537.65334    437.37659   -38.958576    39194.267 
  544200    292.46312   -1470.1155    472.17726    318.44505   -59.551357    39194.267 
  544300    299.07711   -1470.6132    483.19492    358.73468    36.324322    39194.267 
  544400    304.42669   -1452.1057    540.55811    458.68401    61.608984    39194.267 
  544500    291.83968   -1460.4705    506.70106    359.80773    237.96941    39194.267 
  544600     303.4333   -1478.8658    485.52208    372.41659    414.99404    39194.267 
  544700    297.34797   -1492.8171    503.67954    349.23252    739.13928    39194.267 
  544800    299.49664   -1510.2375    459.99379    297.79758    485.12923    39194.267 
  544900    284.67969   -1484.4915    486.00405    282.86243    141.09288    39194.267 
  545000    293.70771   -1506.7067     483.9699    299.24838    182.30981    39194.267 
  545100    288.34469   -1444.4334    476.67069    330.08341    138.76104    39194.267 
  545200    292.89138    -1519.538    500.81277    299.58564    664.11391    39194.267 
  545300    294.90489   -1461.7467    488.55613    354.18319    769.13475    39194.267 
  545400    300.13009    -1466.827    465.53654      349.602    685.67933    39194.267 
  545500    292.81675   -1497.1406    472.74304    293.57739    383.34842    39194.267 
  545600    303.52761   -1472.9341    473.58776    366.83851     401.5545    39194.267 
  545700    312.28284    -1491.309    490.28648    404.56982    446.90684    39194.267 
  545800    300.61319   -1463.1945    449.40499    339.27745    489.56062    39194.267 
  545900    303.10837   -1490.6307    506.56276    380.22982     651.7099    39194.267 
  546000    289.82086   -1471.3044    459.70529    292.89133    390.74476    39194.267 
  546100    301.55178   -1480.3843    469.66134    346.56854    153.53832    39194.267 
  546200    297.84962   -1455.9905    492.80938      377.447    132.53145    39194.267 
  546300     308.4407   -1426.3904    484.44117    446.34952    402.70638    39194.267 
  546400    306.74193   -1440.4434    490.45852     430.6677   -450.03733    39194.267 
  546500    294.43773   -1426.4311    490.27446    389.11443    -179.8261    39194.267 
  546600    295.53197   -1469.9481    493.62421    353.87235   -254.92182    39194.267 
  546700    301.78934   -1494.7277     458.8689    322.50203   -214.89608    39194.267 
  546800    307.03045   -1500.7487    486.74831    367.95075    18.878171    39194.267 
  546900    296.92293    -1514.254    463.59197    285.79498    55.788813    39194.267 
  547000    303.61325   -1462.7257    495.29663    399.14123   -269.98765    39194.267 
  547100    290.81951   -1434.1394     515.0961    389.94204   -128.37307    39194.267 
  547200    307.83348        -1434    474.82393    426.38956    220.34765    39194.267 
  547300    306.97865   -1444.0462    483.35526    421.02705   -423.46558    39194.267 
  547400    298.58684   -1452.3467     486.9614    378.56101   -39.990059    39194.267 
  547500    299.79339   -1442.3137    529.49232    436.55563    -697.5075    39194.267 
  547600    283.79711   -1444.2876    484.53693    317.62671    -196.9091    39194.267 
  547700    297.57247   -1468.9122    507.08187    377.55027   -397.22384    39194.267 
  547800    291.32404   -1430.6042    470.50391    351.15599    117.52977    39194.267 
  547900    302.30496   -1462.3644     496.8894    395.20657   -411.42211    39194.267 
  548000    314.90994   -1461.2406    469.28102    425.45731    239.72643    39194.267 
  548100    308.31598    -1457.015    499.41697     430.1393   -417.53812    39194.267 
  548200    299.99618   -1470.1722    480.38229    360.49986   -317.78495    39194.267 
  548300    300.49035   -1477.2477    496.43388    371.70017    189.89184    39194.267 
  548400    304.37624   -1467.8193    482.12304    384.30824    294.45727    39194.267 
  548500    304.79747   -1470.4301    479.00429    380.47468   -79.503099    39194.267 
  548600    298.20534   -1431.7052    506.17517    416.69915   -92.690318    39194.267 
  548700    305.79656   -1460.8353    471.06812    386.63025    271.79285    39194.267 
  548800    300.05699   -1434.5347    512.18814    428.21684    92.254387    39194.267 
  548900    293.86265   -1420.2112    474.58754    377.05899   -4.6771293    39194.267 
  549000    299.90167   -1464.4268    492.17117    377.60875    481.36877    39194.267 
  549100    294.81495    -1472.115    507.66378    362.51763    757.95629    39194.267 
  549200     300.0962   -1463.6413    490.12541    377.22411    299.17907    39194.267 
  549300    292.79064   -1440.7166    497.73281    374.87369     495.0809    39194.267 
  549400    298.94887   -1448.0013    484.20779    381.78226    433.88492    39194.267 
  549500     297.4495   -1425.1329    510.39913    424.09332    309.04051    39194.267 
  549600    296.29788   -1444.9175    488.85206    377.57823    150.27835    39194.267 
  549700    303.44978   -1476.0742    517.31379    407.07413   -38.589459    39194.267 
  549800    285.66509   -1463.9244    450.12684    271.98764   -409.75039    39194.267 
  549900    300.87224    -1456.013    481.15372    379.37362   -262.32827    39194.267 
  550000    302.48396   -1405.2797    495.34055    451.54816   -210.20524    39194.267 
  550100    295.17681   -1446.4884    486.05631    368.16552   -147.25562    39194.267 
  550200    295.16262   -1406.8225    479.30473    401.01601    -601.0983    39194.267 
  550300    301.16729   -1391.6936    473.32726    437.19466   -678.93143    39194.267 
  550400    296.61475   -1388.6388    505.25728    451.68836   -213.80782    39194.267 
  550500    287.15423   -1421.7369     477.2799     348.0308   -540.03857    39194.267 
  550600    306.48605   -1415.3242    479.72696    443.90352    273.55521    39194.267 
  550700    288.15071   -1438.0782    503.96443    362.85919    -409.6054    39194.267 
  550800    289.69024   -1410.5655     504.1728    397.50981   -534.43905    39194.267 
  550900     303.4164   -1421.3367     481.2825       425.63   -756.93981    39194.267 
  551000     304.6739   -1372.7023    486.42284    485.06481   -616.27051    39194.267 
  551100    312.35848   -1391.8461    493.27606    507.36271    69.272313    39194.267 
  551200    305.93393   -1422.4709    513.06305    467.60789    354.87452    39194.267 
  551300    302.27376   -1409.8765    496.52046    447.18518   -80.822926    39194.267 
  551400    300.35447   -1461.6253     465.3905    355.66763   -394.45175    39194.267 
  551500    304.49656   -1465.7368    503.33357     408.1428   -263.26592    39194.267 
  551600    295.83667   -1466.2857    483.10481    348.38678   -377.87643    39194.267 
  551700    315.04805   -1442.4292    482.63399    458.24335    57.327801    39194.267 
  551800    302.29252   -1437.1193    481.75115    405.25744   -324.92749    39194.267 
  551900    287.16442   -1473.8884    501.21629    319.86159   -596.67947    39194.267 
  552000    304.20295   -1474.3287    477.03127    371.92714   -446.63084    39194.267 
  552100    297.11981   -1462.2005    484.48514    359.62778   -633.00713    39194.267 
  552200    301.50623   -1480.2224    507.10568     383.9698   -207.47999    39194.267 
  552300    294.15649   -1461.8323    461.89814    324.07099   -126.82727    39194.267 
  552400    302.37472   -1430.3487    476.54691    407.19385   -523.60106    39194.267 
  552500    303.62298   -1414.4056    488.79482    441.00331   -659.49213    39194.267 
  552600    293.96523   -1436.9938      502.282     388.4325    -859.5802    39194.267 
  552700    298.76321   -1439.5026    500.69484     405.9324    -384.7898    39194.267 
  552800    299.57949   -1427.9775    488.96116    409.39795     -111.603    39194.267 
  552900    306.35178   -1468.0235    495.83763    406.71065    128.15501    39194.267 
  553000    294.41022   -1447.6299    484.09676    361.61411     390.0368    39194.267 
  553100    290.55162    -1438.187    495.53255    365.12515    356.05551    39194.267 
  553200    294.62313   -1442.8357    460.85252    344.12233   -553.85996    39194.267 
  553300    297.02391   -1418.8995    476.61605    394.62809   -596.76654    39194.267 
  553400    310.31529   -1426.1027    490.44934    461.08296   -101.37735    39194.267 
  553500    304.88486    -1427.888    490.37002    434.77585   -79.523475    39194.267 
  553600    298.68917   -1418.8011    529.77032    455.37604    108.88644    39194.267 
  553700    292.34738   -1392.2062    495.65843    419.31453    160.79164    39194.267 
  553800    301.34597   -1442.6099    486.97276    400.72811    418.38926    39194.267 
  553900    302.57217   -1453.6276    488.43656    396.69327   -152.63782    39194.267 
  554000    302.44463   -1438.8716    521.86426    444.30291   -34.725796    39194.267 
  554100    291.81323    -1431.236    472.32436    354.54649   -44.906966    39194.267 
  554200    311.57517   -1495.1155    497.92945    405.22098    254.70002    39194.267 
  554300    296.42425      -1477.6    503.46704    360.07946    575.61601    39194.267 
  554400    308.80255   -1433.2013    489.30423    446.03042    525.12205    39194.267 
  554500    302.67686   -1440.0811    502.07639    424.35082    706.42817    39194.267 
  554600    293.62414   -1392.2532    521.50146    450.85732    309.27768    39194.267 
  554700    294.30468   -1406.5041    505.40108    423.56919    497.40114    39194.267 
  554800    295.99445   -1430.7397     466.4801    368.01828      290.323    39194.267 
  554900    304.98191   -1458.9192    481.95026    395.76173    269.11508    39194.267 
  555000    300.38108   -1402.3704    507.85477    457.50657    661.62654    39194.267 
  555100    301.16956   -1428.8565    493.06614    419.78087    409.83183    39194.267 
  555200    303.95391   -1434.0571    482.35784    416.40437    636.08407    39194.267 
  555300    305.11442   -1390.3351     463.7533    446.74529   -58.286661    39194.267 
  555400    306.30824   -1438.3908    485.86209    426.17172   -90.389602    39194.267 
  555500    301.00949   -1418.1106    495.10438    431.84443   -134.23638    39194.267 
  555600    303.99198   -1432.0878     498.1178    434.30495    372.79244    39194.267 
  555700    305.73731   -1479.8343    506.31714    402.61354    280.63311    39194.267 
  555800    301.98666   -1483.2363    461.74102    337.75373     417.0592    39194.267 
  555900    304.59015   -1446.1435    461.17652     386.0004   -141.76248    39194.267 
  556000    290.34348   -1478.1821    477.73371     306.3944    35.444758    39194.267 
  556100    288.79008   -1469.5843    464.24127    294.50784   -167.37897    39194.267 
  556200    305.92777   -1454.9396    446.41208    368.46044     99.04248    39194.267 
  556300    307.48192   -1467.8342    480.66872    396.81777     129.6645    39194.267 
  556400    292.87861    -1476.791    476.75222     318.2146    533.19945    39194.267 
  556500    307.08252   -1487.5133    484.22207    378.89429     106.7089    39194.267 
  556600    302.70889    -1418.617    498.26745     442.1502   -231.66446    39194.267 
  556700    303.05139   -1472.9999    472.05688    363.09829   -327.94091    39194.267 
  556800     309.0271   -1466.7172    457.15286    381.37379   -407.99318    39194.267 
  556900     297.0177    -1446.394    476.17936    366.66893   -416.78864    39194.267 
  557000    287.66075   -1502.4316    506.37967    298.71579     1.497491    39194.267 
  557100     309.7663   -1474.3872    468.22584     388.1039    699.62692    39194.267 
  557200    292.27349   -1470.2445    490.30803    335.59327    192.79742    39194.267 
  557300    298.45662   -1474.1736    488.14595    357.33253   -346.26395    39194.267 
  557400    300.09815   -1458.9775    467.85089    359.62213   -787.10263    39194.267 
  557500    293.51612   -1434.4728    442.25488    328.90493   -685.66566    39194.267 
  557600    295.01559   -1425.3862    482.61425    385.10003   -346.53524    39194.267 
  557700     306.7988   -1438.4218    468.64238    411.12915    468.58837    39194.267 
  557800    289.82282   -1455.2704    478.98322    328.21203    588.70586    39194.267 
  557900    308.25736   -1431.0617    492.09961    448.51143    489.97292    39194.267 
  558000    295.14842   -1396.1563    505.12806    437.44165    210.15755    39194.267 
  558100     296.9267   -1394.3142    506.55566    448.71537    800.57279    39194.267 
  558200    297.01413    -1443.118    511.16936    404.91885    161.38259    39194.267 
  558300    297.33125   -1432.4499    484.75085    390.59575   -95.649201    39194.267 
  558400    296.65065   -1458.1596    478.86757    355.93945    16.902705    39194.267 
  558500    303.83849   -1387.8947    501.81852    481.50789   -263.37612    39194.267 
  558600    297.03064   -1393.6149    501.62005    444.94699   -245.92039    39194.267 
  558700    303.34176   -1432.4977    478.79022    411.64082   -367.17619    39194.267 
  558800    295.84439   -1452.1541    470.21048    349.65881   -223.78053    39194.267 
  558900    309.66829   -1415.7778    483.19197     461.2383    48.766932    39194.267 
  559000    306.37026   -1369.7084    480.14706    489.41835     193.6872    39194.267 
  559100     298.5655   -1414.7789    510.56955    439.64089     271.1677    39194.267 
  559200     288.8667   -1415.1012    499.00987    384.10434     497.4292    39194.267 
  559300    295.63062   -1405.6844    503.39637    428.35221    643.49303    39194.267 
  559400    299.67405   -1430.8945     477.9808    395.92614    442.64343    39194.267 
  559500     314.7686   -1415.7265     498.2616    499.31585     397.8876    39194.267 
  559600    307.03646   -1411.0498    481.50171    452.43016   -203.52258    39194.267 
  559700    307.38903   -1382.2484     484.5612    485.87798    75.988513    39194.267 
  559800     304.1987   -1373.7815    500.94361    496.36745   -274.09353    39194.267 
  559900    295.62376   -1380.8503    457.51864    407.27772   -105.39596    39194.267 
  560000      297.012   -1398.2302    470.94727    409.57501    379.35202    39194.267 
  560100    303.67022   -1437.6278    458.28482    387.48373   -165.04314    39194.267 
  560200    302.93133   -1412.0298    482.88001    434.35116    456.66523    39194.267 
  560300    296.78481   -1392.5457    479.66854    422.95819    102.15567    39194.267 
  560400    305.16003   -1436.5169    467.52968    404.54519    91.442814    39194.267 
  560500    293.87113   -1416.5547    478.23862    384.40466   -578.77498    39194.267 
  560600    298.64466   -1379.9699    491.34232     455.5789   -109.74589    39194.267 
  560700    304.37107   -1421.6852    487.52322    435.81926   -303.71763    39194.267 
  560800    306.25751   -1373.3943    474.80693    479.88477    72.339037    39194.267 
  560900    292.00384   -1405.4068    491.32304    400.23227   -425.53965    39194.267 
  561000    293.54162   -1412.3916    468.40354    377.24951    119.84332    39194.267 
  561100      300.434   -1357.0527    510.75748    505.96522     110.6558    39194.267 
  561200    301.66045   -1383.8484    470.21533    444.14758    220.40431    39194.267 
  561300    303.23645   -1394.5938    514.81536    485.09587    311.85354    39194.267 
  561400    295.36016   -1374.7802    492.84728    447.49001   -71.978957    39194.267 
  561500    304.90315    -1392.145    494.73068    474.96184    183.42817    39194.267 
  561600    296.86217   -1395.9667    480.21414    420.43094    115.45514    39194.267 
  561700    292.89755   -1374.5572     483.6978    427.47927    326.08381    39194.267 
  561800    309.24702   -1420.1916    485.01013    456.74654    251.16631    39194.267 
  561900    307.23823   -1406.4972    475.87718    452.26638    845.14196    39194.267 
  562000    304.56082   -1424.4831    476.56266    422.91489    218.88109    39194.267 
  562100    309.76303   -1420.7651    498.95345    472.43896   -100.19506    39194.267 
  562200    301.19946   -1426.3018     465.8456    395.24955   -61.488815    39194.267 
  562300    294.08068    -1403.994    470.43084    390.10076    55.316484    39194.267 
  562400    308.12263   -1424.1142     487.6214    450.37432   -60.781539    39194.267 
  562500    289.19413   -1426.1218     469.5543    345.10192   -589.42938    39194.267 
  562600    289.15601   -1422.0139    480.91939    360.40342   -675.60481    39194.267 
  562700    308.23789   -1438.3901    491.86469    440.86051   -15.099597    39194.267 
  562800    289.59171   -1441.9772    473.58284    335.06464   -161.71708    39194.267 
  562900    297.62561   -1430.2811    481.94953    391.28819    163.75142    39194.267 
  563000    308.33619   -1433.3861    499.63849    454.08073    256.64283    39194.267 
  563100    301.54246   -1432.2791    484.14385     409.1144     472.0065    39194.267 
  563200    300.12594   -1398.4017    479.65754    432.12965    295.24884    39194.267 
  563300    300.14656   -1439.9067     478.9116    389.97148   -178.04196    39194.267 
  563400    290.35073   -1395.5213     480.1845    391.53852   -320.74025    39194.267 
  563500     300.1839   -1419.1174    461.73108     393.7484   -829.41373    39194.267 
  563600     285.9853   -1384.2253    502.67141    405.67255   -241.47687    39194.267 
  563700    305.83128   -1406.0073    488.02387    458.57027    109.69968    39194.267 
  563800    301.58567     -1395.99    485.88208    447.33613    109.20818    39194.267 
  563900    302.28403   -1408.5661    471.65992    423.68123    285.42312    39194.267 
  564000     291.6649   -1418.5921    474.46668     368.6651    358.58585    39194.267 
  564100    298.71156   -1432.4464    493.30289    405.36416    393.29147    39194.267 
  564200    300.97183   -1426.0694    527.33851    455.95034    1044.6212    39194.267 
  564300    298.89131   -1475.1059    441.65807    311.86887    894.09087    39194.267 
  564400    305.48556   -1421.2617    492.47368    446.20956   -47.072105    39194.267 
  564500    298.94817   -1409.2357    484.91359    421.25052   -234.09826    39194.267 
  564600    304.19354   -1411.4307    472.12289    429.87439    15.071613    39194.267 
  564700     289.2892   -1434.4756    490.13511    357.75687   -426.05794    39194.267 
  564800    300.58169   -1419.5761    466.87435    400.22344    521.76336    39194.267 
  564900    300.81456   -1431.4072    475.45484      398.021    544.51368    39194.267 
  565000    294.57395   -1443.2982     481.4723    364.05834   -305.70098    39194.267 
  565100    297.66084    -1433.538     456.0496    362.28996    298.43628    39194.267 
  565200    302.44543   -1450.1028    494.82251    406.03362   -141.73978    39194.267 
  565300    298.88645   -1433.3434    457.04426    368.99568   -247.18073    39194.267 
  565400    300.32187   -1419.9158    523.04744    454.88738   -168.48976    39194.267 
  565500    283.95154   -1471.6534    484.15671    290.57581   -300.23129    39194.267 
  565600    289.37224   -1488.3896    458.66155     272.7431    196.16602    39194.267 
  565700    307.38448   -1433.4145    449.99068    400.12089    373.32222    39194.267 
  565800    313.17489   -1435.7266    464.10935     437.9902     325.6793    39194.267 
  565900    309.09913   -1456.9851    462.95616    397.23344    250.74252    39194.267 
  566000      294.033   -1478.5453    461.91621    306.82029   -278.02558    39194.267 
  566100    313.25516   -1473.5344    456.34733    392.78168    -287.2947    39194.267 
  566200    296.02814   -1461.4269    472.47386    343.47646   -2.6487615    39194.267 
  566300    295.70359   -1473.5035    458.09972    315.56489    -93.01078    39194.267 
  566400    299.10723    -1446.411    455.51178    355.38937   -150.26807    39194.267 
  566500    300.96744   -1463.4135    480.64699    371.89494    239.99003    39194.267 
  566600    296.72996    -1446.372    463.13253    352.34897   -88.987883    39194.267 
  566700    302.46313   -1419.2886     472.8762    414.98116   -27.642687    39194.267 
  566800    304.82311   -1433.7379    473.49276    411.77072    56.761933    39194.267 
  566900    294.97083   -1437.4676    465.12703    355.32995   -6.5322144    39194.267 
  567000    300.41105   -1424.6513    487.57431    415.08005   -521.33753    39194.267 
  567100    300.36804   -1445.3757     472.0581     378.6459   -165.84229    39194.267 
  567200    301.36697   -1436.9295    479.38912     398.9193   -85.521213    39194.267 
  567300    310.24633   -1418.0773    473.60274    451.95137   -3.2847232    39194.267 
  567400    301.56861   -1446.0552    476.68816    388.00026    152.62934    39194.267 
  567500    308.82313   -1493.0891    448.49681    345.42776    200.31275    39194.267 
  567600    294.55604   -1441.9189    487.46207    371.34678    201.27627    39194.267 
  567700    288.22243   -1471.5722    494.04258    319.76623   -194.45059    39194.267 
  567800    309.12739   -1499.9925    501.89476    393.29183    47.860055    39194.267 
  567900     296.6819    -1512.485    474.53668    297.42382    319.87514    39194.267 
  568000    287.32403   -1532.3992    468.47733    229.33021     255.2388    39194.267 
  568100     293.1821    -1501.077    478.98476    297.52715    710.92265    39194.267 
  568200    305.27759   -1496.4262    474.89675    352.53212    339.28013    39194.267 
  568300    297.11941    -1509.802    478.60425    306.14362    432.29705    39194.267 
  568400    288.16521   -1525.4501    472.26082    243.84895   -12.066927    39194.267 
  568500    293.24969    -1506.685    467.09512    280.33381   -276.50796    39194.267 
  568600    295.83417   -1518.8501    463.52289    276.22923   -453.32858    39194.267 
  568700     304.4064   -1493.6378    511.37174    387.87416    84.532194    39194.267 
  568800     304.4183   -1500.2636    486.09188    356.02211    -57.87238    39194.267 
  568900    306.95694   -1443.1853    468.39507    406.83009    74.200246    39194.267 
  569000    302.06192   -1451.0348    493.49577    402.04869   -285.82453    39194.267 
  569100    293.95622   -1413.2703    476.46379    386.29725   -258.54454    39194.267 
  569200    296.39913   -1438.1439    490.61122     386.5667   -483.42317    39194.267 
  569300    299.64686   -1474.3003    496.73208    371.14924   -454.68196    39194.267 
  569400     303.7282   -1492.2131    462.78286     337.6575   -25.178263    39194.267 
  569500    307.47093   -1459.5795    476.14616    400.50046    50.967015    39194.267 
  569600    298.11914    -1414.594    489.59485    416.84198    -117.7581    39194.267 
  569700    308.65102   -1413.9286    505.22769    480.54449    430.37526    39194.267 
  569800      301.586   -1427.3298      490.429    420.54478    428.84321    39194.267 
  569900    311.05572   -1441.5241    502.15121     460.6961    842.74646    39194.267 
  570000    303.83954   -1486.0857    515.66448    397.16764    389.71001    39194.267 
  570100    295.23611   -1438.1161    462.47304    353.22153    111.64409    39194.267 
  570200    296.78279   -1444.0847    486.34802    378.08957    262.35377    39194.267 
  570300     307.4915   -1463.3237    492.41757    413.12021    443.94971    39194.267 
  570400    301.17995   -1502.0166      443.709    297.31031    499.90581    39194.267 
  570500    299.62555    -1466.722    470.70762    352.60716    261.10468    39194.267 
  570600    305.40683   -1456.4471    509.77523    427.97132   -53.522761    39194.267 
  570700    302.05806   -1452.2633     471.6647    378.97172   -291.02944    39194.267 
  570800    310.59167   -1446.3105     503.1127    454.78254    284.90276    39194.267 
  570900    296.70616   -1459.4454      473.323    349.35891   -18.940727    39194.267 
  571000    302.15004   -1470.5298    478.69974    368.15431    51.383065    39194.267 
  571100    303.73145   -1520.8895     493.6461    339.85888   -9.2611245    39194.267 
  571200    285.09668   -1521.9681    463.67815    224.93687    158.83897    39194.267 
  571300    292.67637   -1484.2243    466.78561    299.90442    199.88545    39194.267 
  571400    295.72502   -1485.9152    463.10771     308.2577    41.318581    39194.267 
  571500    299.08487   -1451.1104    480.28119     375.3587    101.96183    39194.267 
  571600    295.09378    -1411.119    515.01707      432.122   -108.08551    39194.267 
  571700    302.33759   -1444.6742    479.98289    396.13722    180.64475    39194.267 
  571800    294.38243   -1449.3051    489.48434    365.20139    144.64703    39194.267 
  571900    307.37293   -1438.6345    493.00389    437.86203    196.98664    39194.267 
  572000    299.58033   -1417.4011    480.95276    411.96961    287.50072    39194.267 
  572100    302.37184   -1432.7298    466.93674    395.18957   -232.43354    39194.267 
  572200     293.7173    -1408.904    490.25104    403.37536    277.93115    39194.267 
  572300    298.27448   -1439.7548    465.17741    367.96302   -9.9922891    39194.267 
  572400    302.09754   -1437.2809    476.85267    399.31983    263.90483    39194.267 
  572500    304.16336   -1426.8653    475.46385    417.64491    416.80372    39194.267 
  572600    298.86557   -1399.2044    481.87065    427.86711    205.56125    39194.267 
  572700    303.17984   -1427.8559    489.72556    426.48919    285.03244    39194.267 
  572800    291.37957   -1411.0031    520.05688    420.55992   -26.735088    39194.267 
  572900     293.3815    -1396.692    479.22623    403.05112    421.52184    39194.267 
  573000    295.37156   -1425.0701    506.88865    411.29274   -82.089352    39194.267 
  573100    298.95905   -1409.9082    473.46753    409.18095   -230.27705    39194.267 
  573200    292.51563   -1424.0995    503.52486    396.04497   -854.32961    39194.267 
  573300    300.48902   -1460.8126    481.37544    373.07092    296.87429    39194.267 
  573400    302.77287   -1424.4851    498.26579    436.56842    477.05943    39194.267 
  573500    302.58381   -1437.4217    506.56541    431.08049   -134.23751    39194.267 
  573600    292.99979    -1438.005    472.65616    353.45003    -515.0122    39194.267 
  573700    298.66466   -1431.8299    508.12427    420.59095   -68.757971    39194.267 
  573800    297.42326   -1416.3784    467.43127    389.76187    19.660309    39194.267 
  573900    305.87562    -1438.534      493.075    431.29429    112.85138    39194.267 
  574000    292.30399   -1425.5057    478.26987    368.43121   -133.89066    39194.267 
  574100    293.63765   -1403.5987    497.18563    415.25675   -132.39268    39194.267 
  574200    290.50225   -1396.7939    506.43148    417.19499   -255.28844    39194.267 
  574300     287.4385   -1414.0413    486.12208     365.8481   -369.83868    39194.267 
  574400    305.91236   -1407.1708    460.79578    430.54361   -213.37937    39194.267 
  574500    313.15009   -1386.9474    486.52172    509.07013   -634.70067    39194.267 
  574600    305.23536   -1399.5361    500.26697    474.60234   -575.38705    39194.267 
  574700    299.85815   -1422.0794    494.79966    422.38877   -637.79166    39194.267 
  574800    297.69114   -1418.6131    489.95867    411.26029    85.250174    39194.267 
  574900    305.39972   -1427.2561    502.88322    450.23833    435.36438    39194.267 
  575000    295.31243   -1408.2438    511.70281    432.66711    556.69498    39194.267 
  575100    306.61727   -1397.9722    490.92815    473.04736    159.41709    39194.267 
  575200    293.54136   -1402.9106    489.81595     408.1418    232.15275    39194.267 
  575300    300.96441   -1473.1083    484.36273    365.90217    118.45827    39194.267 
  575400    304.62226   -1450.4011    483.86227    404.57303   -271.09259    39194.267 
  575500    306.82803   -1419.0082    492.70843    454.74027   -29.525136    39194.267 
  575600    296.76602   -1441.5355    470.19497    364.41015    219.56814    39194.267 
  575700    304.82724   -1415.8885    479.99892    436.14492    218.02126    39194.267 
  575800    299.17381   -1394.9669    500.17627    451.79765    8.3729385    39194.267 
  575900    294.07811   -1417.6766    499.52173    405.49753   -583.62493    39194.267 
  576000    292.82432   -1416.4302    496.65965    398.23846   -358.41229    39194.267 
  576100     289.7602   -1407.7755    491.36759    387.80951     149.6384    39194.267 
  576200    293.51346   -1437.7507    485.46319    368.82342   -415.88919    39194.267 
  576300    294.72934   -1410.5748    497.05378    413.06259    69.762142    39194.267 
  576400      300.458   -1387.6646    497.74895    462.45275   -157.32464    39194.267 
  576500    303.60807   -1431.4778    496.00685      431.076   -12.559027    39194.267 
  576600     299.7928   -1401.3836     511.6018    459.59252   -356.13079    39194.267 
  576700    295.84306   -1361.1306    483.70833    454.17423   -257.22008    39194.267 
  576800    299.33593   -1416.6716    529.82353    460.46986   -716.35767    39194.267 
  576900    307.55422   -1446.9824    479.83564     417.1619   -93.969144    39194.267 
  577000    303.67326   -1448.6895    520.92335    439.07427   -193.31177    39194.267 
  577100     298.2018   -1454.3397    473.74051      361.614   -393.49636    39194.267 
  577200    301.59787   -1451.8573    487.85757    393.49924   -522.71683    39194.267 
  577300    299.32854   -1469.8857    492.58572    369.98469    146.08099    39194.267 
  577400    291.85551   -1444.5683    490.39933     359.4795    153.98838    39194.267 
  577500    302.86488   -1473.7568    474.64324    364.08826    223.50263    39194.267 
  577600    304.99104   -1463.6884    480.96903     390.0524    191.55717    39194.267 
  577700    289.45188   -1428.0153     489.1199    363.93423    346.26294    39194.267 
  577800    298.10059   -1428.0949    488.53313    402.19588    526.18428    39194.267 
  577900    296.99071   -1469.0591    512.70642    380.40937    422.81857    39194.267 
  578000    294.25841   -1442.6886    490.10711    371.88242    145.44167    39194.267 
  578100    294.15134   -1460.0743    491.87344    355.78116    665.67853    39194.267 
  578200    306.19097   -1430.3802    480.85629    428.64872    618.34172    39194.267 
  578300    305.30647    -1455.779    524.99791    443.41041    330.91764    39194.267 
  578400    290.32297   -1414.5426    483.25909    375.46695    996.60311    39194.267 
  578500     301.2559   -1427.9875    491.35422    419.32645    197.60387    39194.267 
  578600    300.00324   -1418.6288    517.87975    449.57245    181.00397    39194.267 
  578700    316.23157   -1391.5895    508.70885    540.48497    157.78728    39194.267 
  578800    292.67986   -1406.8435    503.11636    413.63174   -35.150319    39194.267 
  578900    293.02628    -1423.344    488.11566    383.68972    213.74353    39194.267 
  579000    290.34762   -1454.2739    499.57568    352.16315    109.68197    39194.267 
  579100    305.52157   -1477.7471    481.97393    379.38651   -15.211028    39194.267 
  579200    291.68852   -1453.1912    514.24412    373.94969    -138.1058    39194.267 
  579300    299.78566   -1456.8254    463.40769    355.92453     6.372439    39194.267 
  579400    300.74463   -1447.9813    500.53708    406.21427   -43.432721    39194.267 
  579500    310.84779   -1404.9824    477.72106    471.87177   -172.00874    39194.267 
  579600    298.38562   -1437.4476    490.47103    396.06404    359.77875    39194.267 
  579700    288.24072   -1402.9328    505.40098    399.84634    41.666587    39194.267 
  579800     296.1518   -1387.3437    508.64912    454.29153      330.361    39194.267 
  579900    303.81178   -1428.5662    502.50225    441.39992    98.402043    39194.267 
  580000      305.775    -1393.197    513.45936    496.56268    516.25005    39194.267 
  580100    307.79316   -1435.8512    510.93928    460.47221   -33.598181    39194.267 
  580200    304.52507   -1451.0293    450.10188    369.74703   -491.68772    39194.267 
  580300    313.19385   -1456.7727    493.71298    446.63305   -133.70763    39194.267 
  580400    305.61028   -1431.6581    504.02872    447.92955   -540.42162    39194.267 
  580500    302.28693   -1436.4568    488.60933    412.75296   -670.36404    39194.267 
  580600    300.32846    -1395.447    525.78175    482.12014   -152.49858    39194.267 
  580700    314.53918   -1451.7308    499.17998     463.1973    745.22364    39194.267 
  580800    297.23709   -1476.8487    485.12515    346.14749      57.9191    39194.267 
  580900     310.9821   -1470.0451    493.41615    423.10872    74.541944    39194.267 
  581000    305.63466   -1482.4006    486.14021    379.40826   -384.80689    39194.267 
  581100    302.35046   -1476.8293    492.95273    377.00981   -29.435139    39194.267 
  581200    310.29622   -1473.6029    485.78129    408.82889   -8.4283988    39194.267 
  581300    300.75813   -1477.2967    496.81964    373.24228   -167.41438    39194.267 
  581400     305.2505   -1501.2152    486.25531    358.97971    63.315255    39194.267 
  581500    303.66161   -1506.0802    501.50277    362.21047   -97.881822    39194.267 
  581600    306.14862   -1491.7358    482.31453    368.56073    42.040575    39194.267 
  581700    295.26305   -1447.5036     481.5617    363.04397   -189.04332    39194.267 
  581800    308.55276   -1465.6864    494.60582    417.72257     26.17235    39194.267 
  581900    302.55254   -1431.1821    521.93486    452.54874   -236.98439    39194.267 
  582000    296.27908    -1473.101    471.28145    331.73942   -206.56186    39194.267 
  582100    292.65832   -1439.3231    494.00337    371.94215   -154.31884    39194.267 
  582200    304.54023   -1448.2956    500.05498    422.50204    224.66831    39194.267 
  582300    312.90185   -1464.5163    517.31613    461.17832    62.888556    39194.267 
  582400    298.16009   -1448.7765    529.99665    423.24567    100.20826    39194.267 
  582500    286.55691   -1485.7108    521.41704    325.50553      435.674    39194.267 
  582600    297.55906   -1458.5128    491.25844    372.06588    266.56843    39194.267 
  582700     292.4578   -1434.5613    505.68339    387.48141   -392.09518    39194.267 
  582800    309.13231   -1463.1083    476.30581    404.60925   -18.587523    39194.267 
  582900    301.76407   -1496.2955    486.74337    348.69496    269.41528    39194.267 
  583000    286.69636   -1521.9233    507.35006     275.8537    537.96812    39194.267 
  583100    305.40792   -1488.4311    494.79801    381.01502    476.83206    39194.267 
  583200     306.5281   -1500.9149    488.83007    367.60522    153.85099    39194.267 
  583300    299.87869   -1495.9903    488.02957    341.80017   -271.88417    39194.267 
  583400    295.56512   -1466.1116    519.72713    383.96102    280.07207    39194.267 
  583500    303.16188   -1477.3423    508.26043     395.4568    266.52998    39194.267 
  583600    304.47855   -1484.0139    472.62004    359.07109    179.18322    39194.267 
  583700    303.39278   -1487.4773    485.07169    363.17228    232.41271    39194.267 
  583800    311.43358   -1474.7486    493.34819    420.36933    487.55935    39194.267 
  583900    309.39088    -1486.432    490.83023    396.97377   -60.791247    39194.267 
  584000    297.12292   -1439.5435     474.1022     371.9158    222.39604    39194.267 
  584100    303.57825    -1407.422    522.77566    481.76638   -221.58155    39194.267 
  584200    308.27971   -1423.6356    491.57893    455.51742   -124.55652    39194.267 
  584300    306.69444   -1431.5682    494.23619    443.10675   -538.53445    39194.267 
  584400    292.18808   -1427.1361    500.08039    388.08965   -768.46556    39194.267 
  584500     297.6935   -1368.6157    508.86555    480.17518   -900.33114    39194.267 
  584600    298.92737   -1398.0506    500.05782     447.4862   -96.356347    39194.267 
  584700    291.63929   -1455.5721    488.42096    345.52403   -90.034793    39194.267 
  584800    307.04338    -1474.907    470.96846     378.0708     95.48174    39194.267 
  584900    305.63782   -1463.9532    482.14341    393.87313   -658.68098    39194.267 
  585000    304.08182   -1467.9531    497.90027    398.62651   -549.80688    39194.267 
  585100    295.65189   -1488.7301    480.02681    322.03272    839.30402    39194.267 
  585200    303.88302   -1452.4962    522.99213    438.28046    277.55263    39194.267 
  585300    283.64868   -1455.2265    527.99824    349.48103    669.02204    39194.267 
  585400     311.3674   -1466.8769    498.82775    433.42272    847.32404    39194.267 
  585500    296.88589    -1455.521    501.26532    382.03454    524.07538    39194.267 
  585600     306.7317   -1446.6014    503.81992    437.82504   -77.515984    39194.267 
  585700     302.5537   -1456.2617    537.81792    443.35746    212.29279    39194.267 
  585800    293.77933   -1445.3939    489.56816    366.48188   -604.72861    39194.267 
  585900    301.96725   -1447.2435    510.07669    421.99478   -205.69798    39194.267 
  586000    298.67898   -1491.9374    495.95072    348.37429   -162.52965    39194.267 
  586100    295.83208   -1456.3382    496.25511    371.46395   -234.64268    39194.267 
  586200    297.70937   -1464.4796    523.36372    398.88091   -334.75518    39194.267 
  586300    315.06878     -1460.74    482.26353     439.6554    99.282056    39194.267 
  586400    290.51669   -1431.7573    510.85975    386.72477    373.29355    39194.267 
  586500    292.54982    -1445.434     517.9878    389.32733    -199.1237    39194.267 
  586600    305.78723   -1449.0415    520.03661    447.35051   -188.95926    39194.267 
  586700    303.22764   -1484.6077    505.09188    385.31879    -20.64276    39194.267 
  586800    305.82016   -1486.8861     503.6776    393.29518    330.62929    39194.267 
  586900    301.80755   -1504.4827    500.51373    354.47386    210.05081    39194.267 
  587000    297.37335   -1512.4835    481.71904    307.71988   -250.20249    39194.267 
  587100    301.31186    -1488.736    514.80482    382.28043    235.63833    39194.267 
  587200    289.87451   -1483.0715    523.33375    344.99412   -390.27324    39194.267 
  587300    307.08625   -1491.6553    501.06083    391.60784   -294.97616    39194.267 
  587400    305.00744   -1478.8176    499.05355    393.08156    52.111645    39194.267 
  587500    302.34687   -1494.5763    509.21562    375.50956    246.80713    39194.267 
  587600    306.21579   -1491.2958    498.30204    385.29056    428.34009    39194.267 
  587700     290.8648   -1478.0031    501.79395       332.98    415.49737    39194.267 
  587800    301.66842   -1494.0953    476.02525    339.74654    183.92726    39194.267 
  587900    304.22377   -1506.0099    517.79978    381.10816     76.87052    39194.267 
  588000    295.60056   -1508.4441    511.31591    333.37678    74.085507    39194.267 
  588100    299.68598   -1504.4627    516.04988    360.48078    457.62786    39194.267 
  588200    298.11474   -1506.2125     529.5942    365.20305    271.85906    39194.267 
  588300    297.80767   -1493.6375    481.73846    328.54017   -13.621386    39194.267 
  588400    304.61895   -1500.2764    494.00028    364.82089    332.84944    39194.267 
  588500    290.18714   -1488.5537    504.56033     322.1457   -347.60124    39194.267 
  588600    293.47619   -1468.3501    499.51411    352.10713    104.99808    39194.267 
  588700    294.79452   -1476.6164    506.68309    356.94369    36.591686    39194.267 
  588800    305.39103   -1472.5554    510.92915    412.94589   -283.56646    39194.267 
  588900    295.09137   -1466.4274    508.62324    370.40893   -263.05678    39194.267 
  589000    300.37123   -1475.9311    506.95103    382.99773    157.44205    39194.267 
  589100    297.75641   -1476.5962    510.27006    373.88233   -145.59871    39194.267 
  589200    302.94792   -1491.3427     518.5822    390.81505    344.49232    39194.267 
  589300    295.89849   -1504.7267    509.32663    336.44594    364.44904    39194.267 
  589400    303.63225   -1558.8969    517.44771    325.20658    471.96575    39194.267 
  589500     292.9184   -1517.3991    500.34067    301.37407    93.915888    39194.267 
  589600     303.5734   -1509.2537    483.69174     340.8289    305.92076    39194.267 
  589700    298.70405   -1546.9838    494.51217    292.00225    376.89508    39194.267 
  589800    308.58189   -1516.0322    499.44948    372.35154   -267.92438    39194.267 
  589900    288.97049   -1519.0495    510.90114    292.51448   -795.19846    39194.267 
  590000    294.65088   -1549.7432    493.68094    270.16823    124.91195    39194.267 
  590100    297.92975   -1499.8687    500.62752    341.74754     211.9522    39194.267 
  590200    292.43176   -1512.9765    524.77385    328.03952   -229.63316    39194.267 
  590300    296.32174   -1506.3422    536.24417    363.65303   -153.58509    39194.267 
  590400    302.66549   -1503.9508    511.35503    369.70865    10.411441    39194.267 
  590500    297.26744   -1459.0184    487.17725    366.16654    97.980686    39194.267 
  590600    306.03166   -1492.1037    529.68489     415.0368   -181.96355    39194.267 
  590700    296.82586   -1570.4194    519.42822    285.02886    251.98801    39194.267 
  590800    307.25994   -1510.4895    543.58492     416.0796     308.9185    39194.267 
  590900    309.98604    -1494.267     525.8604    426.84776    304.55505    39194.267 
  591000    295.04137   -1475.7138    520.91452    373.18876   -237.90106    39194.267 
  591100    302.54155   -1462.2451    501.64717    401.14858   -142.34823    39194.267 
  591200    309.38602   -1438.2298    524.84659    479.17048    114.19637    39194.267 
  591300    295.51389   -1465.8478    524.78137    389.04842   -37.258117    39194.267 
  591400    292.09957   -1470.9867    515.40522    359.16548    549.81983    39194.267 
  591500    298.38087    -1478.801    548.21689    412.43514    490.98568    39194.267 
  591600    292.31429   -1469.1605    504.57263    351.12553     46.31696    39194.267 
  591700    300.81167   -1517.8092    515.79021    351.94136     6.329605    39194.267 
  591800    289.70261    -1499.229    537.37044    342.09959   -729.84431    39194.267 
  591900    293.96656   -1481.3315    503.72215    345.54089    85.515077    39194.267 
  592000    300.30331   -1481.3073    493.78198    364.14686    189.01874    39194.267 
  592100    300.72007   -1457.3783    517.87902    414.04873   -91.840795    39194.267 
  592200    301.17257   -1474.2655    536.07807     417.3973   -130.04965    39194.267 
  592300    305.67997   -1485.6285    506.10435    396.34851   -243.85867    39194.267 
  592400    300.93319   -1475.9872    509.92521    388.44527   -344.15408    39194.267 
  592500    293.11749   -1476.7212    515.03673    357.64414   -62.248353    39194.267 
  592600    300.12247   -1477.3721    501.88293    375.36905    368.25969    39194.267 
  592700    297.27998   -1446.7506     498.0094     389.3229   -202.84645    39194.267 
  592800    306.70126   -1426.8381     522.0926    475.72393   -213.84715    39194.267 
  592900    302.84413   -1458.9154    515.43389    419.62696   -407.46162    39194.267 
  593000     300.8067   -1410.0833    549.04443    492.89905   -44.112267    39194.267 
  593100    295.62784   -1431.2584    519.73272    419.10203   -159.00626    39194.267 
  593200    298.62767   -1481.1792    493.72183    356.67263    -347.1863    39194.267 
  593300     300.9304   -1488.2483    522.52858    388.77494   -468.16904    39194.267 
  593400    299.39153   -1501.9277    529.07569    374.71619    70.161247    39194.267 
  593500    290.19286   -1487.2793    508.66227    327.54776    -297.7064    39194.267 
  593600    296.81358   -1501.6663    519.63901     353.9375   -562.10368    39194.267 
  593700    303.11916   -1503.6223     497.3384    358.06241   -447.04329    39194.267 
  593800    306.04027   -1491.3057    511.75934    397.94802    384.71515    39194.267 
  593900     296.2252    -1470.748    525.67038    388.23887    87.849541    39194.267 
  594000     304.5143   -1488.8935     497.9686      379.701    157.83602    39194.267 
  594100    307.48854   -1497.5021    478.12174    364.63264   -315.18806    39194.267 
  594200    311.17218   -1457.2865    501.69409    445.00077   -201.77242    39194.267 
  594300    305.65823   -1478.6509    512.77291    409.89681   -41.014346    39194.267 
  594400    306.42348   -1489.9571    515.62105    404.88309   -132.29044    39194.267 
  594500    303.99878   -1473.5029    493.93905     388.7417    240.34967    39194.267 
  594600    299.18305   -1465.6137    520.42934    401.44551    -312.2178    39194.267 
  594700    308.53272   -1450.4915    516.42198    454.64334   -52.781152    39194.267 
  594800    295.93951   -1439.6406    517.02387    409.41384   -271.13548    39194.267 
  594900     297.1413   -1467.3155    505.00384    375.12825    16.037519    39194.267 
  595000    302.26367   -1510.9261    494.08726    343.65693   -542.38628    39194.267 
  595100    291.27106   -1477.4632    493.73339    327.28799   -471.07694    39194.267 
  595200    303.32078   -1463.3324    501.55729    403.47876    461.27345    39194.267 
  595300    293.67543   -1503.3762    484.16249    302.62622   -33.052152    39194.267 
  595400    293.00589   -1483.1628    510.75346    346.41692   -76.245632    39194.267 
  595500    306.54204   -1498.4025    502.26637    383.61671   -64.732802    39194.267 
  595600    301.14872   -1473.9398    511.17932    392.71688    245.53101    39194.267 
  595700    298.03188   -1480.5189    508.53146    369.46099   -218.10759    39194.267 
  595800    303.63531   -1490.1004    502.91708    379.48627    247.48833    39194.267 
  595900    298.45256   -1486.8708    466.25912    322.73023    -129.3067    39194.267 
  596000    304.53616   -1456.4553    513.77989    428.04892    215.20032    39194.267 
  596100    312.05149   -1491.3057    500.09531    413.34055    153.03719    39194.267 
  596200    295.34416   -1432.9666    522.56053    418.94483   -36.333482    39194.267 
  596300    297.64222   -1429.2952    509.80381     420.2031    130.48535    39194.267 
  596400    303.82698   -1450.5019    509.46137    426.49172    710.20153    39194.267 
  596500    293.12134   -1456.3439    503.37472    366.37673   -44.655725    39194.267 
  596600    295.83784   -1422.6354    500.13733    409.07493   -177.09241    39194.267 
  596700    296.03026   -1444.1932    496.97657    385.22241   -141.37083    39194.267 
  596800    302.40181   -1435.8735    510.49054    435.73458     526.4038    39194.267 
  596900    306.54575   -1431.9414     516.4124    464.24057   -70.557834    39194.267 
  597000    302.45279   -1430.5877    476.76724    407.52655   -167.92379    39194.267 
  597100    303.14067   -1429.5343    508.94674    443.85565    -606.3813    39194.267 
  597200    302.57407   -1507.7869    496.58896    350.69499    3.9294734    39194.267 
  597300    307.87802   -1472.8493    480.09073    393.00749    279.75908    39194.267 
  597400    294.12376   -1448.0438    504.38206     380.1961   -368.09955    39194.267 
  597500    301.76877   -1484.9701     481.5546    354.85278    247.08725    39194.267 
  597600    298.04908   -1459.0306    514.01686    396.51203    255.22044    39194.267 
  597700    300.24642   -1454.9526    523.11688    419.58037    264.09313    39194.267 
  597800    302.14876   -1454.8186    487.63079    392.79081    91.086949    39194.267 
  597900    296.74696   -1495.0872    530.36993     370.9477   -239.22584    39194.267 
  598000      308.259   -1482.6177    484.91518    389.77832   -292.52853    39194.267 
  598100    298.88334   -1463.2697    499.36849    381.37968   -78.212932    39194.267 
  598200    292.66153   -1445.0734    477.57054    349.77347   -154.17411    39194.267 
  598300    293.46015   -1475.2376     495.4306    341.06395   -609.39064    39194.267 
  598400    296.75701   -1454.8709    486.79728     367.6366   -917.77626    39194.267 
  598500    310.02518   -1483.1701    491.35384    403.61425   -648.82169    39194.267 
  598600    290.55398   -1494.0683    498.61025    312.33217   -479.16094    39194.267 
  598700     292.6937   -1435.8051    489.75642    371.37248   -476.68816    39194.267 
  598800    299.22488    -1495.154    487.24536    338.90942   -475.33871    39194.267 
  598900    294.22218   -1448.0726    519.30277    395.53105    -897.7314    39194.267 
  599000    291.51725   -1479.1893    499.44554    332.38217    -389.0722    39194.267 
  599100    299.23072   -1449.9097    497.26146    394.19613   -1392.9157    39194.267 
  599200    295.55678   -1438.1741    506.74152     398.8753   -1329.2785    39194.267 
  599300    295.07838    -1422.043    500.67571    406.78737   -1234.7749    39194.267 
  599400    303.62491   -1446.2404    477.13152    397.51387   -665.02921    39194.267 
  599500    296.80559   -1478.3031    493.75068     351.3764    48.952773    39194.267 
  599600    309.49127   -1501.8671    482.78765    373.94793    111.57277    39194.267 
  599700    305.82327   -1484.3955    466.86281    358.98489    168.35263    39194.267 
  599800    302.80702   -1492.3296    463.22316    333.83497    -297.4038    39194.267 
  599900    306.39175   -1475.0651    474.92689    378.93812    102.30408    39194.267 
  600000    288.98075   -1475.5956    531.51122    356.62464   -35.447231    39194.267 
  600100    296.04487   -1447.9177    534.42772    419.01484   -24.239311    39194.267 
  600200    297.74698   -1467.3855     519.0291    391.80966    430.42178    39194.267 
  600300     295.4083   -1446.4629    493.98155    377.15819     384.1663    39194.267 
  600400    305.21272   -1456.9224    497.49949    414.34662    340.09226    39194.267 
  600500    295.80208   -1509.7496    502.72916    324.39158   -20.476324    39194.267 
  600600    302.33864   -1508.8193    504.38489    356.39881   -379.30505    39194.267 
  600700    309.46788   -1467.5124    500.92523    426.33491   -125.00795    39194.267 
  600800    292.00278   -1437.1561    499.09905     376.2542   -488.72512    39194.267 
  600900    308.78673   -1408.9816    510.63016    491.50479    185.73405    39194.267 
  601000    290.20041   -1491.0282    504.36829    319.53882   -251.35218    39194.267 
  601100    299.42203   -1447.6575    496.92844    396.97641   -217.70469    39194.267 
  601200    298.87137   -1470.7484    504.55401    379.03253    93.326984    39194.267 
  601300    288.21278   -1458.2587    528.52819    367.52183   -187.70864    39194.267 
  601400    303.16781   -1493.3339    499.58218    370.81358    439.36923    39194.267 
  601500    303.52122   -1505.6954    486.35872    346.81941   -259.83398    39194.267 
  601600    295.26209   -1473.7984    474.62789      329.811   -202.31547    39194.267 
  601700    291.69661   -1490.2933    498.09873    320.73863   -930.86445    39194.267 
  601800    289.12319   -1512.7311    489.47452    278.09359    -900.5482    39194.267 
  601900    303.62717   -1499.2387    495.06165    362.45584   -803.17803    39194.267 
  602000    296.70764   -1461.3987    508.04556    382.13479   -515.72372    39194.267 
  602100    317.23733   -1490.6042    498.23438    435.52275   -843.33058    39194.267 
  602200    302.37384   -1461.5514     520.8974    420.33769    7.2073378    39194.267 
  602300    305.72717   -1433.2386    514.56047    457.40696    426.77808    39194.267 
  602400    307.74816   -1505.4496    517.17584    396.90785    431.84202    39194.267 
  602500    299.95429   -1504.8152    518.08276    363.36875   -69.610558    39194.267 
  602600    289.60091   -1445.3437    481.76223     339.9189   -3.7945468    39194.267 
  602700    304.13415   -1457.9923    514.21173    425.13423    -50.00549    39194.267 
  602800    304.15356   -1454.9301    487.03583    401.10794   -226.98837    39194.267 
  602900    301.13271   -1503.2227    482.57602    334.75864   -149.51529    39194.267 
  603000    303.67389   -1480.8566    521.24958    407.23619   -159.07354    39194.267 
  603100    309.11415   -1474.7838    501.02327    417.56947   -218.98442    39194.267 
  603200    298.88676   -1458.5022    476.46716    363.26117    -640.4368    39194.267 
  603300    307.54046   -1478.3636    524.30306    430.18618   -456.29988    39194.267 
  603400    305.65983   -1463.9378    509.14987    420.99406   -387.25583    39194.267 
  603500    306.05998   -1501.5416    503.48697    379.52846   -232.79241    39194.267 
  603600    296.93185   -1471.5228    503.10021    368.07451   -364.87728    39194.267 
  603700    289.75316    -1459.978      505.355    349.56266   -221.58193    39194.267 
  603800    299.70163   -1467.8028    512.88026    394.04151   -450.84381    39194.267 
  603900    300.29183   -1500.2667    505.27212    356.62597   -440.04212    39194.267 
  604000    300.48246   -1496.4965    522.60487    378.58687   -181.98906    39194.267 
  604100    297.87058   -1459.4862    490.98052    372.21665   -107.69035    39194.267 
  604200    307.69151   -1471.0357     512.5545    426.44538   -222.35922    39194.267 
  604300    304.03659    -1472.494    490.07763     386.0594    21.711851    39194.267 
  604400    304.18574   -1444.0619    512.73244    437.81754   -116.11564    39194.267 
  604500    293.76935   -1442.0807     508.9363     389.1182    616.60173    39194.267 
  604600    291.40339   -1476.4842    516.64808    351.77735    124.49291    39194.267 
  604700    290.81952    -1455.901    496.63143     349.7158    66.304507    39194.267 
  604800    304.07109   -1463.0428     503.3435    408.93172    230.68628    39194.267 
  604900    293.31166   -1481.2501    543.83203    382.78453    75.852184    39194.267 
  605000    308.56518   -1486.7763    483.59934    385.68202    108.05482    39194.267 
  605100    301.74452   -1462.1429    500.42734    396.44347   -687.20075    39194.267 
  605200    306.32573   -1448.9299    545.38613    475.23543     -102.882    39194.267 
  605300    302.26114   -1404.2236    485.61944    441.88026   -602.13906    39194.267 
  605400     297.5487   -1425.4482    527.24195    441.06732   -576.20222    39194.267 
  605500    296.22195    -1427.785    487.79623    393.31304   -318.05176    39194.267 
  605600     294.1553   -1405.5512    526.34356    444.79216   -753.80915    39194.267 
  605700    290.44137   -1406.7178    516.90339    417.46895   -628.58039    39194.267 
  605800    305.09931   -1415.0326    506.68675    464.91325   -203.66606    39194.267 
  605900    300.43744   -1416.6673     497.1409    432.74946     246.4594    39194.267 
  606000    294.82663   -1451.8333    506.76021    381.94836   -44.517558    39194.267 
  606100     296.1605   -1427.1952    517.35414    423.18417   -74.142383    39194.267 
  606200    303.99141   -1398.2191    494.76925    464.82252    22.514339    39194.267 
  606300    289.53056   -1456.6882    496.46378    342.95939    280.96143    39194.267 
  606400    303.24005   -1411.0691    510.75886    464.58024    227.10272    39194.267 
  606500    291.55147   -1377.1538    510.74483    445.87092    143.87219    39194.267 
  606600    303.33381   -1400.1368    508.67027    473.84597   -22.660689    39194.267 
  606700    296.10769   -1413.7634    491.57998    410.60421    615.18823    39194.267 
  606800    302.38014   -1438.3414     513.5839    436.26254    258.64358    39194.267 
  606900    308.98793   -1447.6931    491.05437     434.1231    670.35523    39194.267 
  607000    306.12758   -1438.3836    494.52525    434.02903    413.45057    39194.267 
  607100    302.03329   -1425.6882     517.4089    451.17952    149.32742    39194.267 
  607200    304.88111   -1454.8599     510.6078    428.02483    369.92055    39194.267 
  607300    305.19694   -1420.3788    525.67488    478.99457    331.96068    39194.267 
  607400    302.49804    -1456.878    480.60483    385.27751    74.288903    39194.267 
  607500     303.5279   -1419.9656     502.0447    448.26516    -167.8087    39194.267 
  607600    311.38456   -1430.7293    525.07538    495.89516   -212.43263    39194.267 
  607700    292.10151   -1381.2935    500.49689    433.95905   -237.44978    39194.267 
  607800    302.83399   -1412.4903    542.16034    492.73289   -513.59761    39194.267 
  607900    298.56837   -1395.4663    484.72946    433.12634   -548.59094    39194.267 
  608000    303.11237   -1411.4019    513.36754    466.28146   -293.65307    39194.267 
  608100    305.90331   -1434.9769    471.81127     413.7123   -395.40206    39194.267 
  608200    310.68033   -1396.2951    505.55357    507.63786   -548.19772    39194.267 
  608300    303.88057   -1449.4952    480.16411    398.44243   -476.30563    39194.267 
  608400    306.28194   -1420.7282     483.7833    441.63722   -438.53913    39194.267 
  608500    293.97105   -1402.6589    488.27681    408.78843   -299.39637    39194.267 
  608600    296.25936   -1397.0443    499.78593    436.21188    351.33281    39194.267 
  608700    305.76617   -1461.7166    446.51844     361.0624   -278.43702    39194.267 
  608800    309.41402   -1454.7737    509.74254    447.64847   -272.50415    39194.267 
  608900    293.66171   -1460.1493    507.15317    368.78205    -233.0559    39194.267 
  609000    292.15814   -1477.9994    484.49816    321.50931    21.125941    39194.267 
  609100    315.34216    -1444.728     482.5532    457.18753   -30.321491    39194.267 
  609200    296.46919   -1431.9547    485.80497     388.2649   -80.111355    39194.267 
  609300    295.09722   -1438.9596    473.33943    362.61931    105.54966    39194.267 
  609400    291.28337   -1468.3751    482.73935    325.43741   -376.19593    39194.267 
  609500    296.62967   -1453.8967    469.74494     350.9853     215.3782    39194.267 
  609600    294.39865   -1437.0984    493.13657     381.1333    339.53603    39194.267 
  609700     295.0054   -1453.9932    486.99491    360.82782    530.25979    39194.267 
  609800    286.08401   -1438.4754    501.16859    350.36395    16.559722    39194.267 
  609900    290.80342   -1418.7173    492.03516    382.23084    52.119273    39194.267 
  610000     297.4822   -1436.7011    502.51138    404.78459     303.6417    39194.267 
  610100    295.32233   -1440.5201    499.51125    388.24385   -354.67043    39194.267 
  610200    309.91791    -1462.554    463.89303     396.2867   -244.81173    39194.267 
  610300    302.20789   -1460.8486     474.1458    373.54194    111.62164    39194.267 
  610400    300.00085   -1498.6645     479.9203    331.56656   -325.72279    39194.267 
  610500    299.98178    -1472.424    468.76295    346.56387   -464.82259    39194.267 
  610600    297.99119   -1455.6054     474.5372    360.19706   -625.59724    39194.267 
  610700    288.42123   -1444.8202    485.55042    338.92089   -541.23447    39194.267 
  610800    304.72567   -1442.1235    481.30444    410.75826   -710.67255    39194.267 
  610900    308.67096   -1449.9873    478.97425    418.32209   -720.48165    39194.267 
  611000    294.77314   -1441.3119     488.6147    374.08347   -525.92602    39194.267 
  611100    290.83811   -1420.1191    486.75066    375.70067   -365.05464    39194.267 
  611200    300.37441   -1435.2389    479.40967    396.16295   -446.57605    39194.267 
  611300    308.53451   -1457.1424    475.25109    406.82968   -338.24681    39194.267 
  611400    287.64947   -1481.7785    491.80484    304.74324   -135.36319    39194.267 
  611500    300.48922   -1516.2853    474.69326    310.91691   -76.542251    39194.267 
  611600    299.53088   -1456.7147    502.20346    393.68421    347.45774    39194.267 
  611700    303.21239   -1426.4667    505.61752    443.91687    322.91885    39194.267 
  611800    309.04421   -1441.4129    486.60297    436.20528   -27.465373    39194.267 
  611900    295.10731   -1393.4923    475.22018    410.01267   -99.401344    39194.267 
  612000    309.00052   -1408.6785    499.49161    481.63165   -262.97515    39194.267 
  612100    291.06653   -1431.7615    477.29458    355.63026   -614.50654    39194.267 
  612200     304.6293   -1456.2673    498.66048    413.53669    51.487677    39194.267 
  612300    288.06721   -1438.2462    498.26259     356.6136    505.91984    39194.267 
  612400    303.82655   -1448.8513     507.9245    426.60357     73.00394    39194.267 
  612500    292.92313   -1432.7384    481.83421    367.54965    178.17435    39194.267 
  612600    297.72594   -1460.7846    496.40419    375.69093    -46.55526    39194.267 
  612700    298.74099   -1440.9089    483.86562    387.59683    322.89702    39194.267 
  612800    301.58158   -1450.9251    485.72021     392.2208    50.142295    39194.267 
  612900    288.88316   -1456.5804    493.91355    337.60293   -304.33821    39194.267 
  613000    301.03997   -1422.5361    487.27381    419.72557   -508.93637    39194.267 
  613100    276.81589   -1453.4848    511.77936    304.24927   -327.73691    39194.267 
  613200    303.61571   -1455.3995    475.75824    386.94004   -68.665685    39194.267 
  613300    309.28878   -1461.9003    485.87816    416.09388   -370.24491    39194.267 
  613400    296.82873   -1431.3833    481.60535     386.2551   -569.08715    39194.267 
  613500    294.39788   -1429.2232    488.53394     384.4024   -550.77169    39194.267 
  613600    299.18322   -1433.0815    488.16611    401.71522   -347.03516    39194.267 
  613700    304.49663   -1432.1785    501.24481     439.6127   -120.85382    39194.267 
  613800    293.58805   -1454.9984    474.74344     341.1917   -510.62636    39194.267 
  613900    294.71861   -1460.0516    489.20906    355.69278   -280.95476    39194.267 
  614000    299.52358   -1453.2262     478.3894     373.3258   -52.313025    39194.267 
  614100    297.87114   -1487.0317    498.79762    352.49077    314.71666    39194.267 
  614200    299.00322   -1476.6682    501.96436    371.11662    255.31597    39194.267 
  614300    302.34685   -1454.6324    502.04892    408.28676    483.98766    39194.267 
  614400    302.68726   -1411.2882    486.19877    437.31291    569.24991    39194.267 
  614500    289.06662   -1426.3903    514.01579    388.72106    16.280579    39194.267 
  614600    294.37954   -1439.7477    500.60155    385.86296   -694.94608    39194.267 
  614700    296.46879   -1430.0631    471.60663    375.95641    200.50179    39194.267 
  614800    303.34702   -1433.5832    490.44786    422.23662    -649.9811    39194.267 
  614900     307.8784   -1403.3195    495.53393    477.98222   -330.31238    39194.267 
  615000    301.78088   -1415.8045    509.97358    452.49185   -278.27624    39194.267 
  615100    311.87381   -1416.1031    493.86803    481.51619   -719.41124    39194.267 
  615200    300.79564   -1432.1673    478.65891     400.3798    -98.65904    39194.267 
  615300    293.14631   -1424.2536    497.71484    392.91962    -486.9221    39194.267 
  615400    303.27328   -1432.6651    497.52169     429.8967   -741.69291    39194.267 
  615500     302.1937   -1443.3825    521.02787     437.8262   -860.64831    39194.267 
  615600    289.95977   -1504.9839    486.22537    286.35711   -421.62389    39194.267 
  615700     304.4869   -1476.0745    479.20096    373.62902    184.14896    39194.267 
  615800    297.39543   -1457.3432    487.02398    368.26454    273.71196    39194.267 
  615900    297.77931   -1426.1819     514.1545    428.28422    129.64345    39194.267 
  616000    302.71463   -1458.5821    493.61521     397.5587    487.70814    39194.267 
  616100    291.86539    -1454.867     503.3309    362.15683    251.19191    39194.267 
  616200    303.44427   -1427.4594    486.66411    425.01437   -55.731714    39194.267 
  616300    304.43166   -1448.2542    485.52132    407.52109    -637.0801    39194.267 
  616400    300.18666   -1454.6838    468.49664    364.95994   -159.23378    39194.267 
  616500     288.8144   -1435.4737    506.04565    370.53224    188.24088    39194.267 
  616600    296.83695   -1490.8265    482.34226    327.58576    225.80869    39194.267 
  616700     298.4514   -1421.7638    513.08489    434.65772    287.96719    39194.267 
  616800    295.53023   -1462.4476    510.45456    378.19538    161.06498    39194.267 
  616900    304.58786    -1456.357    480.40379    395.00376      94.4086    39194.267 
  617000    297.15037    -1425.144    482.16043    394.49711    381.93118    39194.267 
  617100    305.56874    -1414.002    479.72186    441.09187    968.68627    39194.267 
  617200    295.77884   -1358.6262    505.11908    477.80023    634.19031    39194.267 
  617300    310.18248   -1414.8975    498.46708    479.70808    849.45521    39194.267 
  617400    301.57235   -1418.6211    503.18786    441.95084     700.9176    39194.267 
  617500    310.67345   -1416.6343    514.51945    496.23357    110.39193    39194.267 
  617600    309.89211    -1416.939    490.63028    468.52286   -278.39389    39194.267 
  617700    300.02749   -1413.0383    470.63742     408.0298   -811.74367    39194.267 
  617800    292.67495   -1410.4066    504.99837    411.92857   -443.96359    39194.267 
  617900    289.71915   -1395.4008    486.32487    394.95665    3.6987346    39194.267 
  618000    293.06717   -1398.0609    515.15797    436.19917    311.04747    39194.267 
  618100    300.90092   -1423.4593    500.39038     431.2931    859.59247    39194.267 
  618200    298.23872   -1444.6801    502.18787    399.88721    612.59464    39194.267 
  618300    297.65994   -1449.6073    489.91682    380.08385    567.87183    39194.267 
  618400    300.72919   -1415.7492    487.06756    424.90741    437.20273    39194.267 
  618500    307.12753   -1433.1279    527.51187    476.77215   -170.08093    39194.267 
  618600    307.74156   -1428.1809     465.4464    422.41736   -480.45853    39194.267 
  618700     301.6582     -1458.41    498.79946    398.15999   -803.88892    39194.267 
  618800    302.70494   -1454.4484    500.47732    408.51084    -183.5638    39194.267 
  618900    299.69758   -1429.6822    507.94624    427.20977   -796.51976    39194.267 
  619000    302.68472   -1446.1785    497.96229    414.17472   -798.24626    39194.267 
  619100    297.27093   -1500.9386    493.52242    330.60717   -210.16826    39194.267 
  619200    299.48793   -1488.3957     504.2518    363.85821   -486.28475    39194.267 
  619300    309.31919    -1451.312    483.34433    424.28521   -311.77227    39194.267 
  619400     304.4768   -1463.8927    472.67915     379.2436    315.01861    39194.267 
  619500    306.12831   -1470.8238    465.66375    372.73055    810.75396    39194.267 
  619600    293.12832   -1487.0739    504.33151    336.63501    2.9943774    39194.267 
  619700     307.5289    -1484.845    486.97466    386.32439   -202.20209    39194.267 
  619800    297.95467   -1487.9648    494.39957    347.53566    217.18127    39194.267 
  619900    294.58919   -1410.7342    480.31067    395.52919    575.94461    39194.267 
  620000    301.20564   -1463.4241    498.21825    390.52774    465.94892    39194.267 
  620100    297.79507    -1467.325    495.78099    368.83856    725.98897    39194.267 
  620200    300.58175   -1471.0512    492.99521    374.86949    353.02098    39194.267 
  620300    301.38165   -1444.9425    499.33415    410.91741    451.17585    39194.267 
  620400    302.59977   -1418.9124    502.78144    445.87761    361.72924    39194.267 
  620500    298.10511   -1443.8023    465.94728    363.92302   -230.17955    39194.267 
  620600    291.90204   -1453.9265     505.7097    365.64109    230.78638    39194.267 
  620700    295.54543   -1467.3084     520.3733     383.3217    329.79407    39194.267 
  620800    294.16546   -1452.4483    500.66473    372.26194     -88.5087    39194.267 
  620900    310.13229   -1471.2514    501.25016     425.9114   -92.980995    39194.267 
  621000    299.82905   -1437.6282    489.49073    401.40008   -176.63187    39194.267 
  621100     302.4605   -1473.1349    475.44499    363.69181   -714.38676    39194.267 
  621200    301.47805   -1424.2154    477.73263    410.47691   -1203.9535    39194.267 
  621300    293.62769   -1438.4725    498.80025    381.95279    -377.8907    39194.267 
  621400    304.93055   -1430.6373    517.82181    459.68397    415.79264    39194.267 
  621500    306.98702   -1448.8339    496.94066    429.86244    122.04336    39194.267 
  621600    298.04917   -1446.5484    498.23893    393.21675    276.27632    39194.267 
  621700    292.88224   -1446.0768    509.24732    381.44023    695.42291    39194.267 
  621800    307.07783   -1445.2073    515.71396    452.67104    523.83838    39194.267 
  621900    299.80434    -1431.367    474.39568    392.45499    192.21741    39194.267 
  622000    298.93363   -1451.0798    506.74293    401.17036   -398.65901    39194.267 
  622100    303.01442   -1449.8399    497.90269    411.93775   -183.07957    39194.267 
  622200     296.9601   -1461.0631    483.68162    359.24278   -552.89823    39194.267 
  622300    316.64059   -1416.8082    506.58926    514.98772   -104.91625    39194.267 
  622400    310.74773   -1425.7635    519.68352    492.60278   -441.61944    39194.267 
  622500     309.3614   -1434.0695    471.95556    430.32888   -89.125499    39194.267 
  622600    292.83498   -1418.6472    491.54887    390.95865   -263.48966    39194.267 
  622700    308.58758   -1415.4121    484.30363    457.85137   -488.38321    39194.267 
  622800    287.65126   -1404.5306    510.14751    400.34196   -697.61198    39194.267 
  622900    304.55119   -1380.9732    505.54828    495.36702    -277.9765    39194.267 
  623000    297.65151   -1412.2505    493.19652    420.68239   -360.63081    39194.267 
  623100     299.6126   -1439.2201    500.13652    409.47973   -384.43139    39194.267 
  623200    300.20577   -1396.6354    500.83812    455.43579   -187.95576    39194.267 
  623300    300.67323   -1440.2613    478.44124    391.51712     -8.37955    39194.267 
  623400    311.45192   -1434.7762    504.84446    471.92055    85.221741    39194.267 
  623500    305.01922   -1410.5628    492.64067    454.97642    50.094054    39194.267 
  623600    292.77338   -1450.2358    474.80562     342.3496   -314.19117    39194.267 
  623700    294.30155    -1443.355    482.78913     364.0922    337.66022    39194.267 
  623800    306.02093   -1464.5737    497.66525     410.4989    76.555589    39194.267 
  623900     301.9804   -1470.0472    511.13525    400.30884    716.59607    39194.267 
  624000    297.46366   -1481.8505    483.43936    340.47969    624.85458    39194.267 
  624100    302.65878   -1433.4809    532.04168    460.83494     813.4603    39194.267 
  624200     293.4583   -1417.8432    493.50683    396.52626    178.95225    39194.267 
  624300    302.33217   -1447.8716    505.83675    418.76921   -198.09495    39194.267 
  624400    299.11266   -1476.5374     490.2739    360.04948    98.962843    39194.267 
  624500    290.35308   -1442.4717    487.20735    351.62155   -6.7388931    39194.267 
  624600    294.03726   -1445.0115     497.4275    375.88452    46.427011    39194.267 
  624700    306.95543   -1434.6497    489.38877    436.35258   -232.54093    39194.267 
  624800    297.37179   -1441.9442    475.51535    372.04846   -736.50528    39194.267 
  624900    294.09635   -1483.5884    487.12934    327.27539   -590.22546    39194.267 
  625000    303.87855   -1499.3323     496.1497    364.58184   -528.10991    39194.267 
  625100    292.45852   -1485.1356    454.54632    285.77326   -903.33364    39194.267 
  625200    293.24072   -1488.1846    480.05553     311.7542   -834.37244    39194.267 
  625300    306.83413   -1494.9447    470.87986    357.00271   -486.57346    39194.267 
  625400    294.54485   -1460.0839    490.83322    356.50253   -62.628986    39194.267 
  625500    300.91135   -1504.1238    483.10029    333.38543   -402.87379    39194.267 
  625600    292.66865   -1460.5944    499.98888    356.70288    205.11065    39194.267 
  625700    298.78752   -1440.6695    485.08362    389.26369    261.80741    39194.267 
  625800    302.10012   -1464.3238    492.38462    387.82046     257.3777    39194.267 
  625900    296.16097   -1431.2053    502.54997    404.37203   -425.88505    39194.267 
  626000    306.75706   -1417.4211     490.4165    453.71606   -642.28153    39194.267 
  626100    299.13918   -1419.9402    462.52686      389.019   -722.08272    39194.267 
  626200    303.45553   -1471.6888     526.8737    421.04524   -184.43129    39194.267 
  626300    294.37634    -1473.974    467.98179    319.00254    94.893966    39194.267 
  626400    295.23842   -1476.3764    486.67552    339.17406    39.467923    39194.267 
  626500    305.85777    -1466.759    496.64497    406.55883   -125.67645    39194.267 
  626600    303.45976   -1413.8551    497.46737    449.49174   -71.837462    39194.267 
  626700    318.01075   -1424.2663    497.70488    504.81231   -14.410477    39194.267 
  626800    300.60404   -1421.1125    491.48566    423.39894    117.11036    39194.267 
  626900    305.81646    -1443.461    508.73379    441.75977   -127.65252    39194.267 
  627000    289.94973   -1401.1702     485.3787    389.27895   -223.47355    39194.267 
  627100    297.86015   -1384.2307    495.63638    452.08115   -544.66667    39194.267 
  627200    305.78085   -1420.6884    480.70823     436.3465   -115.00195    39194.267 
  627300     307.2494   -1403.2748    499.23913    478.90099   -279.07213    39194.267 
  627400    301.25473   -1395.7036    504.97523     465.2261   -433.59434    39194.267 
  627500    302.87112   -1398.4454    497.19849    461.98302   -225.60559    39194.267 
  627600    296.65767   -1422.4531    497.53819    410.34814   -266.58638    39194.267 
  627700    297.84743   -1432.2314    506.76501    415.15181    -92.40298    39194.267 
  627800    298.94829   -1372.4375     523.1053    496.24096    51.213395    39194.267 
  627900    296.96816   -1427.0446    504.09431    413.71032    306.96615    39194.267 
  628000    297.38141   -1397.7049    497.19706    438.01274   -21.939103    39194.267 
  628100    310.96465   -1429.4181    481.36279    451.60382    390.22369    39194.267 
  628200    305.20687   -1423.8829    516.24094    466.10121    200.74735    39194.267 
  628300    299.89472   -1429.7568    487.11587    407.19212    522.92531    39194.267 
  628400    294.12498   -1440.8729    499.29306    382.28353    228.63744    39194.267 
  628500    300.91011   -1438.8735    514.97126    430.50117    232.89013    39194.267 
  628600    308.63387   -1434.5401    466.80794    421.43606    489.77372    39194.267 
  628700    302.89637   -1468.4242    501.44351     396.3629   -147.12172    39194.267 
  628800     306.0074   -1485.3331    511.86233    403.87568    175.12497    39194.267 
  628900     301.9849   -1426.6727    496.33933     428.9077    577.01103    39194.267 
  629000    299.21415   -1423.8546    497.41155     420.3268    374.08927    39194.267 
  629100    303.30047   -1483.8238    491.71895    373.05758    968.17092    39194.267 
  629200    305.93468   -1460.4366    499.84006    416.42254    141.14385    39194.267 
  629300     303.3211   -1445.3778    504.02637     423.9039    501.61952    39194.267 
  629400    305.60565   -1424.8616    504.49157    455.16809    439.11791    39194.267 
  629500    307.85502   -1421.1492    491.80856    456.32198    288.51203    39194.267 
  629600    312.79066   -1447.3506    496.22001    456.74745   -225.76803    39194.267 
  629700    302.83743   -1432.3215    489.87548    420.63227    70.262421    39194.267 
  629800    291.06662   -1455.1727    488.35136    343.27633    637.81888    39194.267 
  629900    294.65454   -1469.0153    491.15809    348.38972   -13.463142    39194.267 
  630000    300.35601   -1475.0532    479.83436    356.69051   -27.006012    39194.267 
  630100    295.45727   -1441.1401    500.30047    389.02036    637.42965    39194.267 
  630200    310.26436   -1439.4606     516.2615    473.30799    1062.0314    39194.267 
  630300     283.8913   -1428.8478    484.73512    333.68863    567.84124    39194.267 
  630400    304.13039   -1425.1242    511.04974    454.82345    97.828599    39194.267 
  630500    300.82646   -1472.8185    472.82623    354.03457    225.59288    39194.267 
  630600    304.81438   -1400.9977    501.00804    471.98689    626.39899    39194.267 
  630700    299.89256   -1434.0703    493.06195      408.815     232.5618    39194.267 
  630800    291.37192   -1395.9494    499.94093    415.46333    619.08793    39194.267 
  630900    301.76366   -1374.5473    507.77607    491.47401    28.326279    39194.267 
  631000    298.05705   -1387.1582    507.16191    461.56537    160.26156    39194.267 
  631100    308.11663   -1398.0332    524.91239    513.71928   -394.86413    39194.267 
  631200    309.87469   -1414.0312    510.24402    490.96598   -338.47729    39194.267 
  631300    295.17877   -1430.2015    465.14724    363.55224    -455.2768    39194.267 
  631400    299.30213   -1425.5045     523.7475    445.40886   -387.73443    39194.267 
  631500    294.20695   -1406.6325    470.86939    388.46922   -443.88359    39194.267 
  631600     304.1303   -1447.2966    492.01373    413.61468   -906.32826    39194.267 
  631700    308.28396   -1456.6352     497.7345     428.6925   -484.72089    39194.267 
  631800    291.40724   -1423.9336    471.20094    358.89806   -1288.0505    39194.267 
  631900    307.06728   -1387.1961    485.75471    480.67557    -898.8888    39194.267 
  632000    307.75985   -1442.7694    479.80687    422.27169   -318.50334    39194.267 
  632100    305.14741   -1412.1114    520.47295     481.8371   -417.24684    39194.267 
  632200    307.18358   -1412.8799    503.41547    473.17593    -176.0228    39194.267 
  632300    304.24997   -1443.9477    514.24861    439.73704     -102.873    39194.267 
  632400    297.06578    -1423.163    501.82039    415.75734   -12.113221    39194.267 
  632500    294.38661   -1386.9681    522.05238    460.12529    45.029312    39194.267 
  632600    301.70042   -1410.4248     492.3517    439.88745    361.72809    39194.267 
  632700    300.63635   -1443.5319    511.47096    421.11026    175.12978    39194.267 
  632800    298.31792   -1409.8675    476.05484    408.92325    64.291643    39194.267 
  632900    301.58913   -1395.6134    520.37371    482.21998   -336.98253    39194.267 
  633000    291.36455   -1401.5368     483.0438     392.9456     50.23634    39194.267 
  633100    303.27511   -1398.6701    486.85841    453.23658   -14.733159    39194.267 
  633200    297.65324   -1446.5086    480.01909    373.25464    -210.0404    39194.267 
  633300    302.22572   -1421.3808     475.9552    414.89934    497.53663    39194.267 
  633400    305.43199   -1387.8488    522.68825    509.59593    412.57216    39194.267 
  633500     295.9238   -1424.1841    504.60418       412.38   -255.33238    39194.267 
  633600    307.28455   -1405.3767    500.26079    477.97897   -308.95543    39194.267 
  633700    296.46588   -1397.7804    467.54085    404.16023   -1020.2559    39194.267 
  633800    304.92957   -1412.3477    497.10791    457.25526   -479.04137    39194.267 
  633900     294.0015   -1427.4963    479.42291    375.23419   -743.00174    39194.267 
  634000     290.3105   -1424.4771    502.53658    384.75376   -562.25741    39194.267 
  634100    294.81106     -1398.59    498.12043    426.48185   -78.560048    39194.267 
  634200    302.54835   -1382.2906    486.19999    465.68649   -239.41956    39194.267 
  634300     293.3282   -1402.4451    496.23456    414.06647   -820.04386    39194.267 
  634400    304.38896   -1441.7411    462.18379     390.5045    411.37769    39194.267 
  634500    303.81966   -1464.2799     503.5221     406.7415    282.80356    39194.267 
  634600    295.98061   -1473.8589    488.37383    346.73055    53.154976    39194.267 
  634700    304.67119    -1448.629    502.25764    424.96072    563.71732    39194.267 
  634800    284.31259   -1409.0046    480.07852    350.77145   0.55552598    39194.267 
  634900    293.51995   -1384.1301     520.1699    457.17986     -238.218    39194.267 
  635000    292.98888   -1385.0297      471.918    405.63807    232.01561    39194.267 
  635100    291.98669    -1437.739    505.72204     382.2219     111.5205    39194.267 
  635200    284.82954   -1397.5107    498.92562    383.43927    393.84624    39194.267 
  635300    295.27113   -1435.9728    483.31586    376.36529    283.58991    39194.267 
  635400    304.89286   -1423.2351    507.00435    456.09913     155.1919    39194.267 
  635500    298.24344   -1419.1378    490.40355    413.66636   -244.46091    39194.267 
  635600    297.46014   -1412.3063    488.81166    415.38033   -735.80573    39194.267 
  635700    295.31585   -1441.6079    504.82374    392.43937    -5.241758    39194.267 
  635800    309.86908   -1460.5857    493.46553    427.60772   -1.1557909    39194.267 
  635900    308.16839    -1457.952    479.31443    408.43546    216.23055    39194.267 
  636000    299.67449   -1424.3999    511.65741    436.09932   -437.70741    39194.267 
  636100    303.05287   -1428.6626    504.55906    439.94444    17.066036    39194.267 
  636200    286.44779    -1407.938    476.91265    358.28275    -195.6121    39194.267 
  636300    297.77523    -1416.436    512.43095    436.28819   -165.31229    39194.267 
  636400    303.12631   -1462.1855    483.84897    386.04203   -143.44329    39194.267 
  636500     299.8039   -1438.0472    469.82821    381.20532   -271.64132    39194.267 
  636600    288.32702   -1426.0864    473.05939    344.73962   -55.389174    39194.267 
  636700     296.5028   -1424.1305    521.84476    432.28023   -69.524256    39194.267 
  636800    296.46288   -1415.9901    498.09337    416.48953    413.80738    39194.267 
  636900     302.1566    -1447.151    478.40709    391.26995   -660.58238    39194.267 
  637000    292.16317   -1464.0118    502.44537    353.46676   -582.63532    39194.267 
  637100    286.25421   -1473.3783    502.35792    317.41643    155.68518    39194.267 
  637200    297.04006   -1429.3087     489.5577    397.23323   -130.31392    39194.267 
  637300    304.88096   -1420.7573     490.7642    442.28314   -51.312296    39194.267 
  637400    294.98397   -1447.5868    479.22584    359.36868   -157.32027    39194.267 
  637500    296.91365   -1439.5619    474.49763    371.35095   -806.66778    39194.267 
  637600    293.76811   -1465.7199    487.84223    344.37942    -405.4035    39194.267 
  637700    293.47835   -1478.0105    471.72036    314.66269    219.85698    39194.267 
  637800    313.30905   -1500.7769    474.91854    384.35293   -411.65199    39194.267 
  637900    297.88112   -1494.5086     476.9101    323.17134   -142.25114    39194.267 
  638000    302.78037   -1434.1974    475.56502    404.18914   -491.60727    39194.267 
  638100    302.06755   -1407.2083    476.89025      429.295   -283.89891    39194.267 
  638200    299.41072    -1403.282    491.34504     435.7176   -455.02475    39194.267 
  638300    299.42538   -1412.7328     500.7787    435.76642    118.64072    39194.267 
  638400    300.83313   -1438.4009    494.15071    409.80673   -99.189814    39194.267 
  638500    299.25752   -1449.7534    524.15544    421.36706    310.53532    39194.267 
  638600    303.63061    -1463.374    487.27662    390.55106    401.99671    39194.267 
  638700       299.24   -1435.2672    498.91321    410.53221   -192.65215    39194.267 
  638800    288.58019   -1507.3804    474.83721    266.36291   -57.763015    39194.267 
  638900    300.48855   -1478.2768     500.3752    374.60432    192.81047    39194.267 
  639000    302.08936   -1454.2393    491.18883    396.66071   -94.023516    39194.267 
  639100    306.06013   -1468.3743    496.70708    405.91653   -187.81027    39194.267 
  639200    295.63281   -1431.9364    445.85134    344.56504    150.83377    39194.267 
  639300    307.03607   -1448.0497    490.76351    424.69031   -348.47501    39194.267 
  639400    297.70706   -1458.7838    491.69121    372.89377    549.51893    39194.267 
  639500    306.16251   -1518.7695    485.79198    345.06698    2.9963893    39194.267 
  639600    293.54657    -1476.199     491.5503    336.61122    -79.80463    39194.267 
  639700    300.20649   -1445.3107    489.15225    395.07795    281.17008    39194.267 
  639800    307.86839   -1453.9606    505.44093     437.2031     199.5573    39194.267 
  639900    300.61544   -1435.2932    507.57933    425.36316    552.21792    39194.267 
  640000    296.08671   -1404.3117     477.5837    405.96515   -178.36514    39194.267 
  640100    301.88126   -1428.8427    502.06319    431.99506    84.403864    39194.267 
  640200    303.15122   -1468.3899    501.11389    397.21469   -105.73126    39194.267 
  640300     307.3869   -1441.5453     488.3533    430.36356    371.87764    39194.267 
  640400    293.58131   -1406.6543    502.43824    417.20015    208.94746    39194.267 
  640500     301.0922   -1410.9836    526.00003    470.23942   -519.59597    39194.267 
  640600    309.03174   -1446.4829    482.68277    427.15891    69.678034    39194.267 
  640700    305.51734   -1464.0724    511.91094    422.97916    28.310647    39194.267 
  640800    300.99033   -1457.5203    497.80756    395.05169   -144.65037    39194.267 
  640900    303.70025   -1458.4511      515.816    424.32677    109.99364    39194.267 
  641000    308.18766   -1480.4658    501.04849    407.74245    314.37094    39194.267 
  641100     306.2211    -1492.456    480.16123    366.01353    484.14052    39194.267 
  641200    298.74554   -1470.7779    480.85432    354.73699      464.948    39194.267 
  641300    293.19154   -1505.9616    488.87552    302.57584    296.59632    39194.267 
  641400    304.21543   -1504.4472    486.94671    351.78025    329.00114    39194.267 
  641500    304.69022   -1529.3701    489.97648    332.02406    187.52073    39194.267 
  641600     297.4725   -1493.0048    497.12216    343.04795     915.8484    39194.267 
  641700    309.79481   -1438.7608    509.31714    464.94993    973.47802    39194.267 
  641800    302.57261   -1419.3367    530.34708    472.89669    656.06186    39194.267 
  641900    290.42415   -1465.2249    476.13727    318.11823    752.90583    39194.267 
  642000    291.37745   -1495.0525    494.35695    310.80107   -27.161888    39194.267 
  642100    310.26276   -1454.3517    482.79164    424.93981   -253.73393    39194.267 
  642200    290.56857    -1468.187    511.19208    350.86097   -115.33917    39194.267 
  642300    307.51797   -1472.3455    483.37945    395.17942   -251.55671    39194.267 
  642400    301.77985   -1496.3043    476.29196    338.30579   -314.24782    39194.267 
  642500    296.30389   -1470.0564    492.15793    355.77219   -103.07571    39194.267 
  642600    303.73229   -1496.9361    498.21011    368.38011   -87.999943    39194.267 
  642700      307.251   -1449.4854    493.81745     427.2759   -117.35224    39194.267 
  642800    299.23404   -1435.0311    480.26844    392.09667   -420.21566    39194.267 
  642900    296.38764   -1442.7487    485.60851    376.90741    60.809229    39194.267 
  643000    302.11175   -1441.6861     506.7075    424.83336    313.51439    39194.267 
  643100    300.65753   -1420.3311    501.01183    433.94724    598.06696    39194.267 
  643200    301.99133   -1475.9262    479.77847    363.12223    81.765224    39194.267 
  643300    313.08214   -1435.4696    479.97471     453.6951    76.075662    39194.267 
  643400    310.63782   -1400.7254    510.19502    507.65766   -434.12014    39194.267 
  643500    305.70056   -1417.4121    485.17113    443.72438   -284.71319    39194.267 
  643600    306.40094   -1446.6076    486.12419    418.63433    4.7525136    39194.267 
  643700    301.30377   -1435.5915    496.80326    417.38698    352.47718    39194.267 
  643800    297.69987   -1395.4975    492.31116    436.76764   -37.743981    39194.267 
  643900    290.43197   -1438.1404    483.32488    352.42546   -58.605959    39194.267 
  644000    288.52561   -1422.7257    483.06694    359.00174   -195.56514    39194.267 
  644100    305.75002   -1457.8141    508.57382    426.94762    30.507318    39194.267 
  644200    297.22131   -1486.3607    516.25949    367.69883   -179.07902    39194.267 
  644300    292.05754   -1472.6592    471.90512    313.80365    48.344054    39194.267 
  644400    298.28653   -1456.3463    485.11835    371.36665   -22.826781    39194.267 
  644500    303.66384   -1493.4302    467.62762    340.99542   -255.31154    39194.267 
  644600    291.17733   -1466.8667     504.6447    348.37395     222.7184    39194.267 
  644700    298.71411   -1480.1481    488.96377    353.33475    420.00249    39194.267 
  644800    297.98165   -1523.9562    476.44026     293.7064    860.76412    39194.267 
  644900    314.77979   -1555.9814    485.93508     346.7848    748.45672    39194.267 
  645000    298.48612   -1517.9253    497.45603     323.0237    346.97245    39194.267 
  645100    298.19087   -1491.8267    501.13501    351.47232    636.50253    39194.267 
  645200    296.71782   -1490.0173    473.31223    318.82874    686.71941    39194.267 
  645300     290.1385    -1505.217    478.18025     278.8834     430.2173    39194.267 
  645400    302.10508   -1477.7223    498.12109    380.18071    583.94655    39194.267 
  645500    294.42715   -1493.1683     481.1887     313.2438   -293.77028    39194.267 
  645600    292.25814   -1514.7796    496.36438    297.04543   -42.827898    39194.267 
  645700    298.66713   -1498.5557    500.95889    346.71089    544.28296    39194.267 
  645800    306.98999   -1498.4467    497.04992    380.37226    654.39181    39194.267 
  645900    306.16126   -1501.0184    487.05587    364.07641    169.63726    39194.267 
  646000    302.75004   -1487.4089    494.65957    369.93567    186.26988    39194.267 
  646100    307.41935   -1440.5806     476.5682    419.68917   -74.570305    39194.267 
  646200    300.65484   -1506.1339    469.85877    316.97925     73.73366    39194.267 
  646300    297.88947   -1491.3817    514.53446    363.96016    564.11348    39194.267 
  646400     308.7407    -1483.862    487.06788    392.85497    897.41897    39194.267 
  646500    295.79522   -1486.1931    470.47003    315.65808    234.00966    39194.267 
  646600    294.99323   -1470.7604    495.78359    352.79456    280.92643    39194.267 
  646700    303.59573   -1454.3373    510.87606    423.03017    149.97306    39194.267 
  646800    297.27343   -1444.0235    491.83018    385.84125    237.10631    39194.267 
  646900    290.41786   -1469.0049    480.70631    318.87893    -110.8887    39194.267 
  647000    291.87303   -1485.0725     492.8577    321.51249   -389.48408    39194.267 
  647100    303.25547   -1447.2908    496.06817    413.73727   -245.66707    39194.267 
  647200    309.92769   -1449.4233    491.80627    437.37471    241.77885    39194.267 
  647300      314.373   -1455.8353    500.11607    459.28097    459.02753    39194.267 
  647400    301.48152    -1435.387    494.63758    416.22587    181.84149    39194.267 
  647500    297.38244   -1467.7712    492.07574    362.82979   -40.701526    39194.267 
  647600    293.78567   -1478.3849    489.37989     333.3311    78.885482    39194.267 
  647700    307.42416   -1472.2116     486.7811    398.29274   -90.141809    39194.267 
  647800    292.45229   -1451.9376    472.66058    337.05757   -409.58189    39194.267 
  647900    309.61308   -1507.4332    491.87433    378.01677   -131.49495    39194.267 
  648000    282.75124    -1465.717    511.93338    318.88628    328.59678    39194.267 
  648100     297.0507    -1453.619    498.92862    382.34175    373.12569    39194.267 
  648200    301.52692   -1475.6958    504.56486    386.04872     263.0814    39194.267 
  648300    290.11471   -1458.8452    500.84863    347.81647    475.12504    39194.267 
  648400    301.95487   -1474.7177    497.54791    381.93605    291.31057    39194.267 
  648500    291.21866   -1400.2668    506.43021    416.94536   -19.545092    39194.267 
  648600     311.0089   -1430.5339    498.67625    468.00064    365.38562    39194.267 
  648700    299.74532   -1437.1954    507.69737    419.66262    1312.1125    39194.267 
  648800    293.20443   -1422.0102     508.9608    406.67058    521.60511    39194.267 
  648900    294.88485   -1497.2579    501.09887    331.12454     244.3091    39194.267 
  649000    303.99416   -1465.1973    481.05587    384.14327    454.34164    39194.267 
  649100    294.73282   -1477.0167    497.72209     347.3047   -5.7450567    39194.267 
  649200    299.08687   -1458.5316     496.7296    384.39494   -546.06819    39194.267 
  649300    288.59798   -1449.5243    492.17309    341.63496   -639.37404    39194.267 
  649400    302.59843    -1451.476    455.95426    366.48078    67.764037    39194.267 
  649500    305.71804   -1455.7345    504.79132    425.10082   -597.14613    39194.267 
  649600    307.40408    -1428.685    500.97709    455.92498   -623.25549    39194.267 
  649700    301.97219   -1477.0753    470.17499    352.28346    -563.8499    39194.267 
  649800    306.82712   -1461.4486    477.21796    396.80537    -332.4206    39194.267 
  649900    303.44962   -1397.0982    491.82208    460.55767   -353.55905    39194.267 
  650000    297.10368   -1456.6552    463.77619    344.39152   -502.96088    39194.267 
  650100    305.36244   -1454.4959    494.94831    414.89582    77.033568    39194.267 
  650200    301.25658    -1430.677    515.93174    441.21758    32.504159    39194.267 
  650300    307.24493   -1446.4558    510.35011    446.81082    148.06724    39194.267 
  650400    297.18636   -1450.4181    492.02813    379.25269    90.793024    39194.267 
  650500    302.34697   -1421.1841    481.32107    421.00773    333.50039    39194.267 
  650600    308.91889    -1446.339    513.59825    457.71029    192.19292    39194.267 
  650700    307.25453   -1442.3489    494.72904     435.3399    -380.8031    39194.267 
  650800    298.92418   -1451.7779    509.09548    402.78227   -641.36232    39194.267 
  650900    305.70131   -1484.3545    488.67867    380.29283   -938.19643    39194.267 
  651000     294.8898   -1469.5654    490.04732     347.7877   -431.16845    39194.267 
  651100    307.83653   -1450.6209    505.40178    440.36022    -27.62985    39194.267 
  651200    301.49758   -1409.4419    479.12554    426.73121    129.88332    39194.267 
  651300     300.2167   -1440.4127    524.84217    435.71181   -391.66252    39194.267 
  651400    309.87021   -1423.5871    477.13963    448.28547   -188.30368    39194.267 
  651500    309.02885   -1441.6901    495.69273    444.94872     -12.6952    39194.267 
  651600    293.22288   -1426.6778    521.26693    414.39211   -203.45969    39194.267 
  651700    295.29106   -1418.0249    498.87899    409.96593    73.041811    39194.267 
  651800    305.76145   -1420.8166    520.80537    476.22818   -146.18348    39194.267 
  651900    286.16515   -1420.5505    482.45119    349.93662   -79.137513    39194.267 
  652000    300.27274   -1408.2995    518.16393    461.39899    109.11826    39194.267 
  652100    289.22168   -1458.4904    491.08929    334.39241     430.1425    39194.267 
  652200    297.29774   -1421.8203    511.29607    427.61979    214.13292    39194.267 
  652300    298.83238   -1421.5427    495.46585    418.97462   -63.296052    39194.267 
  652400    288.92008   -1463.9763    511.40077    347.86042   -254.13567    39194.267 
  652500    297.26676   -1449.7861    484.50213    372.72055   -181.12803    39194.267 
  652600    310.08071   -1472.3837    479.03921    402.33592    -421.7406    39194.267 
  652700    300.87774   -1449.9213    493.61056    397.94695    -244.8014    39194.267 
  652800    302.37622   -1429.3423    481.84142    413.50151   -583.11311    39194.267 
  652900    300.86305   -1466.4495    498.69747    386.43957   -621.96236    39194.267 
  653000    295.68292   -1467.4291    469.21518    332.66177   -139.19974    39194.267 
  653100    291.34906   -1450.4462    496.70676    357.62945   -168.68611    39194.267 
  653200    290.30609   -1449.3893    500.47704    357.76217    -32.10311    39194.267 
  653300    292.46238   -1443.3327    510.65561    383.70283    -150.2389    39194.267 
  653400    296.95139   -1450.0092    492.39717    378.97303   -57.466063    39194.267 
  653500    298.71645   -1463.2769     489.3923    370.64507   -159.33107    39194.267 
  653600    308.59771   -1459.2649     499.1018    428.84237   -28.589037    39194.267 
  653700    293.86211   -1422.0022    494.37218     395.0502   -171.53006    39194.267 
  653800    301.75264    -1423.532    505.96665    440.63029    112.60544    39194.267 
  653900    309.90111    -1470.175    482.28895    406.98603    56.474583    39194.267 
  654000    300.47938   -1456.7482     520.3036    416.02007   -249.34771    39194.267 
  654100    299.97082   -1437.0809    506.76852    419.86323   -33.983441    39194.267 
  654200    284.96707   -1456.2192    493.49177      319.916    -222.4802    39194.267 
  654300    305.21361   -1487.3699    494.59136    380.99504   -397.67073    39194.267 
  654400     302.9714   -1474.2592    501.71748    391.13951   -593.85373    39194.267 
  654500    295.35088   -1410.4871    487.19537    406.08942   -380.30987    39194.267 
  654600     299.9209   -1424.5433    498.54137    423.94902   -405.16969    39194.267 
  654700    294.90842   -1455.2774    482.67729    354.78952   -8.9835291    39194.267 
  654800    294.64185   -1477.8092    496.52076    344.90138    -460.8461    39194.267 
  654900    295.32099   -1464.0257     493.9958    359.21674   -62.336738    39194.267 
  655000    301.38892   -1439.7625    502.99536    419.79139   -272.20975    39194.267 
  655100    300.76867   -1442.8903    491.80423    402.68071    37.962236    39194.267 
  655200    309.21541   -1467.5474    492.21646    416.45475     45.26962    39194.267 
  655300    300.26644   -1476.7104    485.32805    360.12388    23.894121    39194.267 
  655400     286.9835   -1440.9457    492.62359    343.39725    241.44064    39194.267 
  655500    312.59489   -1432.9267    499.68851    473.75859    435.51066    39194.267 
  655600    295.37853   -1398.0048    503.74993    435.25069    148.79483    39194.267 
  655700    300.25789   -1426.2878    498.57673    423.75661    108.97289    39194.267 
  655800    300.34305   -1398.4176    496.69416    450.12758    45.798852    39194.267 
  655900    303.93359   -1436.1051    478.87812    410.78512   -10.821247    39194.267 
  656000    304.76519   -1405.6242    505.44188     471.5729    244.64417    39194.267 
  656100    296.95002   -1458.7664    489.48421    367.29674    237.61581    39194.267 
  656200     299.6212   -1450.5101     499.5681    397.65992    153.79095    39194.267 
  656300    307.72536   -1443.9513    481.94375    423.07141    577.66055    39194.267 
  656400    298.51665   -1426.4096    494.78281    412.00358   -110.53425    39194.267 
  656500    303.18287   -1363.3984    506.98772    508.22248    479.28608    39194.267 
  656600    307.32378   -1384.5826     505.0992    503.78804    64.954878    39194.267 
  656700    292.69982   -1395.9201    483.39193    404.92046    272.18186    39194.267 
  656800    306.84497   -1454.1251    509.42612    436.41732    172.33668    39194.267 
  656900    307.25015    -1430.905    464.47397    416.50901    449.39843    39194.267 
  657000    259.90885   -1525.5672    542.56957    186.85815   -161.95468    39194.267 
  657100    296.30571   -1441.9935    481.78806    373.47341    869.96207    39194.267 
  657200    300.88067   -1444.8477    519.26606    428.68923    448.59013    39194.267 
  657300    301.05464   -1403.0702    476.67213     428.6558   -178.91508    39194.267 
  657400    304.53607   -1420.8203    510.69538    460.59895    -459.5962    39194.267 
  657500    288.39097   -1408.1676    495.04234    384.92915   -243.12294    39194.267 
  657600    306.97647   -1419.1005    507.37015    469.97788    126.18619    39194.267 
  657700    305.23981   -1418.4927    491.30344    446.70219    174.24154    39194.267 
  657800    294.78973   -1479.8931     491.3445     338.3068   -254.48829    39194.267 
  657900     302.6404   -1457.6229    476.48808    381.05662   -270.64641    39194.267 
  658000    311.32089    -1431.405    508.45301    478.31054   -118.26704    39194.267 
  658100    291.31518   -1415.7946    496.19499    391.61675   -230.65111    39194.267 
  658200    297.74693   -1397.1931    489.70932    432.68206   -219.67279    39194.267 
  658300    291.27014   -1472.7195    492.23856    330.53266    14.846874    39194.267 
  658400    300.04827   -1412.8509    491.20466    428.87802   -567.81554    39194.267 
  658500    290.63445   -1463.0618    477.38092    322.47151   -113.55297    39194.267 
  658600     310.4576   -1432.2555     503.9231    469.04447   -283.59066    39194.267 
  658700     307.0055   -1448.8074    501.83934    434.87078    332.53032    39194.267 
  658800    298.22003   -1453.3698    505.41142    394.33692    410.62332    39194.267 
  658900    291.82025   -1437.2663    475.49432    351.71773   -250.99917    39194.267 
  659000    303.86998   -1449.5597    484.21753    402.38365   -339.04866    39194.267 
  659100     287.7519   -1404.3747    501.27798    392.08128    0.6690731    39194.267 
  659200     311.5244   -1397.8692    495.73037    500.03974   -162.82943    39194.267 
  659300    298.02597   -1377.3475    492.70429    456.77865   -244.92195    39194.267 
  659400    304.34776   -1418.2016    491.90437    443.57911    185.59187    39194.267 
  659500    301.20126   -1412.4637    478.02244    421.27253    58.330243    39194.267 
  659600    288.06629   -1442.1326    515.10537    369.56584   -373.26521    39194.267 
  659700    306.77067   -1459.3744    478.93851    400.34603   -96.134188    39194.267 
  659800    297.74202   -1406.5309    494.30283    427.91566    253.77666    39194.267 
  659900    296.38012   -1413.0699    482.98785    403.93173    348.43965    39194.267 
  660000    302.67394   -1424.4717    515.40761    453.27835     1257.551    39194.267 
  660100    294.12131   -1462.7076    471.50384    332.64307   -159.92869    39194.267 
  660200    297.27444   -1410.1957    489.18485    417.02831    524.76526    39194.267 
  660300    307.09225    -1421.041    501.84502    463.03338   -527.86099    39194.267 
  660400    299.32326   -1439.9589    469.53578    376.83782   -113.67819    39194.267 
  660500    304.61692   -1480.7762    457.40967    347.72128   -467.15404    39194.267 
  660600    298.14152   -1434.1818    470.75083     378.5109    148.26599    39194.267 
  660700    303.48485   -1433.0718    510.79986    443.72042   -600.44608    39194.267 
  660800    291.08934   -1439.6503    494.86156    365.41111    -332.1591    39194.267 
  660900    302.94709   -1485.7832    508.76765    386.55631   -129.61081    39194.267 
  661000    298.90708   -1488.4175    504.14836     361.1185      15.7819    39194.267 
  661100    293.62492   -1424.0987    496.49503    394.00884    672.58166    39194.267 
  661200    307.45361   -1429.4912    512.98358    467.34815    485.42057    39194.267 
  661300    297.57449   -1459.7063    507.29807    386.98144    364.33435    39194.267 
  661400    305.12761   -1479.9019    490.98036    384.46485   -163.86599    39194.267 
  661500    300.28215   -1469.4502    513.25369     395.3804   -238.87875    39194.267 
  661600    300.40173   -1423.7018    510.26328    438.67667   -952.60889    39194.267 
  661700    308.14806   -1441.7892    494.70064    439.89293   -129.18809    39194.267 
  661800    298.82393    -1401.911    516.14036    459.24279   -364.82085    39194.267 
  661900    303.08013   -1439.5228    488.82658    413.47452    13.763007    39194.267 
  662000    308.02094   -1424.7035     486.8266    448.53246    556.20661    39194.267 
  662100    295.93201   -1444.3347    509.62167    397.28376    84.051156    39194.267 
  662200    306.45609   -1427.4492    501.34179    453.25857    108.02373    39194.267 
  662300    300.69823   -1416.6779    506.54186    443.31364    239.10983    39194.267 
  662400    293.89561   -1453.1533    486.01982    355.69741    340.92851    39194.267 
  662500    295.79426   -1421.4009    517.08545    427.06137   -234.93362    39194.267 
  662600    308.23129   -1390.7485    492.71096    489.31861    292.89971    39194.267 
  662700    308.27489   -1483.0691    473.54646    378.02972   -475.17341    39194.267 
  662800     309.5246   -1500.2791    499.52743    392.42578   -53.353178    39194.267 
  662900     295.2834    -1475.424    495.89571    349.54913   -798.75997    39194.267 
  663000    307.67116   -1499.5812    496.61936    381.87315   -619.76712    39194.267 
  663100    301.90264   -1471.3701     479.0218    366.52253   -885.88228    39194.267 
  663200     304.1187    -1451.594    495.73949    412.99083   -493.65497    39194.267 
  663300    312.88664   -1418.8758    505.08465    494.51884   -889.14662    39194.267 
  663400    294.15405   -1434.6439    470.89196    360.24229    -549.5264    39194.267 
  663500    303.74619   -1456.1586    498.00751    409.01751   -395.10304    39194.267 
  663600    292.42383   -1491.1337    498.27605    323.34879   -1066.9003    39194.267 
  663700    283.38168    -1498.045    463.68684     241.1494   -554.79268    39194.267 
  663800     304.1184   -1493.1756     499.3099    374.97826   -474.51426    39194.267 
  663900     299.4074   -1435.8813    514.55123    426.30957   -538.17929    39194.267 
  664000    306.82542   -1438.4982    482.42672    424.95679   -486.31086    39194.267 
  664100    306.55303   -1441.6092    494.85596    433.04904   -723.88042    39194.267 
  664200    286.36498   -1446.8595    503.76519    345.84107   -682.46612    39194.267 
  664300     300.4362   -1426.5694    483.63103     409.3319   -167.14418    39194.267 
  664400    306.61255   -1444.1744    508.60464    444.50049   -333.26949    39194.267 
  664500    290.27581   -1418.9626    501.67414    389.24966   -300.06575    39194.267 
  664600    307.42238   -1449.1693     487.0177    421.56367    115.15006    39194.267 
  664700    296.05804   -1445.6447    499.20388    386.12328    150.33265    39194.267 
  664800    292.65835   -1497.5512    525.14962    344.86043    259.11815    39194.267 
  664900    300.88704   -1488.2939    531.61958    397.62519    7.0034057    39194.267 
  665000      295.994   -1468.2877    512.72893    376.71708   -156.13123    39194.267 
  665100    306.72736   -1494.1587    488.26871    374.69693   -185.72919    39194.267 
  665200     309.2116   -1462.8477    488.53001    417.45092   -127.08513    39194.267 
  665300    293.54282   -1489.4737    486.46648     318.2358    -542.3193    39194.267 
  665400     302.7948   -1485.3343    478.83774    356.38989   -235.76136    39194.267 
  665500    306.94309   -1466.0755    506.09175    421.57425   -409.81838    39194.267 
  665600    301.65353   -1494.2689    491.41143    354.89206   -554.44473    39194.267 
  665700     308.0722   -1473.0222    480.76862    394.38655   -302.39186    39194.267 
  665800     299.2085   -1490.1068    467.38669    324.02422   -12.772678    39194.267 
  665900    298.82016   -1497.4384     498.9805    346.53861   -651.15095    39194.267 
  666000     310.0359    -1481.819    477.74152    391.40133   -205.59835    39194.267 
  666100    290.52073    -1452.714    498.53395     353.4605   -73.570745    39194.267 
  666200    302.53564   -1480.0107    476.73093    358.44013   -331.47022    39194.267 
  666300    294.97974   -1490.2866    483.84582    321.26991    583.49212    39194.267 
  666400    298.44088   -1496.0755    481.70975    328.92359   -340.16529    39194.267 
  666500    300.09241   -1503.3782    478.93118    326.27589   -116.08955    39194.267 
  666600    297.80036   -1482.3598    492.88865     350.9352   -219.76395    39194.267 
  666700    302.25957   -1480.4165    485.74926    365.81013    123.48736    39194.267 
  666800    307.71417   -1497.2731    494.34577    382.10124    527.60116    39194.267 
  666900    304.30528   -1473.2801    504.42277    400.82782    551.09244    39194.267 
  667000     294.1196   -1452.6679    480.36126    351.53248    130.38541    39194.267 
  667100    300.81066   -1443.0629    501.66885    412.56173   -510.02092    39194.267 
  667200    294.97144   -1441.0913    490.41933    377.00132   -376.68129    39194.267 
  667300    288.12235   -1458.6027     485.8628    324.10552   -630.38926    39194.267 
  667400    294.44083   -1454.9233    466.73686    337.09856    -238.5013    39194.267 
  667500    298.91567   -1455.0105    527.80867    418.22451    244.96039    39194.267 
  667600    298.11337   -1515.3296    476.54918    303.03472    178.79853    39194.267 
  667700    288.54239   -1417.5919    502.74209    383.88618    343.25115    39194.267 
  667800    292.03683   -1446.0802     475.8961    344.28042    32.179292    39194.267 
  667900    296.28182   -1524.3667    487.51199    296.71666   -490.73801    39194.267 
  668000    293.31096   -1518.4852    463.61726    265.33146    184.87571    39194.267 
  668100    291.58833   -1493.7106    485.61578    304.35104   -229.04709    39194.267 
  668200    298.68618   -1437.1289     497.4327    404.69725   -847.53845    39194.267 
  668300    304.87498   -1422.3839    502.66446    452.52994   -856.32819    39194.267 
  668400    306.42841   -1434.2671    469.04075      414.015   -134.26839    39194.267 
  668500    315.58848   -1429.2976    521.71646    512.88991   -497.50669    39194.267 
  668600    308.29955   -1449.8755    500.51298    438.30088    56.472718    39194.267 
  668700    296.75209   -1448.9188    484.24751     371.0168    259.75394    39194.267 
  668800    312.46542   -1416.8555    501.12244    490.68101    506.18787    39194.267 
  668900    293.47853   -1404.3082    490.59896    407.24443    383.52726    39194.267 
  669000    293.94815   -1424.7063     542.3406    440.70176    338.05668    39194.267 
  669100    292.16768   -1449.7171    468.62154    333.95791    2.4223015    39194.267 
  669200    300.70773   -1452.2596    499.15098    400.38386   -162.92986    39194.267 
  669300    293.80216   -1460.4662    487.76315    349.70728   -248.51282    39194.267 
  669400    296.60976   -1449.8959    475.10617    360.25765   -594.93427    39194.267 
  669500    294.96269   -1498.8854    492.32632    321.07488    82.714625    39194.267 
  669600    297.22314    -1472.758    492.78714    357.83741   -12.754609    39194.267 
  669700    304.32955   -1470.8386    479.15436    378.11007   -492.26366    39194.267 
  669800    307.53684   -1454.9007    490.92375    420.25351   -473.32625    39194.267 
  669900     306.6374   -1434.6154    513.54266    459.10935    106.00177    39194.267 
  670000    298.61685   -1465.5462    478.60359    357.13874    40.243717    39194.267 
  670100    298.55041   -1448.6495    484.06272    379.19557   -586.32757    39194.267 
  670200    310.33121   -1453.0416    499.32375    443.09009    -265.7509    39194.267 
  670300    303.37867   -1484.3192      484.475    365.67027   -247.80156    39194.267 
  670400    296.70719   -1451.8323    485.15939      368.813   -549.92835    39194.267 
  670500    298.45506   -1443.1071    518.09789    418.34392   -266.88839    39194.267 
  670600    302.21451   -1478.9497    500.97875    382.30351   -343.69515    39194.267 
  670700    292.56653   -1424.0388    479.07822    371.88812    85.837627    39194.267 
  670800    292.83027    -1486.039    487.62957    319.62637   -101.54341    39194.267 
  670900    300.55823    -1445.287    492.98398     400.5165   -23.746796    39194.267 
  671000    300.82599   -1445.6755    529.38451     437.7338   -580.72048    39194.267 
  671100    289.70343   -1378.6928    504.88549    430.15455   -869.43835    39194.267 
  671200      295.884   -1417.6693    516.22759    430.33901   -796.07116    39194.267 
  671300    290.09262    -1401.824    508.14599    412.03559   -879.65476    39194.267 
  671400    300.88665   -1405.0436    507.92669    457.18088   -293.72803    39194.267 
  671500    301.99983   -1403.2521    511.38069    467.43681   -479.36468    39194.267 
  671600    304.12625   -1404.6852    503.29626    467.49032    370.35576    39194.267 
  671700     295.0404   -1404.6665    507.75409    431.07125   -246.43166    39194.267 
  671800    300.74185   -1386.2326    512.23538    479.64885   -118.51983    39194.267 
  671900     302.1042   -1440.0922    499.71347    419.39934    21.353778    39194.267 
  672000    303.42914    -1431.558    472.80438    406.98799   -454.27044    39194.267 
  672100    297.03963   -1422.1323    550.90052    465.75048   -171.06857    39194.267 
  672200    293.96502   -1454.2255    493.51722    362.43506     598.6596    39194.267 
  672300    300.23271   -1464.8237    489.94656    376.47727    552.95219    39194.267 
  672400    306.24105   -1450.9382    523.45894    450.91886    167.67745    39194.267 
  672500    297.24491   -1470.7076    488.54161    355.74023     411.6806    39194.267 
  672600    299.59823   -1443.6744     494.2418    399.06601   -8.5416395    39194.267 
  672700    298.17848   -1427.1936    503.99162    418.90628    -242.3897    39194.267 
  672800    304.16117   -1434.9373    486.48286    420.58203   -48.705068    39194.267 
  672900    307.99589   -1459.5836    505.14885    431.86184    156.89405    39194.267 
  673000    307.03624    -1431.193    528.84148    479.62574    84.978109    39194.267 
  673100    307.95431   -1431.4958    503.40506    458.01876   -241.79551    39194.267 
  673200    305.72393   -1417.7596    506.22609      464.537    -207.6119    39194.267 
  673300    295.24783   -1430.4854    480.44813    378.88006   -8.3432413    39194.267 
  673400    294.33514   -1468.4222    514.34891    370.73595   -240.03203    39194.267 
  673500    297.61709   -1459.3568    511.43266    391.65734   -22.584358    39194.267 
  673600    293.15109   -1482.4072    485.34499    322.41762   -502.19526    39194.267 
  673700    294.16783   -1445.3967    491.10645    369.76598    59.313936    39194.267 
  673800    298.23285   -1425.4599    481.25605    398.14911   -653.57176    39194.267 
  673900    295.74988   -1435.2553     503.7256    399.64735   -406.03287    39194.267 
  674000    304.55998   -1396.0127    533.22794    508.04675   -1007.5951    39194.267 
  674100    290.00883   -1449.2411     498.7865     354.8819   -485.80584    39194.267 
  674200    294.06441   -1451.0157    467.53967    340.11469   -586.85302    39194.267 
  674300    297.04908   -1446.5024    530.56087     421.0832   -747.96772    39194.267 
  674400    291.64131   -1424.6553     509.6413    397.67033   -759.28166    39194.267 
  674500    296.14128   -1446.4611    505.06442    391.54212   -886.08086    39194.267 
  674600    296.47622    -1437.622    494.31328    391.13756   -172.68535    39194.267 
  674700    290.41981   -1481.4555    500.25149     325.9823   -1211.7123    39194.267 
  674800    298.86238   -1456.7441     514.5182    402.96061   -631.13411    39194.267 
  674900     306.6048   -1467.9216    502.87463    414.98832   -306.33347    39194.267 
  675000    298.81337   -1451.3765    480.52202    374.11147   -560.77708    39194.267 
  675100     309.8953   -1461.3467    491.62596    425.12516   -576.21122    39194.267 
  675200    308.68561     -1429.03    516.32866    476.69972   -818.28296    39194.267 
  675300    301.81201    -1453.911    499.96974    404.52159   -319.89173    39194.267 
  675400    305.04633    -1448.431    496.45912    421.04874   -62.180067    39194.267 
  675500    302.64512   -1441.8309    508.07911    428.46089   -251.51795    39194.267 
  675600    293.48316   -1425.2521    496.44427    392.16673   -108.57167    39194.267 
  675700     302.0275   -1410.9645    509.63254    458.10079   -140.93389    39194.267 
  675800    306.81692   -1437.4573    511.72777    455.26055   -526.69433    39194.267 
  675900     306.6309   -1480.3337    497.04312    396.86222   -323.30019    39194.267 
  676000    300.13803   -1466.9753     506.5051    390.45803   -603.96861    39194.267 
  676100    301.93573   -1464.2734    492.80034     387.5467   -699.35616    39194.267 
  676200    293.33099   -1424.9077    513.10735    408.48923   -521.14723    39194.267 
  676300    297.14606   -1443.8833    521.55639    415.13443   -481.40368    39194.267 
  676400     295.6988   -1423.9112    480.75359    387.78956    16.432274    39194.267 
  676500    296.16705   -1442.4426    503.35731    393.96943    -497.8929    39194.267 
  676600    301.16179   -1491.5548     542.9626    406.94397    350.50255    39194.267 
  676700     297.4913   -1443.1474    486.53624    382.40406    428.33819    39194.267 
  676800    304.49098   -1417.5726    517.16966      470.118    40.005383    39194.267 
  676900    295.24594    -1431.212    502.22669    399.92349    48.301214    39194.267 
  677000    305.36496   -1430.9734    502.70596    446.18729    84.162334    39194.267 
  677100    291.52687   -1423.2352    525.40195    414.33591   -166.02222    39194.267 
  677200    300.57019   -1444.0347    511.28865    420.12736    -34.50269    39194.267 
  677300    298.17459   -1467.9533    498.50273    372.64016    154.31258    39194.267 
  677400    306.69196   -1419.5092    516.37398    477.29243   -768.90745    39194.267 
  677500    304.23081   -1427.3659    504.82038    446.80445   -679.00305    39194.267 
  677600    306.76881   -1423.0158    498.23231    455.98996   -182.68294    39194.267 
  677700    296.77829   -1451.0467    499.75042    384.50966   -292.92196    39194.267 
  677800    288.72119   -1437.9152    545.13543      406.761    290.98535    39194.267 
  677900    292.73716   -1412.9542     485.5281    390.19067     64.93045    39194.267 
  678000    292.94375   -1420.4023    511.13527    409.27959    123.08055    39194.267 
  678100    299.90656   -1424.9659    512.11583    437.03633    188.08241    39194.267 
  678200    302.80616   -1439.2692    495.01226    418.68066    134.20865    39194.267 
  678300    296.46644   -1446.4108     508.4858    396.47728   -405.23552    39194.267 
  678400    300.87075   -1426.6707    514.31245    441.86801   -414.54706    39194.267 
  678500    313.85231   -1451.5588    488.40977    449.50747   -541.17291    39194.267 
  678600    284.37605   -1439.7705    487.01761    327.23035   -842.50729    39194.267 
  678700    294.42619   -1440.5872    499.20352    383.83541    -480.2222    39194.267 
  678800    302.10651    -1444.123    526.98842    442.65386    285.65788    39194.267 
  678900     300.2295   -1452.7312    518.13509    416.74381   -41.373141    39194.267 
  679000    293.70807    -1426.036    515.17919    411.13007     359.1962    39194.267 
  679100    304.95746   -1448.6512    528.99838    452.96782   -213.51695    39194.267 
  679200       296.46   -1465.6184    484.14967    352.90457    66.953979    39194.267 
  679300    299.85288   -1445.4899    509.57042    413.72531   -526.89866    39194.267 
  679400    302.50788   -1473.2146    499.29607    387.67645   -567.25424    39194.267 
  679500     305.0774   -1407.9443    507.97612    473.19232   -791.44987    39194.267 
  679600    298.95462   -1418.9029    496.24655    422.94531   -849.81158    39194.267 
  679700    290.94707   -1401.5653    515.12397     423.1182   -538.41843    39194.267 
  679800    299.13252   -1409.8993    516.21369    452.71682    -196.3367    39194.267 
  679900    290.47194   -1455.7617     516.7933    368.45249    16.076135    39194.267 
  680000    308.54916   -1424.8054     512.0588     476.0403   -1.6145825    39194.267 
  680100    293.59916   -1423.5349    512.84722    410.80888    25.362743    39194.267 
  680200    294.29403   -1409.3524    524.91773    440.18962   -306.52005    39194.267 
  680300    308.54479   -1452.1907      491.178    427.75457     40.46437    39194.267 
  680400    306.23271   -1448.6724    506.15558    435.84367   -291.74026    39194.267 
  680500    305.99171   -1435.0947    515.93885    458.11992    264.58592    39194.267 
  680600    299.81753   -1430.2762    506.94922    426.15871   -357.88893    39194.267 
  680700    296.18607   -1419.2519      509.646    423.53448   -148.84818    39194.267 
  680800    295.74126   -1414.4742    502.99326    419.65738   -173.22592    39194.267 
  680900    294.91166   -1427.9403    524.99315    424.45705   -406.41154    39194.267 
  681000    305.62539   -1447.7822    478.27579     406.1205   -389.70418    39194.267 
  681100    304.95533   -1452.6528    501.14043    421.09868   -551.49809    39194.267 
  681200    304.42225   -1411.8745    509.34975    467.68691    197.22116    39194.267 
  681300    297.82996   -1455.7802     510.9254    395.68473   -25.701514    39194.267 
  681400    297.70475   -1435.5206    478.36976    382.82515    80.677472    39194.267 
  681500    289.83515   -1422.2075    529.66322    412.01043    130.51305    39194.267 
  681600    304.04879   -1458.7975    497.21801    406.95121    368.97592    39194.267 
  681700    302.35056   -1420.9979    553.88978    493.77878   -164.86043    39194.267 
  681800    300.23614   -1498.2653    492.94703    346.05157    349.05413    39194.267 
  681900    291.50443    -1465.734    506.68048    353.01464    98.624637    39194.267 
  682000    311.15404   -1494.8219    514.62534      420.315    164.07849    39194.267 
  682100     290.1471   -1442.0099    503.80485    367.75371   -78.722689    39194.267 
  682200    297.39591   -1476.1281    507.98652    370.44435     237.7489    39194.267 
  682300    292.93759   -1461.2712     518.5361    375.78374     456.6525    39194.267 
  682400    305.76683   -1430.0173    509.64128    455.88754    102.18081    39194.267 
  682500    303.60389   -1454.9759       487.08    398.63218    283.14382    39194.267 
  682600    297.63083   -1486.7829     522.8633    375.72362    113.99767    39194.267 
  682700    309.74808   -1465.5167    477.05245    405.71902   -769.10862    39194.267 
  682800     300.8817   -1451.4875    486.70582    389.49386   -479.88664    39194.267 
  682900    301.51961   -1431.4887    518.93997    444.59804   -505.54408    39194.267 
  683000    289.27172   -1470.9466    499.01977    330.09185    35.995099    39194.267 
  683100    295.85473   -1540.7988    468.87349    259.72363   -54.110079    39194.267 
  683200    306.66185   -1456.2624    511.02145    435.05111   -12.760926    39194.267 
  683300    295.83339   -1443.1435    513.64299    402.05241   -209.63833    39194.267 
  683400    303.49501    -1466.032    485.25828    385.26437    224.38423    39194.267 
  683500    296.67129   -1464.6224    474.37226    345.07424   -96.887655    39194.267 
  683600    296.91132   -1456.4973    504.01023    383.91761   -202.85848    39194.267 
  683700    293.86503   -1493.8046    484.37011    313.25878    192.69807    39194.267 
  683800    300.58338   -1478.9454    505.20979    379.19719    162.52669    39194.267 
  683900     293.3142   -1498.3895    491.52619    313.35072   -93.543674    39194.267 
  684000     308.3772   -1449.0592    519.86323    458.81695    564.60075    39194.267 
  684100    306.03975   -1457.7694    506.04297    425.76559    504.98035    39194.267 
  684200    293.84719   -1469.7441     523.6799    376.54883    563.91301    39194.267 
  684300    308.14225   -1473.7591    504.40211    417.59844    163.07118    39194.267 
  684400    310.53501   -1486.9005    505.61183    416.43655   -553.04773    39194.267 
  684500    291.99233   -1474.6907    480.76077    320.33435   -432.18513    39194.267 
  684600    290.21239   -1435.4099    516.46774    387.31056   -462.99315    39194.267 
  684700    297.73783   -1438.6575    502.32264    403.78996   -414.81944    39194.267 
  684800    297.74607   -1436.9482    519.25118    422.46489   -493.65885    39194.267 
  684900    285.66556   -1497.7153    509.99438    298.06641   -434.87861    39194.267 
  685000    307.40439   -1485.7816    503.66077    401.51344   -132.13331    39194.267 
  685100    293.48535   -1463.7305    469.17956    326.43348   -99.958891    39194.267 
  685200    294.84396   -1448.4782    527.34233    405.96361   -87.593665    39194.267 
  685300    297.14846   -1425.6069    521.85895    433.72412   -691.44878    39194.267 
  685400    302.38601   -1507.7251    494.50582    347.82715   -495.71952    39194.267 
  685500    299.99822   -1490.0419     511.5916    371.84862   -302.72043    39194.267 
  685600    302.59968   -1480.6303    497.39531    378.77322   -183.90391    39194.267 
  685700    309.06597   -1477.0297    490.68922    404.77262   -213.53556    39194.267 
  685800    306.21378   -1501.0018    505.04319    382.31672   -2.3365252    39194.267 
  685900    293.46552   -1480.8863    496.45204    336.46083   -307.94117    39194.267 
  686000     310.6756   -1505.1912    507.45713    400.62398    26.658556    39194.267 
  686100    307.94771   -1495.3988    502.53773    393.21871    370.82407    39194.267 
  686200    307.25676   -1480.6658    510.99008     413.2941    611.75408    39194.267 
  686300    296.52359    -1478.018     523.2496    379.89119    265.07177    39194.267 
  686400    298.08139   -1480.8439    491.34676    352.17414    336.60515    39194.267 
  686500    307.42862   -1466.7779    515.02974    431.99516    729.54852    39194.267 
  686600    299.89607   -1487.6237    511.58401    373.79949    459.42322    39194.267 
  686700    288.07581   -1416.1117    530.59984    411.12404   -328.81232    39194.267 
  686800    295.69901   -1489.1199    468.83915     310.6673   -8.2879642    39194.267 
  686900    305.78624   -1501.2715    490.63958    365.71903    400.19416    39194.267 
  687000    306.54459   -1484.6914    501.64633    396.71919     425.9493    39194.267 
  687100    304.64351   -1537.8851     500.0797    333.40208    26.873603    39194.267 
  687200     292.8083   -1508.9309     496.8383    305.84431    548.81377    39194.267 
  687300    296.25716   -1449.7062    509.27091    393.02502    198.27615    39194.267 
  687400    297.07985   -1458.9739    491.38933    369.57873    385.00526    39194.267 
  687500    287.56636   -1505.1436    482.92107    272.12035    314.55609    39194.267 
  687600    287.74303   -1452.7155    539.61518    382.03771     567.8215    39194.267 
  687700     304.4699   -1500.5295    517.02153    386.91809    152.76193    39194.267 
  687800    292.82927    -1508.055    477.13948    287.11577     172.5771    39194.267 
  687900    304.78257   -1484.6662    489.01456    376.18171    86.813583    39194.267 
  688000     298.8839   -1492.8767     495.1918    347.59841   -102.10711    39194.267 
  688100    300.26956   -1496.0711    490.80511    346.25421   -41.980352    39194.267 
  688200     302.0401   -1465.8275     486.6203    380.28231   -126.58658    39194.267 
  688300    304.53125   -1421.8767    494.60858    443.43406    356.85802    39194.267 
  688400    294.03247   -1450.0471    535.12569    408.52553   -104.83933    39194.267 
  688500    296.47163   -1437.2189    502.97301    400.17981    118.90054    39194.267 
  688600    304.86689   -1489.3068    505.17261     388.0787   -3.8536392    39194.267 
  688700    289.82031   -1493.8837    487.14034    297.74463   -164.87324    39194.267 
  688800    296.87756   -1447.7234    540.59003    429.11939   -51.083373    39194.267 
  688900    296.78108   -1455.2264    507.93873    388.53086     12.31081    39194.267 
  689000    309.32064   -1462.1445    518.59913    448.71404     171.4068    39194.267 
  689100    305.28845   -1462.8785    519.04798    430.27984   -34.406854    39194.267 
  689200    294.34833   -1469.0786    486.04126     341.8313   -122.30842    39194.267 
  689300    310.06888    -1456.506    507.41996    446.54113   -32.981882    39194.267 
  689400     301.5251    -1473.967    519.65748    402.86198     169.0574    39194.267 
  689500      301.645   -1455.7969    517.57009    419.48431   -207.59287    39194.267 
  689600    299.96357   -1464.2832    516.12542     401.9852   -31.126227    39194.267 
  689700    305.82728   -1451.7843    507.23897    431.99038   -207.84703    39194.267 
  689800    302.80874   -1438.1118     532.1988    457.03619      -531.96    39194.267 
  689900    301.98715   -1460.7862    495.57455    394.03953   -244.51712    39194.267 
  690000    313.50464   -1439.2925    511.78203    483.58118   -265.68987    39194.267 
  690100    305.00552   -1404.9509    545.97226    513.85825    404.03307    39194.267 
  690200      301.988   -1422.7167    517.34368    453.88191    232.02918    39194.267 
  690300    289.89772   -1417.7902    499.10634    386.15252    376.84228    39194.267 
  690400    294.05324   -1428.4264    540.96916    436.08315   -266.76075    39194.267 
  690500    301.95638   -1448.7991    505.20134    415.51489    393.55639    39194.267 
  690600    296.74188   -1417.7307    519.76691    437.67828   -241.21653    39194.267 
  690700    297.56733   -1439.1539    533.04502    433.24853    69.666842    39194.267 
  690800     296.9515   -1441.0827    508.10483    403.60769    28.333474    39194.267 
  690900    301.24379   -1473.8776     519.5088    401.53652    63.811065    39194.267 
  691000    296.03702   -1514.1285    497.72218    316.06313    282.95409    39194.267 
  691100    291.91237   -1483.2463    513.40966    344.06776    439.76004    39194.267 
  691200    295.71329   -1507.7374    503.19179    326.46671    89.310909    39194.267 
  691300    291.23773   -1478.6357    514.04112     346.2732   -59.929271    39194.267 
  691400    295.79027   -1469.0484    491.59668    353.90713    441.13233    39194.267 
  691500    298.49582   -1499.5275    524.89651    368.90564   -11.616596    39194.267 
  691600    297.09595   -1453.8784    511.25884    394.61616    139.50917    39194.267 
  691700     300.3906   -1474.4443    503.12653    380.74732   -313.74501    39194.267 
  691800    302.49306   -1466.2771    528.95188    424.20302   -351.10367    39194.267 
  691900     303.6935   -1449.3317    520.93928    438.53912   -366.82528    39194.267 
  692000    297.02805   -1466.5764      507.747    378.10076   -448.19198    39194.267 
  692100    307.58799   -1455.3447    502.47358    431.58957   -594.43311    39194.267 
  692200    288.53712   -1448.1246    499.25011     349.8378   -1121.3784    39194.267 
  692300    305.03495   -1439.7866    518.29921    451.48197    -388.2607    39194.267 
  692400    303.14994   -1468.8047    497.81639    393.49663   -667.11812    39194.267 
  692500    293.70899   -1463.1632     488.7953    347.62304    -686.6808    39194.267 
  692600    303.76994   -1449.4839    520.09108    437.88273   -379.29979    39194.267 
  692700    302.61089   -1472.1925    506.68104    396.54719     213.1498    39194.267 
  692800    293.92247   -1413.0904    523.83671    433.69821    187.82159    39194.267 
  692900    310.08323   -1466.0041    507.11123    436.79893    469.72608    39194.267 
  693000     294.7733   -1430.1908     519.5171    416.10771   -404.72851    39194.267 
  693100    299.72635   -1435.9033    499.31823    412.49019   -471.19625    39194.267 
  693200    290.28779   -1473.0189    515.26957    348.84277   -381.60333    39194.267 
  693300    312.24845   -1428.2135    512.84784    490.07183   -92.203636    39194.267 
  693400    297.53323   -1424.7241    504.80874     419.2886    175.47202    39194.267 
  693500    302.41326   -1453.4616    530.64988    438.35737   -119.11411    39194.267 
  693600    293.23021   -1488.5379    500.55776    331.85588   -159.33561    39194.267 
  693700    303.52214    -1485.246     501.8681    382.78229    34.086478    39194.267 
  693800    298.57783   -1459.6869    513.85988    398.07876    381.31035    39194.267 
  693900    298.27368     -1464.37    519.80945    397.97624    203.48486    39194.267 
  694000    306.22426    -1504.337    492.98984    366.97536    391.20469    39194.267 
  694100    290.95459   -1481.2955     496.7105    325.00838   -305.86038    39194.267 
  694200    295.55238   -1479.3804    493.87622    344.78394   -543.94186    39194.267 
  694300    307.05553   -1481.9696    485.49343    385.58786   -321.33023    39194.267 
  694400    293.80534   -1519.1596    518.85092    322.11601   -216.31536    39194.267 
  694500    307.94488   -1489.3756    520.73909    417.43055    87.219264    39194.267 
  694600    307.20458   -1466.0907    498.72841    415.37267    169.12957    39194.267 
  694700    304.74094   -1468.8484    506.85734    409.65497    494.33815    39194.267 
  694800    300.54117   -1484.8913    511.47146    379.32295    413.26422    39194.267 
  694900    299.72039   -1469.8294    493.74351     372.9625    353.04704    39194.267 
  695000    313.40907   -1438.3593    510.88356    483.18576    126.40038    39194.267 
  695100    300.53926   -1458.4878    499.51939    393.76579     360.0121    39194.267 
  695200    305.27114   -1472.7659    502.76503    404.03156   -101.01488    39194.267 
  695300    302.08058   -1483.7583    512.98398    388.89736   -23.086068    39194.267 
  695400    299.89237   -1443.9173    511.46824    417.37343    -151.1755    39194.267 
  695500    298.63041    -1448.181    515.57285    411.53427   -110.76893    39194.267 
  695600    300.00993   -1478.1868    496.13947    368.30435    207.94205    39194.267 
  695700    303.80547   -1521.2219     487.7049    333.91848    373.26779    39194.267 
  695800    297.47117   -1479.2109    537.29103    397.00475    108.34254    39194.267 
  695900    297.10572   -1460.8672    476.95462    353.36713    189.94547    39194.267 
  696000    296.78282   -1495.0074    522.58724    363.40623    59.308568    39194.267 
  696100    305.97305   -1467.2398    515.43777    425.38977    325.63822    39194.267 
  696200    298.21783   -1436.9319    489.20557    394.55907   -171.79761    39194.267 
  696300    302.12379   -1431.0028    522.14671    451.01007    214.77244    39194.267 
  696400    295.61166   -1476.1117    489.38407    343.82733    306.72189    39194.267 
  696500    291.44955   -1497.9778    491.82926    305.67268    692.43276    39194.267 
  696600    304.70865   -1454.0624    508.23492    425.67318    337.65774    39194.267 
  696700    307.28728   -1474.5022    511.71381    420.31878    939.81499    39194.267 
  696800    297.68994   -1474.7573    499.78575    364.93782    443.99177    39194.267 
  696900    290.35335   -1477.7793     510.2165    339.32436   -72.910832    39194.267 
  697000     285.3359   -1488.2023    526.70603    322.80727   -215.99118    39194.267 
  697100    289.76116   -1452.2084    484.64149    336.65481   -514.50912    39194.267 
  697200    303.50947   -1473.0473    498.98638    392.04228   -60.688886    39194.267 
  697300    297.39425   -1455.7413     498.1105    380.94758   -179.56023    39194.267 
  697400    311.93306   -1449.0904    471.89257    426.82007   -303.40803    39194.267 
  697500    301.85765   -1469.7644    512.63623     401.5401   -687.71033    39194.267 
  697600    287.96016   -1469.8933    521.72156    347.94364   -918.62482    39194.267 
  697700    292.49142   -1463.8291    507.99643    360.67802   -810.78023    39194.267 
  697800    302.63291   -1435.5909    500.14348    426.71033   -432.59834    39194.267 
  697900    309.83787   -1476.1757    510.92884     429.3406    212.84892    39194.267 
  698000    295.24918   -1486.3765    492.80227    335.34921    559.81083    39194.267 
  698100    298.88504   -1468.3524    493.72397    370.66003    196.38873    39194.267 
  698200    289.14854   -1467.5174    493.18756    327.13447     85.30422    39194.267 
  698300    299.28424   -1451.6927    496.05448    391.44712    2.6175934    39194.267 
  698400    294.20572   -1470.2707    515.52913    369.48514   -33.277154    39194.267 
  698500    305.11424   -1472.7176    501.38519     401.9939   -239.03919    39194.267 
  698600    305.93631   -1480.0308    485.43567    382.43129     -104.049    39194.267 
  698700    305.06727   -1487.0659     492.7911     378.8401   -410.22174    39194.267 
  698800     302.3536   -1480.8479    505.31858    385.37122   -408.69031    39194.267 
  698900    294.54342    -1434.469    491.49068    382.76845   -261.07381    39194.267 
  699000    294.99878   -1414.3089    506.55982    420.04727   -212.48027    39194.267 
  699100    293.33856   -1417.7428    513.62116    416.20199   -668.07044    39194.267 
  699200    298.96834    -1434.873    496.32781     407.1183   -85.820883    39194.267 
  699300    307.31993   -1410.0426    484.01264    457.22414    269.23408    39194.267 
  699400    299.24457   -1460.1706    507.30535    394.04146   -667.16558    39194.267 
  699500    300.53624   -1448.0966    487.63097    392.25498   -397.95463    39194.267 
  699600     286.6698   -1403.7097    517.48708    404.08477   -298.45644    39194.267 
  699700    290.82805    -1433.677    523.32026    398.66709   -624.42106    39194.267 
  699800    309.72245   -1416.6104    515.24488    492.70236   -899.88613    39194.267 
  699900    299.54958     -1437.93    483.60856    393.95817   -845.19594    39194.267 
  700000    295.60083   -1447.6185    504.07156    386.95925   -906.90273    39194.267 
  700100    297.25288    -1431.048     511.9297    418.82377   -728.21873    39194.267 
  700200     306.7133   -1409.1949    477.61489    448.94368   -401.44395    39194.267 
  700300    299.17902   -1415.0534    497.29001    428.84837   -704.60131    39194.267 
  700400    303.59092   -1420.4511     484.1726    430.19129   -3.0262388    39194.267 
  700500    306.02904   -1434.1621    495.35628    438.63804    382.57076    39194.267 
  700600    303.19121   -1413.9936    525.20038    475.87749     453.3893    39194.267 
  700700    289.75975   -1450.0898    487.08257     341.2081    112.66289    39194.267 
  700800    299.54559    -1398.691    510.97771    460.54837    167.75933    39194.267 
  700900    307.28352   -1429.9837    514.14076    467.24731    14.742716    39194.267 
  701000    296.57488   -1447.5443    493.00664    380.35275   -199.96654    39194.267 
  701100    301.14922    -1383.594    517.71604    489.60164   -603.99576    39194.267 
  701200    298.45981   -1437.0239    505.41008    411.76072   -671.15364    39194.267 
  701300    297.09131   -1397.5071    498.75571    438.46353   -430.91183    39194.267 
  701400     301.8854   -1432.4273    510.16511    436.53099   -197.39001    39194.267 
  701500    290.51197   -1439.4867    517.40527    385.51964     129.7521    39194.267 
  701600     299.6424   -1438.0021    493.66275    404.35799    415.06035    39194.267 
  701700     296.3527    -1422.495    506.86171    418.25705    414.16892    39194.267 
  701800     295.7336   -1411.0462    521.61739    441.67496    618.04639    39194.267 
  701900    288.07106   -1435.2444     497.8205    359.19061    244.33625    39194.267 
  702000    308.20207   -1479.8415    513.42768    420.81084    917.17904    39194.267 
  702100    295.20555   -1470.1629     504.0864     362.6505     202.0031    39194.267 
  702200     306.4166   -1477.9077    486.83787    388.11844    896.34633    39194.267 
  702300    302.95387   -1500.0582    507.05435    370.59854    392.01125    39194.267 
  702400     311.0057   -1469.3328    513.24278    443.75385    887.63543    39194.267 
  702500    294.41335   -1530.7424    458.39967    252.81855    57.871431    39194.267 
  702600    307.34903   -1526.7454    479.59856    336.23821    176.85964    39194.267 
  702700    307.37233   -1466.0624     482.3501    399.77769    135.07231    39194.267 
  702800    298.32764   -1451.7876    499.66759    390.65963    112.70281    39194.267 
  702900    315.67943   -1456.2619    503.03293    467.65142    600.19036    39194.267 
  703000    300.20031   -1443.5179    511.08243    418.77309   -71.886738    39194.267 
  703100    298.96109    -1469.639    489.60817    365.59994    151.63255    39194.267 
  703200    300.64605   -1498.6088    478.90556    333.51163   -140.39199    39194.267 
  703300    299.10849    -1462.537     457.3731    341.13035   -116.45976    39194.267 
  703400    309.68096   -1434.3477    492.37006    451.90351     288.8212    39194.267 
  703500     299.8752   -1461.1229    494.52698    383.14935     49.39777    39194.267 
  703600    289.34092   -1480.5259    499.80188    321.60614    83.318262    39194.267 
  703700    303.30089   -1501.6012     511.5354    375.09848   -383.29902    39194.267 
  703800    291.26004   -1463.4821    457.10961     304.5957    -648.7541    39194.267 
  703900    301.85325   -1498.8644    484.66661    344.45069   -218.60472    39194.267 
  704000    295.95929   -1476.6397     501.4115    356.89138   -501.56357    39194.267 
  704100    309.77495   -1428.2368    508.56892    474.63633     194.7488    39194.267 
  704200    298.57761   -1443.4542    528.82999    429.28059   -162.17468    39194.267 
  704300    292.88893   -1452.6042     486.8014    352.49707   -302.16768    39194.267 
  704400    311.73656   -1471.0454    510.30693      442.395   -114.81181    39194.267 
  704500    294.07485   -1461.4902    474.03926    336.18679   -664.27665    39194.267 
  704600    309.34564   -1469.8745    482.50355    405.00088   -809.56133    39194.267 
  704700    304.91023   -1437.3254     518.9536    454.03618   -639.20419    39194.267 
  704800    302.65222   -1450.7188    474.62235    386.14815   -388.45448    39194.267 
  704900    307.12445   -1442.2078    503.65367    443.82014   -463.93196    39194.267 
  705000    305.66409   -1445.6192    495.87291    426.05491   -311.55031    39194.267 
  705100    303.45546   -1448.3995    474.54462    392.00516    248.23437    39194.267 
  705200    297.11521   -1468.3302    525.05216    394.04444    534.25288    39194.267 
  705300    284.70538   -1457.9897     494.9667    318.44246    127.70723    39194.267 
  705400    309.11618   -1442.7588    519.38394    467.96422   -181.22562    39194.267 
  705500    288.36699   -1447.3272    469.24366    319.86295   -616.29393    39194.267 
  705600    307.36555   -1451.3211    488.76344    420.90179    261.88599    39194.267 
  705700    293.65005    -1458.592    506.64699    369.78066   -245.66851    39194.267 
  705800    297.73424   -1473.6861    534.31012    400.73277   -495.77018    39194.267 
  705900    301.79407   -1432.7048    518.97736    444.65463    274.82869    39194.267 
  706000    287.08591   -1433.3452    533.93165     392.7668    21.809209    39194.267 
  706100    297.38069   -1482.6575    486.86995    342.72984   -65.317301    39194.267 
  706200    301.50794   -1475.5658    482.57127    364.09972    -20.27764    39194.267 
  706300    294.10011   -1420.4211    531.05204    434.38235     326.8456    39194.267 
  706400    305.98533   -1389.9544    533.94874    521.24138    285.67996    39194.267 
  706500    292.67183   -1426.5036    500.61049    391.42958   -175.42757    39194.267 
  706600    300.09604   -1390.5503    513.56773    473.75669    80.474055    39194.267 
  706700    305.13501   -1387.6364    540.69445    526.47779      334.851    39194.267 
  706800    305.23736    -1451.885    479.50538    401.50086   -52.708063    39194.267 
  706900    286.71133   -1418.6311    533.54183     405.4051   -83.964903    39194.267 
  707000    294.04512   -1438.4885    492.07764    377.09298   -495.92085    39194.267 
  707100    295.45349   -1462.6158    499.98886    367.21602   -248.61118    39194.267 
  707200    305.97715   -1497.8301    489.32531    368.70542   -79.813158    39194.267 
  707300    306.82392    -1421.976    518.01413    477.05973    400.29338    39194.267 
  707400    303.94983   -1425.6259    501.09745    443.55682    288.24664    39194.267 
  707500    298.09628   -1437.6308    478.22915    382.33665   -123.59867    39194.267 
  707600    305.58806   -1430.4013    494.08472     439.1424    232.38968    39194.267 
  707700    292.00676    -1416.239    497.07862    395.16876   -478.78163    39194.267 
  707800    286.18467   -1424.6957    501.88123    365.30936   -864.16275    39194.267 
  707900    302.57178   -1437.2695    506.06863     430.6817   -397.06445    39194.267 
  708000    293.98486   -1430.2465    502.88673    395.87296   -485.82681    39194.267 
  708100    301.98786   -1437.7262    511.09584    432.62399   -764.75961    39194.267 
  708200    299.26824   -1397.6084    498.75731    448.16222   -681.03029    39194.267 
  708300    295.11923   -1429.2576     514.3078    413.38869   -904.47161    39194.267 
  708400    304.89547   -1429.6587    509.37429    452.05719   -602.35162    39194.267 
  708500    306.02579   -1433.8801     512.6785    456.22753   -744.01636    39194.267 
  708600    311.62478   -1431.0539    497.15952    468.73598     548.9658    39194.267 
  708700    290.77499   -1450.5506    516.97729    375.21161   -179.41361    39194.267 
  708800    308.29395   -1472.2635    503.98705    419.36182    318.86364    39194.267 
  708900    297.30416   -1480.5055    494.89606    352.56345   -28.871546    39194.267 
  709000    302.38627   -1442.9434    499.88686    417.99105    235.54546    39194.267 
  709100     297.4126   -1423.9505    499.70202    414.41256    194.77094    39194.267 
  709200    302.62844   -1465.8383    500.84509    397.14442    59.750488    39194.267 
  709300     297.0737   -1465.9262    523.15525    394.36466    82.881579    39194.267 
  709400    293.73781   -1417.3227    493.94233     398.7403   -837.48125    39194.267 
  709500    302.68223   -1455.1384    495.49582    402.73719   -819.91116    39194.267 
  709600    301.95715   -1438.4133    522.98948     443.6923   -416.47756    39194.267 
  709700    312.66614    -1419.344    508.94415    496.91768    95.349791    39194.267 
  709800    288.81016   -1445.0319    486.98133    341.89067    -211.8277    39194.267 
  709900    300.62109   -1415.9391     524.9136      462.077   -220.37584    39194.267 
  710000    297.94009   -1456.6792    505.12391    389.47991   -299.57769    39194.267 
  710100    306.52014   -1456.3452    479.79395    403.10306   -314.42854    39194.267 
  710200    291.87934   -1458.7096    507.00514    362.05119     -281.538    39194.267 
  710300    306.66564   -1482.7898    522.10842    419.62775   -283.40635    39194.267 
  710400    290.53697    -1454.317    504.72589    358.12256   -96.268741    39194.267 
  710500    292.08734   -1475.1872     514.1424    353.64713    23.801463    39194.267 
  710600    301.90869   -1473.6887    486.06402     371.2733    329.70267    39194.267 
  710700    311.52614   -1454.7009    521.00809    468.49362   -280.53153    39194.267 
  710800    298.46618   -1475.7229    483.16024    350.84054   -76.205533    39194.267 
  710900     306.7055   -1470.7892     504.3579    414.05726    -493.7547    39194.267 
  711000    307.82672   -1415.7896    524.05896    493.80452    122.86447    39194.267 
  711100     310.0509   -1448.3028    502.04473    449.28823    133.54292    39194.267 
  711200    300.80221   -1453.3419    535.32081    435.89664   -78.929159    39194.267 
  711300    306.14254   -1486.0642    512.95981    404.85024    627.62202    39194.267 
  711400    295.78981   -1522.2197    505.47497    314.61203    53.919207    39194.267 
  711500    304.27025   -1468.5445    491.71954    392.70249    248.26115    39194.267 
  711600    300.86796   -1519.4277    518.65206      353.438    146.43954    39194.267 
  711700      303.715   -1465.9094    485.37624    386.49511    387.39255    39194.267 
  711800    300.67726   -1472.1136    505.63096    386.87266   -227.79598    39194.267 
  711900    300.69197   -1449.9512    482.40689    385.87724   -413.44788    39194.267 
  712000    299.52956   -1484.2608    508.22521    372.15387   -825.74863    39194.267 
  712100    298.01333   -1478.8246    510.29321    372.83354    -359.5084    39194.267 
  712200    303.34749   -1499.7111    504.45974    370.12271    -648.0275    39194.267 
  712300    291.61279   -1486.0302    484.41195    310.93765    62.637078    39194.267 
  712400    297.91504     -1501.17    520.50972    360.26215    263.12492    39194.267 
  712500    297.74195   -1483.3101     519.9686    376.80192   -331.45466    39194.267 
  712600    297.17432   -1494.9807    495.79525    338.40306    204.23619    39194.267 
  712700    304.07343   -1515.1433     487.3665    340.86471    83.804917    39194.267 
  712800    294.98624   -1495.8186    502.43216    334.35346    55.371823    39194.267 
  712900    308.27861   -1502.8132    511.68487    396.44088    652.68575    39194.267 
  713000     289.8943   -1492.3159    493.17874    305.68383    197.72949    39194.267 
  713100    299.81797   -1463.8895    500.83312    386.43127   -96.166371    39194.267 
  713200    295.00987   -1473.5121     511.6931    366.02721    22.649072    39194.267 
  713300    305.60919   -1473.9477    511.16678    412.77307    703.88912    39194.267 
  713400    300.87357   -1497.1795    513.98405    371.04346    949.45156    39194.267 
  713500    302.97447   -1486.0291    516.96028    394.62628    752.23617    39194.267 
  713600    302.21319   -1499.1962    513.66753     374.7399    108.64221    39194.267 
  713700    301.10986    -1482.472    522.17194    395.00238    655.95901    39194.267 
  713800    307.37915   -1500.5735    506.39347    389.34061    103.23562    39194.267 
  713900    302.49946   -1473.7346    539.80848    427.63098   -89.695814    39194.267 
  714000    297.99533   -1493.2922    495.63748    343.62919   -371.75819    39194.267 
  714100    303.59331   -1509.6164    499.01941    355.88353   -402.43393    39194.267 
  714200    309.11095   -1554.8739    495.95117    332.39282   -496.69546    39194.267 
  714300    295.07701   -1538.7973    493.83932    283.19049   -135.39621    39194.267 
  714400    303.99823   -1501.8371    505.30797    371.77394    626.36409    39194.267 
  714500     301.7259   -1527.5245    504.69014    335.24093    225.23502    39194.267 
  714600    309.81395   -1499.6853    501.43211    396.22664    540.62132    39194.267 
  714700    296.96083   -1490.0435    493.33924    339.92332    254.20365    39194.267 
  714800    297.10617   -1503.8299    523.93768    357.38956   -72.309763    39194.267 
  714900    298.53901   -1505.1983    508.22471    346.75742    391.07361    39194.267 
  715000    297.22555   -1509.8253    498.49856    326.49237      326.272    39194.267 
  715100    284.21238    -1491.616    506.81003    294.44051    109.29656    39194.267 
  715200    302.89034   -1468.2376    487.15754    382.23636    62.513967    39194.267 
  715300    308.74325   -1462.3506    492.72978    420.03968    62.238551    39194.267 
  715400    299.12464   -1478.8883    483.53017    351.00881     74.20982    39194.267 
  715500    302.27145   -1531.0343    473.82326    303.31975   -719.59622    39194.267 
  715600    291.26377   -1533.5985     490.5447    267.93116    546.70854    39194.267 
  715700     302.6798   -1512.1304    512.39193     362.6303    620.54909    39194.267 
  715800     294.2519   -1511.6595    488.08018    300.85536    907.62441    39194.267 
  715900    292.07047   -1483.9723    510.37412    341.01773    194.31483    39194.267 
  716000    293.09115   -1476.6926    485.08571    327.60315    493.77823    39194.267 
  716100    311.42155   -1530.4757    499.14622    370.38617    529.06921    39194.267 
  716200    289.45739   -1528.2141    509.59802    284.23837   -430.62751    39194.267 
  716300      290.049   -1488.0696    488.59861     306.0463   -131.81738    39194.267 
  716400    296.78254   -1484.2408    506.44261    358.02687   -1056.9792    39194.267 
  716500     301.6791    -1507.431    495.26845    345.70205   -470.31411    39194.267 
  716600    285.66532   -1486.5972    510.78489    309.97393   -98.949165    39194.267 
  716700    294.87918   -1471.6594    508.08395    363.68255    14.920716    39194.267 
  716800    287.51271   -1469.4546    501.24586     325.8926   -396.04191    39194.267 
  716900    305.00333   -1460.5845    491.56231    403.80484   -2.0317526    39194.267 
  717000    295.66432   -1464.8625    507.65301    373.58253    119.58749    39194.267 
  717100    295.08462   -1464.3899    518.70013    382.49296    139.31958    39194.267 
  717200    311.50304    -1465.917    511.48088     447.6463    408.15263    39194.267 
  717300    298.89626   -1481.1466     539.5351    403.72746    2.2793134    39194.267 
  717400     298.9491   -1455.7901    496.93431    386.72108   -150.80236    39194.267 
  717500    286.85647   -1464.3587    545.10702    371.89594   -95.682171    39194.267 
  717600    307.93526   -1443.8198    485.43793    427.64188     286.0272    39194.267 
  717700    306.26854   -1455.1823    500.74964    424.08917    -240.4242    39194.267 
  717800    298.25878   -1462.6477    495.31199      375.134   -168.25606    39194.267 
  717900    300.86796   -1456.4496    508.10689    405.87093    235.92103    39194.267 
  718000    296.16715   -1453.3805    514.25756    393.93224    536.55432    39194.267 
  718100    293.34377   -1487.5626    525.02798    357.81248    355.74814    39194.267 
  718200    310.67617   -1452.5888    497.04324    442.81508     457.5054    39194.267 
  718300    297.90934   -1507.9738    512.39364    345.31667    592.45757    39194.267 
  718400    299.40003   -1474.9368    496.24096     368.9107    840.91307    39194.267 
  718500    300.05829    -1495.003    528.92497    384.49128   -231.81215    39194.267 
  718600     305.7483   -1459.7379    475.01477    391.45708    392.59049    39194.267 
  718700    298.75085   -1488.5561    502.77407    358.90246   -158.71275    39194.267 
  718800    294.06778    -1490.724    480.75851    313.64041   -496.71859    39194.267 
  718900    300.78583    -1479.542    521.33688    395.63894   -109.47385    39194.267 
  719000    302.05204   -1507.4884    491.53442    343.58926    274.50428    39194.267 
  719100    304.17592   -1483.8331    487.02415    372.29397   -46.657229    39194.267 
  719200    303.55268   -1497.3355    504.02263    372.98479    181.05825    39194.267 
  719300    303.95923   -1536.6555    506.19522     337.6673    103.70121    39194.267 
  719400    297.34733   -1504.2048    513.20031    347.36278    139.55163    39194.267 
  719500    297.10076   -1494.6515    509.44811    352.05401   -568.28457    39194.267 
  719600    294.70801   -1477.0365    492.38189    341.83299   -48.444941    39194.267 
  719700     292.3513   -1513.9879    508.78629    310.67833   -355.24456    39194.267 
  719800    297.47947   -1549.3314    511.72912    301.35968   -60.218265    39194.267 
  719900     301.4228   -1548.1801    503.66646    312.19738    24.826519    39194.267 
  720000    284.84645   -1516.2692    491.95473    257.78606    283.67141    39194.267 
  720100    294.22352   -1535.9103    496.14441    284.54093    127.68259    39194.267 
  720200    302.51419   -1524.9783    546.74339    383.38852    196.60198    39194.267 
  720300     299.9628   -1528.7567    476.81368    298.19644     494.0378    39194.267 
  720400    293.95032   -1504.7503    506.94545    325.27236    42.042785    39194.267 
  720500    311.94184   -1488.6337    481.23792    396.66173    237.94131    39194.267 
  720600    303.45019   -1454.3753    517.44504    428.90611    323.21987    39194.267 
  720700    291.36328   -1521.6686    495.34138    285.10561   -137.55659    39194.267 
  720800    301.86713   -1533.1104    509.26949    334.87004    34.621009    39194.267 
  720900    297.02232   -1545.0604    506.55784     298.4018    329.27343    39194.267 
  721000    299.08449    -1519.316     485.0465    311.91673    2.1061837    39194.267 
  721100    295.04246   -1518.9051     519.7665    328.85436    81.236578    39194.267 
  721200    285.89872   -1516.3659    512.16664    282.63751    218.54002    39194.267 
  721300    299.00461   -1548.0735    530.01691    327.77009   -47.974637    39194.267 
  721400    301.45422   -1569.2422    498.64897    286.25914    -556.7968    39194.267 
  721500     302.2066    -1545.513    483.58808    298.31397    191.96362    39194.267 
  721600    297.32162   -1492.9393    521.51629     366.8285   -185.29359    39194.267 
  721700    296.43376   -1476.6928    524.13986    381.70228   -138.76519    39194.267 
  721800    304.49601   -1481.3411     535.6772    424.87965     193.0684    39194.267 
  721900    306.05225   -1500.8369    516.00861    392.71994    369.04144    39194.267 
  722000    296.52135   -1533.2898    519.55417    320.91381    289.50155    39194.267 
  722100     308.5871   -1529.1444    513.72638    373.53968    738.25901    39194.267 
  722200    292.54893   -1541.5192    501.74634    276.99661    243.15935    39194.267 
  722300    288.97222   -1493.7866    521.18181    328.06589   -219.28289    39194.267 
  722400    309.26767   -1496.1535    514.91261    410.78003    362.24779    39194.267 
  722500    301.30702   -1526.3108    517.57829    347.45738    477.38255    39194.267 
  722600    293.23785    -1501.704    504.58639    322.75281      157.056    39194.267 
  722700     308.0807   -1486.1245    493.62115    394.17505   -110.31037    39194.267 
  722800    298.76977   -1477.3597    541.76511    409.17502   -675.28105    39194.267 
  722900    296.41433    -1514.465    484.70606    304.40881   -411.68954    39194.267 
  723000    307.66029   -1518.8075    522.72857    388.70718   -366.37076    39194.267 
  723100    300.49172   -1502.3548    507.77548    357.94084    -461.5931    39194.267 
  723200     311.1571   -1540.0575    494.82233    355.29013    246.53245    39194.267 
  723300     297.4106    -1535.609    500.33202    303.37503    353.61963    39194.267 
  723400    309.17108   -1492.5639    526.68127    425.70359    -180.9443    39194.267 
  723500    291.26856   -1478.4683    506.25369    338.79192   -164.95093    39194.267 
  723600    312.98876   -1467.6436    510.61902    451.74508   -561.55035    39194.267 
  723700    307.65295   -1482.7117    526.33926    428.38066   -362.17268    39194.267 
  723800    298.31145    -1492.419    507.78859    358.07634   -454.10068    39194.267 
  723900    293.42031   -1489.7097    542.53821    373.52011   -88.451686    39194.267 
  724000     301.6576    -1486.751    518.15883    389.17565   -288.83959    39194.267 
  724100    299.87672   -1466.2928    532.08405    415.54331   -113.88149    39194.267 
  724200     299.0104   -1486.7557    513.06125    372.15835   -47.993677    39194.267 
  724300    291.50513   -1537.5168    519.44395    293.99855   -567.36735    39194.267 
  724400    290.94294   -1519.2403    500.34357    290.64418   -105.40333    39194.267 
  724500    303.92993    -1523.688    480.75549     325.0631    122.07752    39194.267 
  724600    300.25608   -1569.2122    540.24438    322.49179     105.5995    39194.267 
  724700    295.03449   -1502.2926     514.8728    340.53729    52.443425    39194.267 
  724800    297.76638   -1509.9091    516.76092    347.10517    397.85497    39194.267 
  724900    302.84971   -1543.4566    473.79405    293.47097    181.75707    39194.267 
  725000     296.4043   -1556.4284    471.39979      249.094   -168.74681    39194.267 
  725100    292.27545   -1518.7398    541.13476    337.93353   -281.90343    39194.267 
  725200    298.45058   -1545.3643    520.63478    318.60344   -329.69061    39194.267 
  725300    296.61325   -1548.6176    487.41334     273.8588   -846.17141    39194.267 
  725400    297.38632   -1522.3517    550.60925    366.80029    -427.7821    39194.267 
  725500    299.67328   -1518.1529    507.70411    338.38762     181.8239    39194.267 
  725600    289.07777   -1497.7254    543.52872    346.94906     -378.756    39194.267 
  725700    298.84872   -1529.7427    513.10768    328.48996    -840.9094    39194.267 
  725800    295.37155   -1508.1662      490.906    312.21398   -161.06469    39194.267 
  725900    303.15806   -1531.5654    522.50966    355.46573    151.59101    39194.267 
  726000    312.10729   -1522.3469    511.66686    394.12208   -64.616027    39194.267 
  726100    297.17572   -1540.4476    521.06311    318.21033    36.628231    39194.267 
  726200    299.04809   -1540.3171    543.09641    348.80166    929.20693    39194.267 
  726300    304.17634   -1590.8508    467.16388    245.41781    221.01374    39194.267 
  726400    309.97958   -1562.1757    502.92956    335.97912    787.83268    39194.267 
  726500     312.5595   -1551.0342    487.61653    343.41988    1019.5702    39194.267 
  726600    306.67432    -1529.296    530.78274    381.83499    916.73047    39194.267 
  726700    291.80015   -1491.4567    539.93616    361.87872    114.60416    39194.267 
  726800    298.24556   -1521.5526    523.20494    344.06255    19.099458    39194.267 
  726900    295.95216   -1479.0135    538.22727     391.3013    564.13853    39194.267 
  727000    302.34092   -1503.5029     509.1108    366.45141   -109.57641    39194.267 
  727100    294.59759   -1498.0297    531.76957     359.7304    185.85646    39194.267 
  727200    297.47366   -1514.9742    531.26778    355.22944   -31.548547    39194.267 
  727300    291.66758   -1483.5793    503.36036    332.58362   -144.25296    39194.267 
  727400     304.4062   -1486.4199    515.62338    399.34288   -261.86815    39194.267 
  727500    304.71908   -1458.0929    509.26892    422.72364    -332.6333    39194.267 
  727600    310.16876   -1493.1421    512.95706    415.89177   -78.546571    39194.267 
  727700    292.42733    -1461.293    524.29971    379.22893   -59.852397    39194.267 
  727800    298.29348   -1514.0494    525.59014     354.1666    253.43362    39194.267 
  727900    302.89323   -1485.5088     509.8722    387.69286      670.733    39194.267 
  728000    310.22225   -1467.7273    511.81162     440.4018    223.16951    39194.267 
  728100    294.96882   -1493.8601    535.22812    369.02955    -267.9554    39194.267 
  728200    294.32383   -1493.4002    497.06091    328.41913   -363.23158    39194.267 
  728300     313.7467   -1466.2344    540.63101    486.57778   -245.75056    39194.267 
  728400    295.23218   -1484.7284    519.89171    364.01022    170.65595    39194.267 
  728500    292.64297    -1483.882    493.57323    326.88406   -297.88091    39194.267 
  728600    291.06691   -1537.6155    525.25276    297.73615    -512.7194    39194.267 
  728700    295.62909   -1501.4567    500.61278    329.78943    -246.6531    39194.267 
  728800    289.66491   -1504.7601    519.08674    318.11509   -338.51195    39194.267 
  728900    295.73602   -1459.8315    529.72949    401.01265   -512.05973    39194.267 
  729000    295.66012   -1478.0127    495.34225    348.10262   -151.99145    39194.267 
  729100    304.45864    -1482.038        521.8     410.1374    356.54463    39194.267 
  729200    301.06472    -1523.415    533.08624    364.77052    93.305756    39194.267 
  729300    298.90646   -1500.3175    493.92873    338.99615   -224.89422    39194.267 
  729400    307.93628   -1474.7998     509.5059    420.73448    137.04359    39194.267 
  729500    305.78707   -1477.2806    529.48672    428.56086    580.02112    39194.267 
  729600    297.02339     -1461.54    497.72918    373.09839    625.19739    39194.267 
  729700    297.95579   -1462.6168    522.27593    400.76501    907.30117    39194.267 
  729800    302.50628   -1472.4395    531.00241    420.15069    544.83062    39194.267 
  729900     299.5315    -1442.334     522.1278    427.99203    723.60704    39194.267 
  730000     297.5546    -1486.506    488.11551     340.9096   -225.65546    39194.267 
  730100     305.8677   -1489.8758    520.35667    407.19844   -375.50782    39194.267 
  730200    291.87094   -1450.4041    496.03147    359.34522   -963.68111    39194.267 
  730300    299.16112   -1483.3546     490.4747    353.65119   -1001.8123    39194.267 
  730400    290.53815    -1479.982    518.49542    346.23234   -862.62671    39194.267 
  730500    308.03115   -1490.7231    489.65299    385.38527    544.38646    39194.267 
  730600    294.31753   -1497.2378    506.48528    333.97754    305.67366    39194.267 
  730700    294.17783   -1479.1064    521.04013    366.03497    207.17285    39194.267 
  730800    296.17281   -1492.3842    525.16752    365.86397    241.74785    39194.267 
  730900    309.76934   -1456.7925    505.78255    443.26898    348.40574    39194.267 
  731000    298.09288   -1463.6282    541.54097    419.63571     237.3427    39194.267 
  731100    295.83317    -1472.382    491.39446    350.56439    258.91957    39194.267 
  731200    307.08742   -1461.9144    522.77479    443.06797    129.78134    39194.267 
  731300    307.82874   -1464.8465    512.79157    433.48938    -485.3353    39194.267 
  731400    298.70571   -1485.8823    490.53307    349.13207   -718.45328    39194.267 
  731500    306.65029     -1478.85    482.81637    384.20638   -849.94748    39194.267 
  731600    303.10355   -1450.2635    503.92928    417.94193   -626.01097    39194.267 
  731700    298.30286   -1453.4695    488.74308    377.94162   -198.43647    39194.267 
  731800    301.14495   -1488.3338    530.98789    398.11454   -116.05694    39194.267 
  731900    295.59102     -1471.79    511.51143    370.18349    358.73375    39194.267 
  732000    302.61897   -1490.0312     512.3771     384.4409    396.89381    39194.267 
  732100    288.87085   -1495.0434    533.33571    338.50671    -209.8578    39194.267 
  732200    303.56122   -1507.1968    493.67375      352.813    419.35873    39194.267 
  732300    292.64438   -1487.0991    515.00276    345.10284      75.1331    39194.267 
  732400    299.96964   -1503.4969    524.45662    371.13005    196.51285    39194.267 
  732500    302.80523   -1508.2721    511.73408    366.39536    145.69684    39194.267 
  732600    291.73656    -1493.772    510.07658    329.41762    247.50142    39194.267 
  732700    309.18508   -1462.7085    520.87592    449.81666    353.92899    39194.267 
  732800    289.67385   -1486.5388    473.46751    290.75743    148.22994    39194.267 
  732900    301.33718   -1477.8888    525.38165    403.81849    370.46463    39194.267 
  733000    302.34259    -1551.019    483.63343    293.46546    155.16395    39194.267 
  733100    309.10356   -1490.2683    502.67132    403.68529   -130.47095    39194.267 
  733200    298.29923   -1514.6244    507.65365      335.681   -193.11627    39194.267 
  733300    297.70373   -1528.0211    503.35842    315.30871    77.826048    39194.267 
  733400    291.88965   -1439.9965    510.93498    384.74056    132.03188    39194.267 
  733500    288.18793   -1493.7595    502.99942    306.38043    355.63572    39194.267 
  733600    303.17555   -1504.7421    520.61108     380.4691     2.706924    39194.267 
  733700    307.15127   -1451.5566    493.76565    424.70401    486.67802    39194.267 
  733800    286.93521   -1459.1203    514.21499     346.5967   -215.71055    39194.267 
  733900    298.08335   -1428.0596    535.20396    448.82446     211.4735    39194.267 
  734000    294.05725    -1431.965    500.45626    392.04976   -98.803288    39194.267 
  734100    312.45894   -1463.9184     503.1546    445.62117   -44.776883    39194.267 
  734200    308.86682   -1489.4527    496.82712    397.59109    240.65318    39194.267 
  734300    290.18921   -1460.4605    487.07195    332.75982    470.40512    39194.267 
  734400    300.72939   -1456.7166    509.49499    406.36838   -109.43159    39194.267 
  734500    296.16836   -1499.6585    507.07072     340.4729   -449.82737    39194.267 
  734600    291.33938   -1485.7783    505.41079    330.95779   -414.53151    39194.267 
  734700    298.60267   -1481.8616    501.67274    363.82875    -435.2215    39194.267 
  734800    299.05113   -1494.1503    485.57356    337.45936   -461.70301    39194.267 
  734900    296.23918   -1504.3586    477.38981    306.41067   -223.66516    39194.267 
  735000    311.96378   -1492.6248    509.66682    421.19826   -128.31084    39194.267 
  735100    306.01749   -1480.3271    529.14793     426.2126    218.22738    39194.267 
  735200    297.12002   -1464.7804    513.07136    385.63509    220.65905    39194.267 
  735300    286.74982   -1470.3271    541.08318    361.42367   -213.19812    39194.267 
  735400    305.21361   -1432.6693    490.25472    431.35898    43.946783    39194.267 
  735500    305.07521   -1473.6826     517.9885    417.45643   -208.24946    39194.267 
  735600    287.79208   -1470.0011    538.66646    364.02418    195.04702    39194.267 
  735700    301.10181   -1431.4242    508.16084    432.00289    373.52178    39194.267 
  735800    301.54883   -1452.2863    532.50823     437.5002    324.05611    39194.267 
  735900    292.42025   -1467.7142     520.1761     368.6522    504.06524    39194.267 
  736000    301.80867   -1451.3002    517.11758    424.26518     400.1947    39194.267 
  736100    299.40196   -1453.9873    498.09083    391.71872    278.77939    39194.267 
  736200    297.22413   -1461.6648    507.37986    383.52779    119.74869    39194.267 
  736300      300.139   -1412.7462    501.42965    439.61606   -119.58758    39194.267 
  736400    313.23936   -1441.9748    480.78387    448.70662    422.00847    39194.267 
  736500     299.0745   -1520.1498    535.59386    361.58531    532.62444    39194.267 
  736600    314.83939   -1480.9837    480.18834    416.30403    701.23343    39194.267 
  736700    310.16116   -1491.3162    507.69346    412.41983    1049.7301    39194.267 
  736800    295.97092   -1467.8136     516.8634     381.2218    599.19243    39194.267 
  736900    307.22261   -1527.1029    515.11038    370.82355    532.81266    39194.267 
  737000    307.36102   -1448.2189    507.47319    442.69342    1035.0274    39194.267 
  737100    304.30705   -1467.3218    523.72317    426.09445    756.07223    39194.267 
  737200    297.57534   -1441.6552    513.82991    411.56824    896.59665    39194.267 
  737300    297.31575   -1428.4018    518.99203     428.8153    524.02432    39194.267 
  737400    303.09031   -1417.9408     520.6768    466.95253    767.86096    39194.267 
  737500    298.25835   -1437.0861    500.49848    405.88011    584.15112    39194.267 
  737600    292.56749   -1439.5092    508.97684    386.32075    139.96913    39194.267 
  737700    295.03979    -1478.025    513.43316    363.38914    350.60548    39194.267 
  737800    292.25264   -1490.5667    509.13553    334.00476    742.31412    39194.267 
  737900    306.76548   -1473.3516     504.5338    411.94076    339.67444    39194.267 
  738000    296.25741   -1491.1817    511.17456    353.45428   -46.121686    39194.267 
  738100    301.64939   -1474.8249    479.95625    362.86224    119.01264    39194.267 
  738200    297.75859   -1443.8757    522.97749    419.32012   -666.14855    39194.267 
  738300    295.45637   -1453.6001    471.48113    347.73696   -671.01496    39194.267 
  738400    298.93331   -1430.7277    512.10323    426.88127   -263.45743    39194.267 
  738500    291.43358   -1456.8262    517.57766    372.50076   -339.86251    39194.267 
  738600    302.99592   -1458.0092    484.95298    390.73541    -751.4052    39194.267 
  738700    288.68748   -1434.0335    488.11435    353.46988   -1168.0085    39194.267 
  738800    303.21232   -1462.3483    498.69007    401.10746   -771.29948    39194.267 
  738900    306.04779   -1459.0671    499.02371     417.4848    -783.9606    39194.267 
  739000    299.63794   -1504.0453    502.09448    346.72654   -784.66411    39194.267 
  739100    301.51303   -1518.9692    467.80109    305.94901   -338.83499    39194.267 
  739200     303.5054    -1521.298    505.29362    350.08045   -153.23639    39194.267 
  739300    302.38126   -1506.1095    502.22025    357.13586   -444.59475    39194.267 
  739400    297.89858   -1505.1691     500.5944    336.27372   -295.66019    39194.267 
  739500    307.58062    -1485.094    499.50276    398.83629    482.20339    39194.267 
  739600     303.6913   -1481.4091    475.30115    360.81361    278.68643    39194.267 
  739700     296.3524   -1481.1062    480.84207    333.62491    39.308086    39194.267 
  739800    304.42764   -1471.9575    496.71717    394.99557    33.896586    39194.267 
  739900    297.59154   -1465.0652    508.03164    382.43281   -42.544646    39194.267 
  740000    315.11743   -1503.5993    509.76729    424.51887   -20.580422    39194.267 
  740100    311.60542   -1524.6313    494.99215    372.90405   -350.94233    39194.267 
  740200    299.11161   -1520.5351    476.64992    302.42305   -369.40647    39194.267 
  740300    302.15326   -1448.3567    499.00732    410.64942    -224.7815    39194.267 
  740400    305.91987   -1506.7374    496.21884    366.43384   -127.55435    39194.267 
  740500    296.37636   -1490.5767    492.79512    336.21535    -566.9922    39194.267 
  740600    299.91603   -1459.4095    491.85997    382.37946    341.81116    39194.267 
  740700    298.54604    -1500.431    506.54876    349.88046    271.57278    39194.267 
  740800     305.8377   -1499.3407    491.76872    369.01055   -103.45911    39194.267 
  740900     295.3738    -1524.673    503.70951    308.52083    590.20984    39194.267 
  741000    296.50173   -1493.0075    498.02275    339.57639    345.81401    39194.267 
  741100    288.00736    -1505.814    495.73336    286.24721    94.552467    39194.267 
  741200    289.18645   -1497.2837      488.752    293.10323    624.60987    39194.267 
  741300    297.71843   -1487.1309    484.60346    337.51014     235.8447    39194.267 
  741400    302.33256   -1467.6205    531.09556    424.28095   -314.54405    39194.267 
  741500    297.35935   -1496.4639    489.50208    331.45951    -456.3148    39194.267 
  741600    301.91199   -1462.9597    484.65454     380.6077   -42.040037    39194.267 
  741700     291.8178   -1483.3806    501.76296      331.861   -244.54865    39194.267 
  741800    294.19259   -1443.1377    491.77048    372.80048    147.00463    39194.267 
  741900    292.52157   -1448.9443    513.04734    380.74941    445.84297    39194.267 
  742000    300.64001   -1481.2207    508.41509    380.38204    268.19591    39194.267 
  742100    308.44991   -1492.8985    493.27564    388.71736    689.49758    39194.267 
  742200    300.13679   -1516.3538    473.14823    307.71704    584.75518    39194.267 
  742300    294.81403   -1531.7516    524.40587    319.61901    277.96101    39194.267 
  742400    295.15992   -1481.9349     506.3966    352.98339   -473.70304    39194.267 
  742500    293.76345   -1454.4435    510.31527    378.10783    186.87028    39194.267 
  742600      289.213   -1465.3097     498.7804    335.22515    -437.0635    39194.267 
  742700    298.91556   -1464.2878    532.13013    413.26815    360.11053    39194.267 
  742800    300.92107   -1501.4637    486.40507    339.39407    308.76146    39194.267 
  742900     291.6726   -1517.6186    513.68989    308.89637   -384.66687    39194.267 
  743000    300.83914   -1489.8313    497.77561    362.02825   -716.07241    39194.267 
  743100    295.03756   -1448.5608    493.66555    373.07567   -1151.6987    39194.267 
  743200    310.16832    -1491.843    496.84379    401.07561   -475.55618    39194.267 
  743300    304.42678   -1476.0721    520.27546     414.4353   -940.10872    39194.267 
  743400    297.56174   -1474.6812    486.50294    351.15402   -453.84318    39194.267 
  743500     304.7206   -1510.7682    511.02724    371.81356   -375.26168    39194.267 
  743600    296.07297   -1513.1686    499.71098    319.17363    -217.7048    39194.267 
  743700     309.8386   -1506.6524    496.29918     384.2375    226.72285    39194.267 
  743800    306.99531   -1518.0197    507.62364     371.3969      244.409    39194.267 
  743900    304.78103   -1500.1965    512.06503    383.69499    281.33174    39194.267 
  744000    296.66201   -1487.7446    479.49782    327.03578    626.50478    39194.267 
  744100    304.05991   -1525.9703    513.34753    355.95791    883.33752    39194.267 
  744200    293.82512   -1461.5843     515.1083    376.03761    547.66039    39194.267 
  744300    298.79033   -1487.6458     503.0513    360.26773   -139.45456    39194.267 
  744400    296.67006   -1481.4988    538.93511    392.75515   -316.40326    39194.267 
  744500    306.88559   -1536.2573    501.65443    346.69628   -210.49844    39194.267 
  744600     304.2523   -1444.1523    526.24124    451.53561    51.117768    39194.267 
  744700    295.68174   -1472.9867    518.34664    376.23034    237.69351    39194.267 
  744800     300.8447    -1442.203    514.41415    426.32005    813.20381    39194.267 
  744900    295.23858   -1464.6739    519.56038    383.76216    1073.3757    39194.267 
  745000    297.71851   -1494.5436    518.20684    363.70121    688.07302    39194.267 
  745100    286.24075   -1455.8294    485.13667    317.68348    823.23577    39194.267 
  745200    296.90014   -1480.3236    525.19324    381.22411    163.45416    39194.267 
  745300    296.81656   -1488.8339    501.19363    348.33798    439.35624    39194.267 
  745400    298.03242   -1505.3707     505.2884    341.36856   -200.08827    39194.267 
  745500    291.75357   -1494.5415    509.80289    328.45099    493.62526    39194.267 
  745600    295.56806   -1524.0328    517.15228    323.47819    345.00746    39194.267 
  745700    297.15898   -1480.8152    491.36692    348.07121    128.63833    39194.267 
  745800    294.54771   -1468.0271     482.8849    340.62391    289.08387    39194.267 
  745900    302.09291   -1477.6698    516.06473    398.12212    128.32551    39194.267 
  746000    297.46045   -1499.5079    506.33198    345.70042   -199.43452    39194.267 
  746100    297.85749   -1467.5754    502.78161    375.86975    561.45151    39194.267 
  746200    297.84343   -1482.5098    495.67475    353.76512    505.78289    39194.267 
  746300    296.83838   -1465.1827    508.57079    379.46454   -77.464264    39194.267 
  746400     297.3801   -1469.3222    534.16598    403.35844   -395.39719    39194.267 
  746500     310.2071   -1511.9156    521.94791    406.28159    283.69415    39194.267 
  746600    302.31353   -1512.0319    479.95594    328.64422    126.93716    39194.267 
  746700    299.40824   -1466.7037      536.219    417.15869    330.08341    39194.267 
  746800     298.7992   -1462.5881    501.36134    383.67537    -323.1316    39194.267 
  746900    301.92555   -1439.2609    498.36763    418.08067    264.67725    39194.267 
  747000     292.0233   -1484.3474     486.4537    316.50998    63.431585    39194.267 
  747100     300.3158   -1524.5691    516.21465    343.37397   -10.348323    39194.267 
  747200    304.07987    -1473.884    517.47147    412.25806    949.59867    39194.267 
  747300    294.82926   -1495.7807    509.76337    341.01596    1334.2166    39194.267 
  747400    292.99628   -1517.3809    516.06736    317.46949    1025.0579    39194.267 
  747500    306.46482   -1488.1416    521.47396    412.73763    486.91334    39194.267 
  747600    314.53725   -1473.7659    478.12471    420.09833    187.67448    39194.267 
  747700    311.21415   -1465.7916    526.95637    461.94686    323.92144    39194.267 
  747800    304.28793   -1494.8575    497.43129    372.18084    43.771131    39194.267 
  747900    304.16527    -1464.984    497.42068    401.49167    91.874804    39194.267 
  748000    300.84818   -1447.4435    492.13051    398.81161   -129.41766    39194.267 
  748100    296.08194   -1405.5711    536.21051    463.31114   -114.63209    39194.267 
  748200    295.42176   -1407.0026    489.00295    411.70051    98.813994    39194.267 
  748300    297.19486   -1421.3439    536.78783    453.12491    351.22455    39194.267 
  748400     298.1774   -1440.5862    521.21265    422.72983    367.12149    39194.267 
  748500    295.19519   -1477.1712    477.43862    328.94784     638.0706    39194.267 
  748600    295.79086    -1453.463    516.42027     394.3188   -420.28441    39194.267 
  748700    296.80184   -1429.2563     487.0846    393.74026   -276.75736    39194.267 
  748800     300.4968   -1449.2838    496.40759    399.66679    278.64044    39194.267 
  748900    284.79965   -1479.4452    531.63343    334.07803    436.76919    39194.267 
  749000    292.64427   -1472.4886    514.99991    359.70999    623.37198    39194.267 
  749100    304.10828   -1456.3088    530.94609    443.43573     232.6039    39194.267 
  749200    298.93949   -1447.6001    517.61602    415.54954    334.56766    39194.267 
  749300    299.15332   -1444.6543    498.80904    400.65082    -586.8399    39194.267 
  749400    303.97754   -1464.8983    520.47774    423.78943   -618.40855    39194.267 
  749500    291.86826   -1453.0785    513.34977    373.97707   -262.72534    39194.267 
  749600    307.03303   -1447.0825    522.85459    457.73491   -150.15388    39194.267 
  749700     291.3964   -1456.2845    530.06748    385.36494    295.32366    39194.267 
  749800    302.49609   -1457.5346    503.37046    407.37775    95.713129    39194.267 
  749900    286.52685   -1454.0058     503.6237    339.28187     152.0348    39194.267 
  750000    299.29215   -1477.1948    500.37953     370.3056   -653.17993    39194.267 
  750100    296.43637   -1495.0637    523.51873    362.72203   -304.60681    39194.267 
  750200    292.75949   -1453.5747    498.91477    363.05733   -652.45524    39194.267 
  750300    315.71551   -1460.9423    495.20934    455.30982   -154.88103    39194.267 
  750400    310.09235   -1483.2894    493.45413    405.89754    -154.4286    39194.267 
  750500    296.54813   -1438.6375    495.79031    391.92277   -413.02166    39194.267 
  750600     287.0822   -1473.5447     515.9855    334.60441   -737.51093    39194.267 
  750700    297.37849   -1478.0561    480.59563    341.04697    -155.4281    39194.267 
  750800    294.28369   -1490.8517    498.06678    331.79284   -3.5604425    39194.267 
  750900    302.81706   -1490.7244    501.81168    374.07384    241.39062    39194.267 
  751000    301.44911   -1504.8858    508.61502     360.5586    370.36991    39194.267 
  751100    298.67175   -1485.7708    525.91084    384.46848    483.80822    39194.267 
  751200    311.00645   -1492.4779    484.97725    392.34662   -151.74061    39194.267 
  751300    298.14662   -1457.5755    548.81545    433.20477    399.85835    39194.267 
  751400    303.92739   -1489.0403    481.72363    360.66751    98.489195    39194.267 
  751500    303.88335   -1514.3963    524.94725     378.3369    145.59486    39194.267 
  751600    295.99828    -1468.902    499.17811    362.57119     710.7785    39194.267 
  751700    292.67564   -1543.5418    503.73751    277.53557    491.37446    39194.267 
  751800    302.08451    -1497.532    505.09829    367.25565    259.54424    39194.267 
  751900    302.47426   -1471.7206    520.29564    410.01876    179.99881    39194.267 
  752000    285.60811   -1545.1608    480.06812    220.43605   -845.78215    39194.267 
  752100    298.98748   -1460.4077    496.49897    381.84087   -772.14348    39194.267 
  752200    306.60667   -1491.8855    493.52349    381.68171   -18.174585    39194.267 
  752300    298.66522   -1497.8569    497.98691    344.42908    142.58769    39194.267 
  752400    303.80933   -1479.6821    496.16561    383.93636   -241.38724    39194.267 
  752500    309.68451   -1475.7963      472.741    390.84182    -77.31788    39194.267 
  752600    306.38534   -1488.4413     514.1739    404.78008   -348.66943    39194.267 
  752700    288.30271   -1506.5649    513.28084    304.37306   -693.79776    39194.267 
  752800    300.42339   -1470.8283    500.71093    382.09529    -502.0348    39194.267 
  752900    297.35183   -1467.2244    489.77824    360.94132   -378.58887    39194.267 
  753000    299.76728   -1489.0876      491.555    351.72684   -392.85479    39194.267 
  753100    301.58271   -1449.0084    507.49254    415.91486   -601.17721    39194.267 
  753200    309.18267   -1452.3702    500.85203    440.12018   -455.29588    39194.267 
  753300    304.63012   -1449.1882    472.24232    394.20131   -49.876613    39194.267 
  753400    295.98917   -1478.1455    515.01554    369.12418   -292.51948    39194.267 
  753500    303.75552    -1493.844    470.91214     344.2788   -71.620952    39194.267 
  753600    311.17385    -1481.588    474.85926    393.87194   -76.947587    39194.267 
  753700    293.40958    -1469.783    465.22543    316.08573   -302.55262    39194.267 
  753800    304.05853   -1464.5252    511.79668    415.84602   -451.01932    39194.267 
  753900    305.51286   -1505.4159    484.01235    353.71692    78.882367    39194.267 
  754000     300.0808   -1540.4948    489.33757    299.51338    188.80206    39194.267 
  754100    303.75172   -1486.2295    486.20787    367.17191    98.014443    39194.267 
  754200    306.94736   -1475.0281    489.24899    395.79808   -23.658399    39194.267 
  754300    304.30392   -1527.4008    509.22816     351.5064    -231.9429    39194.267 
  754400    304.30718   -1492.6327    472.17081     349.2318   -327.18605    39194.267 
  754500    296.29164   -1463.0712    504.67217    375.21647    144.89035    39194.267 
  754600    288.56181   -1448.6367    540.40197    390.58868   -850.82338    39194.267 
  754700    296.80922   -1462.2188    508.23813    381.96455   -353.85457    39194.267 
  754800    295.12919   -1420.1319    540.12224    448.37366   -415.35771    39194.267 
  754900    294.17015   -1464.1326    507.36735    367.30135   -274.97004    39194.267 
  755000    297.80774   -1454.4095    470.04629    356.07629   -832.65893    39194.267 
  755100    293.57594   -1477.5539    517.80253    361.64079   -327.94197    39194.267 
  755200    291.39955   -1462.8665     529.5604    378.29002   -328.23106    39194.267 
  755300     300.7977   -1437.1771    473.20818     389.9285   -512.40419    39194.267 
  755400    300.74885   -1457.7983    517.77477    413.65403     340.4575    39194.267 
  755500    299.57734   -1477.9017    501.50538    372.00817   -674.78752    39194.267 
  755600    305.13934    -1461.995    485.22226    396.66645   -789.50838    39194.267 
  755700    303.83444   -1446.2822    511.86383    433.14746    -339.7544    39194.267 
  755800    293.53786   -1461.2022    478.66175    338.68026    -552.8004    39194.267 
  755900    295.40158   -1495.4367    522.20706    356.37968    66.218324    39194.267 
  756000    306.89056   -1450.5546    493.44376    424.21066    986.20655    39194.267 
  756100    291.33696   -1490.8442     508.9052    329.37545    254.81206    39194.267 
  756200    298.53461   -1456.5053     492.6999    379.90575    425.86019    39194.267 
  756300    294.76877   -1469.6865    504.22925    361.30384    445.37601    39194.267 
  756400    313.95714   -1487.4245    515.64498    441.34883     558.8921    39194.267 
  756500    310.05349   -1452.7494    500.26508    443.07359    356.30433    39194.267 
  756600    307.99742   -1454.5822     521.4067    453.12804    616.45302    39194.267 
  756700    295.95442    -1499.648    488.79166    321.24132    423.26006    39194.267 
  756800    293.06069   -1457.5578    505.97309    367.48821   -201.20266    39194.267 
  756900    307.93183   -1475.0696    468.35037    379.28905   -199.21052    39194.267 
  757000    297.80145   -1467.7729     485.6618    358.30015   -601.06583    39194.267 
  757100    299.17059   -1471.0698     478.5069    354.01085   -688.35283    39194.267 
  757200    291.69763   -1463.9258    500.86173    349.87369   -481.79999    39194.267 
  757300    302.96176   -1487.0609    500.28805     376.8651    270.38616    39194.267 
  757400    300.13989   -1466.1126    497.94827    382.77228   -102.08627    39194.267 
  757500    296.19103   -1499.2135    503.08735    337.03656   -85.409614    39194.267 
  757600    295.32193    -1428.893    503.69506    404.05293   -351.30394    39194.267 
  757700     285.9029   -1441.9938    510.68301    355.54477   -158.16733    39194.267 
  757800     299.1815   -1491.0249     492.3851    347.98306   -508.58726    39194.267 
  757900    294.85518   -1450.9236    500.10635    376.33274    -532.5864    39194.267 
  758000    307.14469   -1431.2515     516.9326    468.14643   -50.105753    39194.267 
  758100    297.94892   -1443.6306    518.27117    415.71552   -545.60799    39194.267 
  758200    306.90398   -1404.2469    499.68545     476.8205   -785.93035    39194.267 
  758300    306.95621   -1458.2584    481.13429    404.49289   -605.10649    39194.267 
  758400    307.00548   -1499.9538    510.41136    392.29639   -554.38994    39194.267 
  758500    304.03686   -1498.2002    465.43495    335.71174    59.881933    39194.267 
  758600    304.90923   -1519.4848    497.26486    350.18355   -82.494459    39194.267 
  758700    303.23224    -1473.267    500.58465    392.17299    104.41243    39194.267 
  758800    288.83607   -1472.9574    518.41134    345.51178   -657.24829    39194.267 
  758900    303.67452   -1453.6374    482.81199    396.02068   -44.551076    39194.267 
  759000    300.99236   -1469.2804    511.74964    397.24288    230.74816    39194.267 
  759100     293.3783   -1413.5982     497.4217      404.326    486.37959    39194.267 
  759200    302.23343   -1390.3894     503.7533    473.72354     355.1891    39194.267 
  759300    304.80873   -1420.0951    502.26145    454.11752   -293.12572    39194.267 
  759400    292.59725   -1465.6051    478.15306    329.53497    88.776381    39194.267 
  759500    300.66299   -1439.3624    497.21754    411.14623   -178.21724    39194.267 
  759600    290.95452   -1422.6006    533.61959    420.61204    -37.99717    39194.267 
  759700     300.6367   -1432.5986    518.97746    439.55158   -239.32053    39194.267 
  759800    295.77062   -1414.6083    474.67679    391.33891   -401.88747    39194.267 
  759900    304.78588   -1418.0749     530.2021    483.97555   -618.50763    39194.267 
  760000    304.58299   -1383.2861    480.03864    467.68765   -234.24852    39194.267 
  760100    302.12605   -1412.3168    510.29613    457.85568   -1030.2772    39194.267 
  760200    290.43754    -1360.587    494.05271    440.73174   -803.68857    39194.267 
  760300    294.41275   -1333.4447    534.43293    526.14678   -1024.3676    39194.267 
  760400     287.4874    -1383.761    524.06779    434.29428   -715.38483    39194.267 
  760500    298.26776   -1363.7291    520.74392    499.52497   -754.53539    39194.267 
  760600    297.72758   -1380.4707    494.26661    453.87466   -251.67999    39194.267 
  760700    300.05337   -1385.1132    499.50294    464.93687    -794.4787    39194.267 
  760800     294.1874   -1403.6937    531.73289     452.1835   -324.89573    39194.267 
  760900    307.51886   -1376.2866    490.76338    498.62623    47.557899    39194.267 
  761000    300.26843   -1344.9926    513.61832    520.14084    129.40187    39194.267 
  761100    292.82751    -1415.806    513.89396    416.11133    141.32669    39194.267 
  761200    303.98603   -1408.7233    509.24972    468.77461    101.02929    39194.267 
  761300    286.03308   -1363.8148    496.19183    419.81859   -13.886596    39194.267 
  761400    296.33144   -1383.5697    531.38941    481.61436    223.80266    39194.267 
  761500    300.51122   -1341.8429    512.62264    523.38766    942.41976    39194.267 
  761600    287.38477   -1321.6423    542.67879    514.56197    651.55937    39194.267 
  761700    291.35768    -1366.935    534.38563    478.85826    46.862313    39194.267 
  761800    305.76905   -1423.0587    508.52546    461.74037    111.75612    39194.267 
  761900    307.19694   -1440.5723    492.35223    434.48053    17.580771    39194.267 
  762000    300.81121   -1456.4702    502.77556    400.26352    -666.5302    39194.267 
  762100    297.82197   -1474.9396    489.01501    354.57904   -789.69655    39194.267 
  762200    293.63773   -1422.8526    496.04663    394.86429   -1066.8106    39194.267 
  762300     302.6695   -1475.7774    496.45794    383.00294   -1009.7063    39194.267 
  762400    293.64633   -1476.7448    499.09233    344.05649   -194.80157    39194.267 
  762500    300.17691   -1489.9436    493.13534    354.29494   -244.70154    39194.267 
  762600    306.02258   -1508.9232    492.47615    360.96771    44.809558    39194.267 
  762700    295.33146    -1488.035    492.92862    334.18738    396.87241    39194.267 
  762800     294.4291    -1492.702    504.85796    337.38819     177.0004    39194.267 
  762900    290.46493   -1448.5118    513.34727    372.22488    342.87482    39194.267 
  763000    297.81052   -1456.1523    510.93105    395.23083    223.41321    39194.267 
  763100    295.47169   -1473.3832    511.19512    367.73689   -499.79205    39194.267 
  763200    303.78113   -1464.8976    498.41952     400.8478   -289.38931    39194.267 
  763300    303.90859   -1470.9072    516.46863    413.46104    163.12465    39194.267 
  763400    292.80386   -1464.8899    509.73607    362.76314    302.87582    39194.267 
  763500    288.93408   -1440.3066    531.24933    391.44166    488.28536    39194.267 
  763600    303.36021    -1512.742    515.19014    367.87946    571.48898    39194.267 
  763700    290.61604   -1519.0218    494.88487    283.93261    495.57479    39194.267 
  763800    306.83454   -1512.5989    488.62028    357.09071    667.23855    39194.267 
  763900    295.33865   -1546.4962    483.07743    265.90731    676.24143    39194.267 
  764000    300.55641   -1504.7468    486.37855    334.44318    308.33637    39194.267 
  764100    307.55012    -1499.962    492.80954    377.13773    115.18097    39194.267 
  764200    295.35359   -1487.7776    516.97867    358.59441    26.533301    39194.267 
  764300     303.4086    -1465.605    527.15454     427.1987   -521.27472    39194.267 
  764400     291.0556   -1473.6837    486.11199    322.47627   -460.64677    39194.267 
  764500    292.59872   -1473.0002     526.2394    370.23281   -138.81463    39194.267 
  764600    301.75774   -1457.8505    504.21987    404.58798    361.49953    39194.267 
  764700    298.89261   -1506.5492    478.68128    317.45467   -256.68828    39194.267 
  764800    308.36399   -1466.3841    523.88076    445.45015   -469.91934    39194.267 
  764900    305.83222   -1458.0426    501.30313    419.81849   -397.16267    39194.267 
  765000    299.05039    -1463.459    516.25635    398.83005   -438.58595    39194.267 
  765100    311.35362   -1475.2866    499.19019    425.31341   -283.21496    39194.267 
  765200    300.95675   -1486.7198    494.07246    361.96601   -442.73651    39194.267 
  765300    301.22334   -1447.0848    495.20392     403.9323   -16.982096    39194.267 
  765400    299.81211   -1428.7645    496.45137    417.14816   -206.10971    39194.267 
  765500    306.56334   -1446.6771    496.52238    429.69403   -100.08449    39194.267 
  765600    297.84166   -1462.1486    530.30045    408.74408    301.65442    39194.267 
  765700    311.30174   -1437.8527    496.08942    459.41303   -44.086884    39194.267 
  765800    294.73159   -1462.1371     488.3468    352.80343   -672.54709    39194.267 
  765900    297.43302   -1443.0807    500.19695    395.86915   -484.15323    39194.267 
  766000    312.63317   -1417.4256    485.48592    475.22943   -639.40106    39194.267 
  766100    304.68094   -1446.6033    510.66069     435.4334   -280.68314    39194.267 
  766200    303.22861   -1414.0719    511.93616    462.70325    5.3486508    39194.267 
  766300    299.43138   -1402.8823    507.60146    452.46676   -502.11103    39194.267 
  766400    291.78003   -1430.4876    474.37226    357.19332   -352.53171    39194.267 
  766500    304.18098   -1421.5556    501.00186    448.57191   -192.16298    39194.267 
  766600     300.9263   -1450.5225    509.49166    413.44539   -275.29949    39194.267 
  766700    301.32253   -1425.0018    506.13438    437.39222   -292.98878    39194.267 
  766800    298.70215   -1444.8894    520.66445    420.24041    4.8658303    39194.267 
  766900    295.68689   -1455.9169    489.84983    364.82644   -421.26022    39194.267 
  767000    295.92159   -1422.7533    507.94613    417.14277    55.724867    39194.267 
  767100    309.87602   -1443.6662    496.76102    447.85392   -33.256167    39194.267 
  767200    283.92483   -1408.2801     510.4716    380.14374   -202.53164    39194.267 
  767300    299.89048   -1431.0002    502.76025    421.57406   -413.88615    39194.267 
  767400    298.18551   -1434.2682    480.02184    387.89356   -202.41099    39194.267 
  767500    299.21201   -1420.0938    518.59263    445.25897   -275.41228    39194.267 
  767600    299.07503   -1435.7502    482.82102    393.21443   -136.45102    39194.267 
  767700    302.40433   -1448.1761    525.87763     438.8304    460.72563    39194.267 
  767800    304.55556   -1476.2402    486.59691    381.16829   -175.55926    39194.267 
  767900    298.85655   -1452.8381    520.54193    412.86409   -837.41015    39194.267 
  768000    291.85049   -1461.8451    482.39954    334.18029   -1022.2422    39194.267 
  768100    307.53803   -1490.5016    490.27276    384.00691   -775.60328    39194.267 
  768200    309.25981   -1498.7974    467.29826     360.4864   -134.95121    39194.267 
  768300    297.75236   -1486.3065    503.49002    357.37375    343.64939    39194.267 
  768400    302.38305   -1485.8973    524.82159    399.95735    789.36035    39194.267 
  768500    298.92793   -1454.9553     505.9281    396.45434    655.21971    39194.267 
  768600    296.53171   -1440.0937    496.77719    391.37962    771.01226    39194.267 
  768700    298.37372   -1472.8473    491.36859    361.50835    699.28007    39194.267 
  768800    306.50745   -1444.7927    499.09888    433.90329    986.16983    39194.267 
  768900    301.86303    -1418.057    466.04591    406.68146    642.76572    39194.267 
  769000    305.17986   -1472.3151    504.23972    405.54624    279.07258    39194.267 
  769100    293.85118    -1444.067    467.25804    345.82206    93.913293    39194.267 
  769200    304.98596   -1451.2658    502.08463    423.56772    241.42883    39194.267 
  769300    306.71356    -1451.603    515.77303    444.69492   -239.84919    39194.267 
  769400    298.45313   -1463.8694    478.25489    357.73001    174.00731    39194.267 
  769500    302.31812   -1446.2554    501.78669    416.27213    86.356608    39194.267 
  769600    300.43998   -1466.5789    481.29747    367.00584   -46.775672    39194.267 
  769700     306.5313   -1459.1016    505.79575    426.39866     -7.74588    39194.267 
  769800    314.95587   -1457.8102    490.70893    450.52238    243.22534    39194.267 
  769900    302.74302   -1436.0896    485.86213    412.42592    200.80095    39194.267 
  770000    298.55379   -1448.7491     491.1681    386.21654    813.07207    39194.267 
  770100    288.23775   -1424.6603    504.60377    377.30823    155.17137    39194.267 
  770200    295.21599   -1440.4719    494.11422    382.41631    7.6367786    39194.267 
  770300    307.43888   -1459.4512    446.11532    370.45364   -85.898939    39194.267 
  770400    304.57225    -1458.887    505.59878    417.59853    542.27356    39194.267 
  770500    303.10153   -1453.4408    533.10661    443.93283    606.36535    39194.267 
  770600    301.85116   -1461.3883    480.03919    377.28998    821.21278    39194.267 
  770700    304.20881   -1399.2255    536.47859    506.50395    423.47199    39194.267 
  770800     301.0542   -1437.8078    486.58049     403.8246    632.45596    39194.267 
  770900    297.98004   -1421.8772    501.16212        420.5   -60.146699    39194.267 
  771000    295.40961   -1443.0108    493.33036    379.96507   -318.19036    39194.267 
  771100    300.73673   -1434.9052    496.00278    414.72055   -279.17789    39194.267 
  771200    306.21017   -1391.0555    494.76586    481.96939   -196.14474    39194.267 
  771300    304.25009   -1423.0054    492.23941    438.67075   -142.77814    39194.267 
  771400    299.97714   -1464.6714    500.04278    385.57548   -201.51263    39194.267 
  771500    292.64352    -1422.752     485.6212    380.06449    54.850127    39194.267 
  771600     302.2819   -1428.4923    512.47682     444.5624    115.17226    39194.267 
  771700    318.97673   -1409.6004    488.42261    514.54388    34.417878    39194.267 
  771800    305.38589   -1441.4857    489.40469    422.46795    467.59595    39194.267 
  771900    307.73714   -1448.1665     529.6081    466.57358    348.94965    39194.267 
  772000    295.58086   -1440.3542    502.26155    392.32367    40.206009    39194.267 
  772100    296.15866    -1480.257    505.87873    358.63868    57.379121    39194.267 
  772200    291.77422    -1454.901    501.34684    359.72839    472.88079    39194.267 
  772300     304.6461   -1489.9121    484.04177    365.34886    259.96121    39194.267 
  772400    290.35123   -1487.7262    482.70026    301.85164    136.19853    39194.267 
  772500    300.88436   -1494.2682    490.52383    350.54314    -295.9888    39194.267 
  772600    303.82783   -1520.8845    507.66635    354.31794   -67.952126    39194.267 
  772700    293.11688   -1478.4449    473.20148    314.08242   -294.41587    39194.267 
  772800    295.64014   -1465.8903    503.20452    367.99734   -448.66425    39194.267 
  772900    284.53039   -1396.2806    497.12629    381.52351   -838.21211    39194.267 
  773000    289.55046   -1425.0406    463.32835    341.56112   -625.09245    39194.267 
  773100    295.91824   -1477.7281    486.28512    340.49182   -205.28956    39194.267 
  773200    309.16455   -1475.3393    489.99414    406.21164     308.6795    39194.267 
  773300    286.79836   -1478.4339    507.31006    319.76221    569.44522    39194.267 
  773400    306.25949   -1472.4812    498.73177    404.73164    90.241046    39194.267 
  773500    297.89791   -1455.3594    476.38516    361.87114    283.70705    39194.267 
  773600     299.5924   -1486.7579    498.62355    360.33804   -60.213091    39194.267 
  773700    290.38804   -1479.6836    470.77993    298.13961   -274.36569    39194.267 
  773800    289.89582   -1459.1365    481.96884    327.66014   -432.90199    39194.267 
  773900    296.82636   -1420.3116    505.89414    421.60485   -134.68048    39194.267 
  774000    293.96516   -1456.4489    503.12875    369.82388   -28.867223    39194.267 
  774100    291.63857   -1480.1574    485.78558    318.30012    5.4028559    39194.267 
  774200    299.99848   -1466.5163    463.68541    347.46918   -51.155385    39194.267 
  774300     297.8831   -1479.9709    481.60815    342.41599    35.761682    39194.267 
  774400    317.73446    -1426.357    528.78221    532.55532     163.3772    39194.267 
  774500    297.70679   -1458.6292     470.6997    352.05565     86.09917    39194.267 
  774600    305.59939   -1459.2493    486.06856    402.32919   -58.928617    39194.267 
  774700    300.04238   -1451.6651    528.22621    427.05879   -302.97419    39194.267 
  774800     297.2522   -1468.2101     457.9962     327.7252   -879.17299    39194.267 
  774900    306.94443   -1466.0207    509.06995     424.6132    -651.2664    39194.267 
  775000    298.22772   -1461.8044    483.39877    363.92427   -407.55212    39194.267 
  775100    307.93178   -1471.8608    477.12597    391.27329   -526.11015    39194.267 
  775200    300.61199   -1467.3006    483.07539    368.83632   -624.48207    39194.267 
  775300    299.31433   -1467.3851    495.78296    375.61855   -266.38859    39194.267 
  775400    301.18831   -1517.5834    474.59963    312.67178   -340.14786    39194.267 
  775500    295.01322   -1506.8788    479.31032    300.29286   -786.79824    39194.267 
  775600    299.52592   -1493.9509    490.94299    345.16517   -1008.6514    39194.267 
  775700    297.51393   -1528.5056    486.64708     297.2586   -536.10391    39194.267 
  775800    296.92025   -1527.3945    500.21427    309.26467   -140.61878    39194.267 
  775900     311.9233   -1498.2472     483.1258     388.8526   -334.56188    39194.267 
  776000    294.57839   -1514.0694    485.34371    297.17843   -996.45076    39194.267 
  776100     291.0408   -1486.0291    461.41509    285.36741   -1132.7932    39194.267 
  776200    303.74484   -1446.3951     486.2199    406.98735   -1188.5263    39194.267 
  776300    296.06291   -1444.6793     499.3404    387.24713   -633.59277    39194.267 
  776400    301.24436   -1474.7016     476.1551    357.36135   -343.96439    39194.267 
  776500    297.58888   -1452.1659    501.30197    388.59052   -94.759062    39194.267 
  776600    299.40818   -1478.2548    507.03571    376.42405   -445.94702    39194.267 
  776700     299.4927   -1446.2072    492.01024    393.82657   -486.17864    39194.267 
  776800    302.77744   -1418.8101    506.60606    450.60422   -525.21148    39194.267 
  776900    296.62318   -1431.2254    513.91256    417.79494   -404.27706    39194.267 
  777000    300.84683   -1421.3475    515.89799    448.66902    404.26544    39194.267 
  777100    305.82922   -1428.6908    491.61264    439.46625    544.50107    39194.267 
  777200    296.49673   -1442.4996    514.52393    406.56295    552.40943    39194.267 
  777300    300.82676   -1452.6428    483.56566    384.95113    85.493797    39194.267 
  777400    304.68056   -1431.6444    504.42065     444.1505    32.236857    39194.267 
  777500    298.81943    -1474.958    506.35246    376.38764    401.14115    39194.267 
  777600    306.35752   -1483.9035    478.48637    373.50515    208.05848    39194.267 
  777700    304.49798   -1434.2425    522.31903    458.62904    32.524317    39194.267 
  777800    291.36389   -1409.0112    482.73674    385.16117    144.67056    39194.267 
  777900    296.03285   -1429.8453    515.53753    418.14292    379.63061    39194.267 
  778000     309.8306    -1402.264    527.18721    519.47794    78.353153    39194.267 
  778100    297.62022   -1432.3272    493.05355    400.32191    415.30755    39194.267 
  778200    298.56707   -1479.1193    508.87996    373.61795    437.65468    39194.267 
  778300    292.52889   -1454.7754    499.33787    361.24179    261.92484    39194.267 
  778400    294.68137   -1462.3321    514.09281    378.12834   -335.34507    39194.267 
  778500     301.5242   -1446.0961    484.65896    395.73027    24.131197    39194.267 
  778600     288.9621   -1398.6494    501.52077    403.49652   -314.81663    39194.267 
  778700    305.31482   -1447.7359    481.62396    408.11711    214.74322    39194.267 
  778800    292.49261    -1416.329    490.57312    390.76017     831.4295    39194.267 
  778900    301.42724   -1449.0098    493.73747    401.45862    807.10953    39194.267 
  779000    307.36674   -1454.9075    488.44765    417.00491    827.81017    39194.267 
  779100    308.13749   -1461.6653     509.1286    434.39726   -245.17766    39194.267 
  779200    314.26649   -1469.6052    489.38397    434.29948    170.47802    39194.267 
  779300    313.70396   -1471.8146     518.6262    458.80037    471.09399    39194.267 
  779400    291.78727    -1484.609    462.06751    290.79979     379.1061    39194.267 
  779500    300.76492   -1450.1439    508.79926    412.40526    306.56734    39194.267 
  779600    300.35257   -1508.0923    503.86196    347.66359     95.90573    39194.267 
  779700    290.24943   -1504.8736    479.00664    280.55245    594.63379    39194.267 
  779800    296.52596   -1486.4397    493.54585     341.7764    242.02452    39194.267 
  779900    302.49994   -1460.4523    534.22646    435.33336    855.09273    39194.267 
  780000    295.17042   -1479.5801    485.88952    334.87833     102.2045    39194.267 
  780100    307.86865   -1449.7697    532.66484     468.6191    701.56653    39194.267 
  780200    315.88342   -1431.4003    511.92474    502.32301   -62.984693    39194.267 
  780300    301.30274   -1418.8726    503.61336    440.91142     686.5489    39194.267 
  780400    295.98223   -1430.7596     534.2666    435.72986    375.82616    39194.267 
  780500    293.18639   -1432.1065    503.69665    391.22883    1036.7424    39194.267 
  780600    298.46862   -1477.4756    495.96324    361.90182    517.17008    39194.267 
  780700    298.26465   -1459.2501    525.70242    408.94848    602.68194    39194.267 
  780800    303.05026   -1457.5497    500.94011    407.42667    246.88124    39194.267 
  780900    300.25616   -1482.3221     522.3216     391.4594    506.09788    39194.267 
  781000    296.92316   -1473.4173    482.09035    345.13111    120.83581    39194.267 
  781100    302.57688   -1413.5588    526.80173    475.14845    16.847909    39194.267 
  781200     305.7548   -1441.8989    496.16437    430.47492     -228.282    39194.267 
  781300    300.34832    -1396.268    498.56754    454.17434   -243.44152    39194.267 
  781400    305.38048   -1469.1464     501.3754    406.75358    135.94564    39194.267 
  781500    310.95876   -1477.9468    521.83082    443.51664    418.10124    39194.267 
  781600    290.62407   -1453.1952    503.96972    358.88016    122.04773    39194.267 
  781700    302.78442   -1429.2099     503.7378    437.36759   -161.08419    39194.267 
  781800    298.21282    -1449.777    504.97829     397.4641   -81.551331    39194.267 
  781900    297.11086   -1474.4193    493.09154     355.9751    433.61762    39194.267 
  782000    296.24911   -1496.8644    508.13238    344.69207    333.82759    39194.267 
  782100    307.47339    -1466.216    507.90123    425.63003    357.13249    39194.267 
  782200    307.83147   -1462.7289    503.32573    426.15343    162.92758    39194.267 
  782300    299.13234   -1504.9091    494.85492    336.34743    82.046718    39194.267 
  782400    289.89928   -1471.0642    477.80711    311.58632    32.370342    39194.267 
  782500    307.37902   -1486.3289    507.46558    404.65679   -110.17073    39194.267 
  782600     303.6014   -1502.8483    495.84111    359.50974   -137.99426    39194.267 
  782700    291.44023   -1491.1224    514.72715    335.38397   -161.03379    39194.267 
  782800    291.92252   -1461.6491    490.83912    343.14008   -113.07546    39194.267 
  782900    292.64432   -1456.8512    514.05224    374.39988   -163.66938    39194.267 
  783000     291.3246   -1495.1363    501.19114     317.3136   -539.04196    39194.267 
  783100     298.8802    -1470.581    480.40382    355.08955    -129.1196    39194.267 
  783200    303.20921   -1462.8825    509.24754    411.11674   -236.06961    39194.267 
  783300    307.33025   -1483.5439    502.34074    402.09746   -212.50267    39194.267 
  783400    292.84586   -1428.6214    506.06123     395.5458    85.726987    39194.267 
  783500    315.70574   -1432.6261    521.14075    509.51349    540.38751    39194.267 
  783600    301.16157   -1416.7866    491.70504    430.45369    317.10997    39194.267 
  783700    302.08824   -1418.9056    539.84439    480.64498    507.27097    39194.267 
  783800    292.65018   -1434.4156    496.25761    379.06724    102.97454    39194.267 
  783900    309.34997   -1456.2142    512.20696    448.38412   -75.839787    39194.267 
  784000    291.54473   -1486.8427    489.76098    315.16788   -50.403986    39194.267 
  784100     296.9358   -1418.7911    497.72773    415.45159   -368.90719    39194.267 
  784200    292.94934   -1425.8073    495.99997    388.76448   -595.71221    39194.267 
  784300    300.37317   -1428.4478    515.33387    438.87273   -550.83276    39194.267 
  784400    294.86103   -1463.7076    497.78614    361.25487   -303.89025    39194.267 
  784500    286.28986   -1477.7524    497.93541    308.78028    369.99153    39194.267 
  784600    304.45639   -1459.1914    522.72756    433.90143    488.00483    39194.267 
  784700    294.04495   -1455.6667    471.71379    339.55022    1067.5321    39194.267 
  784800    298.03976   -1494.4379    497.64696    344.69292    435.52881    39194.267 
  784900    302.45061   -1499.9851    527.79676    389.14888    1045.8452    39194.267 
  785000    297.50879    -1467.719    489.84027    361.21521    485.73769    39194.267 
  785100    298.45119   -1478.6423    529.22538    393.91882    789.13528    39194.267 
  785200    304.62215   -1484.4628    527.68606    414.33461    591.48967    39194.267 
  785300    287.99637   -1477.9359    502.38725    320.72965   -12.572803    39194.267 
  785400    294.02142   -1491.3935    519.21306    351.21684   -299.98107    39194.267 
  785500    296.74155   -1480.0231    500.80519    356.42271   -819.56755    39194.267 
  785600    295.98336   -1478.1625     505.3237    359.38918   -268.96938    39194.267 
  785700    299.18912   -1500.4077    519.70752      365.957   -516.12978    39194.267 
  785800    301.55269   -1503.7026    453.29682     306.8899    152.81537    39194.267 
  785900    305.96361   -1486.0959    529.19899    420.25232     267.7173    39194.267 
  786000    298.48058   -1513.5956    485.75747    315.62989    173.06037    39194.267 
  786100    289.21327   -1512.3839    522.89567    312.26742   -88.150311    39194.267 
  786200    304.87744   -1481.7034      521.229    411.78596    57.773542    39194.267 
  786300     291.1162   -1501.5823    490.57008    299.30858   -167.34718    39194.267 
  786400     293.1197   -1510.2351    519.31192    328.41542   -322.27568    39194.267 
  786500    311.46675   -1496.5627    483.09692    388.45325    38.257507    39194.267 
  786600    299.70489   -1517.5234    483.16324    314.61847   -341.22538    39194.267 
  786700    293.38949   -1496.7721    502.97434    326.75514   -616.54967    39194.267 
  786800    298.37628   -1520.4971    497.78805    320.28947   -353.21434    39194.267 
  786900    296.84278   -1523.1963    510.38447     323.2844    -464.7429    39194.267 
  787000    296.99706   -1505.6855    509.30516    340.41029   -214.99768    39194.267 
  787100    300.21915   -1490.1982    512.68663    373.78176   -274.73054    39194.267 
  787200    289.08988   -1515.6119    489.23891    274.82726   -328.11034    39194.267 
  787300    301.10889   -1511.5127    485.05208    328.83742    41.480273    39194.267 
  787400    297.00253   -1530.1334    502.42033    309.10215    74.118696    39194.267 
  787500    298.73722   -1513.5464     487.6999    318.77667    104.16211    39194.267 
  787600    290.40753   -1486.5279    534.53259    355.13567   -138.48542    39194.267 
  787700    296.83417   -1508.4195    507.07334    334.71131    -303.4913    39194.267 
  787800    297.35322   -1513.6818     510.6831    335.39506   -262.40924    39194.267 
  787900    298.45558   -1479.0212    512.05132    376.38561   -312.86493    39194.267 
  788000     294.7331   -1507.2501    484.51638    303.86682    215.19348    39194.267 
  788100     308.4298    -1472.272    546.38463    462.36227    441.65918    39194.267 
  788200    286.13138   -1470.9852    531.47262    348.37143    557.87534    39194.267 
  788300     301.4254   -1491.1403    487.50372    353.08612  0.051684129    39194.267 
  788400    302.75926   -1445.6142    533.16002    450.27224    205.73711    39194.267 
  788500    286.40156   -1489.6186    526.76776    326.24923   -105.50728    39194.267 
  788600    303.84232   -1466.5214    514.05164    415.13151    26.015211    39194.267 
  788700    295.14197   -1437.7166    508.22207     398.9463   -137.62582    39194.267 
  788800    299.53497   -1470.4517    507.69621    385.45833    103.39757    39194.267 
  788900    296.43535   -1480.5839    512.25131    365.92982   -27.571985    39194.267 
  789000    301.50243   -1494.9444    497.99758    360.12258    44.864988    39194.267 
  789100    292.14472   -1530.9298    513.13136    297.15176    188.89894    39194.267 
  789200    301.79568    -1474.461    531.98162     415.9099   -77.783803    39194.267 
  789300    296.20929    -1463.795    512.25589     381.7058   -572.37905    39194.267 
  789400    307.31754   -1426.2121    505.70279    462.73406   -326.38501    39194.267 
  789500    300.87924   -1451.2683    497.90993    400.90607   -165.88858    39194.267 
  789600    299.88756   -1484.9441    507.18765    372.04435   -495.17058    39194.267 
  789700     301.7147   -1486.6773    509.63895    380.98647   -69.491382    39194.267 
  789800    298.88935   -1484.2963    500.25173    361.26329    65.073036    39194.267 
  789900    310.82384   -1497.2761    505.57711    407.32636    461.66263    39194.267 
  790000    299.96405   -1502.0676    497.81991    345.89746    102.92774    39194.267 
  790100    288.39362    -1496.834    480.14908    281.38147   -49.784606    39194.267 
  790200    297.51667   -1511.5504    488.38358    315.96261   -157.26639    39194.267 
  790300    297.13096   -1471.1814    498.95663    365.16856   -123.04234    39194.267 
  790400    301.77106   -1464.2316    482.90058    376.94757   -31.866125    39194.267 
  790500    309.81952   -1436.0131    513.72739    472.21917    421.60315    39194.267 
  790600    302.15022   -1469.3702     496.2624    386.87734   -90.860314    39194.267 
  790700    299.52987   -1473.2637    501.27035    376.19758    24.076484    39194.267 
  790800    302.48131   -1493.4846    510.57262    378.56342    67.017274    39194.267 
  790900    292.29448   -1506.0792     505.3712    314.91626    220.90363    39194.267 
  791000    286.48933   -1506.2275    492.22209     275.4897   -42.802637    39194.267 
  791100    296.40564   -1504.8889    498.08052     327.3203    272.44321    39194.267 
  791200    312.33663   -1471.5733    498.11879    432.37988    746.17653    39194.267 
  791300    301.70271   -1461.4848    528.69265    425.17877    543.70795    39194.267 
  791400    303.18354   -1467.0631    488.54112     386.1141     225.7408    39194.267 
  791500    299.77152   -1473.4928    503.04767    378.83348   -207.46836    39194.267 
  791600    298.40797   -1488.7209    519.06333    373.48359   -497.83568    39194.267 
  791700      297.219   -1471.0178    496.71943    363.49121    264.44921    39194.267 
  791800    307.67738   -1478.9875    504.16905    410.04455     600.8989    39194.267 
  791900    296.31676   -1527.8484    507.02882    312.90903    378.23824    39194.267 
  792000    310.55972   -1485.6252    512.16197    424.37325    435.44997    39194.267 
  792100    298.46831   -1492.6153    497.04104    347.83853    737.08601    39194.267 
  792200    308.25561   -1485.0164    513.33939    415.78867    958.53248    39194.267 
  792300    296.29511   -1498.8778    530.27063    365.02398    535.64992    39194.267 
  792400    297.97497   -1438.2257    513.31551    416.28206    627.44303    39194.267 
  792500    297.02446   -1515.7155    530.76444    351.96295   -36.978622    39194.267 
  792600    302.47307   -1500.2133     504.4445    365.66954    568.07548    39194.267 
  792700     313.4928    -1474.435    489.73102    426.33442    419.04594    39194.267 
  792800    309.26043   -1539.3705    489.60458    342.22246    166.29059    39194.267 
  792900    314.69642   -1533.2832    497.37649    380.54916     539.8814    39194.267 
  793000    296.81829    -1525.696    524.00903    334.29905   -185.20374    39194.267 
  793100    293.69958   -1517.4909    496.64174     301.0994    206.38442    39194.267 
  793200    294.66108   -1499.7492    511.02012    337.54729   -373.20116    39194.267 
  793300     301.5752   -1481.7209    525.28816    400.96419   -532.20838    39194.267 
  793400    287.40811   -1487.3137    508.62549    314.94233   -546.56394    39194.267 
  793500     295.1257   -1470.3093    492.89984    350.95813   -743.60144    39194.267 
  793600    302.90782    -1496.506    516.40503    383.29421   -162.37391    39194.267 
  793700    294.68767   -1516.7841    503.51417    313.12613    154.39744    39194.267 
  793800    308.22835   -1517.3666    524.28833    394.26471    521.11828    39194.267 
  793900    294.59002   -1530.9069    507.77253    302.82213   -68.156387    39194.267 
  794000     298.4571   -1537.2969    500.25276    306.31816    339.15113    39194.267 
  794100    311.88201   -1542.0284    483.03132    344.79107    183.10222    39194.267 
  794200    300.43549   -1486.9683    503.03163    368.33039   -218.29993    39194.267 
  794300     300.7453   -1515.5779    496.13977    334.22344    149.83617    39194.267 
  794400    300.98159   -1537.3305    494.21903    311.61362   -164.40485    39194.267 
  794500    297.30789   -1500.8947    499.11988    336.41494   -157.23222    39194.267 
  794600    304.00122   -1483.2767     508.4692    393.50902    696.63739    39194.267 
  794700    299.19108    -1498.869    511.97323    359.77024    42.089946    39194.267 
  794800    286.67205   -1500.1166    517.76391    307.96488     260.3354    39194.267 
  794900     297.9493   -1517.6606    506.24843    329.66451    429.97962    39194.267 
  795000    303.34202   -1512.0005    511.06503    364.41404   -274.59764    39194.267 
  795100    302.77041    -1522.295    484.91409    325.39568   -291.38749    39194.267 
  795200    294.94355    -1529.623    467.71166    265.63643    -796.0049    39194.267 
  795300    306.07363   -1565.8756     499.8765    311.64544   -540.23915    39194.267 
  795400    297.33875   -1518.4354    496.87177    316.76503   -621.57717    39194.267 
  795500    302.38183   -1527.1858    509.08668    342.92853    309.09392    39194.267 
  795600    302.67842   -1522.1743    499.60018    339.78841   -145.63079    39194.267 
  795700    296.96924    -1453.921    505.07999    387.82436   -202.52261    39194.267 
  795800    306.42645   -1505.6293    499.06309    372.66637    102.09438    39194.267 
  795900    302.89167   -1485.2029    523.92343    402.04295    622.95715    39194.267 
  796000    295.42379   -1487.5673    481.33748    323.47951    243.28399    39194.267 
  796100    295.23868   -1496.7441    504.82861    336.96072    799.07164    39194.267 
  796200    299.55093   -1455.3729    520.01319    412.92594    577.90304    39194.267 
  796300    309.31624   -1506.0458    523.31128    409.50507    1.7840213    39194.267 
  796400     299.3071   -1447.7622    468.54827    367.97426    163.62645    39194.267 
  796500    296.40907   -1446.0038    501.92307    390.06341   -162.17333    39194.267 
  796600    296.36362   -1469.3877    485.76536    350.31715    106.89859    39194.267 
  796700    304.82214    -1479.028    505.60857    398.59209    506.46399    39194.267 
  796800    298.86139   -1475.4083    483.49904    353.27278    374.49685    39194.267 
  796900    290.12597   -1466.8538    513.42765     352.4376   -410.66458    39194.267 
  797000     304.4091    -1487.284    478.51683    361.38525   -45.813295    39194.267 
  797100    294.16391   -1452.0662    529.74246    401.71484   -232.26996    39194.267 
  797200    308.76343   -1448.1389    486.10035    427.71284   -464.73695    39194.267 
  797300    290.47894   -1380.2856    484.72335     411.8902   -428.11622    39194.267 
  797400    297.69847   -1387.1241    518.39159    471.21526   -352.86323    39194.267 
  797500     289.7621   -1437.5653    535.97841    402.63899   -165.15645    39194.267 
  797600    296.49916   -1377.8523    505.53043     462.2277   -150.31248    39194.267 
  797700    295.16031    -1387.761    510.85336    451.61571   -562.63422    39194.267 
  797800    290.47003   -1456.1066    495.19815    346.50389   -521.62631    39194.267 
  797900    296.38735   -1429.3773    517.83088    422.49991   -276.58594    39194.267 
  798000    291.65208   -1468.0607    501.80709    346.47915    -281.2697    39194.267 
  798100    302.02027   -1450.5976    505.29452    414.09722   -534.76791    39194.267 
  798200    299.42236   -1426.6018    534.00157    455.10676   -450.04603    39194.267 
  798300    303.22683   -1430.6455    479.83293    414.01842   -127.41286    39194.267 
  798400    304.23123   -1404.3999    478.35955     443.3115    164.70099    39194.267 
  798500    295.24468   -1445.2262    511.02799    394.70496    8.1449723    39194.267 
  798600    296.01317   -1423.3382    502.81891    411.84289   -227.86021    39194.267 
  798700    311.30117   -1445.2877    522.97358    478.85968    94.448691    39194.267 
  798800    309.64074   -1483.9532    473.08636    382.83328     43.42463    39194.267 
  798900     307.8683   -1452.5334    508.62586    441.81481   -414.65026    39194.267 
  799000    305.24386   -1465.9612    501.43931     409.3878    383.66577    39194.267 
  799100    306.56418   -1516.3139    494.75867    358.29724    191.90219    39194.267 
  799200    297.29298   -1476.7788    506.88399    368.22775    212.15198    39194.267 
  799300    305.40504   -1474.6114    497.92854    397.95235    253.07713    39194.267 
  799400     298.7008   -1476.0092    475.13704    343.58701    191.75364    39194.267 
  799500    294.62826   -1478.2811    489.69624    337.54381   -121.87804    39194.267 
  799600    288.54517   -1466.7914    485.17946    317.13652    208.70268    39194.267 
  799700    298.02601   -1485.4278     524.5246    380.51873    485.23624    39194.267 
  799800    301.25588   -1463.0858    519.79676    412.67063    186.27613    39194.267 
  799900    297.18892   -1461.4776    506.81124    382.98782    376.81457    39194.267 
  800000    307.23279   -1446.3015    511.94697    448.50739   -424.82202    39194.267 
  800100    294.90314   -1455.8619    485.79469    357.29866    228.05113    39194.267 
  800200    296.27251   -1447.5622    483.10449    369.07175    526.78004    39194.267 
  800300    306.74046    -1511.488    506.76075    375.91863    336.03515    39194.267 
  800400    307.37196   -1486.3061      479.462    376.64424    356.51163    39194.267 
  800500    300.29261   -1421.5246     504.8087    434.90814    433.88864    39194.267 
  800600    305.36981   -1470.2922    498.67804    402.86244    137.17966    39194.267 
  800700    284.32052   -1482.5423    512.45975    309.65068    493.20144    39194.267 
  800800    294.66683   -1451.2286    482.63515    357.70876    132.17007    39194.267 
  800900    288.94234    -1440.265    507.55917    367.83032    159.48841    39194.267 
  801000    301.01131   -1447.7717    500.87478    407.96197     75.44978    39194.267 
  801100    290.78985   -1471.5261    500.67849    338.00426   -691.40539    39194.267 
  801200    301.86402   -1492.7226    513.42311    379.39742   -625.57389    39194.267 
  801300    290.07637   -1526.0356    475.91066    255.51554   -434.46727    39194.267 
  801400    294.19084   -1503.5443    471.94554    292.56106   -753.60692    39194.267 
  801500    303.32778   -1509.4053    504.30941    360.18942   -658.11296    39194.267 
  801600    295.12141   -1505.9157    489.89972    312.33228    431.08283    39194.267 
  801700    298.17854   -1499.4903    511.03376      353.652    284.05947    39194.267 
  801800    308.51559   -1484.8789    512.54188    416.29881    510.89462    39194.267 
  801900    300.59258   -1472.3622    498.14869     378.7606    492.00778    39194.267 
  802000    297.39118    -1438.683     496.8796    396.76114    169.72208    39194.267 
  802100    299.65503   -1439.8186    510.21889    419.15451    81.908841    39194.267 
  802200    295.58552   -1427.4956    497.95956     400.9012    167.41885    39194.267 
  802300    302.75094    -1457.394    509.72517    415.02012    653.64519    39194.267 
  802400    314.23958   -1468.5783    544.33918    490.16047    698.62106    39194.267 
  802500    296.54432   -1447.9525    468.70808    355.50845    1139.3137    39194.267 
  802600    302.61185   -1455.2649    500.68119    407.47927    6.0807329    39194.267 
  802700    293.99863   -1486.5229    486.84588    323.61764    459.60425    39194.267 
  802800    304.58188   -1472.5238    486.05917    384.46544     129.2802    39194.267 
  802900     290.3681   -1503.6301    502.30383     305.6273    330.67207    39194.267 
  803000    299.97986   -1464.7806    510.51562    395.95128    -171.1557    39194.267 
  803100    305.76028   -1459.8771    478.58278    394.93975   -202.45979    39194.267 
  803200      293.378   -1466.1072    484.97311     339.3671   -500.90761    39194.267 
  803300    296.14111   -1495.4781    508.06221    345.52206   -59.020437    39194.267 
  803400    308.39899   -1474.0232    476.42731    390.51513    107.77059    39194.267 
  803500     293.6249   -1480.7288    505.94969     346.8333    -314.0948    39194.267 
  803600    302.68637   -1435.5159    507.20761    434.09004    128.83509    39194.267 
  803700    300.08807   -1494.9036    508.81019    364.60996    730.59373    39194.267 
  803800    298.32034   -1504.0295    480.95918    319.67644    426.94568    39194.267 
  803900    298.94375   -1494.2797    459.38208    310.65511    665.38235    39194.267 
  804000     304.4384   -1430.1594     496.9999    437.12483    930.97569    39194.267 
  804100    301.13776   -1455.7233    489.93238    389.63714    324.91176    39194.267 
  804200    303.68689   -1483.5857     497.6309    380.94692    879.55914    39194.267 
  804300    299.66917   -1472.0085    481.62878    358.43819    88.969105    39194.267 
  804400    317.18817   -1503.1175    491.37386    415.92766    299.65077    39194.267 
  804500    297.80602   -1520.4015    503.72751     323.7578    226.80051    39194.267 
  804600    300.44963   -1486.3468    502.53742    368.52134    517.89042    39194.267 
  804700    297.79233   -1512.3979    497.20929    325.18158    827.10276    39194.267 
  804800    297.72512   -1494.4058    514.85336    360.51522    350.29693    39194.267 
  804900     306.4494   -1519.2608     487.9438    348.01886    813.48811    39194.267 
  805000    306.89688   -1491.1089    495.13601    385.37715    474.33294    39194.267 
  805100    308.62532   -1446.7629     506.4948    448.86159    347.72628    39194.267 
  805200    290.50097   -1478.2795    481.25848     310.5306   -261.14317    39194.267 
  805300    294.10239   -1467.1418    487.89351    344.51337   -442.60153    39194.267 
  805400    297.00941   -1390.9371    514.01444    459.92365   -500.03238    39194.267 
  805500    303.02968   -1462.0119    506.01538    407.94704   -578.50686    39194.267 
  805600     299.8032   -1470.6487    475.69167    354.46413   -63.407822    39194.267 
  805700    298.41669   -1476.7625    492.51034    358.92827    427.01487    39194.267 
  805800    298.16777   -1477.3967    493.72641    358.38972    92.448555    39194.267 
  805900    305.98307   -1450.8688     508.1343    434.50243    333.17901    39194.267 
  806000      307.603   -1447.0567    509.37893    446.85049    285.63171    39194.267 
  806100    302.82183   -1472.4409    489.57156    380.13877   -324.92068    39194.267 
  806200    294.22017   -1424.3569    468.61953    368.55443   -482.69429    39194.267 
  806300    299.88653   -1414.0728    516.69936    452.42281   -73.663036    39194.267 
  806400    294.29345   -1412.0188    493.57866    406.18153   -420.13908    39194.267 
  806500    306.08815   -1470.9594    502.34653    409.09699   -68.375345    39194.267 
  806600    298.54128   -1434.6486    475.91534    385.00802   0.17768124    39194.267 
  806700    302.79275   -1390.8234    486.14226    458.19601   -79.897029    39194.267 
  806800    310.19203   -1429.4887    506.65445    473.34723    374.33805    39194.267 
  806900    285.03446   -1431.5676    512.71108    364.09016    261.07205    39194.267 
  807000    293.95519    -1425.624    530.24444    427.71961    43.079995    39194.267 
  807100     295.6131   -1447.7102    497.63717    380.48836   -123.77566    39194.267 
  807200    300.97175   -1422.7924    532.28325    464.17162   -555.27974    39194.267 
  807300      304.481   -1439.4358    489.29918    420.33943   -234.60614    39194.267 
  807400     302.1684   -1440.8017    493.92485    413.19014   -698.20879    39194.267 
  807500    307.43219   -1417.4113    503.07686    469.42495    106.73556    39194.267 
  807600    287.35417   -1434.9369    511.75604    370.20692   -229.84773    39194.267 
  807700    314.85976   -1455.9616    524.49822    485.72771     233.8931    39194.267 
  807800    309.13365   -1411.0351    498.96542      479.348    10.068929    39194.267 
  807900    300.52514   -1379.9454    508.77766    481.50291   -274.27936    39194.267 
  808000    298.79086   -1420.9489    518.91393    442.82964   -774.83285    39194.267 
  808100    303.76492   -1453.0313    515.83403    430.05568   -309.63342    39194.267 
  808200    296.10391   -1484.4735    480.24802    328.54502   -174.74226    39194.267 
  808300    300.31631   -1431.5929    497.36395    417.50172    502.97436    39194.267 
  808400    294.68027   -1436.2369    515.16874    405.29458    399.49244    39194.267 
  808500    303.98139   -1441.6858    494.46622    421.00772    535.50233    39194.267 
  808600    299.57363   -1414.6143    505.64147    439.41501    781.47427    39194.267 
  808700    296.37615   -1450.3898    500.65365    384.25978    126.52788    39194.267 
  808800    308.63216   -1451.4643    472.91794    410.61416    134.75983    39194.267 
  808900    307.60531   -1469.4873     506.4754    421.52676   -242.55933    39194.267 
  809000    298.48982   -1461.7742    503.26882     385.0042   -205.41073    39194.267 
  809100    296.44797   -1458.6511    481.18231    356.85043    73.132851    39194.267 
  809200    295.39892   -1435.8621    506.11824    399.85352    365.39139    39194.267 
  809300    300.45586   -1465.8183    509.09461    395.63506     414.9151    39194.267 
  809400    292.71481   -1408.7042    514.71064    423.52262    242.51753    39194.267 
  809500     304.3486   -1452.2656    498.99062    416.60512    147.11791    39194.267 
  809600    287.41414   -1434.1655    520.48122    379.97343   -391.46771    39194.267 
  809700    295.85971   -1467.6415     479.3949     343.4248   -155.48909    39194.267 
  809800    294.26637   -1491.8079    471.08227    303.77409   -367.66207    39194.267 
  809900     298.0796   -1429.3938    491.38955    403.65897   -449.45866    39194.267 
  810000    301.59602   -1424.5085     493.4941    426.47629   -61.015804    39194.267 
  810100    300.05025    -1443.355    477.39667     384.5748    45.113963    39194.267 
  810200    304.99061   -1460.5507    494.04197    406.26108    330.40751    39194.267 
  810300    308.40773   -1446.9382     490.9114    432.12358    671.37184    39194.267 
  810400    307.12358   -1486.8795    501.23386    396.72473    644.36738    39194.267 
  810500    299.93305    -1445.639    499.29808    403.66468     536.3986    39194.267 
  810600      298.934   -1452.8853    492.78457    385.40819    133.90566    39194.267 
  810700    305.67796   -1458.0569    463.95267    381.75932    424.92472    39194.267 
  810800    291.03005   -1401.1144    515.27666    424.09522    135.34535    39194.267 
  810900    298.55512   -1441.0227    509.57581     412.3566     776.8042    39194.267 
  811000    298.86843    -1428.246    500.63647    417.60427    580.66385    39194.267 
  811100     287.9207   -1475.5236    492.79334    313.20753    285.76321    39194.267 
  811200    296.54954   -1460.5739    490.65543     364.8579   -29.263256    39194.267 
  811300     289.2518   -1439.4332    505.24117    367.73698   -1041.1699    39194.267 
  811400    301.03769   -1435.3748     491.6498    411.25264   -209.09589    39194.267 
  811500    295.76663   -1461.3359    481.36201    351.27856    279.85088    39194.267 
  811600    298.87314   -1450.9951    483.00029    377.24011    128.39316    39194.267 
  811700    306.50692   -1444.8853    489.35426    424.06373   -26.024437    39194.267 
  811800    297.62959   -1453.6176    480.87867     366.8987    109.48402    39194.267 
  811900     301.9433   -1415.7061    519.51605    462.86375   -499.12575    39194.267 
  812000    292.71416   -1403.0658    486.81813    401.26556   -47.123097    39194.267 
  812100    297.86305   -1422.4072     480.2697      398.551      455.008    39194.267 
  812200    299.04998   -1406.5246    506.89754    446.40382    485.16157    39194.267 
  812300    298.90111   -1380.4299     527.1881    492.11901    367.34419    39194.267 
  812400    306.26664   -1398.2514    503.43277    483.69457    666.80495    39194.267 
  812500    299.62911   -1399.2381    495.82841    445.22789   -88.857844    39194.267 
  812600    305.84122   -1406.1819    487.78318     458.1997    431.31169    39194.267 
  812700    292.50926   -1409.8103    491.72194    398.50256   -69.613749    39194.267 
  812800     293.4008   -1421.9958    486.65686    385.26483    104.74844    39194.267 
  812900    299.38278   -1397.0127    522.05311     472.5692    422.11777    39194.267 
  813000     307.7378   -1412.5029    491.41259    464.04464    79.466064    39194.267 
  813100    289.22591   -1420.0214    499.18189    380.97297   -319.37846    39194.267 
  813200    299.36683   -1435.5996    472.44163    384.29908     26.16453    39194.267 
  813300    288.51114   -1409.3402    496.90895    386.16405   -133.47639    39194.267 
  813400    302.72487   -1426.9352      490.386    426.02248   -261.61539    39194.267 
  813500    306.80691   -1475.0736    457.44137    363.31274    74.908577    39194.267 
  813600    304.42557   -1477.8122     516.8949    409.30924    61.542975    39194.267 
  813700    297.51949   -1469.3972    470.50298    340.24791   -1.8605878    39194.267 
  813800    302.85714   -1459.9832    494.37664    397.56047    33.063789    39194.267 
  813900    308.13155   -1477.6573    503.83673    413.08671   -258.19591    39194.267 
  814000    290.23479   -1487.9802    466.29855    284.67187   -397.66017    39194.267 
  814100    298.78784   -1483.5314      503.569    364.88858    374.27832    39194.267 
  814200    306.06797   -1455.6225    489.51231    411.50884    36.461723    39194.267 
  814300    298.85387    -1478.674    490.20907    356.68328    249.67402    39194.267 
  814400    301.69626   -1504.3365    498.71037     352.3157    41.638659    39194.267 
  814500    295.40132   -1458.4152    503.25801      374.451    471.90712    39194.267 
  814600    309.84374   -1442.7888    501.46672    453.29176    119.04217    39194.267 
  814700    306.62622   -1433.0704    504.53066    451.59202    191.83028    39194.267 
  814800    302.36995   -1452.5686    498.35948    406.76502    87.767936    39194.267 
  814900    301.48941   -1489.6121    482.22659    349.62535   -354.60816    39194.267 
  815000    307.71416    -1461.904     476.7876    399.91221   -206.22118    39194.267 
  815100    297.30283   -1468.6052    495.42451    364.98625   -743.04382    39194.267 
  815200    303.01623   -1451.1915    487.22743    399.91905   -623.24511    39194.267 
  815300    302.05169   -1446.1655    481.81666    395.19279   -319.04993    39194.267 
  815400    303.89762   -1472.6685     522.8649    418.04657   -470.74209    39194.267 
  815500    305.40598   -1468.2586    498.20115    404.58197     136.8026    39194.267 
  815600    301.77555    -1457.483    503.36154    404.17732   -18.600534    39194.267 
  815700    312.45141   -1451.6474    512.87057    467.57418    288.26218    39194.267 
  815800     306.6654   -1490.4978    465.71504    355.52534    515.99688    39194.267 
  815900    295.79073   -1449.7191    487.63216    369.27394    173.35148    39194.267 
  816000    298.64229   -1450.4339    512.32586    406.08781   -238.54724    39194.267 
  816100    314.80048   -1436.7541    458.39924    438.56938   -128.13954    39194.267 
  816200    298.97389   -1446.9897    493.47952    392.17822   -110.68063    39194.267 
  816300    297.77879   -1465.4444    514.24977    389.11462   -26.437296    39194.267 
  816400    297.88875    -1430.002    482.61448    393.41667   -684.66291    39194.267 
  816500    293.83648   -1431.5821    490.52092    381.50359   -144.39603    39194.267 
  816600    290.38706   -1472.4274     468.8438    303.45525   -73.446757    39194.267 
  816700    302.17713   -1444.6019    496.52425    412.02862    204.99916    39194.267 
  816800    301.17008   -1467.3939    498.05565    386.23526    102.77075    39194.267 
  816900    294.34876    -1445.079    463.54496    343.33656    505.93258    39194.267 
  817000     292.1506   -1438.3698    492.29739    368.90423    456.59332    39194.267 
  817100    299.59976   -1455.2109    503.02273    396.31735    481.35496    39194.267 
  817200    289.24291   -1455.3862    490.95462    337.45742    307.09054    39194.267 
  817300    298.24241   -1456.5799    472.73282    358.54892    312.91855    39194.267 
  817400    298.86461   -1442.5704    488.12428    390.75039    792.19915    39194.267 
  817500    312.29089   -1458.0224    497.09112    444.69727    119.85565    39194.267 
  817600    294.35563   -1479.9349    496.50606    341.47266    671.22032    39194.267 
  817700    308.97755   -1493.7063    505.49537    402.50416    301.73838    39194.267 
  817800     300.8734   -1437.3314     507.7939    424.70064    507.79877    39194.267 
  817900    304.96838   -1460.1786    489.89071    402.38188     840.2245    39194.267 
  818000    308.85145    -1454.203    487.12677     423.0713    770.76278    39194.267 
  818100     299.5307   -1469.7972    475.80801    354.20545    43.139063    39194.267 
  818200    296.76946    -1431.662    484.98512    389.08932   -124.30377    39194.267 
  818300     298.3347   -1432.4537    494.37177    404.72952   -219.38641    39194.267 
  818400     303.3134   -1416.0428    503.38212    452.55997   -162.11901    39194.267 
  818500    297.78243   -1415.6051    503.58459    428.30509    -325.4278    39194.267 
  818600    301.26706   -1409.8645    512.09205    458.23754   -362.97323    39194.267 
  818700    300.43702   -1452.7123    472.58384    372.14552   -210.30618    39194.267 
  818800    290.96362   -1446.2819    484.14644    347.49854   -307.44766    39194.267 
  818900    305.25321   -1483.2717    488.30491    378.98494    447.64102    39194.267 
  819000    296.00567   -1480.3289    488.10145    340.10089    224.79616    39194.267 
  819100    305.00756   -1450.4259    477.97639    400.39657    130.54648    39194.267 
  819200    292.53794   -1446.9166    505.43415    375.23762    431.47462    39194.267 
  819300    306.19614    -1465.387    492.02821    404.83718    484.17855    39194.267 
  819400    306.87561   -1466.1285    469.12735    384.25308     481.5385    39194.267 
  819500    304.29684   -1465.2498    492.29271    396.68998    132.08911    39194.267 
  819600    297.04846   -1432.1654    481.19392    386.05057    89.587856    39194.267 
  819700    296.61577   -1456.7355    474.98079    353.31975    77.744873    39194.267 
  819800     305.7775   -1463.6077    495.17195    407.87582    252.69219    39194.267 
  819900    306.07243   -1440.9191    488.70788    425.42788    79.215624    39194.267 
  820000    307.05645   -1426.5055    493.90702    449.46976     462.7102    39194.267 
  820100    290.68197   -1428.2039    500.34946    380.51188   -569.35441    39194.267 
  820200    303.12668   -1406.5095    484.36465    442.23539   -307.36889    39194.267 
  820300    292.43582   -1413.0237    484.95967    388.19638   -276.37523    39194.267 
  820400     301.5078    -1400.553    490.10342    446.64401   -353.69309    39194.267 
  820500    305.13915   -1429.8814    493.45193    437.00889   -18.487396    39194.267 
  820600    296.96385   -1382.0784    520.95472    475.51744   -164.59116    39194.267 
  820700    298.21643   -1383.2963     499.2321    458.21489     15.00717    39194.267 
  820800    294.08116   -1344.6184    535.82153    514.86922   -712.19635    39194.267 
  820900    297.61167   -1359.6164    471.29168    451.23233   -49.870801    39194.267 
  821000    293.80104   -1385.3001    492.42267    429.52786    -466.7189    39194.267 
  821100    303.34099   -1427.4597    479.60383    417.48899   -242.27873    39194.267 
  821200    302.19276   -1385.9887    471.34788     445.5358   -386.66571    39194.267 
  821300    293.66559   -1399.2095    494.18769    416.77378   -198.36214    39194.267 
  821400    302.73071   -1417.3699    493.18623    438.41429    108.57031    39194.267 
  821500    299.62769   -1378.5411    503.11419    473.20432    132.47919    39194.267 
  821600    293.60189    -1378.236    498.39216    441.66503     204.7504    39194.267 
  821700    297.79944   -1427.3709    527.26741    440.29868   -67.313475    39194.267 
  821800    297.62976   -1406.6761    468.11769    401.08006    58.760053    39194.267 
  821900    301.28251   -1493.4218    512.37878    375.03654    128.09358    39194.267 
  822000    306.59755   -1474.0343    474.91945    380.88788    248.00525    39194.267 
  822100    298.92735   -1448.3859    475.20576     372.2988    292.30408    39194.267 
  822200    293.29519    -1424.065    483.98162    380.04512   -137.21721    39194.267 
  822300    303.36892   -1445.6147    494.09563    413.95144    587.27659    39194.267 
  822400    297.84543   -1421.4956    508.48141    427.59498    80.998924    39194.267 
  822500    307.25071   -1433.1631    503.89922    453.67872   -247.78901    39194.267 
  822600    299.86621   -1456.1312     496.8761    390.44963   -101.93192    39194.267 
  822700    300.83426   -1450.6849    461.93737    365.31444    -165.2033    39194.267 
  822800    300.36734   -1442.5358     471.1899     380.6145   -365.08499    39194.267 
  822900    303.66689   -1395.3991    512.71896    484.13157    248.10712    39194.267 
  823000    305.27425   -1399.0108    485.39045     460.4261   -306.34378    39194.267 
  823100    294.77139   -1423.7751     476.0648    379.06259    847.50083    39194.267 
  823200    303.60195   -1407.1897     499.3978    458.72752    658.53005    39194.267 
  823300    300.24408   -1435.7633    501.08598    416.72821    603.54303    39194.267 
  823400    308.22669   -1397.6281    475.80956    465.51697    240.88088    39194.267 
  823500    302.95647   -1403.5385    472.42077    432.49637    637.27416    39194.267 
  823600    310.66433   -1372.3077    500.61588    526.61558   -21.687299    39194.267 
  823700    304.88837    -1369.481     490.2442    493.07282    177.51631    39194.267 
  823800    294.17655   -1395.0653    498.78265    427.81278   -186.38024    39194.267 
  823900    293.63616   -1374.5052    448.70125    395.85923   -186.36392    39194.267 
  824000    302.74027   -1392.1609    503.90394    474.38401    105.40438    39194.267 
  824100    307.15833   -1428.2104    489.78802     444.1044    538.67517    39194.267 
  824200    295.34096   -1445.8759    465.00435    348.46499    220.91397    39194.267 
  824300    302.45882   -1439.7849    521.23033    442.81958     796.5767    39194.267 
  824400    308.78181   -1416.8236    480.00508    453.01555    835.32607    39194.267 
  824500    299.45148   -1415.8806    499.79129    431.74872    307.09245    39194.267 
  824600     291.1194   -1388.6822    475.76011    397.41305     447.1776    39194.267 
  824700     300.3748   -1432.2785    473.90948    393.62492   -447.92476    39194.267 
  824800    301.90811   -1435.6563    485.78008    409.01921   -160.95506    39194.267 
  824900    303.21693   -1431.1366    473.62997    407.27979   -339.04122    39194.267 
  825000    296.85114   -1432.4516    479.22249     382.9048   -733.96826    39194.267 
  825100    301.57935   -1383.8466    497.18206    470.75113    -202.0665    39194.267 
  825200    301.45008   -1432.3895    485.24921    409.69345   -339.03618    39194.267 
  825300    305.29935   -1443.3075    489.71676    420.56877    314.25193    39194.267 
  825400    303.36938   -1413.5622    493.08834    444.99872    277.91683    39194.267 
  825500    293.19156   -1408.6274    488.53065    399.56527     238.1635    39194.267 
  825600    302.06985   -1467.2813    497.49243    389.83451     430.4002    39194.267 
  825700    304.39176    -1459.924    468.72583     378.8762   -119.03798    39194.267 
  825800    293.58575   -1406.2214    514.77426    429.98913    -218.4132    39194.267 
  825900    312.00263   -1436.2811    495.62343    463.67343   -382.12266    39194.267 
  826000    295.79278   -1434.5776    482.47552    379.26807    211.64127    39194.267 
  826100     299.9098   -1422.4236     496.5317    424.00902   -78.818122    39194.267 
  826200    304.55205   -1428.5048    487.28155    429.57261    134.02033    39194.267 
  826300     288.5977    -1395.999    504.87467    407.86067    -408.4665    39194.267 
  826400    307.07684   -1396.8941    521.27726    506.54317   -110.28418    39194.267 
  826500    299.05492   -1384.6087    477.05828    438.50269   -257.76084    39194.267 
  826600    301.92495   -1442.5616    511.90689    428.31642   -313.65837    39194.267 
  826700    297.30183   -1413.9167    482.16679    406.41253    69.474329    39194.267 
  826800    304.30268   -1436.2923    482.26497    415.64609   -612.35192    39194.267 
  826900    306.05505   -1382.7096     498.4703    493.32155    -597.1199    39194.267 
  827000    296.05598   -1404.0574    492.91328    421.41075    51.803508    39194.267 
  827100    295.18764   -1397.8246    490.74888    421.57064   -368.80582    39194.267 
  827200    292.42722   -1380.5764    494.39718    430.04252    475.76977    39194.267 
  827300    299.10481   -1386.6959    480.34042    439.92218    122.86031    39194.267 
  827400    305.84003   -1398.4611    519.17737    497.30934    563.84991    39194.267 
  827500    297.28217   -1424.0742    485.75028    399.75002    530.52069    39194.267 
  827600    288.09074   -1418.5726    504.81725     382.9478     150.1406    39194.267 
  827700    302.06516    -1394.707     519.4222    484.31753    133.86432    39194.267 
  827800    313.36812   -1391.6053     482.8079     501.6798    360.06091    39194.267 
  827900      302.825   -1407.6567    505.81337    461.17905   -578.88038    39194.267 
  828000    300.86393   -1419.6862    507.66576    442.17514    294.63408    39194.267 
  828100    298.34819    -1414.471    500.47294    428.87401    302.26723    39194.267 
  828200    298.91568   -1411.1099    473.28426    407.60077    332.30915    39194.267 
  828300    313.21788   -1400.3356    482.86736    492.33269    610.98715    39194.267 
  828400    306.58359   -1433.2368    518.41584    465.11888    376.89559    39194.267 
  828500    299.47417   -1415.9276    491.77854    423.79109   -38.750685    39194.267 
  828600    304.92505   -1411.4092    507.33568    468.40118   -326.76959    39194.267 
  828700    294.75359   -1423.3855    495.79005    399.09732    50.605568    39194.267 
  828800    302.24535   -1431.9035    482.81242    411.32225   -2.8652389    39194.267 
  828900    292.03156   -1410.4793    495.79657    399.75812    151.87464    39194.267 
  829000    293.41885   -1429.7737    483.90928     374.8206   -64.262606    39194.267 
  829100    303.01863   -1461.4089    481.94255    384.42749    530.34875    39194.267 
  829200    301.90554   -1454.6598     498.6433    402.86738    414.11304    39194.267 
  829300    309.96876   -1476.9222    492.19559    410.44994    45.909324    39194.267 
  829400    305.87807   -1453.2967    470.98272    394.45029    270.87698    39194.267 
  829500    293.53329   -1470.4238    482.56205     333.3384   -102.71741    39194.267 
  829600    308.25453   -1432.5196     460.2063    415.14752   -340.66064    39194.267 
  829700    293.44302   -1430.8288    488.15758    378.12257   -489.89198    39194.267 
  829800    297.60415   -1474.2098    464.46994    329.78328    24.706027    39194.267 
  829900    299.54248   -1464.1206    491.37648    375.50354   -111.11482    39194.267 
  830000    301.13325   -1471.5194    499.88009    383.76848   -108.79637    39194.267 
  830100     301.2278   -1419.4632    517.60531     453.9754   -200.09207    39194.267 
  830200     307.6063    -1408.473    480.15494    456.22502    95.392331    39194.267 
  830300    302.86703    -1394.025    491.35225    460.53882   -200.92909    39194.267 
  830400      305.039   -1405.3539     480.8379    448.47159    169.78317    39194.267 
  830500    297.84935   -1437.7588    527.06008    429.92804   -455.38506    39194.267 
  830600    303.17846   -1435.5372    466.56729    395.64336    29.344822    39194.267 
  830700    301.42633   -1433.2343    486.90251     410.3951   -460.32976    39194.267 
  830800    297.17697   -1454.0008    509.51154    393.11118    -256.3486    39194.267 
  830900    300.03701    -1445.283    494.84555    400.03608   -321.60178    39194.267 
  831000     314.9122   -1473.3094    493.30922    437.42693   -221.02459    39194.267 
  831100    304.09757   -1455.4475    472.17209    385.47482    93.531705    39194.267 
  831200    293.89549   -1478.7929    471.42366    315.46114   -279.77146    39194.267 
  831300    299.72978   -1456.7161    482.63166    375.00618    212.35885    39194.267 
  831400    302.18016   -1440.4054    491.90467    411.61916    397.92275    39194.267 
  831500    293.56394   -1468.3738    483.03044    335.99474   -192.28262    39194.267 
  831600    304.45495    -1471.914    482.10481    380.54959    70.053795    39194.267 
  831700    298.85226   -1478.2086    494.02445    360.95678    327.99984    39194.267 
  831800    296.48394   -1530.6654    481.62357    285.43923   -1.0963839    39194.267 
  831900    295.76491   -1469.9198    454.48919    315.81404    271.51288    39194.267 
  832000    298.30495   -1459.8887    484.17124    366.96007    111.78066    39194.267 
  832100    299.18369    -1513.261    488.35084     321.7225    337.54949    39194.267 
  832200    296.95052    -1487.911    491.77768     340.4479    -58.69721    39194.267 
  832300    296.17408   -1478.3104    471.49253    326.26855   -340.32984    39194.267 
  832400    298.48692   -1487.4162    487.37676    343.45704   -644.26575    39194.267 
  832500    291.64412   -1488.5868    483.29034     307.4005   -771.76637    39194.267 
  832600    296.22261   -1472.8095    509.32048    369.81582   -305.11334    39194.267 
  832700    299.38238   -1487.1446    473.58427    333.96665   -170.73934    39194.267 
  832800    305.55024   -1463.8524    480.18606    391.62242   -434.02633    39194.267 
  832900    307.54506   -1472.0684    493.82863    406.02766   -529.27145    39194.267 
  833000    286.32252   -1465.4628    499.41741    322.69895   -433.69893    39194.267 
  833100    287.97899   -1477.6703    500.34997    318.87978    -35.71778    39194.267 
  833200    299.52907   -1463.7382    491.67794    376.12699   -66.953003    39194.267 
  833300    297.49689   -1429.7109    500.09056     409.4201    312.18635    39194.267 
  833400    299.20413   -1492.8434    516.56518     370.4465    445.94382    39194.267 
  833500    295.89918    -1445.809    482.06244    368.10252    127.68646    39194.267 
  833600    305.31258    -1469.154    493.21575    398.28077    58.160885    39194.267 
  833700    305.22394   -1481.6552    501.22062    393.38542    185.59667    39194.267 
  833800    299.97608   -1505.4533    488.82966    333.57559    457.38585    39194.267 
  833900     302.5158   -1491.0981    469.37338    339.90591    112.48164    39194.267 
  834000     302.8479   -1492.2518    497.39729    368.27091     99.43582    39194.267 
  834100    296.96193   -1479.1111    486.48779    344.00926   -136.93252    39194.267 
  834200     311.5257   -1470.7282    510.73727    442.19348     316.1581    39194.267 
  834300    294.15513   -1432.0715    500.59421    392.52182    68.845574    39194.267 
  834400    309.56085   -1475.1515    471.76426    389.95332   -662.37935    39194.267 
  834500    308.90121    -1435.477    480.73294    435.62745    91.181037    39194.267 
  834600    301.42185   -1445.1036     497.6053    409.20841    4.7399471    39194.267 
  834700    293.17301   -1476.0367     487.9453    331.48706    641.97899    39194.267 
  834800    311.78599   -1429.4084    504.77274    478.72026    17.884499    39194.267 
  834900    302.58131   -1432.4081    515.18882    444.70622    796.67138    39194.267 
  835000    294.68512   -1437.8519    480.92033    369.45298    649.14299    39194.267 
  835100    303.03171   -1428.4073    510.69167    446.23713    103.52272    39194.267 
  835200     301.6192    -1449.731    491.90382     399.7679   -392.58073    39194.267 
  835300     305.8759   -1471.9504    492.75941    397.56355    247.49681    39194.267 
  835400    300.15807   -1490.0166    489.44445    350.44631    -102.8522    39194.267 
  835500    305.60554   -1471.2663    520.61644     424.8877    -47.91941    39194.267 
  835600    308.22323   -1449.1622    477.61122    415.76891   -442.23775    39194.267 
  835700    291.64336   -1470.9206    505.63545    347.40839   -201.53024    39194.267 
  835800    306.36463   -1450.4848    496.13443    424.60391   -478.12136    39194.267 
  835900    300.57363   -1445.4281    511.34275    418.80351   -24.785858    39194.267 
  836000    298.70224   -1475.4513    487.82254    356.83691    107.81685    39194.267 
  836100     294.5193   -1528.0123    484.26489    281.89082    10.616888    39194.267 
  836200    301.22557   -1470.8579    512.62169    397.58706   -14.592749    39194.267 
  836300    300.51515   -1474.5521    464.69004    342.76359    164.70051    39194.267 
  836400    304.78844   -1465.1761    498.89234    405.57613   -209.00402    39194.267 
  836500    289.87685   -1466.9579    466.49928    304.28374   -10.416164    39194.267 
  836600    308.10044   -1477.8019    482.92106    391.88643   -317.71305    39194.267 
  836700    298.06762   -1424.3895    509.93562    427.15542   -360.32762    39194.267 
  836800    304.05385   -1450.2088    471.03328    389.37793   -41.149476    39194.267 
  836900     299.3452   -1421.7016    490.64782    416.30584    109.49418    39194.267 
  837000    292.97079    -1424.232    522.49137    416.92771    896.00742    39194.267 
  837100    306.90899    -1470.659    504.04838    414.79388    425.76115    39194.267 
  837200    302.20803   -1413.8665    500.53918    446.91804   -156.87771    39194.267 
  837300    294.71049   -1403.1196    485.31091    408.69004     42.58759    39194.267 
  837400    303.47142   -1425.5156    505.99986    446.41613    55.213998    39194.267 
  837500    277.55132   -1392.5883    485.68924    342.36588   -424.09684    39194.267 
  837600    303.37996   -1394.0198    496.31737    467.81776   -287.05534    39194.267 
  837700     301.9702   -1428.8155    486.41324    416.77262    232.96942    39194.267 
  837800    303.63372   -1429.8663    518.43661    455.23273    15.217153    39194.267 
  837900    303.58685   -1397.5674    475.51645    444.40049   -399.60392    39194.267 
  838000    304.60523   -1437.2781    490.54398     424.3011   -510.66618    39194.267 
  838100    300.56006   -1388.7135    497.51915    461.63342    110.59068    39194.267 
  838200    307.50679   -1419.1783    501.49998    466.41689     -104.693    39194.267 
  838300    301.73815   -1445.8541     487.9552    400.23145   -52.448725    39194.267 
  838400    300.68189   -1428.3907      504.172    429.15745   -137.10265    39194.267 
  838500     290.8288   -1435.5521    503.12489    376.59989   -320.49707    39194.267 
  838600    308.29415   -1414.2483    471.62092    445.01176    177.38903    39194.267 
  838700    299.37287   -1424.6547    494.04387    416.87342   -276.57339    39194.267 
  838800    290.90352   -1449.3169    484.15139    344.19804    406.01159    39194.267 
  838900    302.19332   -1389.9022    491.33939    461.61629    49.367451    39194.267 
  839000    309.48393    -1395.376    486.46876    484.08712    469.06894    39194.267 
  839100    308.83417   -1407.2982    466.84592     449.6175    42.636182    39194.267 
  839200    295.67952   -1424.8586    490.87558    396.87738   0.86633033    39194.267 
  839300    297.91809   -1426.1747    484.30886    399.07041   -219.19898    39194.267 
  839400    299.02773   -1410.6924    493.99323    429.23153   -94.048566    39194.267 
  839500    302.97001   -1405.6058    480.67291    438.74215    125.64884    39194.267 
  839600     295.6742   -1414.2504    492.38572    408.97178   -178.38539    39194.267 
  839700     307.5438   -1431.3755    467.16699    420.05322    102.06824    39194.267 
  839800    295.51196   -1404.2336    496.87608    422.74869   -355.40917    39194.267 
  839900    292.21166   -1409.6143    480.10585    385.74297    530.92628    39194.267 
  840000    304.63221    -1417.477    517.33983    471.01947    241.39409    39194.267 
  840100    301.99019   -1433.5003    469.98081    395.74535    331.98329    39194.267 
  840200    307.87079   -1414.3014    508.04731    479.47947    362.06313    39194.267 
  840300    307.56789   -1462.6063    480.84035    402.60425    361.40947    39194.267 
  840400    293.76062   -1406.6459    482.13925    397.71671    355.96117    39194.267 
  840500    298.43136   -1440.1564    499.88344    402.97353    196.29682    39194.267 
  840600     304.5336   -1389.2772    456.02182    437.45739    7.0279066    39194.267 
  840700    301.25232   -1376.2524    512.16578    491.85709    -442.5678    39194.267 
  840800    302.03448   -1374.6031    478.50468    463.36571    211.47144    39194.267 
  840900     301.6435    -1470.858    492.92312    379.76952    478.84293    39194.267 
  841000    305.82421   -1461.1638    482.76491    398.12299    512.98416    39194.267 
  841100    297.61829   -1413.5106    482.64336    408.71961   -52.539807    39194.267 
  841200    311.16521   -1433.8921    489.24111    455.91089   -165.24191    39194.267 
  841300    296.36633   -1420.1267    470.35131    384.17633   -225.23217    39194.267 
  841400    306.26451   -1432.9672    486.94629     432.4827   -631.45836    39194.267 
  841500    299.16827   -1463.0593    463.23464    346.73869   -1503.8936    39194.267 
  841600    295.22226   -1435.6878    458.92704    352.04154   -931.45331    39194.267 
  841700    303.96677   -1419.5167    477.94692    426.59167   -622.90262    39194.267 
  841800    299.09865   -1431.0398       513.32     428.5301   -64.253409    39194.267 
  841900    310.34256   -1451.4533    465.53848    410.94424   -26.447651    39194.267 
  842000     302.7687   -1460.9963     469.8308    371.60347   -372.77344    39194.267 
  842100    301.38083   -1418.4473    467.09565    405.17043   -152.54293    39194.267 
  842200    292.35426   -1434.5298    491.00983     372.3733   -515.09418    39194.267 
  842300    298.86981   -1443.5311    478.60126     380.2901   -183.29327    39194.267 
  842400    299.78064   -1442.7662    499.56036    406.11377   -503.09101    39194.267 
  842500     309.3716    -1436.222    503.56171    459.82844   -563.22924    39194.267 
  842600    296.58746   -1420.4925    466.44451    380.89909    285.88054    39194.267 
  842700    307.72952   -1428.5837    453.55481    410.06877    53.451825    39194.267 
  842800    293.99438   -1428.7546    499.65915    394.18009    186.56482    39194.267 
  842900    299.45922   -1448.3828    480.90952    380.39959    227.63395    39194.267 
  843000     309.2961    -1421.969    467.59657    437.77649    336.96036    39194.267 
  843100    298.98008   -1406.4097    498.15043    437.45703   -329.42201    39194.267 
  843200     305.0236   -1366.8593    492.39081    498.44977    164.87273    39194.267 
  843300     307.3761   -1351.4166    506.37128    538.46165    140.12975    39194.267 
  843400    296.70275   -1405.3997    463.77023    393.83647   -144.06365    39194.267 
  843500    300.56426   -1430.3008    476.39856    398.94449    169.21749    39194.267 
  843600    292.51808   -1430.8895    493.73176    379.47291    667.22802    39194.267 
  843700    312.95446   -1377.9412    497.72603    528.40015    648.75319    39194.267 
  843800    293.12464   -1394.4068    488.02467    412.97866    36.222314    39194.267 
  843900    299.54035   -1491.9522    465.28223    321.56806    448.53999    39194.267 
  844000    298.89577   -1473.3421    453.24518     325.2399    491.57167    39194.267 
  844100    299.83527   -1406.6064    523.60063    466.55969    799.19943    39194.267 
  844200    289.08019   -1405.3082    472.81843    368.66693    346.46446    39194.267 
  844300    288.41791   -1374.0642    519.36501    443.47652    382.63792    39194.267 
  844400    302.14547   -1422.4238    481.15641    418.69635    759.39372    39194.267 
  844500    310.82986   -1421.1833    478.11541    455.98452     296.0508    39194.267 
  844600    312.06317   -1437.5697    487.78728    454.82108     -285.287    39194.267 
  844700    309.62415   -1382.9546    476.77031    487.44124   -492.15803    39194.267 
  844800    288.72463   -1375.2006    496.82809    421.18369   -949.39453    39194.267 
  844900    304.09302   -1415.3529    509.77029    463.14717   -148.63769    39194.267 
  845000    290.90348   -1456.5113    505.23798    358.08998   -44.998912    39194.267 
  845100    300.48364   -1464.8754    459.14935    346.75783   -159.99787    39194.267 
  845200    303.88277   -1488.2137     468.0706    347.64033   -44.295681    39194.267 
  845300    298.43089   -1470.6064    489.30553    361.94353    147.44846    39194.267 
  845400    299.13313   -1431.7678    483.37435     398.0117    18.438381    39194.267 
  845500    297.30752   -1421.0721    487.80836    404.92433   -249.70915    39194.267 
  845600    290.28145   -1473.6551    466.64785    299.55629   -568.12581    39194.267 
  845700    315.30764   -1427.6291    505.58656    497.16448    17.485248    39194.267 
  845800    288.57598   -1424.1173    482.47128    357.24113   -398.77344    39194.267 
  845900    304.27266   -1463.2983    467.77187    374.01188    108.15025    39194.267 
  846000     298.6197    -1460.294    473.17402    356.97421   -26.605328    39194.267 
  846100    302.29305   -1434.6606    486.76191    412.72931    467.51207    39194.267 
  846200    303.46316   -1441.9416    480.07509    404.02819    396.21577    39194.267 
  846300      302.342   -1491.2439    473.74565    343.35011    93.142159    39194.267 
  846400    299.16587   -1467.5901    478.56547    357.52795    120.90063    39194.267 
  846500    305.10371   -1466.3775    439.12671    346.02803   -24.870342    39194.267 
  846600      294.907   -1436.1776    484.22251    375.42817   -451.55188    39194.267 
  846700     300.6939   -1458.1254    508.47478    403.77963   -196.17367    39194.267 
  846800     298.9973   -1487.8999    465.47124    323.36518   -280.05909    39194.267 
  846900    294.27553   -1475.4032    475.30132    324.43913   -133.60637    39194.267 
  847000    288.42385   -1469.4123    498.04444    326.83455    505.81504    39194.267 
  847100    300.72761   -1462.9182    462.60956    353.27327    263.41576    39194.267 
  847200    298.15594   -1450.8844    489.11705    380.23947   -120.76228    39194.267 
  847300    299.92485   -1440.4968    479.13385    388.60577   -155.72298    39194.267 
  847400    297.60114   -1421.7888    490.40352    408.12436     400.2101    39194.267 
  847500    292.76448   -1400.6854    503.62913    420.68342   -11.622418    39194.267 
  847600     301.0358   -1440.9434    490.61276    404.63847    629.61952    39194.267 
  847700      294.102   -1432.3236     476.9689    368.40522    177.23932    39194.267 
  847800    295.69738   -1401.2642    500.41967    430.09624     399.8181    39194.267 
  847900    294.39761    -1425.785     508.2403    407.54577   -419.10635    39194.267 
  848000    298.75626   -1414.5587    472.92641     403.0766    54.039159    39194.267 
  848100    287.37862   -1424.4254    491.04018    360.11258   -165.61683    39194.267 
  848200     306.7995   -1422.0829    477.95348    436.78224    11.194901    39194.267 
  848300    308.36488   -1442.9744    494.77174    439.75481   -350.78646    39194.267 
  848400     301.4237   -1429.6131    472.13337    399.23536   -201.00569    39194.267 
  848500     291.8553   -1458.8812    489.36511    344.13139    436.81121    39194.267 
  848600    292.36087   -1402.4159    493.21221    406.71941    648.38453    39194.267 
  848700    310.90354   -1490.3497    481.82969    390.86397    156.88843    39194.267 
  848800    291.88379   -1451.8403    493.15582    355.09119   -10.689065    39194.267 
  848900    301.50026   -1451.8851    498.55643    403.73102    -81.92541    39194.267 
  849000    292.73661   -1462.9423    465.54446    320.21638   -283.72049    39194.267 
  849100    302.01838    -1442.591    472.71173    389.51245   -445.37689    39194.267 
  849200    303.51261    -1467.304    490.62318    389.43645   -517.30915    39194.267 
  849300     295.3141   -1433.1004    498.73424    394.84945   -443.03959    39194.267 
  849400     305.9363   -1459.4461    504.18283    421.76306   -1118.2666    39194.267 
  849500    303.89113   -1474.4783    453.19181    346.53448   -546.51045    39194.267 
  849600     309.6375   -1447.3534    506.89451    453.22669   -374.77706    39194.267 
  849700    307.07644   -1388.4145    487.49957     481.2433   -477.67556    39194.267 
  849800    300.06881   -1422.1916     502.9278     431.3529   -330.67408    39194.267 
  849900    296.88398   -1462.4656    497.71173    371.52785   -698.23341    39194.267 
  850000    286.94616   -1432.1197    481.38436    340.81601   -501.68571    39194.267 
  850100    301.92415   -1448.0343    487.19551    398.12875    164.61263    39194.267 
  850200    305.54842   -1464.0771    495.25806    406.46152    187.47372    39194.267 
  850300    306.89829   -1482.2666    482.10657    381.19626   -38.751462    39194.267 
  850400    287.77925   -1441.1556    488.38626    342.53179   -114.24659    39194.267 
  850500    296.09676    -1465.661    497.09198    364.16933    489.01279    39194.267 
  850600    285.07674   -1445.6748    491.87802    329.34023    34.867411    39194.267 
  850700    296.14555   -1521.6104    471.41029    282.75784    507.78029    39194.267 
  850800    292.66588   -1503.2774    491.90657    305.92512    776.87822    39194.267 
  850900    299.34056   -1461.8471    503.75255    389.24424    226.23635    39194.267 
  851000    302.11892   -1468.7763    494.57776    385.64572    204.13309    39194.267 
  851100    298.53443   -1506.4358    489.17478    326.44938    269.17665    39194.267 
  851200    294.29957   -1467.4336    489.16837    346.38392    76.900864    39194.267 
  851300    294.13607   -1441.9245    510.91363    392.90235   -318.89761    39194.267 
  851400    303.38869   -1440.3101    489.03873    414.28819    5.9124026    39194.267 
  851500    297.65663   -1428.6101    493.63955    404.78883    220.03042    39194.267 
  851600    306.11297   -1439.6884    488.39916     426.5324   -66.728091    39194.267 
  851700    307.67382   -1448.9513    494.98069    430.87641   -4.3102645    39194.267 
  851800     308.1061   -1471.4439    478.09453    393.44335    76.783208    39194.267 
  851900    299.78463   -1475.2259      475.493    349.60471    173.31306    39194.267 
  852000    306.47951   -1451.2533    495.82909    424.04715    138.84356    39194.267 
  852100    296.34171   -1462.0374    502.82946    374.63294   -135.97494    39194.267 
  852200    311.19258   -1475.6276    505.30345    430.36083    534.21534    39194.267 
  852300    298.47303   -1462.2747    464.31533    345.47471   -79.930183    39194.267 
  852400    305.78301   -1466.0417    492.11047    402.40525    545.70296    39194.267 
  852500    304.35583    -1482.838    508.58237    395.65706   -150.51943    39194.267 
  852600    304.63149   -1432.5628    492.68229    431.27293    644.11755    39194.267 
  852700    296.64032   -1438.3286    470.29658    367.15293    400.09945    39194.267 
  852800    300.61682   -1489.8792    500.70542    363.90952    23.422767    39194.267 
  852900    297.24949   -1468.1956    497.04064    366.77186     77.95479    39194.267 
  853000    294.73513   -1466.4839    475.47105    335.59677    840.46762    39194.267 
  853100    292.27648    -1487.524    536.32145    364.34064    397.54073    39194.267 
  853200    299.86105   -1491.2698    479.04126    337.45305    263.94091    39194.267 
  853300    291.63317   -1485.5775    485.65284    312.72296     468.7041    39194.267 
  853400     299.8192   -1520.0653    498.63803    328.06587    361.15193    39194.267 
  853500    294.04905   -1484.9156    489.16556    327.77154    195.13926    39194.267 
  853600    292.97032    -1485.202    476.96575     310.4299   -552.63694    39194.267 
  853700    291.87548   -1481.7534    482.43722    314.42212   -408.94355    39194.267 
  853800    310.08802   -1450.7797    465.84481    410.77844   -670.41517    39194.267 
  853900    295.74831   -1467.2372    505.67603    369.60878   -518.95908    39194.267 
  854000     295.7482   -1464.0311     492.4726    359.61101   -1117.4077    39194.267 
  854100    301.15162   -1436.1381    496.55815    415.91046   -1155.4167    39194.267 
  854200    298.95325   -1484.6868    500.61689    361.52556   -983.98704    39194.267 
  854300    297.26151   -1436.1115    472.63483    374.50429   -341.10374    39194.267 
  854400    297.45465   -1455.1812     497.0806    380.74969   -389.17315    39194.267 
  854500    302.51774   -1457.5055     492.8649    396.99877    345.79961    39194.267 
  854600    303.44622   -1413.8483    539.84573    491.81585     408.2669    39194.267 
  854700    300.49867    -1442.493    481.71861    391.77709    248.86313    39194.267 
  854800     298.3753   -1428.6556    503.14327    417.48184    40.400808    39194.267 
  854900    298.34001   -1442.4558    500.04551    400.42497   -399.21711    39194.267 
  855000     301.0429   -1424.8967    490.85649    420.96084    427.40137    39194.267 
  855100    293.18249   -1439.1743    496.13846    376.58532      139.114    39194.267 
  855200    309.43403   -1432.2075    483.53726    444.09948    55.235808    39194.267 
  855300    304.37203   -1486.8631    484.24137    367.36386    684.64009    39194.267 
  855400    295.74506     -1489.68    513.29154    354.76694    371.65933    39194.267 
  855500    306.03412   -1441.0206    513.05172     449.4978    200.92515    39194.267 
  855600    301.54483   -1473.8731    462.88645    346.27363   -43.126547    39194.267 
  855700    299.14037    -1481.874    481.49307    346.05676     288.4997    39194.267 
  855800    315.34117   -1500.9117    487.10737    405.55362    261.53728    39194.267 
  855900     283.9208   -1481.6482    487.77292    284.05877    177.24363    39194.267 
  856000    292.62207   -1494.3929    495.94283    318.64868    140.41084    39194.267 
  856100    295.24882   -1513.3895    498.69527    314.22754    61.473371    39194.267 
  856200    290.96535   -1510.2404     490.8518    290.25318   -743.13125    39194.267 
  856300      310.756   -1498.1452    491.92638    392.50115   -353.78311    39194.267 
  856400    300.70281    -1479.704    485.18624    358.95257   -504.76323    39194.267 
  856500     298.9773   -1490.6578    483.61645    338.66244   -505.66207    39194.267 
  856600    302.26356   -1497.4142     491.8688    354.94984   -187.95337    39194.267 
  856700    288.49538    -1515.401    481.50857    264.63202     59.93783    39194.267 
  856800    302.10188   -1496.8113    518.55597     381.5122   -370.65221    39194.267 
  856900    288.90165   -1513.1492    490.21275    277.41662   -58.449974    39194.267 
  857000    294.91297   -1504.6607    482.61356    305.36295    422.82654    39194.267 
  857100    306.81191   -1499.9069    483.74311    364.80375    384.90226    39194.267 
  857200    308.92511   -1493.3131    509.12288    406.28885       297.02    39194.267 
  857300    302.16342   -1461.0144    488.10917    387.13934     -177.317    39194.267 
  857400    298.77166   -1477.9186     502.6768    369.53635   -233.46741    39194.267 
  857500     298.3234   -1484.9577    492.00634     349.8092   -249.40233    39194.267 
  857600    294.96143   -1465.0142     493.2555     355.8695    466.80725    39194.267 
  857700    301.10891   -1456.5901    505.13818    403.84627   -300.83418    39194.267 
  857800    302.95977   -1507.1784    526.93167    383.38219    55.116791    39194.267 
  857900     298.9754   -1494.1876    496.86133    348.36889    562.56484    39194.267 
  858000    303.73168   -1553.9966    482.52936    295.63607    79.027755    39194.267 
  858100    308.18695   -1502.6298    499.56216    384.08895   -8.3952254    39194.267 
  858200    289.17337   -1481.7999    481.07349    300.84957    231.27039    39194.267 
  858300    300.18015   -1478.1095    484.77159    357.77992    133.54818    39194.267 
  858400    287.71997   -1481.1119    507.12173    321.04414   -640.17216    39194.267 
  858500    303.63087   -1475.0763    466.24632    357.81961   -311.78156    39194.267 
  858600    312.19313   -1471.4755    474.30314    408.01611   -333.00667    39194.267 
  858700    304.12037   -1453.9567    501.53494    416.43104   -303.86315    39194.267 
  858800    286.23094   -1457.4443    521.66218    352.54995   -450.19914    39194.267 
  858900     299.5996   -1492.1438    476.42303    332.78395   -463.55925    39194.267 
  859000    297.03397   -1485.2597    489.79762    341.49466   -290.22804    39194.267 
  859100    309.88541   -1451.2058    481.32586    424.92152   -878.29012    39194.267 
  859200    301.70471   -1467.1767    483.98438    374.78763   -331.80386    39194.267 
  859300    307.00509    -1413.315     483.8321    452.35408    37.695665    39194.267 
  859400    300.56055   -1467.6167    511.91068    397.12399   -337.32945    39194.267 
  859500    301.61005   -1442.8139    495.97835    410.71825    159.23573    39194.267 
  859600    301.39842   -1389.1071    497.16074    464.65489    58.633352    39194.267 
  859700    284.58481   -1433.6327    504.88086    352.17101    115.59838    39194.267 
  859800    299.63938   -1415.5712    522.89281    456.00537    59.381082    39194.267 
  859900    296.91312   -1396.9152    509.25311     448.7507   -92.513614    39194.267 
  860000    296.02196   -1417.5675    483.20371    398.03789    52.369074    39194.267 
  860100    290.58991    -1396.469    510.22517    421.70811   -506.63268    39194.267 
  860200    305.83312   -1421.7682    509.19672     463.9905   -316.47116    39194.267 
  860300    296.15909   -1429.1818    481.99325    385.83044   -577.40659    39194.267 
  860400    300.51937   -1421.5214     511.4964    442.61968   -15.024893    39194.267 
  860500    296.47279   -1455.0349     461.0559     340.4519   -225.37307    39194.267 
  860600     313.4547   -1421.9802    496.66185    485.54858   -333.28342    39194.267 
  860700    309.76407   -1417.0243    511.83113    489.06212   -220.01487    39194.267 
  860800    302.37631   -1435.4444    496.66116    422.21957   -32.824723    39194.267 
  860900     288.5513   -1470.3246    508.15487    336.60637    286.26493    39194.267 
  861000    300.28261   -1482.4357    491.03003    360.17334   -211.29117    39194.267 
  861100    300.94021   -1472.5879    482.89449    364.84545   -74.210809    39194.267 
  861200    302.99551   -1462.7536    509.50025    410.53649   -465.44471    39194.267 
  861300     310.6764   -1460.9462    506.46452       443.88   -37.087835    39194.267 
  861400    295.59983   -1465.4131     497.8987    362.98726   -21.670204    39194.267 
  861500    300.93695   -1434.1915    503.21845    423.55116    34.487744    39194.267 
  861600    295.71818   -1469.3022    492.96171    354.69387   -730.31702    39194.267 
  861700    290.37583   -1436.4041    473.82229    344.40654   -857.46983    39194.267 
  861800    298.58673   -1468.3517    470.20139    345.79548   -464.38826    39194.267 
  861900    295.08568   -1479.7437    474.45454    322.89833   -227.27721    39194.267 
  862000    292.13234   -1480.1205    508.12179    342.89572    313.21785    39194.267 
  862100    304.09738   -1419.1403    492.26444     441.8735    273.10715    39194.267 
  862200    300.53465   -1420.2199    495.43611    427.92961    379.48938    39194.267 
  862300    297.36734   -1413.1365    478.26377    403.58458   -173.13293    39194.267 
  862400    300.56873    -1513.344    469.09974    308.62255   -484.08699    39194.267 
  862500    308.97203   -1465.5645    498.33686     423.4626    128.11759    39194.267 
  862600    306.48316   -1439.7527    500.20088    439.93598   -118.25606    39194.267 
  862700    292.54315   -1425.0379    494.85019    386.55579    188.30044    39194.267 
  862800    296.98963   -1441.3153    490.61867    386.06054   -32.854193    39194.267 
  862900    302.87803   -1471.3801    495.78955    387.67045   -126.77928    39194.267 
  863000    301.58042   -1448.6017    504.08669    412.90548    301.92978    39194.267 
  863100    288.25848   -1455.9864    501.22424    342.69598    1065.8455    39194.267 
  863200    303.48479   -1449.6096    494.36598    410.74844    460.01615    39194.267 
  863300    303.10196   -1485.2817    489.10997    368.09722   -137.70666    39194.267 
  863400    306.11529   -1458.7889    498.46486    417.50797    60.146358    39194.267 
  863500    305.32273   -1493.1755    481.02639    362.11553    331.04916    39194.267 
  863600    299.56414   -1501.0515    493.47485    340.76845   -20.805078    39194.267 
  863700    299.52881   -1515.0492    475.33362    308.47052    34.005705    39194.267 
  863800    297.22164   -1454.8372    478.39939    361.36366    593.22374    39194.267 
  863900    300.61198   -1496.2891    515.30254    372.07494   -171.18809    39194.267 
  864000    298.75698   -1446.7454    488.24057    386.20725    365.99061    39194.267 
  864100    298.15932   -1437.7644    505.34438    409.60202    403.19997    39194.267 
  864200    300.97358   -1430.0314    536.62563    461.28329    124.44713    39194.267 
  864300    294.93783   -1490.6235    456.59914    293.49769   -156.70823    39194.267 
  864400    293.72373   -1476.9035    489.82308     334.9769   -184.36999    39194.267 
  864500    295.49756   -1462.1443    474.71315    342.61022   -369.16655    39194.267 
  864600    295.25898   -1439.2865    478.28208    367.96312    -277.4749    39194.267 
  864700    305.73982   -1429.6398    498.57126    445.07353   -349.82341    39194.267 
  864800    304.24093   -1441.8225     466.6909    394.26384    163.10995    39194.267 
  864900    311.63836   -1429.4494    499.50503    472.74713   -407.35326    39194.267 
  865000    301.27708   -1430.4922    492.51313    418.07598   -605.14913    39194.267 
  865100    298.43905   -1436.0618    501.32935    408.54865   -333.63934    39194.267 
  865200     306.4231   -1411.4332    488.24058     456.0249   -637.65464    39194.267 
  865300    300.40776    -1445.774    477.80786    384.17614   -556.57149    39194.267 
  865400    304.77248   -1421.3427     485.3812    435.82646   -468.48162    39194.267 
  865500    306.93096   -1401.3992    476.53299    456.63717   -652.91949    39194.267 
  865600    290.76273   -1376.3967    492.85157    425.18464    -623.0518    39194.267 
  865700    301.46334     -1393.28    499.92183    463.53535    56.319918    39194.267 
  865800    300.40221   -1414.1148    501.90812    439.91061    459.44648    39194.267 
  865900    300.90058    -1419.097    491.33189    426.59535    340.26996    39194.267 
  866000     301.1395   -1417.3592    487.40718    425.48385   -4.9183861    39194.267 
  866100    307.46961   -1392.5319    484.01312    475.40908    184.03241    39194.267 
  866200    295.01012   -1391.2879    497.23427    433.79378    122.00443    39194.267 
  866300    306.04121   -1380.4927    496.68744    493.69335    686.24474    39194.267 
  866400    291.68088   -1411.2127    521.59735    423.24703    457.24736    39194.267 
  866500    300.28825   -1384.3482    492.46374    459.71994    177.30244    39194.267 
  866600    295.48477   -1413.0326    501.69424    418.64541    120.51745    39194.267 
  866700    305.54456   -1414.2142    497.86526    458.91421    273.74335    39194.267 
  866800    296.95539   -1389.8967    497.15904    443.86544   -116.25637    39194.267 
  866900    295.26188   -1392.2836     498.3565    435.05347    143.55539    39194.267 
  867000    307.23392    -1386.753    496.24593    492.35994    710.98478    39194.267 
  867100    301.90375   -1408.3209    489.83286    440.38778     938.1389    39194.267 
  867200    315.60983    -1435.321    475.10457    460.35073    215.36109    39194.267 
  867300    301.74804   -1373.3701     503.5929    488.39772    71.237463    39194.267 
  867400    306.87191   -1448.5963    470.17076      402.812   -448.23566    39194.267 
  867500     295.5609   -1455.3099    500.69529     375.7119   -204.27518    39194.267 
  867600    305.06681    -1446.894    480.36474    406.58353    270.86795    39194.267 
  867700    299.31531   -1419.9406    494.37247      421.657   -455.91263    39194.267 
  867800    295.90149   -1411.9111    491.93639    411.88477   -32.895735    39194.267 
  867900    296.84323   -1432.8856    501.19296    404.40564   -635.71691    39194.267 
  868000     289.8437   -1482.4926    484.75215    306.85274   -721.31512    39194.267 
  868100    298.13885   -1463.1989     481.7086    360.43957     -300.655    39194.267 
  868200    289.27023   -1454.0774     474.0196    321.95417   -517.86644    39194.267 
  868300     308.7544    -1439.221    472.99468    423.48442   -196.98584    39194.267 
  868400    297.65383   -1468.3513    465.92418    337.31963    294.38717    39194.267 
  868500    307.78335   -1507.4042    477.14725    355.08298    212.92991    39194.267 
  868600     310.5926   -1456.7418    497.52119    438.76391      63.9364    39194.267 
  868700    295.37882   -1439.4652    480.42275    370.46446    6.6578926    39194.267 
  868800    292.89369   -1460.6665    491.10914    348.76393    131.13216    39194.267 
  868900    303.10866   -1440.7112    500.34982    423.93774    483.95536    39194.267 
  869000    296.68613   -1464.5717    505.13433    375.95373    266.95205    39194.267 
  869100    311.25665   -1471.5652    500.19686    429.60507     588.6147    39194.267 
  869200    296.49635   -1480.7269    472.43971    326.24978   -80.764764    39194.267 
  869300    312.42482    -1454.811    507.81754    459.23791    612.42498    39194.267 
  869400    296.53486   -1463.2829    493.53222    364.95961    533.78242    39194.267 
  869500    302.68959   -1498.8276     500.9253    364.51056    126.04534    39194.267 
  869600    304.99497   -1484.1193    497.61987    386.28997   -581.36106    39194.267 
  869700    300.93987   -1497.8425    466.52104    323.21589   -158.35881    39194.267 
  869800    294.01353   -1484.1326    487.86418    327.09333   -37.762983    39194.267 
  869900    307.06277   -1459.3293    473.46191    396.22924   -52.912422    39194.267 
  870000    301.78979   -1479.1004    467.67291    346.93534   -236.06639    39194.267 
  870100    305.08366   -1513.1658    507.87482    367.89762    448.91912    39194.267 
  870200     315.5554    -1476.748    489.67965    433.25385    282.72831    39194.267 
  870300    304.05635   -1507.9356    487.69614    348.32526    103.43103    39194.267 
  870400    299.97627   -1452.7341    504.19282    401.65891    651.87688    39194.267 
  870500    306.17702   -1491.0375    495.43327    382.50565    394.17715    39194.267 
  870600    308.55958   -1520.6348    496.31644    364.51552    239.10877    39194.267 
  870700    302.98428   -1510.4009    468.92475    322.26316    101.86997    39194.267 
  870800    299.73857   -1505.9624    454.62411    297.79198   -247.26674    39194.267 
  870900    310.17577   -1498.5082    495.50236    393.10244     165.1578    39194.267 
  871000     295.9131   -1510.8702     505.6236    326.66509   -606.45441    39194.267 
  871100    297.51542   -1497.4957    479.13525     320.7633     189.8653    39194.267 
  871200    291.79314   -1489.7647    482.22036    305.82336    352.83263    39194.267 
  871300    308.07007    -1482.326    468.01658    372.32109    222.34722    39194.267 
  871400    307.54465   -1493.1508     492.9743    384.08911    -469.7235    39194.267 
  871500    303.48371   -1450.9387    482.45693     397.5055   -570.59778    39194.267 
  871600    299.61874   -1459.7354    486.00788    374.86337   -383.52748    39194.267 
  871700    303.59203   -1423.4491    482.21687    425.24258   -325.86195    39194.267 
  871800    304.32171   -1485.0459    494.44101    379.15421    -106.9146    39194.267 
  871900    305.21994   -1495.4867     492.5552    370.87049    110.58233    39194.267 
  872000    300.38291   -1497.8408    499.64752    353.83712   -190.89925    39194.267 
  872100    306.91528   -1462.9717    485.55598    404.01707    379.72139    39194.267 
  872200    293.00533   -1460.0699    483.29138    342.04527    316.58658    39194.267 
  872300    311.53158   -1498.0689    495.07909    399.22108     368.7901    39194.267 
  872400    303.92255   -1515.9276    475.85503    327.88987    409.25757    39194.267 
  872500    304.95675   -1474.0552     490.7098    389.27196   -380.26468    39194.267 
  872600    289.43837   -1473.9664    464.50033    293.30275   -336.38234    39194.267 
  872700    310.17348   -1496.1299     484.9601    384.92821   -549.45698    39194.267 
  872800     293.2565   -1463.4519    472.33511    328.83751   -494.40471    39194.267 
  872900    304.01644   -1493.6081    478.69412     353.4711   -1015.6857    39194.267 
  873000    292.93111   -1488.3291    471.90623    302.06689   -864.02047    39194.267 
  873100    304.56112   -1472.8947    475.63778     373.5797   -154.72894    39194.267 
  873200    303.05733   -1476.9278    502.14367     389.2839    44.818044    39194.267 
  873300    296.55258   -1470.8134    514.47705    378.45374   -107.85214    39194.267 
  873400    295.37827   -1502.9483    474.61514    301.17123   -117.09874    39194.267 
  873500    305.29126    -1454.809    473.11708    392.43114    27.242904    39194.267 
  873600    293.85197   -1522.9417    491.31608    291.00888   -319.02534    39194.267 
  873700     307.9659   -1524.4214    481.47027    343.21058    1054.8053    39194.267 
  873800    305.44109   -1513.2041     493.1999    354.79325    355.55643    39194.267 
  873900    302.98168   -1514.2621    495.15673    344.62217    532.11143    39194.267 
  874000    304.76163   -1492.1089      495.493    375.12328    306.06929    39194.267 
  874100    301.03276   -1459.7111    465.32821    360.57256    -153.1215    39194.267 
  874200    309.96548   -1467.9995    493.41439    420.57671   -7.4866298    39194.267 
  874300    304.22765   -1483.3485    496.71842    382.70566    360.20342    39194.267 
  874400     300.6361   -1518.6561    485.77626    320.29023    84.302001    39194.267 
  874500    304.66665   -1496.8328    495.85883    370.33774    109.19565    39194.267 
  874600    295.90074   -1484.2906     458.5975    306.16302    38.435287    39194.267 
  874700    305.50419   -1495.8327    475.03845    354.28725    63.461226    39194.267 
  874800    294.32845   -1481.1133     489.6288    333.29468   -370.78736    39194.267 
  874900    298.61488   -1478.7262    488.06171    353.40798   -874.29805    39194.267 
  875000    296.16559   -1447.0317    498.41914    384.43566   -606.95004    39194.267 
  875100    300.17484   -1491.6599    484.03061    343.46467   -514.81181    39194.267 
  875200    298.41014   -1518.2702    472.94454    297.82532   -294.29902    39194.267 
  875300    315.39824    -1538.034    494.11696    375.69771   -10.369288    39194.267 
  875400    289.09395   -1495.8652    487.58136    292.93472    49.830682    39194.267 
  875500    295.00189   -1487.0848    524.91545    365.64094    343.10723    39194.267 
  875600    298.24449   -1515.7733     495.9771    322.60912    329.76866    39194.267 
  875700    300.83679   -1483.1457    494.63817    365.56585    551.45473    39194.267 
  875800     298.8714   -1445.8861    503.00549    402.34648    871.20123    39194.267 
  875900    287.50002   -1476.4505    466.48641    284.08016    159.08577    39194.267 
  876000    296.63251   -1488.6561    503.61131    350.10504   -183.93858    39194.267 
  876100    306.30624   -1456.0115    503.28038    425.96033   -488.69634    39194.267 
  876200    302.11247   -1419.6324     499.2105    439.39328   -98.736788    39194.267 
  876300    295.71071   -1437.2684    499.13622    392.86856    -372.4346    39194.267 
  876400     298.5414   -1445.7324    504.87787    402.88721   -790.70768    39194.267 
  876500    300.90732   -1408.8033    502.69469    448.28224   -91.739124    39194.267 
  876600     293.7232   -1394.8433    512.34833    439.55998   -422.70506    39194.267 
  876700     306.8154   -1419.9418    473.46592    434.50732     -503.827    39194.267 
  876800    296.27925   -1386.5693     487.4232    434.41367   -504.31981    39194.267 
  876900     298.7338   -1414.0395    505.63171    436.19994   -997.18894    39194.267 
  877000     291.5623   -1407.2881    495.45023    400.49077   -279.61355    39194.267 
  877100     296.8345   -1456.0505     491.7887    371.79716   -441.67958    39194.267 
  877200    303.91537   -1439.5742      492.569    420.92488   -571.56535    39194.267 
  877300    307.48533   -1434.8423    488.48555    437.64182   -568.22351    39194.267 
  877400     297.8761   -1375.8607    479.36703    444.25354   -947.65425    39194.267 
  877500    310.23264   -1413.0407    515.26758     498.5912   -212.57406    39194.267 
  877600    293.98945   -1403.9041    483.19241     402.5416   -36.484477    39194.267 
  877700    311.36664   -1439.7471    503.91241    465.63371    169.45873    39194.267 
  877800    296.64887   -1417.3389    498.38995    416.27444    328.81098    39194.267 
  877900    303.23926   -1422.9011    479.11832     421.1041    98.827191    39194.267 
  878000    295.70257   -1434.2151    496.16845    392.91751   -416.96325    39194.267 
  878100    301.50682   -1397.9187    486.33639    445.50684    -72.40031    39194.267 
  878200    294.21791   -1406.4636    503.47284     421.2908   -45.014348    39194.267 
  878300    293.59351   -1383.1839     498.9868    437.27404   -126.99123    39194.267 
  878400     291.2276   -1432.3876    489.42448    367.85902   -370.72398    39194.267 
  878500     301.1998   -1396.1558    492.82108    452.37252   -364.58791    39194.267 
  878600    302.85595   -1395.1038    503.96817    472.02599   -375.45405    39194.267 
  878700    289.71892    -1410.641    501.73781    395.12839    126.92008    39194.267 
  878800    311.31316   -1381.7239    516.93798    536.44178    260.97445    39194.267 
  878900    293.06974   -1396.6361    509.18116    431.65872    974.48544    39194.267 
  879000    296.39745   -1456.6866    509.16317    386.56833    272.46304    39194.267 
  879100    299.21564   -1442.7039    519.49092    423.56349    348.90816    39194.267 
  879200    286.00311   -1428.6088    487.40469    346.10247    568.02597    39194.267 
  879300    285.43371   -1449.2452     466.6278    302.12631    106.84403    39194.267 
  879400    301.19202   -1416.3697     510.0648    449.36732    51.672979    39194.267 
  879500    297.24308   -1456.4805    490.35015    371.76762    107.70727    39194.267 
  879600    303.14171   -1463.3488    488.53706    389.63613   -215.69367    39194.267 
  879700    299.04171   -1440.5868    492.16708    397.57397   -765.33675    39194.267 
  879800    307.94027   -1397.4029    495.83378     484.4772   -131.74086    39194.267 
  879900     299.9953    -1435.289    485.61388    400.61065   -15.640759    39194.267 
  880000     303.3503   -1429.0538    473.43059    409.76352   -159.44216    39194.267 
  880100    305.94362   -1507.2642    483.08932    352.88442     8.767336    39194.267 
  880200    312.26324   -1474.2602    486.86318     418.1071    -465.5164    39194.267 
  880300    286.61619   -1485.6052    476.16126    280.62218    133.20544    39194.267 
  880400    297.52911   -1471.1727    490.79893    358.81167    -90.62791    39194.267 
  880500    303.28355   -1434.9738    489.60263    419.71512   -17.255931    39194.267 
  880600    293.69147   -1431.8867    477.58063    367.60605    -221.8757    39194.267 
  880700    293.70716   -1424.7936    491.24476    388.43392   -469.01932    39194.267 
  880800     301.2465   -1434.7266     493.4217    414.61262    56.692292    39194.267 
  880900    295.13925   -1422.1803    544.26283     450.5111    245.35137    39194.267 
  881000    292.86782   -1421.3282    491.21283    388.08945    620.16485    39194.267 
  881100    305.68931   -1432.0502    521.21779    465.08223    502.98171    39194.267 
  881200    294.61876   -1447.9105    495.05265      373.228    1119.4599    39194.267 
  881300    296.44051   -1457.1031    493.92735    371.10988    727.77311    39194.267 
  881400    298.04539   -1405.1538    475.07707    411.43245    250.37815    39194.267 
  881500    298.85581   -1390.9412    504.25472    458.47042    148.22203    39194.267 
  881600    305.78342   -1394.1687    496.50634    478.67588    118.96316    39194.267 
  881700    301.22814    -1427.497    502.65879    430.99669    -147.7479    39194.267 
  881800    304.76589   -1430.5564    504.45632    445.65831   -132.38153    39194.267 
  881900    288.92557   -1495.1959    464.21316    269.47793   -739.52686    39194.267 
  882000    289.65644   -1440.0253    503.83852    367.56359    110.19312    39194.267 
  882100     305.8175   -1480.4377    474.89908    370.95303   -78.293456    39194.267 
  882200    300.91463   -1489.4045     487.7886    352.80783    737.94868    39194.267 
  882300    307.90183   -1474.2129    500.34001    412.00041    641.40244    39194.267 
  882400    301.97447   -1480.8481    485.93822    364.28421    252.32101    39194.267 
  882500    297.44347   -1473.9059    481.09179    345.98582    380.16457    39194.267 
  882600    303.45205   -1445.7267    505.01156    425.12958    495.70515    39194.267 
  882700    293.12833   -1445.1809    497.39409     371.5906    516.28636    39194.267 
  882800    298.68579    -1442.455    494.61093    396.54764    530.36407    39194.267 
  882900    308.49584   -1397.2589    489.33601    480.62399    444.39547    39194.267 
  883000    296.42084   -1396.2824    513.13201    451.04663     610.3162    39194.267 
  883100    298.76686   -1389.3165    503.76254    459.20258    413.74688    39194.267 
  883200    318.94212   -1446.9366    501.81391    490.44318     515.2207    39194.267 
  883300    315.88466   -1416.8311    499.03605    504.00912    43.739404    39194.267 
  883400    299.53971   -1465.6891    494.75622    377.30235     132.7636    39194.267 
  883500    308.81047   -1472.4176    492.43788    409.98336    225.75712    39194.267 
  883600     305.2168   -1459.8457    492.45398    406.39617   -283.15184    39194.267 
  883700    304.34654   -1444.6485    485.96321     411.1855    567.54729    39194.267 
  883800    305.75871   -1423.8669    475.73729    428.09743    527.82891    39194.267 
  883900     299.9754   -1422.6875    509.53754    437.04623    389.10774    39194.267 
  884000    288.01864   -1440.5039    481.14913    337.02376    385.00361    39194.267 
  884100    292.07001   -1447.6957    519.72543    386.64366    729.29217    39194.267 
  884200    293.25379   -1431.6962    510.08918    398.33507    724.83063    39194.267 
  884300    300.72076   -1402.7985    496.29199    447.04455    748.74225    39194.267 
  884400    298.04294   -1447.0107    477.98629    372.47381    354.12893    39194.267 
  884500    305.98257   -1407.9045    485.90136    455.23148   -3.6132432    39194.267 
  884600    307.31807   -1420.6846    469.55221    432.11342    -164.3876    39194.267 
  884700    299.25554   -1426.9801    491.04992    411.02599   -141.22554    39194.267 
  884800    294.28219   -1414.0333    510.70776    421.24542   -123.20142    39194.267 
  884900    306.68972   -1411.6487    487.28965    456.05846    379.15148    39194.267 
  885000    293.96127     -1438.23    477.77582    362.67226   -282.83695    39194.267 
  885100    295.39175   -1448.9031    504.88359    385.54556    11.135031    39194.267 
  885200    289.06062    -1465.982    461.54836    296.63487    121.46019    39194.267 
  885300    307.03344   -1437.5557    503.89072    448.29965     264.8942    39194.267 
  885400    297.25849   -1414.5642    497.39658    420.79975    156.83479    39194.267 
  885500    301.09683   -1406.9486    492.80348    441.09868    325.10732    39194.267 
  885600    304.00652   -1417.8715    493.10354    443.57244    71.663206    39194.267 
  885700    300.01868   -1414.2936    507.98201    444.07942    237.05861    39194.267 
  885800    302.80873   -1460.1814    474.72009    377.48776    472.00521    39194.267 
  885900    285.59183   -1423.1769    504.86585    367.14443    196.17172    39194.267 
  886000     298.5444   -1420.7184    497.62598    420.66283     226.2292    39194.267 
  886100    305.40476   -1432.9151    489.00933    430.72818    -196.0053    39194.267 
  886200    289.56134   -1426.6693    503.49704    380.15006    -228.0644    39194.267 
  886300    303.83385   -1413.9868    479.85603    433.43245   -401.34109    39194.267 
  886400    307.36224   -1390.3232    476.47255    469.59392   -428.06658    39194.267 
  886500    298.82355   -1379.4424    504.81446     470.3838   -768.23555    39194.267 
  886600    288.83812   -1332.9967     490.3972    457.46757   -627.01372    39194.267 
  886700     295.2623   -1393.9337    511.07951     446.1283    -692.9702    39194.267 
  886800    296.85769   -1400.5261    484.83363    420.47091    320.66958    39194.267 
  886900    307.27898   -1407.2265    486.48436    462.32771   -306.27941    39194.267 
  887000    287.50271   -1427.9323    483.48751    349.61157   -637.17902    39194.267 
  887100    295.13946   -1391.2087     453.3853    390.60613   -220.56531    39194.267 
  887200     296.6277   -1373.0942    500.11747    462.15142    114.32099    39194.267 
  887300    299.22703   -1435.3238    511.08769    422.59171    126.86931    39194.267 
  887400    302.53507   -1432.6139    496.71697    425.82042    522.84792    39194.267 
  887500    294.21206   -1441.1051    483.61871    366.76893    697.46196    39194.267 
  887600    301.99048   -1458.3395    512.27271    413.19941    400.28524    39194.267 
  887700    295.39899   -1442.5732    450.79148    337.81593    363.24285    39194.267 
  887800    309.90685   -1428.0541    518.61716    485.46102    459.12143    39194.267 
  887900    294.40309   -1414.2501    455.29687    366.16191    694.88634    39194.267 
  888000    289.99214   -1410.4252    509.82473    404.66088    82.614667    39194.267 
  888100     299.6385   -1451.2391    462.06352    359.50429    -241.3916    39194.267 
  888200     316.9328   -1422.3662    498.81131    502.96702   -250.96742    39194.267 
  888300      302.409   -1442.5268    479.54529    398.16839   -519.87447    39194.267 
  888400    302.20476   -1455.2827     482.9358    387.88377   -385.24261    39194.267 
  888500    301.65606   -1464.5956    502.53239    395.69771    71.723301    39194.267 
  888600    297.18382   -1478.1557    495.43635     354.9119   -418.23232    39194.267 
  888700    292.74656   -1472.2123    493.74634    339.19311    -51.66461    39194.267 
  888800    302.94135   -1444.0501    489.86231    409.35829    -50.73975    39194.267 
  888900    293.33904    -1442.385     536.1884    414.12917   -25.096912    39194.267 
  889000    290.34632    -1468.928     516.5708    354.49832    251.89884    39194.267 
  889100    300.45644   -1442.0403    501.88308    412.20419     652.8619    39194.267 
  889200    302.75638   -1458.3966    506.36979    410.68662    605.32079    39194.267 
  889300    296.36775   -1430.1622    479.43935     383.2352    904.98486    39194.267 
  889400    311.50225   -1423.3094    480.11322     458.8827    885.34091    39194.267 
  889500    304.00846   -1413.1687    537.70542    492.88587    689.94903    39194.267 
  889600    287.22256   -1444.3283    475.96414    324.43124    460.45466    39194.267 
  889700    302.33028   -1403.9136    525.80265    482.68462    229.12017    39194.267 
  889800    292.89681   -1460.8497     504.7522     362.2378    273.43492    39194.267 
  889900    308.86696   -1402.4417    484.23326    472.00896   -313.01464    39194.267 
  890000    304.78307   -1419.5635    484.82954    437.10166   -350.62841    39194.267 
  890100    292.30252   -1404.3378    497.74212    409.06469   -472.92289    39194.267 
  890200    293.50035     -1413.15     497.2369    405.13875   -303.91223    39194.267 
  890300    302.93642   -1421.1358     482.5588    424.94686   -41.993799    39194.267 
  890400    290.44204    -1425.211    512.97682    395.05214   -98.104464    39194.267 
  890500    299.31543   -1470.4651     491.9701    368.73067    328.48373    39194.267 
  890600    309.03257    -1446.306    511.29244    455.94922    504.41044    39194.267 
  890700     301.3876   -1467.9546    514.46338    403.06133    614.51434    39194.267 
  890800    300.38317   -1474.0195    493.40691    371.41906    490.62778    39194.267 
  890900     291.1104   -1432.9315    502.49363    379.85681    111.84932    39194.267 
  891000    291.11259   -1421.6725    502.84819    391.48017    198.43596    39194.267 
  891100    305.40311   -1444.5119    484.27315    414.38767     704.0823    39194.267 
  891200    314.46463   -1462.1254    483.52713    436.81433    147.73486    39194.267 
  891300    294.92777   -1468.8203    483.08471    341.74116   -107.63253    39194.267 
  891400    289.01611   -1452.5585    498.80972    347.11939    1.9550016    39194.267 
  891500    301.29766   -1453.6405    487.88514    390.39242   -265.17282    39194.267 
  891600    308.10728   -1469.8532    482.12559     399.0704   -410.73919    39194.267 
  891700     304.2304   -1464.8642    497.54476    402.02863     158.0587    39194.267 
  891800     315.6427   -1420.6321    503.81919    503.90221    -126.7768    39194.267 
  891900    304.43671   -1373.6955    484.42316    481.00436    36.536697    39194.267 
  892000    310.87893    -1387.639    484.12139    495.75568    120.98991    39194.267 
  892100    300.88608   -1441.7503    520.31016    432.85508    268.30203    39194.267 
  892200    295.58991    -1409.652    504.25212    425.05718   -203.59804    39194.267 
  892300    312.56394   -1400.5396    506.48585    512.80383    596.00825    39194.267 
  892400    299.69313   -1405.1797    489.70714    433.45319   -358.70392    39194.267 
  892500    292.42651   -1455.0136    509.87938    371.08433   -224.35196    39194.267 
  892600    302.49414   -1440.8279    493.69293    414.39813   -76.780442    39194.267 
  892700     318.9302   -1443.2534    506.00582    498.26461     139.5799    39194.267 
  892800    302.77107   -1422.6882    508.42137    448.51274   -502.95342    39194.267 
  892900    303.13337   -1426.2201    464.46421    402.65444   -301.38768    39194.267 
  893000    294.29853   -1435.3827    492.63207    381.89388   -243.59436    39194.267 
  893100    303.31582   -1425.1202    491.36866    431.47994    -525.2055    39194.267 
  893200    298.51502   -1439.3726    482.06223     386.3126   -318.57044    39194.267 
  893300    317.20824   -1437.0394    491.91074    482.63298     16.61476    39194.267 
  893400     300.4725   -1397.5555     484.4097    439.28792   -407.05245    39194.267 
  893500    305.53768   -1428.8929    515.87359    462.21286   -1132.0325    39194.267 
  893600    290.95249   -1476.8009    488.92056    321.70361   -645.79722    39194.267 
  893700    292.98302   -1458.7862    459.80882    319.74604   -448.84706    39194.267 
  893800    295.88437   -1430.3254    510.11115    411.56819   -60.023459    39194.267 
  893900    300.44868    -1454.548    494.69613    392.47467    237.12908    39194.267 
  894000    296.83922   -1458.0417    489.43135    367.46987    290.67258    39194.267 
  894100    304.39782   -1479.9837    504.15125     394.2692    299.13082    39194.267 
  894200    291.29099   -1440.6215    505.28248    375.76854     242.7079    39194.267 
  894300    305.16086   -1483.8792    492.71162    382.36854   -146.51697    39194.267 
  894400    310.85121   -1500.6523    479.86322    378.35942     283.5203    39194.267 
  894500    303.96368   -1488.9948    487.54458    366.69734    -37.68042    39194.267 
  894600    307.14379   -1462.1393    494.48761    414.80968   -390.60604    39194.267 
  894700    299.64371   -1474.7047    455.48983     329.4884   -550.37932    39194.267 
  894800    302.36782   -1443.0805    514.00983    431.89391     -478.252    39194.267 
  894900    295.40454   -1422.1947    508.86303    416.29103    252.34846    39194.267 
  895000    295.75007   -1387.4484    485.26706    428.99657   -217.75147    39194.267 
  895100    304.05936   -1432.7469    470.16612    405.99748   -86.147714    39194.267 
  895200    295.27145   -1442.6693    505.34589     391.7002    120.41752    39194.267 
  895300    306.65713   -1481.1387    501.02406    400.15624     622.2439    39194.267 
  895400    299.41122   -1475.1443    474.62575    347.13832    351.60261    39194.267 
  895500    296.17102   -1480.8533    512.98063    365.19994    102.14501    39194.267 
  895600    297.52865   -1462.5888    498.60602    375.20057   -421.30214    39194.267 
  895700    297.42216   -1455.5743    476.11623    359.24599   -233.12432    39194.267 
  895800     310.2654   -1482.9678    485.59119     399.1352    240.33754    39194.267 
  895900     289.1363   -1443.8373    506.92269    364.49456    -152.9919    39194.267 
  896000    301.85073   -1441.8912     520.9712    437.71714    384.81967    39194.267 
  896100    308.96313   -1481.7759    471.18343    380.05777    144.34381    39194.267 
  896200    307.83191   -1484.5913    485.05268       386.02   -140.85225    39194.267 
  896300    304.78986   -1460.4769    500.73966    412.12894   -50.192203    39194.267 
  896400    293.56335   -1475.7225    481.38054    326.99352   -37.164634    39194.267 
  896500    294.99458   -1449.5241    509.12616    387.37947   -123.64524    39194.267 
  896600    299.12873   -1446.8903    500.79994    400.29496   -347.01387    39194.267 
  896700    288.66633   -1463.5597    500.85342    336.58759    -146.0497    39194.267 
  896800    302.63983   -1473.0902     479.5688    368.66747   -123.96157    39194.267 
  896900    310.39789   -1451.0857    501.05496    447.07733    216.89673    39194.267 
  897000    300.09028   -1501.0316    484.96804    334.64977    222.19131    39194.267 
  897100     291.1052    -1446.735    507.80739    371.34369   -737.94719    39194.267 
  897200    291.32638   -1426.5265    503.92411     388.6644   -470.63238    39194.267 
  897300    299.51433   -1380.3852     498.5009    466.23663   -84.125968    39194.267 
  897400    300.89053   -1428.0788    502.19041    428.42682    -25.86259    39194.267 
  897500    306.33107   -1442.4571    503.14788    439.49399    739.23368    39194.267 
  897600    304.38824    -1446.691    514.38774    437.75523    551.73018    39194.267 
  897700    311.05781   -1439.8144     517.9412    478.20525    657.92588    39194.267 
  897800    298.54934   -1449.0033    482.97697    377.75117    6.7843766    39194.267 
  897900    299.29775   -1484.7589    491.03241    353.41959    257.51745    39194.267 
  898000    294.04073   -1446.8293    534.61654    411.27142     402.1502    39194.267 
  898100    293.40383   -1473.5345    473.64533    320.72825    129.62202    39194.267 
  898200    304.32674   -1448.0064    504.34328    426.11862     196.7251    39194.267 
  898300    293.27914   -1441.0969    497.04163    376.00087    196.83122    39194.267 
  898400    302.02896   -1519.3665    476.83988    316.91272     91.97703    39194.267 
  898500    316.97195   -1454.5355    510.92419    483.08678    163.23189    39194.267 
  898600     292.0209   -1495.1334    459.48719    278.74663    63.032159    39194.267 
  898700    300.72984   -1497.0039    515.79125    372.37936   -243.63489    39194.267 
  898800     293.7337   -1466.1651    472.04495    327.98206   -339.13218    39194.267 
  898900    295.63825   -1459.9285    495.15607    365.90214   -967.38207    39194.267 
  899000    298.58981   -1446.8711    490.27206    387.36061   -446.34991    39194.267 
  899100    297.56717    -1408.695    510.74093    441.40261   -532.19848    39194.267 
  899200    296.27566   -1428.8901    504.02459    408.67809   -55.127565    39194.267 
  899300    304.85441   -1458.1832    506.71245    420.68602    310.06347    39194.267 
  899400    296.59255   -1447.6007    516.83849    404.20775   -45.206593    39194.267 
  899500    298.31109   -1405.5919    496.74055    433.85374   -548.70008    39194.267 
  899600    301.06364   -1416.5444    468.95884    407.50892     -633.949    39194.267 
  899700    295.96529   -1424.4909    501.93288    409.58858   -255.43921    39194.267 
  899800    302.43345   -1502.6089    476.23691      334.888   -29.444988    39194.267 
  899900    300.50824   -1454.7564     500.6268    398.46495    263.42943    39194.267 
  900000     290.2855   -1405.6625    484.85535    385.77462   -56.813374    39194.267 
  900100    306.13967    -1402.726    499.94252    475.15826   -984.77327    39194.267 
  900200    296.02256     -1351.09    485.87868    467.19308   -616.23175    39194.267 
  900300     291.3919   -1373.7092    496.52128     434.3738     224.6844    39194.267 
  900400    304.37179   -1361.3502    520.32469    528.95893    224.84082    39194.267 
  900500    288.62012   -1394.6167    479.09655    383.56574   -159.21004    39194.267 
  900600    299.32959   -1391.1162    505.40039    461.57364    278.69692    39194.267 
  900700    307.24219   -1380.0032    523.05168    525.95267   -2.1740199    39194.267 
  900800    299.26819   -1386.5501    488.36012    448.82307    80.601055    39194.267 
  900900    305.57497   -1453.2324    475.17273    397.34032    424.95511    39194.267 
  901000    291.41914   -1392.0526    503.22936    422.86104    19.394339    39194.267 
  901100    302.20881    -1381.691    492.65584    471.21369    659.84548    39194.267 
  901200    294.52577   -1407.8712    484.36951    402.16562    207.14061    39194.267 
  901300    300.63615   -1386.3538    500.00326    466.81969   -45.837987    39194.267 
  901400    307.52989    -1392.593    505.63937    497.24553    792.25996    39194.267 
  901500    300.88311   -1417.3049     482.0764    419.05337    973.73861    39194.267 
  901600    286.84425   -1433.6704    514.35911     371.7813     941.1119    39194.267 
  901700    305.22252   -1401.3156    516.67105    489.16905    564.63087    39194.267 
  901800     311.1753   -1373.1613    472.06482    499.51077    225.64663    39194.267 
  901900     309.1361   -1395.0237    530.62067    527.02578    197.68832    39194.267 
  902000    296.77455    -1372.767    492.81355    455.83568   -112.35762    39194.267 
  902100    295.04622   -1385.4386    472.40498    414.97626    -71.94474    39194.267 
  902200    300.09322   -1395.5851    509.03444    464.17591    324.37138    39194.267 
  902300    300.51773   -1414.2977    497.98351     436.3231   -72.346024    39194.267 
  902400    294.03219   -1410.1282     496.1642    409.48165    323.49684    39194.267 
  902500    304.05178   -1349.7582    514.26827     533.0542    268.30372    39194.267 
  902600    306.08922   -1396.5924    486.76841    467.89066    485.25436    39194.267 
  902700    299.85154   -1416.8386    494.43493     427.2351     449.0176    39194.267 
  902800     303.8916   -1379.4454     508.1362     496.5139   -107.76486    39194.267 
  902900    310.78041   -1363.1457    492.74392    528.42803    212.62502    39194.267 
  903000    300.35997   -1386.9791    502.60549    467.55359     179.4415    39194.267 
  903100    298.35899   -1450.9377    500.39896    392.38203    1079.6245    39194.267 
  903200    310.15823   -1430.7134    499.22872    464.54472    328.50276    39194.267 
  903300    303.39163   -1428.8898    482.14717    418.83009    355.66891    39194.267 
  903400    308.86537   -1390.8287    507.63894    507.02041   -91.425381    39194.267 
  903500    307.15428   -1418.7899    492.29013    456.00876    333.31415    39194.267 
  903600    304.66888   -1397.0686    487.06881    461.32188    148.02778    39194.267 
  903700     308.5028   -1367.0743     519.5517    541.05569    431.00515    39194.267 
  903800    295.42986   -1393.5571    492.67726    428.85681    351.89615    39194.267 
  903900    295.50799   -1383.5226    504.49322    451.05893   -60.323548    39194.267 
  904000    296.45548   -1386.5683    508.84912    456.63381    210.55144    39194.267 
  904100    296.68093   -1391.9666    489.25905    432.66024    317.84864    39194.267 
  904200    303.06756   -1393.4802    485.74511    456.37905      295.972    39194.267 
  904300    297.65835   -1415.3275    492.33833    416.77791    752.74297    39194.267 
  904400    306.35115   -1431.7548    494.71067    441.84948    651.05603    39194.267 
  904500    296.56529   -1410.4363    507.43049    431.84142    706.76404    39194.267 
  904600    301.97993   -1419.0762    501.31856    441.46098    455.71294    39194.267 
  904700    300.66197   -1385.2859    477.55349    445.55409    89.953638    39194.267 
  904800     307.0912   -1406.4665    497.16816    472.92628    -68.67592    39194.267 
  904900    297.50304   -1415.8573     501.2842    424.49499   -524.93533    39194.267 
  905000    304.56163   -1421.0774    468.70075    418.46232   -595.05692    39194.267 
  905100    292.99133   -1381.3055     512.5521    450.00742   -428.63949    39194.267 
  905200    308.06668   -1376.9746    473.98439    483.62511   -50.526851    39194.267 
  905300    301.19187   -1383.2108    502.83819    475.29899   -175.15838    39194.267 
  905400    303.47515   -1344.8176    512.42487    533.55601   -54.947344    39194.267 
  905500    290.69397   -1360.1616    520.85681    469.11551   -23.479186    39194.267 
  905600    287.34395   -1345.0473    511.93713    460.23162    504.57639    39194.267 
  905700    306.39851   -1344.9302     526.3709    560.54747    365.94518    39194.267 
  905800    296.75387   -1336.0049    543.73375     543.4249    881.42835    39194.267 
  905900    302.36883   -1379.2223     499.5535     481.3003    690.26787    39194.267 
  906000    302.75102   -1396.9139    520.19834    485.97382   -3.5548442    39194.267 
  906100    301.20171   -1375.3803    503.51235    483.84793   -543.48141    39194.267 
  906200    295.74501   -1361.0198    491.14453    461.27983   -490.72232    39194.267 
  906300    299.79454   -1363.6285    494.09161     479.8453    464.32022    39194.267 
  906400    309.30934   -1369.5186    536.30805    558.99794    734.30404    39194.267 
  906500    300.80748   -1415.8702    505.44087    443.51213    833.85749    39194.267 
  906600    301.14124    -1404.766    498.60472    449.28243    662.97077    39194.267 
  906700    306.02081   -1399.0048    469.94832    448.35025     766.6429    39194.267 
  906800    291.35709   -1418.7858    501.15106    393.77029   -63.137688    39194.267 
  906900    289.43208   -1436.6801    499.05206    365.11243   -126.04266    39194.267 
  907000    311.25914    -1487.405    474.64569    388.22528   -33.556869    39194.267 
  907100    304.55152    -1427.302     496.5487    440.04012     -687.548    39194.267 
  907200    294.98377    -1434.122    507.28149    400.88826   -603.50805    39194.267 
  907300    300.56784   -1402.1267    501.54093      452.277   -657.71218    39194.267 
  907400    308.52323   -1448.6196    512.10835    452.15899   -668.59635    39194.267 
  907500    296.31367   -1406.2999    507.99006    435.40488   -317.19787    39194.267 
  907600    299.29772    -1433.725    477.20099    390.62202   -553.38795    39194.267 
  907700    309.46164   -1462.6714    491.68043    421.90301     8.000078    39194.267 
  907800    295.70258   -1448.8253    484.21167    366.35055   -42.268474    39194.267 
  907900    291.74897   -1450.7476    516.73159    379.15285   -471.01384    39194.267 
  908000    289.19116   -1390.5308    504.43378    415.55905   -255.40026    39194.267 
  908100    295.47439   -1444.3746    477.61943    363.18192   -607.21307    39194.267 
  908200    304.40192   -1440.9587    487.28446    416.44591   -562.02154    39194.267 
  908300    300.67753   -1413.5352    503.50762    443.32894   -168.12312    39194.267 
  908400    289.06561   -1401.8507    505.00567    404.24596   -269.14449    39194.267 
  908500    308.27371   -1400.2883    498.88572    486.14456   -123.79729    39194.267 
  908600    303.92644   -1395.2414    498.52141    471.25993   -210.02525    39194.267 
  908700    296.83497   -1402.9602    471.11741    404.21824    -359.7699    39194.267 
  908800     300.3551   -1404.4505    506.53675    453.99148    214.55929    39194.267 
  908900    298.66322   -1419.2377    498.49904    423.55139    427.45007    39194.267 
  909000    289.44872   -1448.3318    498.53805    353.02161    538.15022    39194.267 
  909100    305.35478   -1439.9692    504.76964    439.20937    472.36872    39194.267 
  909200    299.94223   -1406.6307    466.70342    410.11967     351.2782    39194.267 
  909300    298.22124   -1405.6737    492.60458    429.23161 -0.059730801    39194.267 
  909400    299.69315   -1401.2524     508.1658    455.83918   -198.40819    39194.267 
  909500    292.14744   -1409.8949    489.41709    394.48465   -591.55683    39194.267 
  909600    303.54163   -1399.2922    490.13381    457.08955   -633.97938    39194.267 
  909700    301.54412    -1364.605    518.37559     511.0277   -453.89154    39194.267 
  909800    298.06799   -1376.5493    475.96665    441.02828   -512.01034    39194.267 
  909900    296.68793   -1438.5646    502.83328     399.6679    -85.94435    39194.267 
  910000    307.56203   -1429.4107    483.53995    438.47307    868.72078    39194.267 
  910100    291.07451   -1411.8176    513.69347      412.009    534.57652    39194.267 
  910200    300.68511   -1404.6102    512.62975    461.41023    422.24951    39194.267 
  910300    281.25423   -1401.9221    513.50661    377.51634    167.76751    39194.267 
  910400    288.24909   -1410.6792    487.23467    373.97132      403.357    39194.267 
  910500    301.39973   -1425.1751    467.29572    398.72775    463.26008    39194.267 
  910600    295.69418   -1422.1111    515.56513    424.38042   -63.301419    39194.267 
  910700    314.56708   -1401.6885    472.85425    487.03941    -87.61936    39194.267 
  910800     299.1453   -1381.6714     511.7994    476.58789   -411.38584    39194.267 
  910900    306.24704   -1407.4951     480.0796    451.00958   -348.95258    39194.267 
  911000    294.29309   -1406.4187    504.64692    422.84825    198.13523    39194.267 
  911100    302.60344   -1410.0016    486.91902    438.94247   -145.72537    39194.267 
  911200    300.50119   -1415.8943    488.34933    425.01783    194.42632    39194.267 
  911300    301.11642    -1400.658    509.39782    464.07182    194.55113    39194.267 
  911400    306.12354   -1373.6757    501.00906    505.20246    485.44277    39194.267 
  911500    305.25019   -1416.0316    475.78656    433.69312   -43.712304    39194.267 
  911600    291.87178   -1366.4448    488.22932    435.50619   -134.28296    39194.267 
  911700     302.7081    -1386.585    526.91094    502.82207    260.01093    39194.267 
  911800    308.68296   -1403.6362    496.92152    482.67449    240.78151    39194.267 
  911900    296.76536   -1432.8871    483.98262    386.84331    100.88631    39194.267 
  912000    299.05669   -1434.5382    498.40584    409.92875      325.529    39194.267 
  912100    306.84123   -1440.2029    504.01379    444.91034    447.81491    39194.267 
  912200    299.26519   -1423.5438    510.36921      433.825     301.9081    39194.267 
  912300    302.32178   -1409.4894    501.87199    453.13994    34.858739    39194.267 
  912400    300.11809   -1393.6375    485.97499    443.17592   -3.3414141    39194.267 
  912500    302.93455   -1401.8365    513.19636    474.87527   -164.04159    39194.267 
  912600    295.87418   -1427.5572    486.91116    391.09053   -608.22755    39194.267 
  912700    291.80152   -1401.0229    481.89938    394.28189    98.137602    39194.267 
  912800    302.22252   -1411.7872    523.21134    471.73469   -43.096518    39194.267 
  912900    303.48117   -1374.2951    474.78098    466.46167   -488.66825    39194.267 
  913000    298.55289   -1385.3453    505.31215    463.76037   -231.10063    39194.267 
  913100    299.79719   -1391.9518    500.95997    458.40225   -678.20927    39194.267 
  913200    307.97666   -1375.2066    471.89652    482.90003   -291.51526    39194.267 
  913300    296.03282   -1402.0027    495.55228    426.00015   -17.340187    39194.267 
  913400    302.42257    -1414.104    502.83224    449.93928   -18.437947    39194.267 
  913500    288.16418   -1400.3001     485.6514    382.38495   -188.07076    39194.267 
  913600    286.79412   -1392.6682     493.0382    391.23696   -507.43513    39194.267 
  913700    305.87833   -1428.7466    504.02531    452.04421   -663.18726    39194.267 
  913800    304.67942   -1405.3784    487.87376    453.86447   -50.897993    39194.267 
  913900    303.66027   -1371.8062    496.98963    491.96537    131.42125    39194.267 
  914000    293.41002   -1407.3065    503.64241    416.98119   -115.18424    39194.267 
  914100    294.24897   -1420.5839    488.84426    392.68175    4.7360563    39194.267 
  914200    302.00181   -1441.8149    496.41913    413.92135    38.336532    39194.267 
  914300    299.58992   -1452.3647    479.86833     375.9648   -341.94258    39194.267 
  914400    303.49469   -1421.5785    466.59987    411.05798   -351.08072    39194.267 
  914500    298.92126   -1436.1354    461.01296    370.32908   -529.66589    39194.267 
  914600    292.39163   -1452.0756     489.3368    353.32273    83.261915    39194.267 
  914700     303.0784   -1427.6941    485.73482     422.2036   -677.59583    39194.267 
  914800    305.19267   -1389.7358    495.25365    479.19713   -512.57316    39194.267 
  914900    301.70382   -1423.0918    468.82469     403.7088    284.68386    39194.267 
  915000    299.56742   -1448.3168    482.49389    382.53705    143.89603    39194.267 
  915100    293.46271   -1441.1017    486.41739     366.1981    344.14521    39194.267 
  915200    291.98613   -1424.8336    482.38204    371.78483    367.92491    39194.267 
  915300    289.81719   -1431.4525    491.42893    364.45036    191.99811    39194.267 
  915400    312.59919   -1436.3877    481.27636    451.90486    551.28272    39194.267 
  915500     300.2549   -1443.8231    468.05423    375.68543    585.70299    39194.267 
  915600    302.24901   -1439.0537    489.07295    410.44903   -76.170962    39194.267 
  915700    302.20008   -1435.4684    489.53493    414.27609   -6.4020376    39194.267 
  915800    290.32011   -1462.4099    454.03881    298.36641    60.415829    39194.267 
  915900    300.86127   -1447.4844    471.56232    378.26141     206.8226    39194.267 
  916000    305.47701   -1474.1572    502.75016    403.55213    294.64349    39194.267 
  916100    291.29556   -1422.8225    495.16666    383.47222    223.25825    39194.267 
  916200    308.59505   -1449.4474    470.91161    410.45773     -50.9073    39194.267 
  916300    294.29529   -1387.6153    504.56013    441.57476   -398.74135    39194.267 
  916400    296.51703    -1440.463      491.285    385.45203    146.31024    39194.267 
  916500    304.81398   -1445.1579     491.0158    417.83265   -181.20251    39194.267 
  916600    296.91773   -1465.8152    488.33106    358.94947     21.09867    39194.267 
  916700    303.20238   -1425.3568    504.42136    443.78546   -69.433838    39194.267 
  916800    283.30152   -1422.1546     467.8265    320.81862    222.38652    39194.267 
  916900    304.69595   -1437.5211    505.88558    439.80805   -275.91295    39194.267 
  917000    292.30966    -1445.804    475.76476    345.65333   -161.32086    39194.267 
  917100    299.28062    -1445.136    508.39793    410.33096    171.00173    39194.267 
  917200    304.66522    -1445.464    479.09665    404.93792   -55.218266    39194.267 
  917300    299.22641   -1435.2228    491.12039    402.72256   -220.94687    39194.267 
  917400    306.15512   -1444.1506     479.9854    413.84611    133.39863    39194.267 
  917500    303.48371   -1457.2007    475.02521     383.8117   -553.66929    39194.267 
  917600    303.33985   -1456.0809    499.78847    409.04724   -654.40485    39194.267 
  917700    292.08815   -1478.6172    439.72044    275.79879   -610.13232    39194.267 
  917800    293.19523   -1432.6177    470.61997    357.68074   -1041.8408    39194.267 
  917900    302.65026   -1429.7763    475.46012    407.91964   -344.08342    39194.267 
  918000    302.76824    -1456.166    492.74292    399.34377   -265.38995    39194.267 
  918100    303.38255   -1437.8402    508.58952    436.28114     154.7909    39194.267 
  918200    289.23958   -1405.9271    483.04415    378.99105   -808.99301    39194.267 
  918300    294.34438   -1407.8203    506.40219    423.43275    -570.0798    39194.267 
  918400    296.86661   -1409.1946    489.84098    416.84984   -94.923796    39194.267 
  918500    292.02721   -1451.6855    509.27379    372.00956    139.53426    39194.267 
  918600    299.24795   -1403.7458    478.92808    422.10425    446.78306    39194.267 
  918700    299.05755   -1425.8485    495.97468    416.19119    228.12307    39194.267 
  918800    306.59529    -1390.834    489.60839    478.76689    -92.48095    39194.267 
  918900    298.39167    -1429.134    494.10511    408.03898    78.727623    39194.267 
  919000    293.69834     -1466.73    478.94881    334.16187    185.80843    39194.267 
  919100    292.98009   -1449.2215    493.97778    363.46642    483.62464    39194.267 
  919200    306.92405   -1464.4569    481.76323    398.77856   -22.603792    39194.267 
  919300    298.93706   -1443.7609    497.68768    399.44944   -244.14417    39194.267 
  919400    336.13973   -1451.1414    456.71952    518.55081    323.53525    39194.267 
  919500    301.37562   -1406.6105    480.42482    430.31296    184.09919    39194.267 
  919600    294.64378   -1440.0551    507.86064    394.00404    93.276468    39194.267 
  919700    307.14327   -1425.9164    518.75437    475.29691    948.06674    39194.267 
  919800    301.86684   -1421.2783    480.32604    417.75735    112.66553    39194.267 
  919900    304.11215   -1449.2986    497.71034     417.2276    696.27286    39194.267 
  920000    306.91842   -1477.0279    493.42927    397.84831    634.51158    39194.267 
  920100    308.23195   -1435.6661    474.60464    426.29767    359.53337    39194.267 
  920200    294.38015   -1477.7921     485.0052    332.22503    -159.7249    39194.267 
  920300    303.10661   -1448.4952    479.88052    395.67522   -10.467035    39194.267 
  920400    291.41529   -1451.0042    511.57226    372.23505   -437.88631    39194.267 
  920500    287.90874     -1434.17    493.07607    354.78992   -786.65104    39194.267 
  920600    304.09841   -1438.7647    507.51357    437.50292   -436.81751    39194.267 
  920700    295.56602   -1437.4778    496.03728    388.90896   -383.69867    39194.267 
  920800    293.83603   -1424.0903    481.97801    380.45043   -911.64658    39194.267 
  920900    300.53626   -1416.6306    491.08438    427.17442   -734.77759    39194.267 
  921000    298.87437   -1420.8343    478.48797    402.89417    -556.6464    39194.267 
  921100    297.48475   -1417.7512    485.17434    406.40889    -792.5503    39194.267 
  921200    296.73257   -1429.2769    468.96165    375.28498   -550.63453    39194.267 
  921300    295.65334   -1431.1229    473.32675    372.94636   -787.97606    39194.267 
  921400    300.13588   -1417.0515    502.68998    436.55698    129.94021    39194.267 
  921500    301.22731   -1399.6802    479.74841    435.89933   -137.52097    39194.267 
  921600    289.93095   -1380.2802    506.30486    431.01061   -297.82164    39194.267 
  921700    307.80555   -1385.9771    495.65387    495.11665    76.884467    39194.267 
  921800    313.22952   -1398.6021    520.98099    532.23221   -96.254695    39194.267 
  921900    300.69808   -1417.1298    498.04983     434.3691    219.59393    39194.267 
  922000     297.8901   -1416.8441    470.69314    394.65929    70.055398    39194.267 
  922100    301.35557    -1411.467    501.34069    446.28211    275.71541    39194.267 
  922200    306.44275   -1442.8142    496.81634    433.30812    180.53711    39194.267 
  922300    289.84853    -1406.103    509.57869    408.09065   -154.42929    39194.267 
  922400    291.80913   -1422.5745    517.20646    408.07165   -177.43544    39194.267 
  922500    291.34841   -1442.2056    537.34046    406.50081    74.778152    39194.267 
  922600    303.90545   -1437.2007    491.19624    421.88099   -190.36717    39194.267 
  922700    304.80873   -1426.1744    506.34228    452.11901   -45.320395    39194.267 
  922800    300.09581   -1411.6628    523.20983    462.28517    695.25997    39194.267 
  922900    311.17604   -1433.2403    493.76101    461.13127    553.66852    39194.267 
  923000    303.99618   -1465.5852    492.72784    395.43653    607.37958    39194.267 
  923100    298.76652   -1422.5306    488.20802    410.43245    168.72318    39194.267 
  923200    300.89584   -1395.2067    487.96358    447.09598    -13.47621    39194.267 
  923300    293.82979   -1387.6749    486.73934    421.59912   -116.45366    39194.267 
  923400    301.98591   -1453.2866    503.75182    409.71078   -104.30159    39194.267 
  923500    303.50227   -1437.7872    504.15077    432.43431   -188.19837    39194.267 
  923600    298.38814   -1447.9463    497.67693    392.78262   -340.17341    39194.267 
  923700    299.74164   -1415.6338    524.44825    457.95851   -477.08152    39194.267 
  923800    296.84038    -1440.111    494.56052    390.53498    -363.9358    39194.267 
  923900    304.73937   -1439.7404    467.09771    398.99626    386.21677    39194.267 
  924000     300.1027   -1438.0423     522.2493    434.97621   -40.513169    39194.267 
  924100    293.66741   -1486.7181    466.48222    301.56795    161.42056    39194.267 
  924200    297.22024   -1497.4087    496.59187    336.97839    320.21568    39194.267 
  924300     303.4421   -1459.3256    501.92397    408.39825    133.67952    39194.267 
  924400    308.05697   -1463.4772     464.5338     387.6282   -193.41367    39194.267 
  924500    300.09934   -1443.5391    521.47692    428.69197    197.27196    39194.267 
  924600    307.13549    -1446.978     500.9905    436.43646    317.65913    39194.267 
  924700    306.10068   -1432.6644    482.32786    427.42968    238.30959    39194.267 
  924800    289.99195   -1447.0407    496.35677    354.57654    144.17973    39194.267 
  924900    294.52095   -1430.9216    522.51515    417.23915   -401.27562    39194.267 
  925000    291.81407   -1378.7602    484.00118    418.70283   -426.68266    39194.267 
  925100    301.85387   -1399.0343    502.39969    462.01672   -650.71136    39194.267 
  925200    308.62663   -1408.4994    506.29087    486.92709   -551.45021    39194.267 
  925300    299.36148   -1419.1004    505.72973    434.06234    215.74137    39194.267 
  925400    292.22504   -1440.3393    493.14655    368.11891    406.10854    39194.267 
  925500    305.82593   -1432.2537    514.72773    459.00358    194.37673    39194.267 
  925600    302.80048    -1383.768    495.43732    474.58125    319.78931    39194.267 
  925700    303.38557   -1436.9149    511.92809    440.55869    83.954729    39194.267 
  925800    298.06586   -1455.4548    494.28144    380.42798   -49.246436    39194.267 
  925900    303.58098   -1379.5799    491.21505    478.06017   -234.47996    39194.267 
  926000    289.27031   -1368.5416    521.99861    455.46941   -220.67617    39194.267 
  926100    301.08826   -1420.5564    494.35555    429.00432    254.04777    39194.267 
  926200    308.44561   -1447.4609    490.19243    431.05239     101.4225    39194.267 
  926300    297.30332   -1411.2291    483.11524    410.05525    258.70315    39194.267 
  926400    299.98296   -1450.3814    501.22531    401.07419   -45.182728    39194.267 
  926500    294.66539   -1420.1657    510.10837    416.23843    -186.8418    39194.267 
  926600    292.34917   -1367.6432    506.52305    454.75028   -336.11861    39194.267 
  926700    300.32754   -1418.8891    508.95812    441.85023   -892.75094    39194.267 
  926800    305.53589   -1444.7143    516.13621    446.64603    -456.5918    39194.267 
  926900    301.20702   -1406.6805    492.82357    441.88281   -452.63995    39194.267 
  927000    303.51868   -1443.0755    482.91397    405.98312   -402.07545    39194.267 
  927100     297.0086   -1445.9613    491.47772    382.35905    115.31807    39194.267 
  927200    293.04477   -1472.7901    492.34451    338.55574    579.62216    39194.267 
  927300     299.9709   -1466.9709    519.58282    402.78794    772.37951    39194.267 
  927400    315.47691   -1461.7535    476.40352     434.6189    672.44457    39194.267 
  927500    308.96762   -1491.0778      489.664    389.25662    235.42736    39194.267 
  927600    304.89769   -1480.2078    489.80231    381.94602    725.49367    39194.267 
  927700     301.6434   -1507.6276    480.95529    331.03162    -167.2906    39194.267 
  927800    288.93204   -1474.7111    497.93796    323.71669     498.2336    39194.267 
  927900    301.17865   -1418.7453    480.15682    417.02355    800.52154    39194.267 
  928000     311.7117   -1409.6736    501.92135    495.26932    -214.1701    39194.267 
  928100    299.13924   -1379.7133    491.76562    458.48496   -96.392796    39194.267 
  928200    296.57546   -1415.5305    502.17855    421.54109   -422.23034    39194.267 
  928300    307.31186   -1396.5145    490.12324    476.82656     865.0834    39194.267 
  928400    291.29085   -1406.4765    518.64621    423.27654   -36.139886    39194.267 
  928500    289.77538   -1404.5861    501.33152     401.0311    346.44308    39194.267 
  928600    307.67083   -1367.1065    500.10655    517.83361    136.24069    39194.267 
  928700    301.63859   -1398.3258    506.20618    465.56265    -185.6844    39194.267 
  928800    311.66461   -1425.3088    494.53849    472.03935   -139.08447    39194.267 
  928900    302.97643   -1395.6586    472.03416    440.07951   -493.79125    39194.267 
  929000    304.84573   -1416.4162     483.8712    439.57271   -391.46526    39194.267 
  929100    288.21065   -1468.9779    484.91474    313.17969    100.03172    39194.267 
  929200    298.89676   -1415.4648    489.02483    418.90123    56.517288    39194.267 
  929300    291.37395   -1391.4684    491.28776    411.30028    265.12886    39194.267 
  929400    294.91486   -1449.7354    456.47268    334.15584    107.35238    39194.267 
  929500    303.77124   -1467.9966    476.29875    375.58359    101.20217    39194.267 
  929600     302.0578   -1433.1374    503.82422    430.25595   -445.82238    39194.267 
  929700    307.56313   -1425.1065    474.73246    433.97478    -598.9339    39194.267 
  929800    296.38029   -1424.5733    494.67222     404.1135    168.26454    39194.267 
  929900    287.06594   -1442.7696    496.99296    346.31379    -82.09708    39194.267 
  930000    302.88517    -1437.613    509.40412    435.08428   -307.95763    39194.267 
  930100    287.47865   -1440.8984    492.30956    345.35925    303.74983    39194.267 
  930200    289.07746   -1433.8917    498.88583    366.13852   -567.36043    39194.267 
  930300    298.63019   -1442.4112    489.83079    391.56104   -165.73847    39194.267 
  930400    298.96432    -1400.312    487.05724    432.39062   -54.386549    39194.267 
  930500    304.57863   -1400.2229     492.8382    463.53078   -27.877263    39194.267 
  930600    296.70142   -1403.9564    513.02511    444.52863   -345.73885    39194.267 
  930700    307.81601   -1439.1572     506.3021    452.63186   -432.29555    39194.267 
  930800    295.84806   -1407.4394     521.5903    445.76989   -11.862576    39194.267 
  930900    298.94188   -1463.5017    515.60197    397.64461   -285.51107    39194.267 
  931000     300.9526   -1441.2485    486.00388    399.35003   -436.43611    39194.267 
  931100    311.19853   -1444.2571    512.99955    469.45423   -335.69347    39194.267 
  931200    300.53452   -1402.8014    472.31925     422.2307   -818.09743    39194.267 
  931300    296.15139   -1426.8644     506.0964    412.21632   -574.32463    39194.267 
  931400    303.54812   -1417.3074    490.99952    439.96923   -476.05503    39194.267 
  931500    302.93931    -1399.877    458.69486    422.35476   -640.10646    39194.267 
  931600    297.33896   -1428.7222    517.01221    426.61957   -777.43294    39194.267 
  931700    292.38907   -1421.2262       477.22     372.0438   -662.32972    39194.267 
  931800    290.54205   -1430.0871    490.01914    367.66851   -360.43409    39194.267 
  931900    291.15199   -1506.3717    476.40869    280.51886   -556.66915    39194.267 
  932000    306.37396   -1496.3486    510.21797    392.86564   -1033.9979    39194.267 
  932100    306.83539   -1495.8367    481.39867    366.63515   -197.12098    39194.267 
  932200     300.1926   -1485.8109    474.06375    339.42669   -404.24099    39194.267 
  932300    298.97313    -1504.986    479.77028    320.46926   -454.81966    39194.267 
  932400    295.68713   -1472.3021      459.188    317.78056   -540.16962    39194.267 
  932500    296.65233   -1442.9387     488.3036    380.60393   -107.34703    39194.267 
  932600    292.87937   -1475.2539    474.70334    317.70631   -34.395978    39194.267 
  932700    302.82551   -1484.6083    482.00528    360.42162   -217.50781    39194.267 
  932800    313.09586   -1484.3028    481.69161    406.64049    246.11131    39194.267 
  932900    305.08884   -1434.5359    505.23417    443.91019    29.714916    39194.267 
  933000    300.24689   -1420.9038    507.27539    437.78976    704.96342    39194.267 
  933100    312.01458   -1450.8112    485.64606    439.21973   -166.64737    39194.267 
  933200    299.19424   -1417.2862    486.43023    415.82421   -18.489278    39194.267 
  933300    300.73307   -1410.5651    506.11714    449.15853   -486.86145    39194.267 
  933400    312.16998   -1446.5406    492.38308    450.92678    289.38485    39194.267 
  933500    289.53997   -1426.9315    452.65441    328.94904   -374.53693    39194.267 
  933600    306.37942   -1440.0809     493.1228    432.06279   -145.61361    39194.267 
  933700     287.1953   -1495.8906    495.06208    291.84414    4.8854788    39194.267 
  933800    298.59961   -1474.4397    512.74294    382.30703   -133.50408    39194.267 
  933900    304.15246   -1446.5056    450.68851    373.18016    80.372128    39194.267 
  934000    302.30016   -1461.2588    471.12814    370.52934   -224.40699    39194.267 
  934100     301.4542   -1457.3829     499.4408    398.91024    195.77675    39194.267 
  934200    299.85975   -1424.3985     483.3961    408.67331    -108.3285    39194.267 
  934300     294.0885   -1454.5059    472.72226    341.91544    94.002657    39194.267 
  934400    312.48912   -1479.5977     465.9906    392.91367    357.40291    39194.267 
  934500     309.8209   -1464.6171    489.76653    419.66046    290.08208    39194.267 
  934600    295.49007   -1427.9209    505.96273    408.04949    12.184997    39194.267 
  934700    297.63706   -1405.5127    475.48601    409.64459     721.8039    39194.267 
  934800    309.88436   -1443.4527    488.61141    439.95535    301.42399    39194.267 
  934900    289.86025    -1457.082    510.13033    357.71602    -43.74284    39194.267 
  935000     288.5509   -1424.9659    486.22133    360.02967   -148.15917    39194.267 
  935100     296.9065   -1427.6145    501.50117    410.26974   -1089.3441    39194.267 
  935200     308.7715   -1427.4393    489.60313    451.95152   -902.24901    39194.267 
  935300    300.29219   -1453.9688    501.42769    399.08102   -1051.7697    39194.267 
  935400     303.1899    -1452.907     485.0847    396.84248   -721.89776    39194.267 
  935500     294.9448   -1416.7137    519.96274    430.80238   -764.01434    39194.267 
  935600    299.32146   -1427.7376    494.89154    414.40683    153.64696    39194.267 
  935700    297.07099   -1415.6515    496.54959    418.02146    311.19383    39194.267 
  935800    293.74782    -1421.038    501.44162    402.56933   -208.79349    39194.267 
  935900    303.62578   -1365.9545    504.11934    504.79149    595.01618    39194.267 
  936000    298.25996   -1399.5776    489.46262    432.36005   -161.69724    39194.267 
  936100    302.57348   -1440.9467    530.20559    451.14914    213.53739    39194.267 
  936200    302.13823   -1457.5548    495.85159    398.22792     93.28623    39194.267 
  936300    300.03371   -1412.8927    492.82648    430.39248    316.34263    39194.267 
  936400    304.59061   -1475.8976    496.91732    391.98911    149.27472    39194.267 
  936500    294.23453   -1481.0161    487.20948     330.5498    121.39291    39194.267 
  936600     296.6452   -1477.2717    494.29755    352.23278     -45.9348    39194.267 
  936700    300.70395   -1448.4703    456.31398    361.31918   -390.23612    39194.267 
  936800    302.50997   -1448.8027    490.27258    403.07424   -740.81546    39194.267 
  936900    286.71523   -1478.3412     466.7547    278.92545   -1123.5622    39194.267 
  937000    307.93679   -1487.0883    480.51949    379.46186   -772.13114    39194.267 
  937100    297.16824   -1487.7411    459.09511    308.91509   -350.84303    39194.267 
  937200    296.95441   -1442.3453    478.70644    372.95983     40.30026    39194.267 
  937300     303.9191   -1467.8862    467.78301    367.84376   -945.66496    39194.267 
  937400    298.48622   -1437.2638    478.55008    384.77966   -586.80187    39194.267 
  937500    307.07822   -1416.7482    516.35591    481.77394     61.48265    39194.267 
  937600    300.74533   -1425.7211    505.22042    433.16102   -589.80488    39194.267 
  937700    297.08331   -1406.6396    492.12972      422.669   -170.45337    39194.267 
  937800     309.0097   -1420.7559    500.00765    470.11155   -462.31187    39194.267 
  937900    298.04255   -1431.2316     500.7662    411.03102   -267.38878    39194.267 
  938000    298.16302   -1419.0196    476.55208    399.57109    243.65762    39194.267 
  938100    293.15789   -1389.3571    519.64593    449.79929   -392.79008    39194.267 
  938200    302.18644   -1400.1862    514.76122    474.72315    30.368455    39194.267 
  938300    283.26732   -1437.8977    474.34642    311.44146    262.15725    39194.267 
  938400    300.40527   -1420.1414    498.19108    430.18077   -145.82398    39194.267 
  938500    294.78546   -1429.1435    488.29527    385.98793   -354.75159    39194.267 
  938600    300.27675   -1421.3047    489.29243    419.54032    32.589763    39194.267 
  938700    289.99655   -1453.6981    478.73622    330.31928   -144.64923    39194.267 
  938800    301.79178   -1452.2519    475.55028    381.67015    542.19347    39194.267 
  938900    313.09335   -1425.8315    485.07085    468.47981    518.53039    39194.267 
  939000    303.97616   -1462.9288    494.38375    399.65867    196.19453    39194.267 
  939100     311.7282   -1470.1914    483.90761    416.81207    349.17443    39194.267 
  939200    298.10596   -1447.6436    471.95699     366.0952   -316.89857    39194.267 
  939300    303.79902   -1440.1551    510.19103    437.44234   -1029.3151    39194.267 
  939400    307.88507   -1415.7646     479.5266    449.55977   -118.01555    39194.267 
  939500    289.71827   -1417.7274    502.16488    388.46609   -25.246196    39194.267 
  939600    292.65971   -1448.7416    488.43682    356.96338     185.4687    39194.267 
  939700     306.6692   -1464.7696     482.9406    398.49617    154.08917    39194.267 
  939800    300.76928   -1409.0759    517.16746     461.8611   -455.40195    39194.267 
  939900    296.97757   -1454.5642    492.48591    374.62459   -578.37106    39194.267 
  940000    296.48218   -1421.8356    490.15924    402.79679   -379.28318    39194.267 
  940100    301.29913    -1464.665    496.96182    388.45122   -93.685114    39194.267 
  940200    290.28881   -1405.8508    507.87173    408.61761   -188.41326    39194.267 
  940300    298.64604   -1421.0869    514.20046    437.32631    212.96379    39194.267 
  940400    292.66812   -1451.1681    469.44479    335.58267   -427.23624    39194.267 
  940500    301.47151   -1438.3275    509.15407     427.7568   -203.15244    39194.267 
  940600    297.87584   -1419.8951    498.31654    419.16753    32.295283    39194.267 
  940700    286.16801   -1408.7977    473.55362     352.8048   -296.18638    39194.267 
  940800     284.2229   -1431.3484    498.12198    346.06744   -359.38007    39194.267 
  940900    295.65294     -1439.87    495.41263    386.28334   -602.25214    39194.267 
  941000    302.30576   -1435.2135    489.04774    414.51948   -723.02468    39194.267 
  941100    291.59109   -1425.3112    491.93536    379.08238   -925.90567    39194.267 
  941200    303.65905   -1425.3169    504.21343    445.67297   -672.96744    39194.267 
  941300    296.57917    -1439.165    482.99099    378.73574   -120.78913    39194.267 
  941400    300.65838    -1425.921    481.55393    408.90324   -136.68127    39194.267 
  941500    294.70226   -1457.2912    463.11594    332.28644   -173.22452    39194.267 
  941600    297.64668   -1453.9304    484.07464    369.85882   -638.19139    39194.267 
  941700    292.07341   -1445.2999    486.41298    355.74229    229.43165    39194.267 
  941800    303.19351   -1446.8806    473.82992    391.63038    377.05459    39194.267 
  941900    294.97585   -1459.7224    503.54924    371.51995   -1.0413555    39194.267 
  942000    307.30917   -1428.6733    474.07295    428.60533   -57.786068    39194.267 
  942100    306.05565    -1421.784    486.79263    442.57217   -68.747734    39194.267 
  942200    301.87839   -1416.3812    496.73901    439.11941   -244.74326    39194.267 
  942300      292.794   -1443.2471    500.95895    375.58446   -198.35421    39194.267 
  942400    296.51748   -1459.8796    471.93051    346.68298    269.48423    39194.267 
  942500    302.88598   -1460.3358     490.0917    393.05275   -1092.1092    39194.267 
  942600    291.69214   -1484.6211    489.51001    317.80197   -825.76121    39194.267 
  942700     298.0963   -1465.7044    486.28716    362.32115   -644.26219    39194.267 
  942800    290.83282    -1486.258    479.38279    302.17003   -154.01451    39194.267 
  942900    308.26668   -1475.3644    496.13421    408.28528    450.37033    39194.267 
  943000    304.03465   -1409.0745     500.4507    459.84317    457.61294    39194.267 
  943100     303.8484   -1419.7516    513.02008    460.89722   -486.37655    39194.267 
  943200    289.45797   -1416.5323    498.94345    385.26816   -309.56184    39194.267 
  943300    311.53624   -1425.8577    492.81475    469.18891   -384.48622    39194.267 
  943400    302.93856   -1453.6723    493.63855     403.4997   -53.857216    39194.267 
  943500    298.06889   -1408.4165    488.95501    422.15347    259.76809    39194.267 
  943600    307.59312    -1442.856    480.22068     421.8485    75.599863    39194.267 
  943700    296.44955   -1456.8196    479.07758    356.58428    257.32032    39194.267 
  943800    311.26272   -1447.7696    484.43604    437.66722    173.95191    39194.267 
  943900    300.06371   -1412.2994     479.5709    417.86525    674.53424    39194.267 
  944000     301.1116    -1440.296    515.36569    430.38002     86.98827    39194.267 
  944100    294.64133   -1443.8682    507.80263    390.12187    64.603808    39194.267 
  944200    296.69118   -1468.5379    485.00769    351.88372   -60.736081    39194.267 
  944300    305.73524   -1498.7749    474.30067    351.64717    208.27613    39194.267 
  944400    306.64357   -1505.4883    478.55065    353.27213    843.08144    39194.267 
  944500    302.46908   -1500.8937    477.59725    338.12388    355.13424    39194.267 
  944600    308.53057   -1453.2952     481.2178    416.62583    839.35336    39194.267 
  944700    303.49817   -1485.6392    518.44201    398.85509    688.74915    39194.267 
  944800    309.48288   -1460.9069    467.57931    399.66203    270.56893    39194.267 
  944900    304.78579    -1461.731    522.13766    432.25454    612.41059    39194.267 
  945000    296.71801   -1472.8626    471.71114    334.38321    555.00102    39194.267 
  945100    305.10893   -1450.0302     485.9368    409.20897   -257.74519    39194.267 
  945200    301.06287   -1457.8439    480.54897    377.79606    -250.5299    39194.267 
  945300    297.57234   -1415.7939    487.70426    411.29039    -949.6652    39194.267 
  945400    302.06753   -1437.0028    475.72568    398.33584   -553.38341    39194.267 
  945500     287.6358   -1450.7857    480.34995    324.21964    -352.8451    39194.267 
  945600    306.25612   -1485.1508    489.28041    382.59555    36.768571    39194.267 
  945700    303.32899   -1449.8099    490.15001     405.6309   -191.09708    39194.267 
  945800    301.67802    -1467.068    492.49788    383.28969    72.781162    39194.267 
  945900     293.5033   -1462.2854    475.17063    333.95038   -130.24549    39194.267 
  946000    306.09544   -1477.9231    505.91191    405.73147    352.63389    39194.267 
  946100    302.97358    -1460.866    488.13847    390.96364    423.93252    39194.267 
  946200     306.6022   -1488.3374     485.9115    377.59767    25.098263    39194.267 
  946300    291.82995   -1483.5034     451.3401    281.37008   -307.76889    39194.267 
  946400    304.52469   -1415.2625    466.77324    422.18347    282.71668    39194.267 
  946500    302.42629    -1438.082    502.29385    425.43957     -162.227    39194.267 
  946600    293.37166   -1482.1441    488.60621    326.93473   -192.01268    39194.267 
  946700    300.08585   -1468.8245    474.87109    356.73993    -384.6464    39194.267 
  946800    295.00214   -1432.1163     500.2975     395.9927   -209.37479    39194.267 
  946900     309.3598    -1420.952      505.597    477.08063   -321.57097    39194.267 
  947000    309.75784   -1413.0719    488.32797    469.48326   -330.52025    39194.267 
  947100    305.34097   -1409.8245    503.99598    468.51824   -440.79672    39194.267 
  947200    307.54016   -1392.3645    497.52988    489.41077   -206.73676    39194.267 
  947300    300.92252   -1422.8089    473.98897    405.63929   -180.93943    39194.267 
  947400    306.65574   -1466.9974    472.40066    385.66787   -323.21771    39194.267 
  947500    286.53724   -1458.0864    491.35245    322.97677   -109.67918    39194.267 
  947600     304.1244   -1449.0286    492.18564    412.02805   -315.68806    39194.267 
  947700    306.46532   -1445.1639    487.95224    422.19582     176.4725    39194.267 
  947800    301.89761   -1449.9508    482.28691     391.1842   -333.33921    39194.267 
  947900    295.84787    -1481.831    475.19124    324.97833    60.058017    39194.267 
  948000    304.42037   -1477.9139     477.1902     369.4794    149.95242    39194.267 
  948100    294.90248   -1472.0486     459.9911    315.30536   -120.11016    39194.267 
  948200    298.85359   -1534.2844    466.18358    277.04612   -264.67346    39194.267 
  948300    300.36502   -1455.0876    488.49907    385.36144    156.14049    39194.267 
  948400    299.84552   -1454.6579    484.45278    379.40645   -10.184769    39194.267 
  948500    303.06597   -1493.6855    472.34046    342.76194   -30.744372    39194.267 
  948600    312.82353   -1474.7309    465.07772    398.37283    214.52029    39194.267 
  948700    305.58472   -1487.9491    485.07333    372.56813    433.39659    39194.267 
  948800    306.23089   -1493.0584    469.79795    355.09191    261.53555    39194.267 
  948900    296.27205   -1464.3132    468.17274    337.38689   -141.66622    39194.267 
  949000    305.22116   -1459.8653    481.37385    395.31608    514.88402    39194.267 
  949100    295.41451   -1455.2969    502.54543    376.91607    260.16595    39194.267 
  949200    308.37824   -1444.6928    492.41411    435.73893    103.12216    39194.267 
  949300    307.84803   -1481.5804    489.26669    393.31741    258.17046    39194.267 
  949400    301.83008   -1474.8939    471.96178    355.61208   -279.16376    39194.267 
  949500    306.38863   -1428.5222    496.43589    446.97598    108.79877    39194.267 
  949600    298.68414   -1446.0451    480.67069    379.00985   -242.14476    39194.267 
  949700    302.49106   -1461.6744    495.45909      395.304   -216.62397    39194.267 
  949800    292.34177   -1429.1496    496.87749    383.56502   -497.94722    39194.267 
  949900    302.64035   -1424.6078    472.65813    410.24161   -320.63662    39194.267 
  950000    295.54626   -1487.0769    493.46004    336.64371   -638.13646    39194.267 
  950100    311.13169    -1446.016    467.21412    421.60909     21.06157    39194.267 
  950200    300.85772   -1444.2911    514.05238    423.92889    307.21301    39194.267 
  950300    303.71581   -1429.1808     506.2789       444.13    131.89184    39194.267 
  950400    296.02402   -1458.7323    484.34684    358.02554   -516.07878    39194.267 
  950500    302.13148   -1447.0364    473.54773    386.41213    318.28278    39194.267 
  950600    298.76632   -1427.0377    502.82218    420.53855    86.939258    39194.267 
  950700    303.46887   -1452.9227    505.38408     418.3818    17.757554    39194.267 
  950800    297.66076   -1439.7183    472.41931    372.47897    275.13268    39194.267 
  950900    307.76503   -1417.9528    509.83975    477.14452     288.4222    39194.267 
  951000    296.73131   -1437.7417    475.97825    373.83102   -137.85958    39194.267 
  951100    300.93693   -1462.3098    467.56379     359.7781   -312.61018    39194.267 
  951200    299.37157   -1450.8222     489.7432    386.39934   -226.03722    39194.267 
  951300    301.56694   -1482.1582    489.97985    365.18143   -301.02059    39194.267 
  951400    308.16125   -1429.5278    470.37893    427.89201     362.9714    39194.267 
  951500    300.88338   -1439.4184    491.95014    406.81483    246.42439    39194.267 
  951600    293.15249   -1423.7396    499.25673    395.00331    88.141672    39194.267 
  951700    315.18126   -1432.5636    489.68068    475.75519    322.38763    39194.267 
  951800    307.19289   -1413.6244    485.06929    454.12723    30.489221    39194.267 
  951900    307.22605    -1415.207    488.84264    456.46721    86.111277    39194.267 
  952000    293.43408   -1415.6344     490.3713    395.49048    270.18712    39194.267 
  952100    301.29004   -1408.9971    505.66427    452.78061   -351.04882    39194.267 
  952200    309.11245   -1372.9497     483.0504    501.42298   -556.28012    39194.267 
  952300    311.73426    -1381.763    473.18392    494.54406     61.02438    39194.267 
  952400    292.45201   -1388.3987    533.98424    461.91882   -384.63489    39194.267 
  952500    295.78696   -1379.6769    445.16884    396.83589      243.994    39194.267 
  952600    293.28652   -1417.7698    459.20334    361.52296     34.63416    39194.267 
  952700    306.42768   -1424.1386    504.64864    459.74816    216.21368    39194.267 
  952800    305.74129   -1427.1241    487.11176    436.13633    1116.6997    39194.267 
  952900    291.93116    -1423.596    499.26238    389.65527    877.13532    39194.267 
  953000    293.48575   -1455.7464    489.49967    354.73948    781.71363    39194.267 
  953100    296.46613   -1431.6785      471.741    374.46339     518.4293    39194.267 
  953200    306.34139    -1447.919    497.67912    428.60982    740.30975    39194.267 
  953300    296.83262   -1440.5657    517.79896    413.28377    651.61253    39194.267 
  953400    306.27505   -1433.7736    477.82308    422.60058    372.85188    39194.267 
  953500    298.76629   -1488.1789    490.82533    347.40041   -19.779218    39194.267 
  953600    287.92804   -1438.5449    496.28184    353.70775   -484.09901    39194.267 
  953700    302.22093    -1428.598    469.60636    401.31182    64.327676    39194.267 
  953800    301.35099   -1440.6994    498.99616    414.68453   -221.47816    39194.267 
  953900    292.55745   -1441.2635    487.12726    362.67165   -422.44549    39194.267 
  954000    298.57113   -1421.1989    466.13886    388.81551    -679.8533    39194.267 
  954100    296.98428   -1456.1749    489.05711    369.61536   -255.49887    39194.267 
  954200    296.92499   -1425.5164     472.0552    383.00507   -26.483632    39194.267 
  954300    293.07828   -1435.4372    490.35792    374.07286    90.557678    39194.267 
  954400    286.30768   -1441.4637    529.80764    377.02141    162.41617    39194.267 
  954500    295.12526   -1442.6241    477.99874    363.74023   -51.844578    39194.267 
  954600    292.06919   -1416.9825    514.35221    411.97993    180.91226    39194.267 
  954700    311.92353   -1443.0693     486.1216     447.0274    257.45874    39194.267 
  954800    292.89339   -1446.1547    505.51023    377.67545    855.37429    39194.267 
  954900    306.63396   -1437.6425    508.97877    451.50284    252.90196    39194.267 
  955000    311.08631   -1451.3628     487.7926    436.63655   -176.42504    39194.267 
  955100    309.70281   -1420.0612    521.26416     495.1825    35.361661    39194.267 
  955200    293.60128   -1386.2589    491.38061    426.62791    90.994636    39194.267 
  955300    304.75792   -1429.2846    518.80817    461.24606    154.88492    39194.267 
  955400     294.4832   -1417.9119    495.87486    403.43866    -262.1526    39194.267 
  955500    305.15953   -1419.9917    521.40737    474.94581   -76.804551    39194.267 
  955600     293.0963   -1416.0067    471.79982    375.02638   -314.49188    39194.267 
  955700    302.63618   -1428.1571    521.06654     455.0819   -45.495174    39194.267 
  955800    304.70963   -1472.0929    514.58963    414.00181    382.23329    39194.267 
  955900    297.32056   -1478.9349    468.74702    328.05882     303.1946    39194.267 
  956000     302.4729   -1463.2129    504.10148    402.32611     237.5181    39194.267 
  956100    303.34808   -1464.9697    492.70643     393.1135   -200.43262    39194.267 
  956200    299.46884   -1476.0735    481.46836     353.3111     39.67911    39194.267 
  956300    293.53963   -1483.2273    481.40039     319.4017    257.00904    39194.267 
  956400    297.43429   -1503.1771    479.76505    315.34659    339.49907    39194.267 
  956500    302.31884   -1502.4806    505.44582    363.70931    1099.9067    39194.267 
  956600    291.20032   -1565.2912    486.60161    232.00986    126.07259    39194.267 
  956700    285.85487   -1539.2046    498.13602    245.57088    691.07112    39194.267 
  956800    300.04495   -1513.2671    490.00743     327.2496   -170.39729    39194.267 
  956900    294.36944   -1452.5097    485.76804    358.22203    374.31065    39194.267 
  957000    300.93012   -1457.7498    489.09626     385.8399    30.263473    39194.267 
  957100    296.89952   -1484.4143    513.96985    365.90722   -185.06346    39194.267 
  957200    300.45171    -1482.945    499.33513    368.73023    33.290073    39194.267 
  957300    303.75297   -1477.4702     475.3146    365.04356     4.853845    39194.267 
  957400    298.19007   -1474.1028    488.02817    356.08582    4.3265688    39194.267 
  957500    293.72034   -1479.3816    491.70375    334.36424    213.66007    39194.267 
  957600    296.78812   -1430.9742    555.47925    460.35532   -342.33314    39194.267 
  957700    304.42426   -1500.4172    507.85195    377.65538   -343.56022    39194.267 
  957800    299.73739   -1496.1888    471.44137    324.37754    479.18052    39194.267 
  957900    300.23426   -1483.8621     530.8658      398.365    550.69432    39194.267 
  958000    305.63408   -1507.4478    491.74174    359.96001   -66.639785    39194.267 
  958100      300.002   -1479.7659    467.74118    338.29119    414.06579    39194.267 
  958200    319.68619   -1459.7396    499.39708    478.57237   -24.588409    39194.267 
  958300    308.64134   -1420.8179    518.63748    487.02145     2.944558    39194.267 
  958400    293.81404   -1433.2551    508.12534     397.3341     16.48138    39194.267 
  958500    304.92593   -1447.2028    513.70391    438.97981    191.60266    39194.267 
  958600    296.23019    -1458.712    500.29479    374.92175   -152.84725    39194.267 
  958700    304.82181   -1458.0095    490.93025    404.93079    -431.7378    39194.267 
  958800     290.8774   -1459.0808     490.4082    340.57333   -594.81306    39194.267 
  958900    304.44586   -1494.9826    512.89071    388.22592   -261.10331    39194.267 
  959000    296.74795    -1454.874    483.59009    364.38551    52.789545    39194.267 
  959100    301.17092   -1401.1868    533.19374    487.58425    365.47653    39194.267 
  959200    301.94079   -1403.6251    497.21508     452.6325   -29.941024    39194.267 
  959300    295.79002   -1379.0031    490.11926    442.47393   -609.31285    39194.267 
  959400    306.55045     -1426.74    488.56679    441.61751   -281.52842    39194.267 
  959500    288.80044   -1447.4962    498.51845    350.91969   -98.407758    39194.267 
  959600    303.30508   -1437.2651    517.65574    445.57383    42.491553    39194.267 
  959700    296.21371   -1425.6361    494.18607    401.81479   -186.01775    39194.267 
  959800    297.36298   -1421.6595    485.38488    402.16302    451.14495    39194.267 
  959900    298.43358   -1405.7674     501.6848    439.17381    239.02785    39194.267 
  960000    305.73261   -1422.8883    507.28939    460.51069   -61.346383    39194.267 
  960100    300.42399   -1419.5225    492.78224    425.47508   -477.75172    39194.267 
  960200    318.81218   -1447.0499    495.92808    483.85922    235.88787    39194.267 
  960300    305.20361   -1479.4914    492.75168    386.98877   -247.85217    39194.267 
  960400    299.46978    -1429.981    504.30398    422.24336   -155.34397    39194.267 
  960500    300.89175   -1436.0708    470.33525    388.58523    210.49294    39194.267 
  960600    296.07178   -1458.9874    510.36823     384.0068   -554.58908    39194.267 
  960700    299.58203   -1454.1388    501.61008     395.8969    437.69234    39194.267 
  960800    304.18258   -1443.8157    491.96947    417.28662   -76.430078    39194.267 
  960900    290.86647   -1448.2026    495.71713    356.71122   -5.6717236    39194.267 
  961000    294.70639   -1480.9302    482.80467    328.35481   -274.49277    39194.267 
  961100    299.11066   -1474.5241    497.11461    368.89457   -217.97707    39194.267 
  961200    291.00956   -1479.5083    472.99232    303.32477   -426.49838    39194.267 
  961300    294.25425   -1496.7959    497.08663    324.73596   -405.63395    39194.267 
  961400    300.67145   -1484.6063    462.00084    330.72371   -145.95215    39194.267 
  961500    290.98131   -1514.8454    491.96907    286.83722    170.59707    39194.267 
  961600    296.24206   -1483.4575    479.44079    329.37565   -166.02324    39194.267 
  961700    312.32594   -1510.4304    485.95247    381.30834    144.22688    39194.267 
  961800    303.32653   -1525.0355    502.69312    342.93737    467.87356    39194.267 
  961900    303.25622   -1507.1201    489.49891    347.34213    315.77104    39194.267 
  962000    292.46762   -1493.2342    502.84863      326.018    -32.15027    39194.267 
  962100    308.89378     -1451.24    491.74709    430.84517    13.318436    39194.267 
  962200    299.10337   -1483.5871     504.9443    367.62844   -506.68354    39194.267 
  962300    296.36436   -1478.4651    475.46677    330.94452   -529.95337    39194.267 
  962400    304.51622   -1494.0801     491.5217    368.07617   -755.91261    39194.267 
  962500    294.83678   -1479.4067     487.5652    335.22567   -184.06538    39194.267 
  962600    309.12007   -1446.1993    482.01687     427.1741   -696.09428    39194.267 
  962700    292.91583   -1414.4589    510.64118    414.60325   -940.37313    39194.267 
  962800    301.17865   -1415.5582    491.06853    431.12248   -502.96641    39194.267 
  962900    301.39251   -1458.3323    485.89145     384.1338   -259.30716    39194.267 
  963000    289.06341   -1481.2424     509.6378    329.47651   -554.04967    39194.267 
  963100    298.94775   -1456.5291    488.07155    377.11318   -369.01646    39194.267 
  963200    300.29518   -1423.9388    486.33454     414.0313   -410.36636    39194.267 
  963300    293.12337   -1441.7828     478.0873    355.65961    -478.4382    39194.267 
  963400    296.82068   -1422.7942    493.93076    407.13326   -162.07543    39194.267 
  963500    293.54759   -1469.2626    488.50055    340.50247   -279.62578    39194.267 
  963600    301.23909   -1498.1764    476.89558    334.60326    94.322253    39194.267 
  963700     303.7288   -1468.4291    485.73046    384.39178    256.52672    39194.267 
  963800    308.93253   -1463.3334    474.40689    401.58601    258.99261    39194.267 
  963900    305.40984   -1421.7544    468.72096    421.62327    -329.4147    39194.267 
  964000    295.63015   -1419.1376    491.40825    402.90883   -310.10551    39194.267 
  964100    310.73407   -1454.8728    502.68541    446.43382    -353.4619    39194.267 
  964200    299.78393   -1418.8827    485.75618    416.20795   -111.55582    39194.267 
  964300     309.5531   -1429.5233    486.16359      449.946   -59.806832    39194.267 
  964400    301.07242   -1428.4604    494.75932     421.4328   -225.51115    39194.267 
  964500    300.31317   -1453.2865    478.74631    377.17635    30.675125    39194.267 
  964600    287.68942   -1470.9704    483.96038    307.88669    366.27383    39194.267 
  964700    296.93765   -1452.4094    474.94691     359.0608    90.012023    39194.267 
  964800    296.53822   -1447.3999    524.52582    411.85135    277.43188    39194.267 
  964900     292.5348   -1404.3972    470.61917    382.92793   -200.23231    39194.267 
  965000     298.4309   -1419.0055    491.76205    416.00098    368.69611    39194.267 
  965100    300.04953    -1374.091    492.66469    469.10364    350.11503    39194.267 
  965200    300.32911    -1386.386    500.72624    466.12853    524.19104    39194.267 
  965300    305.54391   -1404.9988    478.01936    448.28078    606.85155    39194.267 
  965400    303.96901   -1408.2903    506.15383    466.03505    595.29181    39194.267 
  965500    310.79783   -1431.3753    516.06339    483.59627    920.42376    39194.267 
  965600    297.43804   -1423.4118    483.62938    398.99309    438.01019    39194.267 
  965700    294.53267   -1420.7092    506.44189    411.43107   -205.02718    39194.267 
  965800    315.28043   -1469.3332    485.27411    435.02545    1.7478971    39194.267 
  965900    295.87156   -1453.4036    501.56349    379.88466   -294.02773    39194.267 
  966000     292.9868   -1459.4495    488.91384    348.20472   -687.14312    39194.267 
  966100    304.40073   -1406.6699    497.46743    460.91221   -876.70628    39194.267 
  966200    300.77645   -1436.7373    485.65456    402.71899    -409.5595    39194.267 
  966300    294.46476   -1424.7713    496.53534    397.15679   -693.82529    39194.267 
  966400    297.58499   -1403.7234    496.46048    432.17405   -491.96126    39194.267 
  966500    305.75868   -1424.6688    476.00126    427.55936   -151.88882    39194.267 
  966600    303.44533   -1387.3702    498.64187    477.08611    196.91938    39194.267 
  966700    295.02118   -1386.0574    483.61958    425.45938   -512.26262    39194.267 
  966800    307.52629   -1383.3048    503.26099    504.13914    11.313853    39194.267 
  966900    291.53834   -1403.0902     499.4692    408.59981   -72.606053    39194.267 
  967000    297.36284   -1402.3278    500.56536     436.6746   -313.74379    39194.267 
  967100    303.76805   -1412.3075    484.16693    439.12648   -288.03343    39194.267 
  967200     309.2334   -1398.7028    494.45592    487.61981   -152.40186    39194.267 
  967300    303.45222   -1420.7739     489.1589    434.23049   -377.31897    39194.267 
  967400     292.6376   -1442.2858    488.32914    363.21193    95.803205    39194.267 
  967500     304.1991    -1404.183    504.41332    469.43753    555.36883    39194.267 
  967600    293.64385   -1448.4189    463.70484    336.98375   -117.24313    39194.267 
  967700    293.75578   -1389.1738    519.93272    452.96049    40.738862    39194.267 
  967800    298.43226   -1384.0806    509.68843    468.85829    52.704259    39194.267 
  967900    299.79281   -1383.7889    476.85222    442.43777   -535.40989    39194.267 
  968000    299.60313   -1403.9111    485.73287    430.34238    185.28986    39194.267 
  968100    297.96325   -1415.5575    518.83277    444.41476   -240.52965    39194.267 
  968200    295.77999   -1411.3693    454.66672    374.61005    390.88902    39194.267 
  968300    306.98626   -1369.6493    518.03675    530.13972   -106.75599    39194.267 
  968400    300.43749   -1351.2263     490.9629    492.01272    377.87089    39194.267 
  968500    297.98628   -1361.3181     503.4516    483.37666   -73.586916    39194.267 
  968600    305.92064   -1367.9613    499.33506    508.32972    6.3285193    39194.267 
  968700    299.23588   -1416.2573    473.05825     403.6686   -125.33627    39194.267 
  968800    299.07656   -1427.8152    497.50916    415.84446   -637.00012    39194.267 
  968900    299.65309   -1409.3801    485.31588    424.68127   -576.87797    39194.267 
  969000    300.90145   -1426.1919    477.00413    405.17663   -796.12341    39194.267 
  969100    297.75959   -1414.9762    510.63175    435.87836   -1144.5875    39194.267 
  969200    299.04466   -1407.8544    507.42421    445.57671   -411.11576    39194.267 
  969300    308.22451   -1406.6428    492.96035    473.64319   -573.05472    39194.267 
  969400    297.42045   -1415.2191    491.99802    415.47528   -548.91101    39194.267 
  969500    302.48874   -1435.0707    490.42184    416.85993   -235.58092    39194.267 
  969600    300.95765   -1417.5696     475.6635    412.71132   -10.986984    39194.267 
  969700     301.0579   -1431.8936      501.246    424.42099    139.34513    39194.267 
  969800     303.4475   -1427.7183    515.18467    453.29063   -114.26699    39194.267 
  969900    302.18465   -1411.6603    507.92471    456.40449    76.025075    39194.267 
  970000    298.69173   -1422.7406    487.80557    409.48334    73.477723    39194.267 
  970100    297.46773   -1419.1092    507.12884    426.92884   -178.10589    39194.267 
  970200    300.50219   -1422.8827    484.81003    414.49466   -154.13351    39194.267 
  970300    302.13743   -1400.6411    504.71839     464.0049   -479.61947    39194.267 
  970400    296.20285   -1388.1036    466.35195    411.46421   -393.74988    39194.267 
  970500     308.2604   -1368.8703    511.21015    529.82708   -430.15518    39194.267 
  970600     299.7681   -1419.7292    496.85428    426.38822   -347.39726    39194.267 
  970700    295.02802   -1414.9339    494.46315    407.45718   -259.27859    39194.267 
  970800    294.58588   -1463.3029     498.6626    361.29755    39.698066    39194.267 
  970900    298.27506   -1408.3145    504.57162     438.8001    330.48686    39194.267 
  971000    302.72311   -1414.8752    510.58961    458.27808    647.59555    39194.267 
  971100    303.92065   -1434.9646    514.48044    447.46971    756.71615    39194.267 
  971200    305.24786   -1379.7131    469.40888    463.62347    535.03727    39194.267 
  971300    288.43853   -1376.3774     531.4862    453.37736    966.26196    39194.267 
  971400    300.16291   -1386.6372    508.94681    473.34984    956.52408    39194.267 
  971500    289.14233   -1378.4006    529.98816    453.02394    1021.0842    39194.267 
  971600    298.67648   -1422.9786    492.21448    413.58561    1051.9424    39194.267 
  971700    299.64986     -1441.55    525.72706    432.90805    853.62924    39194.267 
  971800    298.75407   -1449.9495    470.79168    365.54114    534.36858    39194.267 
  971900    301.37221   -1452.6121    503.07608    406.94733    141.34553    39194.267 
  972000    294.41616   -1473.2936    477.86291    329.74324     260.1018    39194.267 
  972100    313.69124   -1438.8076    474.21416    447.33808    585.90535    39194.267 
  972200    309.70883   -1437.5697    488.10612    444.54309    493.86639    39194.267 
  972300    296.97309    -1405.359    507.72551    439.04932    519.46566    39194.267 
  972400    288.89372    -1461.128    506.16149     345.3508    329.66588    39194.267 
  972500    291.89701   -1406.8862    508.67442     415.6234    725.48364    39194.267 
  972600    299.36401    -1417.875    475.03292    404.60226    69.652951    39194.267 
  972700    291.86258   -1416.8378    494.56884    391.41123    94.798197    39194.267 
  972800    296.06462   -1416.3471     486.4717     402.7183    -210.5949    39194.267 
  972900    313.16786   -1425.4194    487.76252    471.91895    1.5816638    39194.267 
  973000    296.52894   -1431.7834    503.10937    406.00964   -412.53926    39194.267 
  973100    306.63817   -1393.3194    519.23061    506.09673   -545.47328    39194.267 
  973200    289.90279   -1414.1938    506.55113    397.21652   -720.16604    39194.267 
  973300    306.36916   -1378.0398    513.39746    514.33242   -373.98025    39194.267 
  973400    302.74363   -1357.5488    490.13164    495.23889   -640.58178    39194.267 
  973500     299.6294   -1332.7647     486.5615    502.43564   -463.35816    39194.267 
  973600    305.96837   -1383.3925    489.35181    483.13006   -297.70043    39194.267 
  973700    294.80643    -1391.847    498.69864     433.7822   -274.36498    39194.267 
  973800    291.24656   -1432.9716     497.0911    375.02697   -264.58849    39194.267 
  973900    296.97893   -1382.4939    490.94715    445.16233   -344.02545    39194.267 
  974000     295.3708   -1414.3509    503.69777    418.81767   -648.97319    39194.267 
  974100    310.25567   -1380.1402    480.56165    496.88943   -524.82012    39194.267 
  974200    304.58028   -1375.4733    504.51003    499.95962    163.20438    39194.267 
  974300    303.11501    -1374.853    547.95459    537.42924     476.5165    39194.267 
  974400    294.95439   -1399.8128    486.56264    414.34638   -391.22481    39194.267 
  974500    303.36029   -1454.8011    506.82442      417.455    255.21609    39194.267 
  974600    299.74949   -1443.8011    464.70082    370.07912    80.692285    39194.267 
  974700    301.77052   -1435.4506     529.0047    451.83022    354.52338    39194.267 
  974800    295.23852   -1431.9196    476.09534     373.0512   -56.495131    39194.267 
  974900    294.16239   -1413.6488    488.20984    398.59274   -81.102044    39194.267 
  975000    304.20529   -1431.9298    497.51456    434.81982    179.10139    39194.267 
  975100    310.51114   -1442.1476    464.10375    419.57402    42.582781    39194.267 
  975200    286.25121   -1433.4949    524.46075    379.38917   -25.206551    39194.267 
  975300    297.64955   -1463.1281    492.39304    368.99243   -158.54517    39194.267 
  975400    302.74496   -1440.6074     472.1945    394.24914   -669.81759    39194.267 
  975500    298.12784   -1441.6199    489.65502    389.91543   -436.40008    39194.267 
  975600    301.39763   -1408.5405    487.33457    435.39177   -492.36785    39194.267 
  975700    304.53772   -1420.5716    477.63527    427.79507    565.10841    39194.267 
  975800    297.42445   -1406.3805    519.29741    451.63128    7.4997798    39194.267 
  975900    296.38943   -1454.5888    467.65155    347.11851    773.05163    39194.267 
  976000    303.91855   -1449.4579    484.95735    403.44391    469.86398    39194.267 
  976100    308.11492   -1438.9138    499.37903    447.29762    497.26926    39194.267 
  976200    299.07237   -1450.0652    501.50585    397.57229    -165.7696    39194.267 
  976300    295.83357   -1432.7264    482.21725    381.04459    336.20361    39194.267 
  976400    300.10264   -1493.6691    513.01923    370.11904     -196.243    39194.267 
  976500    294.93929   -1471.8061    473.40544    329.12789    403.73866    39194.267 
  976600     295.4079   -1460.4085    479.30366    348.53301    84.710735    39194.267 
  976700    306.80683   -1444.5198    504.20908    440.63393   -26.526583    39194.267 
  976800    302.09175   -1442.7642    495.97382    412.93163    198.68736    39194.267 
  976900    309.27649    -1484.993    489.83305    396.90064    44.344183    39194.267 
  977000    300.90838   -1481.4437    477.73731    350.68919    155.44385    39194.267 
  977100    308.84066   -1441.6541    496.62832    445.07313   -162.87255    39194.267 
  977200    301.24318    -1456.708    486.29581    385.49036   -202.62682    39194.267 
  977300    299.88148   -1442.8766    492.26148    399.15834    66.712003    39194.267 
  977400    303.18058   -1422.5559     509.6712    451.73809   -362.89846    39194.267 
  977500     298.8502   -1415.1688       513.02    442.98285   -443.55843    39194.267 
  977600    309.80649   -1430.1415    501.90977     466.2145    -155.3067    39194.267 
  977700    300.08726   -1425.7229    489.82019    414.79697   -456.99223    39194.267 
  977800    288.82293    -1428.967    530.23042    401.26214   -75.012903    39194.267 
  977900    293.56402   -1429.9637    505.63462    397.00937   -147.19532    39194.267 
  978000    308.47851   -1413.2368    513.49542    488.72755    90.890972    39194.267 
  978100    295.47063   -1418.3052    498.47144    410.08637    206.59941    39194.267 
  978200    302.55901    -1430.497    517.75126     449.0794     411.2979    39194.267 
  978300    309.66069   -1427.2222    513.56086    480.12859    419.26374    39194.267 
  978400    291.60596   -1448.8004    528.29935    392.02414    147.50134    39194.267 
  978500    296.39991   -1434.7319    515.65822    415.02913    283.82165    39194.267 
  978600     292.8612   -1442.6731    494.06032     369.5623    5.9989336    39194.267 
  978700    298.09648   -1445.0117    513.95432    410.68173     207.7475    39194.267 
  978800    315.27424   -1437.1222    506.90345     488.8379     410.0218    39194.267 
  978900      299.638   -1426.5578    519.81771    441.93752   -353.20935    39194.267 
  979000    298.53354   -1394.7866    514.08362    463.00346   -603.09677    39194.267 
  979100    292.91146   -1425.8885    546.52456     439.0373   -332.70371    39194.267 
  979200    309.75274   -1423.5375    506.80223    477.46894   -154.25398    39194.267 
  979300    298.19719   -1429.9355    515.90206    428.15899    240.96556    39194.267 
  979400    313.33153   -1441.2913    490.55704    459.57822    57.218491    39194.267 
  979500    299.60495   -1429.7083    512.71452     431.5351    334.55195    39194.267 
  979600    295.10985   -1461.1135    524.67567    391.85849    275.94512    39194.267 
  979700    299.46908   -1468.1579    541.00248    420.76184     865.9333    39194.267 
  979800    292.57421   -1482.7557    507.39167    341.51933    116.15528    39194.267 
  979900    286.61414   -1475.5511    494.49606    309.00184    212.15142    39194.267 
  980000    304.98893   -1478.0279    519.14877    413.88307    150.39464    39194.267 
  980100    287.32946   -1460.9115    502.13145    334.49655   -28.977302    39194.267 
  980200    301.54518   -1498.3979    514.32155    373.18548   -554.31011    39194.267 
  980300    301.19219   -1491.9898     489.3572    353.04044   -662.13194    39194.267 
  980400    306.53365   -1442.9144    510.65175    447.45243   -492.54095    39194.267 
  980500    301.42142   -1438.3666    502.31918    420.65733   -44.793535    39194.267 
  980600    301.67839   -1453.8234    511.41253    415.45051    600.49133    39194.267 
  980700    298.76748   -1452.8794    503.86564    395.74559    384.05786    39194.267 
  980800    302.97279   -1432.5917    516.08019    447.17598    334.46075    39194.267 
  980900    301.22447   -1443.6422     521.2222    433.39829    372.81838    39194.267 
  981000    292.03792   -1446.2841     506.1766    374.36193    759.78834    39194.267 
  981100    312.34127   -1469.1016    501.27923    438.03295    387.99141    39194.267 
  981200    302.27018   -1491.2149    514.50658    383.81682    603.97758    39194.267 
  981300    308.31544   -1438.4436    488.07503    437.36636    513.49863    39194.267 
  981400    304.34754   -1433.2985    512.35439    448.93122    531.10978    39194.267 
  981500    291.99073   -1441.9369    503.48761    375.80781    89.235031    39194.267 
  981600    299.46456   -1420.1279    521.43535    449.20436    12.021627    39194.267 
  981700    299.66523   -1466.6982    519.88037    401.98231    151.26774    39194.267 
  981800    291.25668   -1459.2546    492.19233    343.89078    499.87448    39194.267 
  981900    299.59429   -1461.4509    485.97128    373.00116   -320.27257    39194.267 
  982000    302.94012   -1466.6507    497.57681    394.46661   -400.77356    39194.267 
  982100    308.63733   -1464.8339    519.55399    443.90389   -19.641533    39194.267 
  982200    298.23174   -1462.3813    473.68712    353.65384    165.54431    39194.267 
  982300     306.7599   -1447.6908     529.3708     462.4134    219.55225    39194.267 
  982400    302.01503   -1489.1966    494.44686    364.62685   -539.01881    39194.267 
  982500    299.40939   -1463.2269    491.87155    376.29324   -395.66907    39194.267 
  982600    302.32288   -1446.2247    493.87623    408.41385   -256.01144    39194.267 
  982700    295.16535   -1466.0028    515.92606    378.46935   -136.81676    39194.267 
  982800     301.6726   -1498.7603    508.62873    367.70376   -382.21754    39194.267 
  982900    302.63387   -1473.2855     484.3502    373.22674   -674.65902    39194.267 
  983000    303.26138    -1488.729    482.69184    358.94936   -394.93815    39194.267 
  983100    295.50881   -1479.6102    518.61142     369.0932   -816.91457    39194.267 
  983200    307.77768    -1477.417    477.84082    385.73825   -421.69774    39194.267 
  983300    304.66735   -1464.5148    501.08741     407.8874   -489.96028    39194.267 
  983400      303.254    -1452.951    516.85661     428.8589   -263.05081    39194.267 
  983500    293.26433    -1461.758    523.13779    381.36935   -251.64303    39194.267 
  983600    300.29141   -1465.7824     476.1296    361.96577   -492.20081    39194.267 
  983700    296.28926   -1463.4801    497.48762     367.6124   -1074.6763    39194.267 
  983800    296.26677   -1458.4887    519.84355    394.85844   -578.57299    39194.267 
  983900    306.86621   -1480.6318     516.1564    416.73649   -581.24807    39194.267 
  984000    302.09842   -1479.7708    501.33052    381.31168   -537.14314    39194.267 
  984100    291.41563   -1474.0944     501.0491    338.62322   -598.45739    39194.267 
  984200    303.49761   -1478.2652    506.83193    394.61647   -414.27464    39194.267 
  984300    300.99077   -1465.1693    507.55542    397.15257   -154.35027    39194.267 
  984400    289.36645   -1442.0769    501.04033    361.40852   -225.07306    39194.267 
  984500    303.01464   -1476.5796     515.6632    402.95952    255.68689    39194.267 
  984600    299.25106   -1431.0053     530.9293    446.85993    186.55818    39194.267 
  984700    296.87694   -1448.3132    510.67065    398.60741   -221.77027    39194.267 
  984800    300.29682   -1434.8085    505.74405    422.57849    652.42661    39194.267 
  984900    306.38406   -1450.1972    519.95071    448.79522   -49.447879    39194.267 
  985000    299.75499   -1503.2909    526.39541    372.30867    61.341888    39194.267 
  985100    296.69296   -1424.4629    490.97018    401.92915    168.31518    39194.267 
  985200    308.00749   -1419.0203     512.5975    479.92606   -337.56709    39194.267 
  985300    286.11062   -1455.7696    502.33365    334.35463   -190.35311    39194.267 
  985400    296.75328   -1441.9225    494.72169    388.49258    655.74373    39194.267 
  985500    300.34742   -1452.1166    514.35395    414.10802    472.65204    39194.267 
  985600    300.57888    -1408.762    501.23596    445.38648   -51.542367    39194.267 
  985700    304.37782   -1405.4022     485.7644    450.37379   -121.20951    39194.267 
  985800    292.30391   -1449.4962     489.4249     355.5954    -250.4231    39194.267 
  985900     305.7581   -1396.4558     530.2239    509.99241   -233.56876    39194.267 
  986000    307.18999   -1383.1623    487.56028    487.06727    138.62671    39194.267 
  986100    295.03685   -1423.2266    518.10253    422.84364    457.89095    39194.267 
  986200     299.2137   -1486.8543    511.96502     371.8785    716.74028    39194.267 
  986300    292.77188   -1460.0698     525.9033    383.60647    382.25177    39194.267 
  986400    303.42448   -1468.4179    512.26784    409.57055    408.36037    39194.267 
  986500     300.5662   -1504.2391    512.32437    360.94069     496.4347    39194.267 
  986600    297.78763   -1516.9262    537.76966    361.19254   -103.53041    39194.267 
  986700    303.00026    -1498.264    487.92263    353.46979    646.29545    39194.267 
  986800     305.7497   -1516.5347    509.91257    369.56436    351.80129    39194.267 
  986900    295.94991   -1497.5182    516.95631    351.51546   -384.28819    39194.267 
  987000     301.9683   -1495.8072    482.96748    346.32654    -129.8614    39194.267 
  987100    308.34617   -1500.2752     504.7842    392.38227   -577.60506    39194.267 
  987200    290.62827   -1502.7391    506.18759    311.57305   -67.810767    39194.267 
  987300    306.07798   -1495.8616       494.26    376.06246    59.970506    39194.267 
  987400    293.54684   -1464.8924    492.57272    348.94147    461.36323    39194.267 
  987500    302.77947   -1451.1833    499.84935    411.48347    423.44383    39194.267 
  987600    309.89187   -1482.3742    504.65359    417.10983    464.20113    39194.267 
  987700    288.44394   -1481.4392    516.98294    333.83661    600.73389    39194.267 
  987800    289.57782   -1475.1594     523.7955    352.03259    652.80211    39194.267 
  987900    291.02548   -1486.3584    519.80675    343.36081    409.76664    39194.267 
  988000    294.41995   -1508.6375    509.64644    326.19996    515.52782    39194.267 
  988100    298.33741   -1493.0713    492.12791    341.88025    480.91284    39194.267 
  988200    290.32597   -1476.2387    489.14087    319.66612   -36.180436    39194.267 
  988300    300.75197   -1470.4907     498.8683    382.06916    200.13708    39194.267 
  988400    295.22237   -1475.3841    524.45802    377.87665    422.81153    39194.267 
  988500    298.97207   -1518.9202    507.15493    333.91494    238.71358    39194.267 
  988600    297.45566   -1496.5941    493.14607     335.4068     166.8796    39194.267 
  988700      295.767    -1480.199    502.91177    353.96695    723.08774    39194.267 
  988800     294.3146    -1486.657    519.62264    357.68246    642.91078    39194.267 
  988900    302.36391    -1465.286    508.98712    404.64804    436.31898    39194.267 
  989000    299.21596   -1476.3627    504.03507    374.45029    159.44246    39194.267 
  989100    304.86438   -1495.9831    503.90387    380.12247   -231.60085    39194.267 
  989200     308.2253   -1474.2298    499.14465    412.24402    118.60341    39194.267 
  989300    290.15578   -1470.3021    500.82498     336.5208   -108.72823    39194.267 
  989400    307.35959   -1522.1227    485.22401      346.534    271.54069    39194.267 
  989500    305.33351   -1480.3798    533.86856    427.80195    281.09563    39194.267 
  989600    294.79665   -1456.0693    495.52932     366.3466    411.21057    39194.267 
  989700    305.29056   -1442.3378    501.28015    433.06225   -46.195682    39194.267 
  989800    295.64738   -1489.9699    489.23427    329.98009    272.21811    39194.267 
  989900     305.5754   -1505.2794    545.68937    415.81195    96.504922    39194.267 
  990000    299.73256   -1502.7439    468.70721    315.06644    316.22285    39194.267 
  990100    307.77211   -1470.4296     508.5348    423.39457    159.92109    39194.267 
  990200     305.2599   -1458.3867    510.39988    425.99508    168.07194    39194.267 
  990300    309.92297   -1466.3709    514.58702    443.18661    98.062912    39194.267 
  990400    299.70086   -1451.2568    501.26314     398.9668   -38.689956    39194.267 
  990500    297.03227   -1460.4817    513.99833     390.4658    454.01596    39194.267 
  990600    294.41474   -1466.5426    513.50599    372.13092    5.0694358    39194.267 
  990700    298.84702   -1453.9463    498.91602    390.08713    309.18968    39194.267 
  990800    299.27517   -1493.9974    499.21067    352.25773   -129.30126    39194.267 
  990900    306.90343   -1491.0505    487.66629    377.99523    653.56402    39194.267 
  991000    315.98003   -1495.4692    491.78545    418.54965   -26.380725    39194.267 
  991100    297.50964   -1484.1114    512.20806     367.1944   -453.72082    39194.267 
  991200    287.29211   -1496.9245    485.78741    281.97139    67.833131    39194.267 
  991300    299.94966    -1467.498    469.67363    352.25597    350.29391    39194.267 
  991400     292.6202   -1407.9032    545.26638    454.45345   -120.28848    39194.267 
  991500    308.83893   -1389.9162     495.0502    495.22516   -113.28497    39194.267 
  991600    303.72524   -1463.9283    502.11996    405.26596    3.0737462    39194.267 
  991700    295.50362   -1484.2243    517.76201    363.60634    266.09277    39194.267 
  991800    314.78071   -1430.7643    494.90547    480.97649    809.45324    39194.267 
  991900    297.41543   -1438.1421    523.84531    424.37699    470.60593    39194.267 
  992000    295.87011   -1463.2958    529.76486    398.18731   -237.56681    39194.267 
  992100    297.97296   -1480.2484    501.54216    362.47696    -244.5059    39194.267 
  992200    307.64495   -1491.6468    495.59433    388.66455   -583.23119    39194.267 
  992300    291.84473   -1472.0629    512.42593    353.96289   -328.93983    39194.267 
  992400    297.33204   -1423.9884     465.1257    379.43566   -538.65085    39194.267 
  992500    305.85489   -1429.4297    496.30912    443.53935   -307.17286    39194.267 
  992600    312.60332   -1457.5432    531.74669    481.23826       101.25    39194.267 
  992700    297.81355   -1470.0946    503.02473    373.39585    193.90795    39194.267 
  992800    296.49209   -1470.1308    508.38283    372.76977    421.14175    39194.267 
  992900    305.04062   -1466.8732    510.11556    416.23728    351.07807    39194.267 
  993000    290.36824   -1473.7453    496.49327    329.70217   -217.38338    39194.267 
  993100     297.8385   -1483.5869    486.54939    343.54045    161.83303    39194.267 
  993200     300.2425   -1474.6872    520.57039    397.28168    46.328312    39194.267 
  993300    295.06722     -1483.71    467.01005    311.40447    456.67841    39194.267 
  993400    300.34085   -1518.8127    526.22811    359.25656   -437.29458    39194.267 
  993500    301.87241   -1489.1882     467.4616    337.00805   -114.44394    39194.267 
  993600    297.82942    -1522.772    472.03071    289.79587    369.01554    39194.267 
  993700    295.98582   -1489.2473    498.49841    341.49013    338.04264    39194.267 
  993800    283.67443   -1488.9519    548.50567    336.37897    411.16329    39194.267 
  993900    303.67843   -1500.1437    503.16454    369.88449    192.48143    39194.267 
  994000    295.82116   -1471.0598    520.75642    381.19451    532.24582    39194.267 
  994100    305.91738   -1439.6139    520.53971    457.86701    230.07965    39194.267 
  994200    305.44307   -1396.9057    515.43808     493.3387    -105.2627    39194.267 
  994300    304.14587   -1451.3426    493.84572    411.47078   -631.04209    39194.267 
  994400    303.86277    -1426.287    497.41481    438.82115   -225.72648    39194.267 
  994500    297.31928   -1437.3998    499.54418    400.38534   -556.86536    39194.267 
  994600    296.80877   -1435.9358     505.7616    405.76899   -313.24897    39194.267 
  994700    305.56683   -1445.6055    501.85699    431.61486    94.261974    39194.267 
  994800    305.44668   -1453.9726    518.47686    439.32687   -2.6299357    39194.267 
  994900      297.249   -1460.2863    516.03065    393.66898    434.73091    39194.267 
  995000    308.73494   -1482.0744    494.02641    401.57513     526.9556    39194.267 
  995100    304.81251     -1481.19    516.33263    407.11081   -82.958993    39194.267 
  995200    294.35298   -1463.5696    533.96026    395.28023     195.1553    39194.267 
  995300    300.68573    -1454.631    486.30449    385.06693   -59.731302    39194.267 
  995400    293.81414   -1404.4313    523.81189     441.8448   -355.18418    39194.267 
  995500    291.91729     -1442.36    512.28442    383.85087   -124.29227    39194.267 
  995600    306.99748    -1452.967    504.36643    433.20221    29.612277    39194.267 
  995700    295.28478   -1425.6357    503.87579    407.32378    401.13955    39194.267 
  995800    302.25421   -1424.2913    537.39273    473.55466    103.23997    39194.267 
  995900    304.65234    -1475.253    500.22649    396.22077   -560.22551    39194.267 
  996000    291.43387   -1449.6716    492.39467    354.47369   -389.50228    39194.267 
  996100    297.64899   -1469.6228    499.07097    369.17319   -443.30879    39194.267 
  996200    296.10068   -1472.1343    515.10487    375.72658   -483.38973    39194.267 
  996300    308.53407   -1497.6636    502.26447    393.31988   -184.23563    39194.267 
  996400    298.00031   -1468.4336    498.97187    371.84464    265.16466    39194.267 
  996500    299.53464   -1508.4013    470.99347    310.80453    154.98926    39194.267 
  996600    303.37891   -1449.9116    516.35123    431.95515    556.17778    39194.267 
  996700    295.51783   -1461.4088    494.39511    363.11887    251.09993    39194.267 
  996800    302.19707   -1485.3482    504.01841    378.86627    244.74626    39194.267 
  996900    309.58074   -1486.8047    490.19288    396.81831   -251.61263    39194.267 
  997000    296.39351   -1520.0474    478.83244    292.85906   -130.81027    39194.267 
  997100    305.05315   -1437.9441    462.01965    397.12687   -402.70676    39194.267 
  997200    303.47589   -1443.3682    520.46434    443.04812   -658.14425    39194.267 
  997300    305.99672   -1433.7634    499.10671    442.64161   -118.28124    39194.267 
  997400    298.15212   -1427.1227    483.61976    398.48671   -657.87242    39194.267 
  997500    301.84931   -1456.1724    509.98823     412.4466   -409.72595    39194.267 
  997600    294.91587   -1437.1592    476.73852    367.00253   -716.29728    39194.267 
  997700    307.55547   -1459.3839    510.99793    435.92834   -26.466348    39194.267 
  997800    298.20484   -1452.8529    486.74799    376.12195    108.38836    39194.267 
  997900    299.86612   -1437.1208    500.80931    413.39285    613.15967    39194.267 
  998000    292.52989   -1420.9652    493.15095    388.86957    461.25334    39194.267 
  998100    296.91819    -1404.365     509.9926    442.06326    288.79117    39194.267 
  998200    307.50549   -1407.6569    502.80564    479.23811    602.88289    39194.267 
  998300    306.21353   -1418.9584     524.8216    484.13736    438.51865    39194.267 
  998400    296.29963   -1392.0588    506.79764    448.39032    498.84682    39194.267 
  998500    302.19701   -1405.2483    499.41553    454.36297    738.92634    39194.267 
  998600    293.18621   -1441.8853    507.60559    385.35825     229.8672    39194.267 
  998700    295.63861    -1366.491    529.34629     493.5315    366.85023    39194.267 
  998800     316.8487   -1409.5884    532.27397    548.82889    369.22278    39194.267 
  998900    299.59276   -1384.5611    510.40781    474.32066    418.82407    39194.267 
  999000     300.2051   -1432.1975    504.17929    423.21196      -179.67    39194.267 
  999100    303.00407   -1411.6552    509.25635    461.42949   -694.11856    39194.267 
  999200    297.77646   -1392.6812     518.8271    466.44462   -701.81435    39194.267 
  999300    299.58829   -1396.0623    526.14567    478.53715    128.90934    39194.267 
  999400    294.74414    -1433.439    487.06873    380.27993   -66.540004    39194.267 
  999500      293.557   -1429.5666     516.0158    407.75604    26.139876    39194.267 
  999600     301.6421     -1422.72    490.34653    425.32464   -92.397876    39194.267 
  999700    301.32908   -1432.2708    514.22769    438.24608    156.42497    39194.267 
  999800    301.56153   -1484.8121    451.69071    324.21405     192.6295    39194.267 
  999900    294.49516   -1499.3322    509.85908    336.05638     171.0403    39194.267 
 1000000    300.02431   -1493.7107    497.40409    354.10979    520.90034    39194.267 
 1000100    302.32978   -1452.0027    485.59105    394.38172    -68.15052    39194.267 
 1000200    307.16528   -1462.6744    512.23711    432.12077   -294.04749    39194.267 
 1000300    298.57308   -1441.9532    470.14083    372.07204   -679.79758    39194.267 
 1000400     295.9336   -1450.7453    511.13938    392.39812   -396.79735    39194.267 
 1000500    307.96962   -1452.3759    495.05483    428.85728    34.525255    39194.267 
 1000600    297.71609    -1430.148    503.23104     413.1101    205.82402    39194.267 
 1000700     289.2029   -1477.1632    479.32457     303.8703    206.17044    39194.267 
 1000800    303.34808   -1403.4196    519.24511    481.20218    547.93509    39194.267 
 1000900    306.29813   -1433.6161    504.64208    449.68096    242.58007    39194.267 
 1001000    306.47188   -1455.9458    484.94914    408.44038    413.87271    39194.267 
 1001100    302.59292   -1401.7252    530.61191     490.8645    178.69206    39194.267 
 1001200    302.06833   -1426.0572    489.99101    423.55033    7.4360749    39194.267 
 1001300    302.63048   -1422.4136    524.18889    463.92212   -66.416085    39194.267 
 1001400    298.25485   -1417.3205    513.76744    438.89894   -166.89216    39194.267 
 1001500    313.54366   -1441.7362    496.40091    465.93195    244.61859    39194.267 
 1001600    303.18432    -1433.318    506.99693    438.31864    747.26263    39194.267 
 1001700    305.19565   -1409.7271    497.74287    461.70849     513.9919    39194.267 
 1001800    297.80452   -1466.1286    503.07811    377.37457    226.16359    39194.267 
 1001900    305.09799   -1448.0338    492.34802    417.56737   -256.45351    39194.267 
 1002000    296.24449   -1448.5429    486.95554    371.81598    199.24289    39194.267 
 1002100     299.8614   -1400.4771    520.76887    469.97488    345.38322    39194.267 
 1002200     300.1827   -1389.2498    509.81218    471.69167     154.0754    39194.267 
 1002300    304.63589   -1434.4292    501.67496    438.41893    698.14066    39194.267 
 1002400    308.00348    -1480.877    516.96708    422.42086    676.23567    39194.267 
 1002500     310.4526   -1457.7871    477.29172    416.85897    554.25671    39194.267 
 1002600    303.21167   -1462.3674    483.74075    386.13614    569.60231    39194.267 
 1002700    298.99715   -1442.7653    501.23282    404.26059    74.516526    39194.267 
 1002800    309.29129   -1452.0654    505.94334    446.00525   -196.16489    39194.267 
 1002900    302.78037   -1468.7854    488.78957    382.82562   -143.34016    39194.267 
 1003000    304.90003   -1470.4796    512.05571    413.93822   -108.60659    39194.267 
 1003100    307.12021   -1482.5928    470.78903    370.55141   -130.66226    39194.267 
 1003200    298.30087    -1489.326    502.80091    356.13402   -891.39839    39194.267 
 1003300    296.18278   -1454.1059    503.17273    382.19242   -725.57908    39194.267 
 1003400    303.38208   -1444.6878    500.32958    421.17154   -126.20324    39194.267 
 1003500    305.43195   -1474.3203    492.42154    392.85755   -321.98015    39194.267 
 1003600    292.57437   -1487.4011    506.30538     335.7883   -450.41875    39194.267 
 1003700    303.93556   -1444.3766    506.01614    429.66051   -274.98718    39194.267 
 1003800    303.38413    -1482.239    467.67206    350.97209    120.17043    39194.267 
 1003900    296.51055   -1450.8868    513.88653    397.60055    53.050532    39194.267 
 1004000    301.21407   -1416.1946    493.95632    433.53321   -169.95145    39194.267 
 1004100    292.21627   -1435.9751    502.08754    381.38462   -429.11929    39194.267 
 1004200    303.70055    -1422.422     499.3543     443.8955    81.694587    39194.267 
 1004300    291.09243   -1442.6062    491.01193    358.61953    3.2111044    39194.267 
 1004400     292.4847   -1446.1715    472.49742    342.80631   -108.91872    39194.267 
 1004500     299.5927   -1398.2949    533.51845    483.69725     51.58645    39194.267 
 1004600    305.74687   -1411.6939     486.6694     451.1492   -110.90621    39194.267 
 1004700    299.58237   -1415.8406    468.06167    400.64829   -286.30944    39194.267 
 1004800    302.63696   -1428.0845    516.81458    450.90607   -585.05773    39194.267 
 1004900    300.22683   -1416.2031    507.37073    442.49552    -435.4503    39194.267 
 1005000    299.99209   -1399.6973     492.6492    443.22325   -699.66391    39194.267 
 1005100    297.30617   -1392.7553    514.21692    459.64363   -125.87362    39194.267 
 1005200    293.94447   -1445.5106    497.76811    375.30842   -457.84549    39194.267 
 1005300    304.76188   -1440.0949    481.21864    412.86397    4.7603023    39194.267 
 1005312    296.18603   -1414.1724    500.24191    419.20975    268.24286    39194.267 
Loop time of 596.644 on 32 procs for 1000000 steps with 1511 atoms

Performance: 144.810 ns/day, 0.166 hours/ns, 1676.040 timesteps/s
100.0% CPU use with 32 MPI tasks x no OpenMP threads

MPI task timing breakdown:
Section |  min time  |  avg time  |  max time  |%varavg| %total
---------------------------------------------------------------
Pair    | 212.93     | 264.22     | 297.35     | 117.7 | 44.28
Bond    | 1.3576     | 1.5482     | 1.6773     |   6.0 |  0.26
Neigh   | 39.203     | 39.27      | 39.337     |   0.7 |  6.58
Comm    | 246.77     | 280.01     | 331.24     | 114.2 | 46.93
Output  | 0.39261    | 0.41014    | 0.86041    |  12.6 |  0.07
Modify  | 8.1513     | 8.4465     | 8.7125     |   4.9 |  1.42
Other   |            | 2.736      |            |       |  0.46

Nlocal:        47.2188 ave          78 max          18 min
Histogram: 1 1 5 2 9 4 4 3 0 3
Nghost:        1927.50 ave        1972 max        1878 min
Histogram: 2 2 2 6 4 3 4 4 1 4
Neighs:        5054.09 ave        9675 max        2099 min
Histogram: 6 2 4 5 6 2 3 1 1 2

Total # of neighbors = 161731
Ave neighs/atom = 107.03574
Ave special neighs/atom = 2.0211780
Neighbor list builds = 49848
Dangerous builds = 0

# Output the system volume
variable v equal vol
print 'The system volume is $v'
The system volume is 39194.2667676891

# Outputs
variable A equal xhi-xlo
variable B equal yhi-ylo
variable C equal zhi-zlo
variable D equal xy
variable E equal xz
variable F equal yz
print 'Lattice vectors'
Lattice vectors
print '$A 0 0'
33.968328860215 0 0
print '$D $B 0'
0 33.968328860215 0
print '$E $F $C'
0 0 33.968328860215
Total wall time: 0:10:01
