LAMMPS (29 Sep 2021 - Update 1)
# Test LAMMPS input file for single DeFDe

# Initialize simulation

clear

units real
atom_style full
boundary p p p
dielectric 1
special_bonds dreiding

bond_style harmonic
angle_style harmonic
dihedral_style harmonic
improper_style umbrella
pair_style hybrid/overlay hbond/dreiding/lj 4 9.0 11.0 90 lj/cut 8.50000

# Read data file
read_data frag5.dat
Reading data file ...
  triclinic box = (0.0000000 0.0000000 0.0000000) to (15.000000 15.000000 15.000000) with tilt (0.0000000 0.0000000 0.0000000)
  2 by 4 by 4 MPI processor grid
  reading atoms ...
  1511 atoms
  scanning bonds ...
  3 = max bonds/atom
  scanning angles ...
  6 = max angles/atom
  scanning dihedrals ...
  12 = max dihedrals/atom
  scanning impropers ...
  1 = max impropers/atom
  reading bonds ...
  1010 bonds
  reading angles ...
  516 angles
  reading dihedrals ...
  14 dihedrals
  reading impropers ...
  1 impropers
Finding 1-2 1-3 1-4 neighbors ...
  special bond factors lj:    0        0        1       
  special bond factors coul:  0        0        1       
     4 = max # of 1-2 neighbors
     5 = max # of 1-3 neighbors
     8 = max # of special neighbors
  special bonds CPU = 0.002 seconds
  read_data CPU = 0.017 seconds

# Dreiding potential information

bond_coeff 1 350 1.59
bond_coeff 2 350 1.69
bond_coeff 3 350 1.8
bond_coeff 4 350 1.265
bond_coeff 5 350 0.935
bond_coeff 6 350 1.09
bond_coeff 7 350 0.98

angle_coeff 1 50 92.1
angle_coeff 2 50 104.51
angle_coeff 3 50 120
angle_coeff 4 50 109.471

dihedral_coeff 1 0.333333333333333 -1 3
dihedral_coeff 2 0.111111111111111 -1 3
dihedral_coeff 3 0.25 -1 6

improper_coeff 1 40 0

pair_coeff 1 1 lj/cut 0.0957 3.4046
pair_coeff 1 2 lj/cut 0.18144089946867 3.70412445795224
pair_coeff 1 3 lj/cut 0.0957 3.4046
pair_coeff 1 4 lj/cut 0.0860649754545948 3.53100349192691
pair_coeff 1 5 lj/cut 0.0953995283007206 3.64309650983885
pair_coeff 1 6 lj/cut 0.0030935416596516 3.29710294046152
pair_coeff 1 7 lj/cut 0.0381397430510485 3.29813538230316
pair_coeff 2 2 lj/cut 0.344 4.03
pair_coeff 2 3 lj/cut 0.18144089946867 3.70412445795224
pair_coeff 2 4 lj/cut 0.163173527264688 3.84164847428809
pair_coeff 2 5 lj/cut 0.180871224908773 3.96360303259547
pair_coeff 2 6 lj/cut 0.00586515131944607 3.58717019389936
pair_coeff 2 7 lj/cut 0.0723104418462507 3.58829346625941
pair_coeff 3 3 lj/cut 0.0957 3.4046
pair_coeff 3 4 lj/cut 0.0860649754545948 3.53100349192691
pair_coeff 3 5 lj/cut 0.0953995283007206 3.64309650983885
pair_coeff 3 6 lj/cut 0.0030935416596516 3.29710294046152
pair_coeff 3 7 lj/cut 0.0381397430510485 3.29813538230316
pair_coeff 4 4 lj/cut 0.0774 3.6621
pair_coeff 4 5 lj/cut 0.0857947550844456 3.77835472527395
pair_coeff 4 6 lj/cut 0.00278208554864871 3.41951536039831
pair_coeff 4 7 lj/cut 0.0342998542270955 3.42058613398347
pair_coeff 5 5 lj/cut 0.0951 3.8983
pair_coeff 5 6 lj/cut 0.00308382878902186 3.52806914614779
pair_coeff 5 7 lj/cut 0.0380199947396104 3.52917391183829
pair_coeff 6 6 lj/cut 1e-04 3.193
pair_coeff 6 7 lj/cut 0.0012328828005938 3.19399984345648
pair_coeff 7 7 lj/cut 0.0152 3.195
pair_coeff 1 3 hbond/dreiding/lj 6 j 9.50 2.75 4 9.0 11.0 90
pair_coeff 3 3 hbond/dreiding/lj 6 j 9.50 2.75 4 9.0 11.0 90
pair_coeff 3 4 hbond/dreiding/lj 6 i 9.50 2.75 4 9.0 11.0 90
pair_coeff 1 4 hbond/dreiding/lj 6 j 9.50 2.75 4 9.0 11.0 90
pair_coeff 3 4 hbond/dreiding/lj 6 j 9.50 2.75 4 9.0 11.0 90
pair_coeff 4 4 hbond/dreiding/lj 6 j 9.50 2.75 4 9.0 11.0 90

neighbor 2 bin
neigh_modify every 2 one 10000

# Gemoetric relaxation
fix 1 all box/relax iso 1.0 vmax 0.001
minimize 1.0e-4 1.0e-6 10000 10000
WARNING: Using 'neigh_modify every 1 delay 0 check yes' setting during minimization (../min.cpp:188)
Neighbor list info ...
  update every 1 steps, delay 0 steps, check yes
  max neighbors/atom: 10000, page size: 100000
  master list distance cutoff = 13
  ghost atom cutoff = 13
  binsize = 6.5, bins = 3 3 3
  3 neighbor lists, perpetual/occasional/extra = 3 0 0
  (1) pair hbond/dreiding/lj, perpetual, skip from (3)
      attributes: full, newton on
      pair build: skip
      stencil: none
      bin: none
  (2) pair lj/cut, perpetual, half/full from (3)
      attributes: half, newton on
      pair build: halffull/newton
      stencil: none
      bin: none
  (3) neighbor class addition, perpetual
      attributes: full, newton on
      pair build: full/bin
      stencil: full/bin/3d
      bin: standard
Per MPI rank memory allocation (min/avg/max) = 15.14 | 15.51 | 16.60 Mbytes
Step Temp E_pair E_mol TotEng Press Volume 
       0            0 4.4810386e+17    234.47605 4.4810386e+17 3.6415729e+19         3375 
    5413            0   -1168.5075    52.211971   -1116.2956    128.22107    37946.351 
Loop time of 5.2457 on 32 procs for 5413 steps with 1511 atoms

100.0% CPU use with 32 MPI tasks x no OpenMP threads

Minimization stats:
  Stopping criterion = energy tolerance
  Energy initial, next-to-last, final = 
    4.48103857665701e+17  -1115.71327115223  -1115.79138751041
  Force two-norm initial, final = 9.7104515e+19 116.58717
  Force max component initial, final = 6.2625400e+19 94.281710
  Final line search alpha, max atom move = 2.0868501e-05 0.0019675180
  Iterations, force evaluations = 5413 5416

MPI task timing breakdown:
Section |  min time  |  avg time  |  max time  |%varavg| %total
---------------------------------------------------------------
Pair    | 1.4194     | 2.5515     | 4.5078     |  47.2 | 48.64
Bond    | 0.0065897  | 0.011186   | 0.02096    |   2.9 |  0.21
Neigh   | 0.10893    | 0.10926    | 0.10953    |   0.1 |  2.08
Comm    | 0.26577    | 2.2221     | 3.3574     |  50.5 | 42.36
Output  | 0          | 0          | 0          |   0.0 |  0.00
Modify  | 0          | 0          | 0          |   0.0 |  0.00
Other   |            | 0.3517     |            |       |  6.70

Nlocal:        47.2188 ave          72 max          28 min
Histogram: 3 3 3 6 4 5 3 2 2 1
Nghost:        1933.16 ave        1985 max        1873 min
Histogram: 1 2 2 6 5 3 1 5 4 3
Neighs:        4898.59 ave        8740 max        2996 min
Histogram: 7 5 3 5 5 4 0 0 1 2

Total # of neighbors = 156755
Ave neighs/atom = 103.74255
Ave special neighs/atom = 2.0198544
Neighbor list builds = 96
Dangerous builds = 0

# MD simulation
velocity all create 300.0 12345 rot yes dist gaussian
timestep 1.0
fix 2 all nvt temp 300.0 300.0 1

# Compute interaction energy
group WAT molecule <> 2 501
1500 atoms in group WAT
group MOL molecule 1
11 atoms in group MOL

compute w WAT group/group MOL pair yes
fix 3 all ave/time 10 5 100 c_w file outa

# Outputs
thermo 100 # Output thermodynamic data every nth step
#dump mf1 all xyz 10000 mol_*.xyz

# Run
run 1000000
Neighbor list info ...
  update every 2 steps, delay 10 steps, check yes
  max neighbors/atom: 10000, page size: 100000
  master list distance cutoff = 13
  ghost atom cutoff = 13
  binsize = 6.5, bins = 6 6 6
  4 neighbor lists, perpetual/occasional/extra = 3 1 0
  (1) pair hbond/dreiding/lj, perpetual, skip from (4)
      attributes: full, newton on
      pair build: skip
      stencil: none
      bin: none
  (2) pair lj/cut, perpetual, half/full from (4)
      attributes: half, newton on
      pair build: halffull/newton
      stencil: none
      bin: none
  (3) compute group/group, occasional, copy from (2)
      attributes: half, newton on
      pair build: copy
      stencil: none
      bin: none
  (4) neighbor class addition, perpetual
      attributes: full, newton on
      pair build: full/bin
      stencil: full/bin/3d
      bin: standard
Per MPI rank memory allocation (min/avg/max) = 13.99 | 14.05 | 14.52 Mbytes
Step Temp E_pair E_mol TotEng Press Volume 
    5413          300   -1168.5075    52.211971    234.01138    1754.8756    37946.351 
    5500    300.64818   -1157.5308    269.43709    465.13075    773.55268    37946.351 
    5600    294.30453   -1154.4153    195.14034     365.3966   -122.07973    37946.351 
    5700    309.62341   -1143.0318    224.77775    475.36807    295.43091    37946.351 
    5800    295.93873   -1143.3746    223.21879    411.87121   -288.30825    37946.351 
    5900    304.94981   -1155.6962    223.15106    440.04101    77.352544    37946.351 
    6000    290.90858   -1155.9118    210.87056    364.34502    372.46437    37946.351 
    6100    287.11201   -1171.5996    223.38687    344.08504    111.53672    37946.351 
    6200     296.8179   -1151.9548    237.13387    421.16338    268.54058    37946.351 
    6300    304.02497   -1097.6018    219.89289    490.71456    384.47518    37946.351 
    6400    301.53039   -1136.0857    220.42456    441.53411    277.75245    37946.351 
    6500    292.62488   -1109.8415    235.41996    442.68981    460.97801    37946.351 
    6600    287.75965   -1129.1409     230.8659    396.93788    100.35425    37946.351 
    6700     296.4636   -1134.8999    238.26415    437.75381    450.68504    37946.351 
    6800    306.55186   -1121.2727    232.06207    490.58634    595.89327    37946.351 
    6900    291.46034   -1161.2206    244.61453    395.26372    221.75719    37946.351 
    7000     300.5811   -1099.3505    242.22621     495.7982    198.25076    37946.351 
    7100    299.83859   -1168.7107    238.55795    419.42763    -28.20194    37946.351 
    7200    285.30479   -1164.8758    242.03787    361.32555    363.82013    37946.351 
    7300     295.5614   -1125.0581    250.22787    455.49847   -152.02377    37946.351 
    7400    301.10953   -1107.6614    256.21018    503.84974   -80.875962    37946.351 
    7500    301.50718    -1164.651    248.04864    440.48843    412.71008    37946.351 
    7600    297.93233   -1131.7503    253.08525    462.33532    699.51382    37946.351 
    7700    302.67946   -1141.6241    244.98435    465.72756    602.02609    37946.351 
    7800    303.54264   -1168.3808    269.07909    466.95072    619.46748    37946.351 
    7900    300.09441    -1122.577    248.77036     476.9253    533.60263    37946.351 
    8000    294.71601   -1141.9195    249.87438    434.47852    119.23423    37946.351 
    8100    291.46246   -1148.2415    251.05678    414.69462    501.66602    37946.351 
    8200    309.70969   -1166.4086    260.25494    487.85686    325.12122    37946.351 
    8300    302.88315   -1118.3637    243.61617    488.53657    281.38963    37946.351 
    8400    309.34513   -1146.9652    244.94947    490.35389    676.22307    37946.351 
    8500     299.6268   -1138.6631    270.73699    480.70105    551.43275    37946.351 
    8600    292.78351   -1136.4916    270.25111    451.58484    193.85633    37946.351 
    8700    306.02615   -1154.4129    256.29788    479.31571    261.26695    37946.351 
    8800    308.37305   -1168.7577    265.71031    484.94685    247.60019    37946.351 
    8900    302.30565   -1116.0112    274.70712    519.38066    87.553929    37946.351 
    9000    293.66362   -1126.0127     270.2559    466.02996    126.31101    37946.351 
    9100    301.10899   -1144.7201    258.94294    469.52134     59.00469    37946.351 
    9200    303.05954   -1157.0032    273.07883    480.15361    366.57718    37946.351 
    9300    293.63062   -1142.5195    257.38634    436.50508     145.8376    37946.351 
    9400    282.11451   -1136.4305    279.78951    413.16289    382.00764    37946.351 
    9500    305.54638   -1151.0641    266.36977    490.57701    502.39763    37946.351 
    9600    292.29567   -1183.0779    279.96533      412.517    117.68711    37946.351 
    9700     290.6978   -1141.9141    274.18872    440.71219    268.92896    37946.351 
    9800    292.81799   -1141.9586    274.79668     450.8186    147.13542    37946.351 
    9900    293.52046   -1136.1787    278.30997    463.27369   -356.50507    37946.351 
   10000    303.79087   -1183.1297    277.40418    461.64424    284.73304    37946.351 
   10100    302.38154   -1158.1796    279.99317    482.83993    679.69623    37946.351 
   10200    306.76646   -1147.3229    281.99397    515.43407    329.68969    37946.351 
   10300    293.90602    -1170.226    273.32482    425.97663    974.14307    37946.351 
   10400    287.33829   -1182.0607    274.17347    385.42912    232.19959    37946.351 
   10500    298.43367    -1139.442    295.01546    498.83034    1129.9845    37946.351 
   10600    297.98543   -1115.0426    285.80671    512.00338    692.00142    37946.351 
   10700    307.12744   -1100.9463    288.04441    569.48579    809.87846    37946.351 
   10800     314.7695    -1130.702    280.10964    566.19246    761.97338    37946.351 
   10900    302.21175   -1132.7241    279.07734    506.61534    677.95911    37946.351 
   11000    300.44088   -1126.0736    287.72048    513.93828    552.79803    37946.351 
   11100     297.6054   -1167.6904    286.72573    458.56413    195.29045    37946.351 
   11200    297.06599   -1153.0611    287.47221      471.512    252.36964    37946.351 
   11300    297.31618   -1158.9387    297.18495    476.47321    87.501987    37946.351 
   11400    295.59432    -1085.283    287.24166    532.43554    321.00141    37946.351 
   11500    295.64558   -1105.3525    291.07181    516.42694    33.002359    37946.351 
   11600    299.08106   -1137.9873    287.80132    495.98475    312.11116    37946.351 
   11700    309.38198   -1114.3684    309.67537    587.84238    192.38914    37946.351 
   11800    293.02946   -1146.7256    302.22393     474.4307   -258.62439    37946.351 
   11900    301.24863   -1146.9529    285.03649    494.01067    409.55752    37946.351 
   12000    300.53866   -1152.4996    311.78861    512.02043    340.47975    37946.351 
   12100    297.84249   -1168.4799    298.14137    470.25745    11.508782    37946.351 
   12200    293.04885   -1182.2255    302.94027     439.7345    440.39349    37946.351 
   12300    302.23547     -1179.42     291.0607    472.00954    28.661418    37946.351 
   12400    298.74488   -1128.2566    294.29431    510.69531     30.21688    37946.351 
   12500    300.70862   -1172.4975    301.10546    482.10444   -341.86829    37946.351 
   12600    300.09067   -1141.4252     306.4278    515.71764    250.37546    37946.351 
   12700     305.7453   -1151.1888    310.50784    535.48569     -141.486    37946.351 
   12800    303.37694   -1142.4573    312.64609    535.69537   -518.01182    37946.351 
   12900    304.31875   -1186.4983    287.81081    471.05828    111.05027    37946.351 
   13000    298.36531   -1149.1887    308.63378    502.39423    235.27017    37946.351 
   13100    297.19649   -1147.2643    310.10905    500.53302   -13.746825    37946.351 
   13200    285.81476   -1192.8767    298.65195     392.2341   -160.37982    37946.351 
   13300    295.69041   -1132.1443     309.0559    507.82099   -174.25684    37946.351 
   13400    308.41285   -1189.0818    306.98533    506.07696    156.82136    37946.351 
   13500    300.39903   -1181.6426    322.82249     493.2829    382.46535    37946.351 
   13600    294.65458   -1171.4428     305.9655    460.76977    274.97662    37946.351 
   13700    310.48107   -1140.0482    304.89022    562.32454    434.95259    37946.351 
   13800    294.46345   -1164.7503    325.25846    485.89497    345.81698    37946.351 
   13900    299.16196   -1129.1591    304.67033    522.04611    420.82647    37946.351 
   14000    301.53702    -1202.244     314.9181    469.89925     713.4361    37946.351 
   14100    295.19865   -1231.9795    316.84835    413.56482    543.42153    37946.351 
   14200     289.4767   -1231.3245    301.26769    372.88454    303.39378    37946.351 
   14300    299.46287   -1206.6612    320.09368    461.32176    282.42037    37946.351 
   14400    306.89662   -1200.9294    328.20024    508.61964    66.728907    37946.351 
   14500    294.07884   -1204.2003    314.41521    433.87063    499.23801    37946.351 
   14600    304.37191   -1196.5877    310.47497     483.8723    815.90341    37946.351 
   14700    309.31082   -1213.9777    322.28842    500.52583    735.27272    37946.351 
   14800    292.39335   -1205.0345    296.23655    407.27132    225.89154    37946.351 
   14900    301.50477   -1248.9754    309.16668    417.27126    394.25441    37946.351 
   15000    305.47184   -1248.0886    314.97721    441.82442    244.81934    37946.351 
   15100    309.37919   -1210.1341     306.8622    489.25104   -80.724427    37946.351 
   15200    290.83661   -1202.2223    306.33108    413.17111    252.05633    37946.351 
   15300    289.64942   -1216.7548    324.79205    411.75601    57.203056    37946.351 
   15400    312.14315   -1218.7269    320.25624    506.49284    306.62974    37946.351 
   15500    313.01051   -1212.6572    327.17388    523.38419    134.60731    37946.351 
   15600    306.82933   -1208.7247    306.34694    478.66818    256.47023    37946.351 
   15700      297.229   -1194.7747    328.73826    471.79814    666.56972    37946.351 
   15800    293.71902   -1191.1908     322.9319    453.77721    158.20392    37946.351 
   15900    293.95635   -1207.1358    326.24221    442.21074    462.49675    37946.351 
   16000    303.32004   -1214.0137    332.65947    483.89629    623.34121    37946.351 
   16100     304.2342   -1259.8608    298.73948    408.24389    267.23575    37946.351 
   16200    311.10851   -1215.1894    321.60575    506.72299    764.29882    37946.351 
   16300    299.77943     -1237.82    328.57941    440.07351    679.20939    37946.351 
   16400    299.37391   -1191.8398    314.44082    470.08986   -78.839282    37946.351 
   16500    303.93709   -1165.0452    334.23303    537.21576    347.47799    37946.351 
   16600    301.68115   -1207.3934    335.70561    486.18611   -179.85012    37946.351 
   16700    297.37297   -1174.8102     318.1873     481.8597   -71.474332    37946.351 
   16800    303.22734   -1185.0396    320.97321    500.76689   -146.46196    37946.351 
   16900     301.8749   -1151.3165    349.28551    556.71493   -264.52501    37946.351 
   17000    297.64747   -1158.7389    329.81091    510.79019   -409.22249    37946.351 
   17100    297.17457   -1153.7809    326.85058    510.65925    -630.7587    37946.351 
   17200    287.51581   -1150.4972    328.83327    472.45139   -428.68749    37946.351 
   17300    307.91366   -1136.0387    333.19758    583.08539   -536.08576    37946.351 
   17400    296.84347   -1126.9238    343.81301    552.98852   -882.99939    37946.351 
   17500    298.16992   -1168.8869    322.52865    495.71146    -474.9403    37946.351 
   17600    297.47764   -1182.7884    334.65043    490.81581   -248.25193    37946.351 
   17700    298.01357   -1167.8285    316.70381    490.24126   -423.02303    37946.351 
   17800    293.16646   -1210.3471    331.12408    440.32603   -153.81204    37946.351 
   17900     298.7387   -1202.2194    349.02634    491.43675   -466.50331    37946.351 
   18000    300.26451   -1216.2612    345.28948    480.52584   -399.63256    37946.351 
   18100    301.61772    -1255.603    322.77475    424.76013   -525.73589    37946.351 
   18200    295.60481   -1199.2662    321.91487    453.17283   -339.06426    37946.351 
   18300    302.06618   -1173.9944    343.71386    529.32632   -185.76843    37946.351 
   18400    298.12146    -1189.651    330.03344    482.23407    178.76011    37946.351 
   18500    298.37986    -1238.628    328.40777    432.79447    280.45228    37946.351 
   18600    296.12474   -1212.3628    345.21101    465.71256   -14.761097    37946.351 
   18700     299.5377   -1190.7527    329.27829     486.7517   -327.04463    37946.351 
   18800    298.87701   -1210.8346    325.69784    460.11555   -24.373092    37946.351 
   18900    297.17499   -1222.3646    350.60352    465.83039    85.862819    37946.351 
   19000    307.96193   -1235.5425    335.97231    486.57363    250.34006    37946.351 
   19100    301.75824    -1243.037    344.41801    459.60183    325.27172    37946.351 
   19200    306.23355   -1237.2015    344.78149    485.94426   -529.71463    37946.351 
   19300     304.9675   -1214.7374    331.70361    489.63197    272.00336    37946.351 
   19400    301.03194   -1207.1415    335.34635    483.15654    2.9778373    37946.351 
   19500    300.00401   -1236.3471    353.33643    467.31432     518.2795    37946.351 
   19600    298.36612   -1248.3587    325.37587    419.96998    210.55882    37946.351 
   19700     311.3745   -1246.8689    360.19732    514.83224    247.46555    37946.351 
   19800    303.09736   -1203.7496    338.03078    498.52942    684.75692    37946.351 
   19900    308.35737   -1178.2703     328.3504    538.00378    232.40701    37946.351 
   20000    300.94339   -1187.5339    337.30906    504.32835   -111.03183    37946.351 
   20100    293.39198   -1226.8028    346.42585    440.18714    124.61477    37946.351 
   20200    304.88646   -1198.1657    331.59468       505.73    244.81347    37946.351 
   20300    294.45815   -1191.2508    354.61398    488.72614   -6.1793164    37946.351 
   20400    299.46679   -1213.1991    347.77559    482.48345    484.55152    37946.351 
   20500    291.78915   -1185.5362    347.85428    475.66775   -12.743745    37946.351 
   20600      297.275   -1248.2437    347.20835    437.00631   -189.77662    37946.351 
   20700    298.69687   -1232.1016    342.03628    454.37621   -206.87312    37946.351 
   20800    307.92776     -1209.77    346.09393    522.31391    148.72985    37946.351 
   20900    296.18282   -1223.2012     326.5635    436.48799    155.49359    37946.351 
   21000    304.60517   -1189.6906    343.64205    524.98637   -315.07278    37946.351 
   21100    309.54927   -1227.2754    356.40285    522.41591    756.72612    37946.351 
   21200    304.69418   -1225.3682    341.05287    487.12026     359.7861    37946.351 
   21300    291.45944   -1257.6868    349.08124    403.26018    195.15569    37946.351 
   21400     303.3825   -1269.8695    334.44075    430.10287    35.814642    37946.351 
   21500     307.0497   -1306.4727    324.74369    400.30885    501.37955    37946.351 
   21600    305.45798   -1298.7896      335.201    411.28482    119.43388    37946.351 
   21700    303.51361   -1295.1639    346.02564    416.98357    353.56809    37946.351 
   21800    310.24123   -1252.5836    344.84985    488.66925    11.809735    37946.351 
   21900    306.72322   -1214.6981    350.22081    516.09106   -17.318469    37946.351 
   22000    307.02289   -1221.8774    351.12811     511.1678   -307.56118    37946.351 
   22100    303.53135    -1248.089    350.63611    468.74877    142.59278    37946.351 
   22200    298.25536   -1289.7221    350.04397    402.77616   -91.415413    37946.351 
   22300    290.69568    -1246.195     362.3737    424.60667   -23.012415    37946.351 
   22400     291.2376   -1283.4796    360.93787    388.32546   -123.36464    37946.351 
   22500    296.86643   -1226.5848    356.76586    466.38369   -340.49167    37946.351 
   22600    303.94574    -1267.879    350.63739    450.82517   -256.47311    37946.351 
   22700    300.64899   -1229.7781    347.00601    470.45594    65.541032    37946.351 
   22800    306.24346    -1266.365    361.25224    473.29617    69.811893    37946.351 
   22900    299.01222   -1255.0469     349.3965    440.21055    -414.8401    37946.351 
   23000    304.97498   -1262.1574    359.00898    469.55104   -490.82962    37946.351 
   23100    293.67631   -1257.0483    349.73216    414.52773   -440.76743    37946.351 
   23200    299.36919   -1256.5007    361.72955     452.6965   -284.88689    37946.351 
   23300    302.99673   -1304.1586    385.53732    445.17398   -732.61872    37946.351 
   23400    303.18618   -1256.2186    347.35599    455.78541   -297.51682    37946.351 
   23500     295.8145   -1260.2319    334.36769    405.60369   -262.92076    37946.351 
   23600      304.096   -1271.6151    368.28631    465.41437    220.29025    37946.351 
   23700    299.83303   -1274.3683    342.97857    418.16571    211.85055    37946.351 
   23800     288.7408   -1270.3229    354.88056    384.18672    585.36467    37946.351 
   23900    298.15056   -1298.8341    354.98824    398.13671    261.76685    37946.351 
   24000    309.71456   -1305.2863    342.00625    430.75235    179.88973    37946.351 
   24100    311.49074   -1271.2395    355.94787    486.73544    37.807109    37946.351 
   24200    297.85059   -1246.8515     378.1869    471.96774   -252.64401    37946.351 
   24300     297.0681   -1239.1229     360.7333    458.72076   -363.90603    37946.351 
   24400    301.54441   -1318.9716    367.77653    406.06334    103.65963    37946.351 
   24500    294.00155   -1270.7817     360.6829    413.20904   -45.243216    37946.351 
   24600    292.87954   -1310.2764    350.74169    358.72284   -157.79243    37946.351 
   24700    294.28311    -1297.101    341.93659    369.41065    130.33973    37946.351 
   24800    304.05645   -1252.5655    371.12119    487.12077    298.23703    37946.351 
   24900    308.51771   -1288.2206    355.35084    455.77559    596.43758    37946.351 
   25000    297.09995   -1301.6312    372.36498    407.98757    488.95646    37946.351 
   25100    305.44229   -1294.2685    357.32077    437.85514    335.84085    37946.351 
   25200    298.06575   -1283.9277    346.20513    403.87832    171.27627    37946.351 
   25300    303.76299   -1299.9072    370.78849    438.12549    528.65229    37946.351 
   25400    299.62756    -1324.868    369.18489     392.9475    141.16625    37946.351 
   25500    295.59178   -1326.6214    351.02173    354.86581     553.3738    37946.351 
   25600    296.81885   -1254.6786    370.63546    451.94537     185.9626    37946.351 
   25700     300.2695   -1253.4282    349.26015    447.35193   -20.798577    37946.351 
   25800    300.26891   -1277.8626    358.36056     432.0153   -75.608286    37946.351 
   25900    293.77237   -1234.1349    380.29298    468.43434    389.43822    37946.351 
   26000    303.84502   -1255.4489    374.82349    486.98801    288.88524    37946.351 
   26100    297.81684    -1279.967    374.97244    435.48592    210.96514    37946.351 
   26200    299.87236   -1238.1576    379.03324    490.60807    592.09262    37946.351 
   26300     285.6148   -1229.0868    394.07911    450.55116    674.62863    37946.351 
   26400    286.22603   -1210.0235    366.82754    445.11409    629.93488    37946.351 
   26500    293.32726   -1212.5676    364.83038    472.53554    324.34335    37946.351 
   26600    301.12963   -1225.8252    363.54635    493.11261    229.21345    37946.351 
   26700    301.57279   -1265.1961    368.23544    460.42544     213.0652    37946.351 
   26800    293.54593   -1259.0491    374.80476     437.0127    267.01822    37946.351 
   26900    303.97148   -1275.4388    382.48097    475.22484    396.96833    37946.351 
   27000    298.52175   -1279.4233    372.26005    436.49002    120.07268    37946.351 
   27100      291.337   -1271.2571    382.81372    422.87119    394.18444    37946.351 
   27200    301.49665   -1274.5392    376.92968    459.43392    185.31422    37946.351 
   27300    298.22516   -1319.0439    370.52134    393.79578    52.660169    37946.351 
   27400    300.30253   -1297.9587    372.18834    425.89829    373.31461    37946.351 
   27500    300.00489   -1304.3511    356.19735    402.17519    406.89421    37946.351 
   27600     302.4631   -1282.5487    371.05927    449.90399    272.58871    37946.351 
   27700    305.79966   -1246.5163     399.0634    528.95843    519.41926    37946.351 
   27800    294.94157   -1264.9439    385.83815    448.43313    138.40113    37946.351 
   27900    294.17269   -1245.8124    396.17683    474.44255    -200.3542    37946.351 
   28000    305.51788   -1283.2969    382.76033    474.60645    169.70136    37946.351 
   28100    298.95034   -1267.9907    368.07604    445.66777     100.3361    37946.351 
   28200    299.27853   -1274.7211    377.76036    450.09883    282.31506    37946.351 
   28300    305.55031   -1295.8492    380.96889    460.40874    4.4870118    37946.351 
   28400    297.65737   -1286.4637    402.33765    455.63661    45.470316    37946.351 
   28500    303.95493   -1246.1578    381.45659    503.40698    262.85727    37946.351 
   28600    294.78898    -1288.352    381.95708    420.45716   -329.41948    37946.351 
   28700    308.07928   -1292.0929    386.98097    481.56004   -202.58607    37946.351 
   28800    291.19301    -1245.529    390.23118    455.36867    181.52725    37946.351 
   28900    292.98412   -1246.1336    394.46384    467.05851    219.45957    37946.351 
   29000    288.60967   -1269.2849    374.61115    404.36503    446.05003    37946.351 
   29100    304.90004   -1266.7726     381.3938    486.98331    662.42894    37946.351 
   29200    301.89017   -1273.0086    387.53943    473.34545    889.07621    37946.351 
   29300    304.34971   -1290.2626    390.84998    470.47248    594.29724    37946.351 
   29400    307.88563   -1313.3712    384.60583    457.03504    339.45946    37946.351 
   29500    289.60219   -1273.7087    397.04978    426.84729     112.8127    37946.351 
   29600    303.36461   -1271.1889    384.70232    478.96462    256.50364    37946.351 
   29700    303.72005   -1308.2714    373.22979    432.00932   -160.50047    37946.351 
   29800    295.07567   -1283.3238    391.71058    436.52918    355.07455    37946.351 
   29900    294.18838   -1286.3017     389.5612    427.40825     112.5793    37946.351 
   30000    290.86265   -1279.9628    385.66689    414.88366    343.09453    37946.351 
   30100    301.98435   -1293.2045    374.04554    440.07958   -48.243019    37946.351 
   30200    294.39244   -1259.5361    381.37275     446.9039    564.42275    37946.351 
   30300    304.22855   -1288.0869    398.03372    479.28659    8.6212948    37946.351 
   30400    297.33943   -1289.6749    407.42725      456.084    104.58463    37946.351 
   30500    308.13103   -1283.7348    399.14113    502.31128   -705.44014    37946.351 
   30600    306.52736   -1226.6431    405.95037      558.994   -153.14565    37946.351 
   30700    296.67518   -1235.3292    397.85407    497.86673   -484.10459    37946.351 
   30800    302.51966   -1263.1351     408.2475    506.76044   -784.84081    37946.351 
   30900    304.93384   -1278.9777    393.71786    487.25441   -853.04962    37946.351 
   31000    293.03903   -1275.3927    392.17067    435.75345   -683.42704    37946.351 
   31100    299.16762   -1279.0088    416.02546    483.57707    60.626432    37946.351 
   31200    295.93534   -1257.0058    400.57273    475.57879   -496.81441    37946.351 
   31300    295.54198   -1253.3885    397.66844    474.52122    179.08613    37946.351 
   31400    303.06055   -1258.8443    418.12326    523.36155    605.89462    37946.351 
   31500    292.98958   -1283.7708    396.50437    431.48643   -7.7934868    37946.351 
   31600    293.90344   -1246.6377    407.52904     483.7575   -536.43212    37946.351 
   31700    297.70838   -1280.9889    406.85944    465.86289   -149.83684    37946.351 
   31800    300.30884   -1298.0665    377.97875    431.60924   -81.343429    37946.351 
   31900    298.90083   -1283.9252    389.78263    451.21698   -27.642973    37946.351 
   32000    303.16146    -1364.486    393.51045    393.56122    245.03419    37946.351 
   32100    305.83742   -1360.9445    393.43569     409.0725    66.058976    37946.351 
   32200    307.60062   -1339.9637    376.15895    420.71277    462.50799    37946.351 
   32300    304.16635   -1317.6198    387.81186     439.2518    443.05954    37946.351 
   32400    304.94027   -1330.9571    377.61657    419.20274    216.96722    37946.351 
   32500    301.43197   -1312.6963    413.89939     457.9554    481.18829    37946.351 
   32600    293.95884   -1311.9098    404.97599    416.18169    437.19594    37946.351 
   32700    306.24999    -1306.337    402.62957    474.73085    304.64321    37946.351 
   32800    288.27119   -1311.4069    423.56592    409.67427   -366.87427    37946.351 
   32900    297.99819   -1313.4108    401.65364    429.53958     118.8954    37946.351 
   33000    305.04905   -1303.5705    385.92683    455.38922    66.344613    37946.351 
   33100    285.71163   -1319.9241    392.04167    358.11229   -421.41777    37946.351 
   33200    294.83334   -1328.6237    414.49959    412.92757    523.72153    37946.351 
   33300     294.2988   -1276.1256     403.2071    451.72719    57.990313    37946.351 
   33400    298.92895   -1304.7401    392.32637    433.07241     75.65543    37946.351 
   33500    301.54057   -1296.2669    415.51475    476.48889   -65.023104    37946.351 
   33600    300.34518   -1320.7608    400.88194    431.98179   -10.513186    37946.351 
   33700    294.29921   -1296.2324    378.33046    406.74559    -148.7145    37946.351 
   33800    299.47928   -1285.3269    380.93875    443.57507    170.76299    37946.351 
   33900    297.96041   -1323.7572    372.31245    389.68193    486.05845    37946.351 
   34000    291.38252   -1320.9467    396.31406    386.88686    73.403321    37946.351 
   34100    299.68726   -1318.3268    410.81653    441.38902    123.53799    37946.351 
   34200    305.99475   -1291.8635    405.44826    490.87424   -295.27652    37946.351 
   34300    295.71529   -1338.4069    420.30654    412.92105    -454.8345    37946.351 
   34400    309.18426    -1305.628     395.0545    481.07203   -671.00274    37946.351 
   34500    299.34476   -1330.9366     403.8784    420.29946   -435.97171    37946.351 
   34600     301.3757   -1323.4059    392.69772    425.79086   -638.12886    37946.351 
   34700    306.42655   -1338.0257     398.7067    439.91397   -338.78581    37946.351 
   34800    289.29884   -1324.9188    430.69428    407.91621   -185.20566    37946.351 
   34900    301.16701   -1316.8704    405.79547    444.48482   -41.698212    37946.351 
   35000    297.22486   -1323.5159    398.69841    412.99851   -146.02787    37946.351 
   35100    292.88443   -1360.8862    403.17599     360.5694     142.2055    37946.351 
   35200    297.57037   -1352.6105    387.45772    374.21829   -43.234204    37946.351 
   35300    297.85066   -1338.7786    376.31597    378.17011   -33.515083    37946.351 
   35400    299.84741   -1361.7618    389.91247    377.77082   -10.464372    37946.351 
   35500    305.57512   -1326.1487    405.82846    455.08043     567.4497    37946.351 
   35600    300.56692   -1365.5516    371.86838    359.17542    512.94284    37946.351 
   35700    295.10912   -1357.6845    401.43884     372.0473    8.5782142    37946.351 
   35800    299.96488    -1338.159    396.49301    408.48292    9.3776924    37946.351 
   35900     297.7502    -1387.227    379.85153    332.80508    207.46751    37946.351 
   36000    299.44056   -1338.8889    418.74106    427.64108   -29.097034    37946.351 
   36100    299.59283   -1314.8275    404.30683    437.95365   -125.13524    37946.351 
   36200    299.54901   -1325.2027    407.33807    430.41245   -155.91575    37946.351 
   36300    307.85844   -1331.7781    388.47997    442.37984   -331.13132    37946.351 
   36400    295.76479   -1295.7121    416.99417    452.52621    -49.72045    37946.351 
   36500    290.30468    -1316.329    426.16315    416.50229    262.56858    37946.351 
   36600    294.48677   -1322.6696    440.61894    443.44113    454.79813    37946.351 
   36700    303.04805   -1294.7167    417.98078    487.29033    613.48134    37946.351 
   36800    294.04165   -1321.7958    423.95445    425.64692    679.00509    37946.351 
   36900    297.18285   -1364.4024    409.37945    382.60394    230.03274    37946.351 
   37000    304.94868   -1334.3686    387.05586    425.26828    220.78981    37946.351 
   37100    297.89117   -1371.7401    416.25829    385.33328    465.51776    37946.351 
   37200     300.4078   -1338.9765    418.22701    431.39292    455.71894    37946.351 
   37300    299.00615   -1329.7233    420.23437     436.3447    253.53972    37946.351 
   37400    307.70479   -1319.7761    409.18588    474.39613    556.42166    37946.351 
   37500    289.50343   -1327.7414    413.07181    388.39209    213.96527    37946.351 
   37600    294.27993   -1322.8938    422.71219    424.37917    441.10655    37946.351 
   37700     299.2701   -1347.7841    393.92449    393.16209     175.9777    37946.351 
   37800    293.40543   -1309.1303    417.48998    428.98429    183.87663    37946.351 
   37900    296.97958   -1330.6423    395.41642    401.48611    174.35553    37946.351 
   38000    296.08339   -1291.7129    415.82071    456.78599   -53.450544    37946.351 
   38100    308.71116   -1354.0066    414.05775    449.56729    388.19747    37946.351 
   38200    310.31415   -1331.0077    418.34176    484.06524    390.74459    37946.351 
   38300    300.42904   -1339.9681    413.53993    425.80988   -108.95415    37946.351 
   38400    292.66026   -1335.4028    407.87071    389.73853   -148.36713    37946.351 
   38500    298.54093   -1309.8021    399.21998    433.15753   -233.98206    37946.351 
   38600    300.46387   -1313.8418     394.2543     432.8073   -134.99976    37946.351 
   38700    300.36854   -1341.3649    397.58757    408.18847    199.92759    37946.351 
   38800    302.07106   -1339.9021    414.87016    434.59693    558.65376    37946.351 
   38900    294.73741   -1298.2213    410.59721    438.99587    487.12645    37946.351 
   39000    291.33833   -1279.6277    419.94643    451.63931    212.14039    37946.351 
   39100    304.86584   -1339.2769    426.41719    459.34853    557.12274    37946.351 
   39200    299.48868   -1311.4114    401.58321    438.17731     406.0216    37946.351 
   39300    295.47878   -1334.6123    419.82708    415.17161    355.33926    37946.351 
   39400    292.95779   -1382.6064    411.82495    347.82839   -136.40634    37946.351 
   39500    294.02586   -1379.2619    410.59485    354.75014   -583.18462    37946.351 
   39600    304.65248   -1378.9349    410.51105    402.82398   -383.57047    37946.351 
   39700    296.14079   -1362.0124    425.41756    396.34168   -151.48394    37946.351 
   39800     299.9346   -1355.9291    412.93752    407.02105    134.93425    37946.351 
   39900     281.2716   -1346.0976    433.24998     353.1624   -486.42961    37946.351 
   40000    305.13999   -1341.2171     425.6552    457.88023    390.00937    37946.351 
   40100    304.15516   -1337.2295    421.30131    453.08118    -99.99853    37946.351 
   40200    298.34307   -1328.7676    439.37487     453.4563    328.32997    37946.351 
   40300    293.43017   -1305.9782    414.02607    428.78387   -96.974468    37946.351 
   40400    308.43538   -1337.1435    404.56647    455.69776   -187.70865    37946.351 
   40500    303.55145   -1337.7243    411.55638    440.12422    119.29931    37946.351 
   40600    297.52318   -1365.8704      415.948    389.23628   -319.35008    37946.351 
   40700    298.75483   -1371.0967    417.95981    391.56553    124.20731    37946.351 
   40800    307.66064   -1335.7104    430.49429    479.57158    135.86331    37946.351 
   40900    295.69328     -1329.12    427.23731    429.03964    126.41938    37946.351 
   41000    297.14067   -1315.6256    412.29308    434.10449   -57.798918    37946.351 
   41100     295.6082   -1359.3359    442.77518    413.97864    518.00661    37946.351 
   41200    300.22635   -1337.4769    414.36883    428.21772   -69.657322    37946.351 
   41300     302.1723   -1318.7088    437.16161    478.53737     104.3344    37946.351 
   41400     294.7441   -1345.5774    432.42118    413.49378   -174.16585    37946.351 
   41500     293.0654   -1375.5279    430.24075      373.807    199.85964    37946.351 
   41600    304.66731   -1320.2292    425.60162    476.68703   -653.04008    37946.351 
   41700    297.84824   -1349.3979    407.92016    399.14409   -278.84854    37946.351 
   41800    292.90771   -1328.6054    448.47941    438.25835   -211.55827    37946.351 
   41900     303.7555   -1320.6864    429.48535    476.00944   -36.207445    37946.351 
   42000    296.46489   -1374.6006    406.75401    366.54882    -395.4487    37946.351 
   42100    295.93619   -1415.7923    419.31915    335.54249   -23.814653    37946.351 
   42200    302.93373   -1359.6658     434.8929    438.73885    274.95464    37946.351 
   42300    298.63257   -1400.6536    423.44864    366.94721    256.65214    37946.351 
   42400    297.16349   -1375.3805     430.1162    392.27549    235.52434    37946.351 
   42500    294.84438   -1365.6474    444.47229    405.92631    134.44599    37946.351 
   42600    299.02932   -1349.2751    425.63717    422.30001   -122.33034    37946.351 
   42700    306.52198    -1341.949    435.96568    473.67926    572.89167    37946.351 
   42800    303.77595   -1383.3983    430.92065    414.82491    200.58506    37946.351 
   42900    302.01565   -1304.8112    430.08981    484.65807   -140.51803    37946.351 
   43000    309.16283   -1336.1685     404.5816     459.9622   -271.38667    37946.351 
   43100    295.74113   -1360.0062    436.95266    408.08416    246.69525    37946.351 
   43200    303.43053   -1353.0705    404.38652    417.06381    219.11959    37946.351 
   43300    289.48849   -1363.3642    436.81484    376.44502   -489.66154    37946.351 
   43400    292.87686   -1353.0146    411.36283    376.59374   -2.3492548    37946.351 
   43500    291.16252   -1354.0173     443.5449    400.05681   -425.77549    37946.351 
   43600      299.197   -1355.8881    427.20912     418.0137    294.56101    37946.351 
   43700    299.75393   -1348.9884    428.09184     428.3028    912.94146    37946.351 
   43800    296.92994   -1315.1613     429.9167    451.24401    844.74089    37946.351 
   43900    299.13925     -1330.74    431.02062    446.71327    679.72771    37946.351 
   44000    303.00946   -1366.6841    433.35577    430.52423    988.74215    37946.351 
   44100    311.02324   -1340.7948     433.4301    492.55813    670.18262    37946.351 
   44200    287.72547   -1399.4445    437.48332    333.09782   -65.019421    37946.351 
   44300    302.56963   -1330.1891    437.05581    468.73962   -555.00221    37946.351 
   44400    291.19109   -1383.9699    413.24566    339.93361   -632.47502    37946.351 
   44500    304.63335   -1381.1063    442.31882    432.37433   -627.79567    37946.351 
   44600    300.11593   -1367.9799    429.03998     411.8888   -600.26108    37946.351 
   44700    294.65379   -1367.5722     404.4345    363.10584   -66.366057    37946.351 
   44800    293.86371   -1347.0546    421.74078    397.37357    140.39494    37946.351 
   44900    303.74334   -1405.7122    392.96912    354.41276    9.9184902    37946.351 
   45000    292.04779   -1418.1308    404.64045    301.02352    123.81785    37946.351 
   45100    296.79298   -1400.4277    413.78745    349.23188    176.07655    37946.351 
   45200    300.19871   -1390.0739    414.57457    375.70204    340.32167    37946.351 
   45300    302.48674   -1414.8489    418.78367    365.43455    242.56686    37946.351 
   45400    295.39044    -1376.856    429.97132    382.67449   -261.10879    37946.351 
   45500    304.82202   -1385.6229    425.87456    412.26267    59.897662    37946.351 
   45600    301.01006   -1371.6706    408.81145    391.99408    401.69002    37946.351 
   45700    303.29254   -1369.0253    426.19783    422.29928   -145.35618    37946.351 
   45800    299.18433   -1344.6252    426.28616     428.2966    300.27889    37946.351 
   45900    295.08971   -1343.0167    414.56242     399.7513    214.41295    37946.351 
   46000    293.05316   -1327.0577      419.914    411.89534   -16.750949    37946.351 
   46100     296.9347   -1363.2821    419.52359    392.75146   -144.90237    37946.351 
   46200    302.94019   -1356.0134    423.00251    430.52998   -37.991968    37946.351 
   46300    292.08905   -1348.7378     419.5087     385.4705    344.77072    37946.351 
   46400    302.31893   -1334.1488    428.82326    455.41897     523.6812    37946.351 
   46500    292.47316   -1314.9874    426.11178    427.55289    255.09446    37946.351 
   46600    292.96089   -1355.5892      412.687     375.7215   -27.672527    37946.351 
   46700     303.0591   -1363.4025    415.17846    415.85199    72.003346    37946.351 
   46800    305.44918   -1424.3089    430.92791     381.4528    152.44946    37946.351 
   46900    300.51548   -1407.3733     416.3026     361.5565   -425.32006    37946.351 
   47000    295.66805   -1321.7244     426.0673    435.15162   -304.45251    37946.351 
   47100    298.04752   -1362.8854    447.91199    426.54538   -753.91488    37946.351 
   47200    296.38181   -1351.0006    433.36808    416.38886   -267.18818    37946.351 
   47300    303.54604   -1363.1113    407.13059    410.28701    71.157607    37946.351 
   47400    309.30006   -1345.5248    420.46741    467.10934    211.59456    37946.351 
   47500    297.31578   -1363.4215    435.66874    410.47249   -7.5758732    37946.351 
   47600    301.52908   -1343.6104    427.37778    440.95674   -157.90004    37946.351 
   47700    297.77741   -1343.1981    413.78761    410.89254    -189.7013    37946.351 
   47800     295.8389   -1328.7972      427.126    429.90658   -52.393925    37946.351 
   47900    306.16893   -1351.7529    422.35503    448.67557    654.13376    37946.351 
   48000     294.3063   -1340.5235    434.12404    418.28002    205.78196    37946.351 
   48100    304.87977   -1368.5511    427.44902    431.16882    502.56147    37946.351 
   48200    300.12561   -1365.1302    425.39921    411.14132    421.49398    37946.351 
   48300    303.48191   -1372.4108    413.38683    406.95513   -310.58706    37946.351 
   48400    300.86288   -1321.4916    432.35672    465.05592      342.059    37946.351 
   48500    297.15898   -1312.0791    434.54036    459.98071    252.05091    37946.351 
   48600     299.3143   -1326.6817    444.05043    464.58938   -111.33515    37946.351 
   48700    304.41473    -1319.314    443.54265    494.40642    338.90728    37946.351 
   48800    297.75462   -1370.5745    433.20384    402.82981    675.96937    37946.351 
   48900    305.82963   -1374.6426     419.4566    421.36024    748.72461    37946.351 
   49000    302.43753   -1372.8777    431.83683    420.23746    57.273937    37946.351 
   49100    294.80657   -1365.2121    448.84104    410.56013   -142.48854    37946.351 
   49200    289.11745   -1358.6291    443.62764    386.32292   -45.031471    37946.351 
   49300    298.34505    -1367.238    421.94973    397.56972    807.28475    37946.351 
   49400    308.30391   -1371.0287    416.11741    432.77173    75.284218    37946.351 
   49500    309.84808   -1297.3782    448.22228    545.47741   -67.627452    37946.351 
   49600    294.46777   -1354.8205     437.5922    408.17799    168.17131    37946.351 
   49700    294.21094   -1326.2902    467.23202    465.19206   -192.95624    37946.351 
   49800    291.57427   -1364.1522    460.86367    409.09401    5.7259255    37946.351 
   49900    303.92174    -1344.097    414.11031    437.97207    260.43982    37946.351 
   50000    287.22164   -1329.5123    437.42809    400.70704     314.4129    37946.351 
   50100     299.2981   -1300.4211    433.22874    479.95532    855.93796    37946.351 
   50200    289.59699   -1343.7695    423.82788    383.54112    646.61836    37946.351 
   50300     297.0461   -1370.0747    425.44052    392.37725    275.31235    37946.351 
   50400    304.47615   -1356.3243    479.20324    493.33318    131.21223    37946.351 
   50500    301.53174   -1352.1385    461.45934    466.52216    93.236221    37946.351 
   50600    308.40144   -1361.2937     423.8346    450.66293   -131.13712    37946.351 
   50700    309.03974   -1352.7878    440.21783    478.42507   -178.70934    37946.351 
   50800    287.04986   -1321.9741    434.51206    404.55608   -306.49335    37946.351 
   50900    291.76352   -1345.0799     415.6345    383.78899   -397.21425    37946.351 
   51000     286.3395   -1366.3273    433.85117    356.34458    298.69007    37946.351 
   51100    293.53016   -1347.9518     420.5206    393.75481    533.69066    37946.351 
   51200    302.67626   -1299.7559    466.42706    529.02406    411.97788    37946.351 
   51300    298.83347   -1313.6322    454.08903    485.51322    99.226381    37946.351 
   51400    301.71102    -1317.156    438.98864    479.84098    481.84278    37946.351 
   51500    290.27906   -1346.4649     432.6382     392.7261    46.585416    37946.351 
   51600    298.76136   -1326.0908    428.84216    447.48316    405.85268    37946.351 
   51700    297.67746    -1293.944    445.97954    491.88863   -58.586502    37946.351 
   51800    311.53817   -1318.5682    459.40291    543.07527   -111.16122    37946.351 
   51900    290.60655   -1353.1975    433.05133    387.88066    -131.6201    37946.351 
   52000    298.33706   -1331.5782    457.80217    469.04603   -9.1677247    37946.351 
   52100    295.69608   -1316.7993     462.7165    476.85211   -230.48606    37946.351 
   52200    299.31833   -1328.6594    456.32089     474.9002   -250.72392    37946.351 
   52300    300.81181   -1313.3608    456.64406    497.24424   -22.827017    37946.351 
   52400    299.14397   -1287.8747    459.69211     518.2713    -150.5281    37946.351 
   52500    306.36849   -1324.8508    477.84482     531.9657    30.070569    37946.351 
   52600    298.57731   -1358.4521    434.94541    420.39673   -165.25798    37946.351 
   52700    293.14759   -1296.7951    433.99954    456.66854   -642.96073    37946.351 
   52800    299.58229   -1316.5967    424.64372    456.47388   -652.10479    37946.351 
   52900    302.72218   -1357.2391    424.95849    430.27895    157.63967    37946.351 
   53000    289.62305   -1341.9599    455.80915    417.44928   -43.754891    37946.351 
   53100    301.54214   -1374.2036    446.89789     429.9424    178.93582    37946.351 
   53200    296.76966   -1345.3058    454.68639     445.1477    209.43443    37946.351 
   53300    305.25002   -1306.3852    461.98393    529.53614    503.62566    37946.351 
   53400    294.86745   -1341.1237    450.65457    436.73607     694.5657    37946.351 
   53500    300.85824    -1376.423    415.23742    392.98427    596.38838    37946.351 
   53600    301.01402   -1339.6065    460.99443    476.25896    543.02371    37946.351 
   53700    301.23823   -1308.2107    450.85531    498.52487    290.47905    37946.351 
   53800    300.77829   -1330.7547    417.96477    441.02012    235.36083    37946.351 
   53900    304.91463    -1285.916    432.55511    519.06688    211.14815    37946.351 
   54000    316.62261   -1329.9299    434.37583    529.57162   -296.51521    37946.351 
   54100    303.96249    -1368.075    436.73353    436.80079    -285.3075    37946.351 
   54200    298.89992   -1333.0473    429.81194    442.12006   -156.38862    37946.351 
   54300     297.1103   -1335.8142    431.70227    433.18841   -35.832984    37946.351 
   54400     297.5333   -1326.0165    433.30507    446.49282   -262.11406    37946.351 
   54500    304.62326   -1348.5593    419.46158    442.01867    364.50288    37946.351 
   54600    296.03667   -1326.6575    444.55757    450.36799    379.71454    37946.351 
   54700    295.57715   -1348.9644    455.99312    437.42828    1026.0445    37946.351 
   54800    301.73043   -1369.4088    424.04749    412.73433    189.02013    37946.351 
   54900    299.47162   -1346.1074    431.97825    433.79953    822.13635    37946.351 
   55000    315.22037   -1321.1831     425.3088    522.93986    742.56002    37946.351 
   55100    295.04216   -1352.0152    443.72696    419.70336    225.32461    37946.351 
   55200    309.91239   -1361.9043     440.7698    473.78832    317.45451    37946.351 
   55300    299.18453   -1325.1815    454.84553    476.30054    253.53193    37946.351 
   55400    305.24182   -1346.8995    447.90244    474.90347    254.45642    37946.351 
   55500    300.20094   -1352.5299    431.58405    430.26554    335.07641    37946.351 
   55600    305.38512    -1326.893    456.41421    504.06669    681.73141    37946.351 
   55700    306.97267   -1316.4013    449.97251    515.26235    378.29147    37946.351 
   55800    299.97373   -1348.3768    440.27342    442.08536      735.781    37946.351 
   55900    295.85294   -1364.1483    471.81121    439.30383   -72.874157    37946.351 
   56000    298.71584   -1304.8875    448.26859    487.90806   -79.521251    37946.351 
   56100    292.77937   -1320.9375    426.44581    423.31505    267.97053    37946.351 
   56200    291.37477   -1342.6126    447.74286    416.61488    52.996519    37946.351 
   56300    312.00805   -1355.9216    425.01563    473.44953    461.10396    37946.351 
   56400    307.67464   -1326.2954    440.88952    499.44476   -112.32748    37946.351 
   56500    299.35167   -1352.7769    457.24985    451.86179   -41.365436    37946.351 
   56600    303.45006   -1408.0753    412.64887    370.40932   -58.651055    37946.351 
   56700     294.7041   -1386.5974    448.38467    388.25727    2.5642646    37946.351 
   56800    306.57827   -1360.2566    442.86173      462.521    -136.1145    37946.351 
   56900    304.24062   -1357.0182    452.96823    465.34411   -376.38788    37946.351 
   57000    293.08217   -1366.2331    439.48004    392.41658    33.173636    37946.351 
   57100    299.08503   -1414.5619    458.07389     389.7006   -413.73645    37946.351 
   57200    288.83735   -1379.2732    448.42969    369.22009    175.35546    37946.351 
   57300    288.82071   -1406.3946    442.69486    336.28899    522.11908    37946.351 
   57400    299.11159   -1401.9467    429.97765    374.33911    228.70727    37946.351 
   57500    298.39602   -1413.5577    451.21073    380.74048    381.71514    37946.351 
   57600     301.8677   -1389.1769    461.71475     431.2513    703.15078    37946.351 
   57700    303.31404   -1423.3477    421.82342    363.69927   -111.02737    37946.351 
   57800    318.89268   -1414.6015    472.89292    493.63476   -103.10716    37946.351 
   57900    298.30971   -1391.6948    454.30088    405.30502    227.68336    37946.351 
   58000    299.01269   -1430.7476    445.47196    360.58741    419.30154    37946.351 
   58100    302.79197   -1375.5227    436.71633    424.06735    15.922932    37946.351 
   58200    297.88677    -1382.968    442.41578    400.24304   -31.147904    37946.351 
   58300    298.44198   -1363.7916    457.34963    436.85226    173.14766    37946.351 
   58400    294.77289   -1354.3791    449.56975    421.97027   -338.73552    37946.351 
   58500    300.17148   -1314.6598    463.49323    499.91222   -338.84612    37946.351 
   58600    300.13533   -1372.4246    461.48978    439.98125   -21.831044    37946.351 
   58700    306.88145   -1331.5379    462.72925    512.47181   -118.20355    37946.351 
   58800     294.5234   -1365.2437    472.81283    433.22577   -394.65773    37946.351 
   58900    310.02456   -1342.4969    441.58205    494.51293   -935.38091    37946.351 
   59000    301.98488   -1387.1135    454.04585    426.17328   -159.15442    37946.351 
   59100    305.01639   -1340.5917    469.22497     501.5191   -735.31087    37946.351 
   59200    288.89346   -1349.7822     446.7976    397.33157   -614.42966    37946.351 
   59300    306.56093   -1365.2428    443.52124    458.11629    253.07944    37946.351 
   59400    291.93824   -1399.5236    448.17991    362.67714   -486.10466    37946.351 
   59500    307.78945   -1360.7268    426.34654    450.98725    100.28539    37946.351 
   59600    302.90127   -1353.4484    464.19715    474.11435     455.6611    37946.351 
   59700    288.97419   -1353.2492    459.56655    406.99684   -135.35103    37946.351 
   59800    291.32696   -1322.0092    451.49151    440.75172    261.93286    37946.351 
   59900    296.79099   -1317.2195    439.63044    458.27406    175.19504    37946.351 
   60000    307.37281   -1360.8649    438.92472    461.55191     540.2861    37946.351 
   60100    304.04627   -1353.8808    442.24051    456.87902    422.35655    37946.351 
   60200    304.67729   -1344.2564    478.97237    506.07552    525.10139    37946.351 
   60300    306.08586   -1360.8344     423.5356    440.40076    358.03356    37946.351 
   60400    296.19246   -1313.3706    456.34807    476.14656    593.26424    37946.351 
   60500    302.96287   -1327.6014    471.05058    507.09212    545.73333    37946.351 
   60600    302.74771   -1363.6164    457.11503    456.17306    218.98178    37946.351 
   60700    308.91091   -1341.0316    456.77154    506.15515   -115.74654    37946.351 
   60800    312.23775   -1320.8201     426.3449    510.91412    476.14586    37946.351 
   60900    297.48799   -1385.3454    450.14581    403.80077    672.08095    37946.351 
   61000    300.25275   -1373.7876     429.9508    407.60783    628.44134    37946.351 
   61100     310.1537   -1433.7063     431.0788    393.38154   -4.3320786    37946.351 
   61200    305.29604   -1411.4868     447.6016    410.25939    605.24788    37946.351 
   61300    298.06764   -1380.4638    446.48386    407.62943    443.03443    37946.351 
   61400    314.48191   -1375.8507    434.77112     474.4108   -184.20806    37946.351 
   61500    302.62837   -1398.2678    426.64689    390.51643   -741.26715    37946.351 
   61600     298.8014   -1364.8976    449.77117    429.78558   -353.00167    37946.351 
   61700    288.95102   -1356.9683    478.15184    421.75881   -669.10105    37946.351 
   61800    296.76233   -1416.1548     455.5744    375.15372   -293.65148    37946.351 
   61900    306.42947   -1405.1176    452.35633    426.48493   -216.37956    37946.351 
   62000    296.41457   -1370.3845    455.90856    419.69292    -27.04952    37946.351 
   62100    300.26931   -1408.0116    427.00965    370.51715    404.42924    37946.351 
   62200    308.33968   -1370.1975    477.34218     494.9887    615.80904    37946.351 
   62300    307.92376   -1397.9386     475.6228    463.65619    502.66923    37946.351 
   62400    299.36718   -1410.1363    442.46723     379.7895   -122.14977    37946.351 
   62500    295.94002   -1401.8056    448.09497    378.32227    348.29142    37946.351 
   62600    297.94551   -1358.0793    457.02987    440.01023    441.49778    37946.351 
   62700    309.28598   -1362.8167    453.72839    483.01508    572.15381    37946.351 
   62800    294.55328   -1346.4869    470.91513    450.21937    377.44352    37946.351 
   62900    302.02861   -1330.7239    445.50936    474.22318    524.68857    37946.351 
   63000    296.19168   -1337.9633    450.20692    445.40918    360.08415    37946.351 
   63100     298.8638   -1371.2228    450.53336    424.50346    240.38451    37946.351 
   63200     285.5898   -1389.7041      470.341    366.08316    480.09929    37946.351 
   63300    307.57152   -1387.1965    458.41532    455.60534    483.76862    37946.351 
   63400    308.44311   -1364.8199    459.92824    483.41797     410.1598    37946.351 
   63500    295.27819   -1361.1201    460.40119    428.33508    408.84691    37946.351 
   63600    311.98871   -1396.8528     443.6898    451.10541    485.13945    37946.351 
   63700    300.12808   -1369.8018    447.48674    428.56837    546.88614    37946.351 
   63800    290.49255    -1362.089    450.26262    395.68732    8.3068949    37946.351 
   63900    293.56344   -1414.4346    463.21275    370.11398   -158.96291    37946.351 
   64000    302.71216   -1411.8841    459.80172    410.43209   -70.614101    37946.351 
   64100    292.65553    -1414.737    477.98623    380.49855    301.69664    37946.351 
   64200    295.44498   -1400.2251    454.18307    383.76266    441.08314    37946.351 
   64300    295.23704   -1452.2079    469.34932    346.01022    385.32202    37946.351 
   64400    306.59114   -1461.6253    457.87738    376.22593   -53.472323    37946.351 
   64500    298.19385   -1442.9947    448.72693    347.90962    267.08511    37946.351 
   64600    294.76168    -1461.796    447.99204    312.92525   -367.31728    37946.351 
   64700    300.89761   -1424.0628    428.60613    358.89049   -45.348162    37946.351 
   64800    286.62925   -1465.8515    437.43493    261.70831   -16.613318    37946.351 
   64900    304.38931   -1399.1363     473.7751    444.70212    344.10615    37946.351 
   65000    293.73111   -1463.9479    476.08633    334.22894     578.1828    37946.351 
   65100     299.2359   -1414.7423    467.25529     399.3807     957.0786    37946.351 
   65200    304.11284   -1400.7559     458.3739    426.43697    713.22911    37946.351 
   65300    303.74598   -1377.7794    474.28623    463.67449    95.620471    37946.351 
   65400    283.12294   -1422.1974    451.70601    303.85151   -67.382545    37946.351 
   65500    298.62804   -1415.2398    465.76897    394.66094    356.00624    37946.351 
   65600    302.79797   -1437.5624    464.52635    389.86467    12.158055    37946.351 
   65700    296.25132   -1413.4315    453.31166    373.31423   -247.42877    37946.351 
   65800    308.61757   -1399.3977    461.68259     451.3797   -143.52714    37946.351 
   65900    301.67134   -1431.7882    465.43372    391.47521   -6.6995655    37946.351 
   66000    279.13397   -1398.1857    454.78773    312.99053    690.81398    37946.351 
   66100    299.45933   -1378.0953    458.58779    428.36587    562.01634    37946.351 
   66200    306.29039   -1398.6502    476.52216    456.49208     551.7975    37946.351 
   66300    291.00734   -1352.2508     478.7658    436.34583    222.10014    37946.351 
   66400    294.75807   -1358.8828    476.90114    444.73125   -10.856028    37946.351 
   66500    302.01121   -1403.1158    461.81951    418.06318   -108.75622    37946.351 
   66600    306.76399   -1394.4449    473.21246    459.51938     216.9544    37946.351 
   66700    307.98034   -1425.2653    468.67057    429.63193    530.83627    37946.351 
   66800    300.01741   -1393.8404    446.71724     403.2621    171.68169    37946.351 
   66900    298.27587   -1380.6548    466.20719    428.09898    30.774526    37946.351 
   67000    292.36416   -1398.8278    485.24677    402.35676    249.06548    37946.351 
   67100    288.89889   -1415.3823    471.68491     356.6432    450.07541    37946.351 
   67200    309.33801   -1441.9053    455.63491    406.06714    359.54531    37946.351 
   67300    300.77679    -1408.989    449.12881    393.94314    224.05738    37946.351 
   67400    300.17772   -1421.2595    465.37839    395.22578   -351.82839    37946.351 
   67500    304.18742   -1399.2299    452.17398    422.09873    399.29303    37946.351 
   67600    296.00196   -1361.4347    470.84094    441.71793    26.229332    37946.351 
   67700    309.32382   -1385.7171    464.30113    470.85775    182.98131    37946.351 
   67800    300.97001   -1386.9459    469.50881    437.23593   -251.61907    37946.351 
   67900    300.94832   -1376.6308    465.99848    443.94306   -20.090583    37946.351 
   68000    301.96276   -1416.6838    469.90731    412.36492    352.83568    37946.351 
   68100    295.06389   -1383.1842    455.87895    400.78418    133.96457    37946.351 
   68200    302.53546   -1392.8183    464.56258    433.46343    379.75471    37946.351 
   68300    305.21623    -1408.338    459.37973    424.82703   -178.78762    37946.351 
   68400    298.50059   -1366.1895    442.15588    419.52442    324.50015    37946.351 
   68500    304.26988   -1353.4482     476.4326    492.51015   -16.491897    37946.351 
   68600    311.53576   -1416.6042    473.86896    459.49443   -35.909411    37946.351 
   68700    306.51369   -1385.1671    481.19745    475.65558   -359.70655    37946.351 
   68800    307.07672    -1393.576    464.67323    453.25665    150.04143    37946.351 
   68900    301.57275   -1403.3403    445.99339    400.03903    340.60481    37946.351 
   69000    301.99775   -1394.0223    457.90668    423.18324    226.53073    37946.351 
   69100    296.86823    -1357.467     461.7735    440.51728    118.33332    37946.351 
   69200    299.42108   -1389.2423    462.77393    421.23284    460.67947    37946.351 
   69300    307.39076   -1407.1671    454.36046    430.76631    875.14245    37946.351 
   69400    302.41142   -1459.4219    453.62408    355.36302    873.99055    37946.351 
   69500    300.73535    -1397.048    480.55326    437.12208    583.46288    37946.351 
   69600    295.92962   -1429.6869    450.13082    352.42997    21.321232    37946.351 
   69700    292.11891    -1425.148    458.97662    348.66262    166.75571    37946.351 
   69800    296.10232   -1435.2671    482.39179    379.88806     444.7778    37946.351 
   69900     299.5174   -1406.4205    459.76027    401.47458   -1.6361336    37946.351 
   70000    294.45823   -1436.0645    463.31104     352.6099    173.51466    37946.351 
   70100    303.34726   -1454.8655    441.40014    351.90769    25.619385    37946.351 
   70200    297.42827   -1440.1604     436.4717    335.04283    165.82604    37946.351 
   70300    301.94227   -1455.7798    451.18073    354.45007    265.07171    37946.351 
   70400    293.86835    -1454.499    446.71335    314.92258    204.06311    37946.351 
   70500    306.91582    -1454.462    485.48153    412.45477   -37.707229    37946.351 
   70600    301.54387   -1401.1923     471.3422    427.40589   -278.64763    37946.351 
   70700    304.09873   -1400.2744    507.01136    475.49234    90.526778    37946.351 
   70800    297.36116   -1436.4372    461.45714    363.44947    103.97167    37946.351 
   70900    297.18323   -1408.4813    457.13793    386.28525    115.35194    37946.351 
   71000    301.70341   -1433.2655    469.56917     394.2777    296.70451    37946.351 
   71100    303.23406   -1403.5734    463.44811    424.73824    723.80511    37946.351 
   71200     311.3743   -1395.7215    470.26518    476.04662    784.88591    37946.351 
   71300    296.50125   -1423.7269    462.70893    373.54101    170.18603    37946.351 
   71400    301.63159   -1440.5131    462.74294     379.8806    184.84614    37946.351 
   71500    301.98703   -1445.8928    477.88556    391.24338    -136.0468    37946.351 
   71600    305.27246    -1425.674    484.44753    432.81195   -339.17556    37946.351 
   71700    293.43381   -1443.8059    474.41761    351.36412   -131.97105    37946.351 
   71800    292.16387   -1450.9491    465.83944    329.92669    220.01717    37946.351 
   71900    314.22456   -1423.4094    475.41556    466.33822    35.793407    37946.351 
   72000    302.14394   -1456.8449    486.03329    389.14528   -173.96731    37946.351 
   72100    305.33554    -1473.265    478.69159    379.74892   -28.096938    37946.351 
   72200     295.3774   -1478.2552    461.08664    312.33199    481.41191    37946.351 
   72300    303.17877   -1466.4249    480.63692    378.82676    719.07559    37946.351 
   72400    304.68533   -1493.3704    471.25684    349.28219   -98.285439    37946.351 
   72500     293.8708   -1448.0368    471.00355    345.68604     387.0936    37946.351 
   72600    303.57092   -1473.2773    448.08545    341.18785    421.79984    37946.351 
   72700    293.73213    -1431.824    467.23291    357.50399    133.06246    37946.351 
   72800    303.61891   -1428.0487    472.42407    410.97109   -125.04156    37946.351 
   72900    290.73115    -1390.833    473.98117    391.73583   -102.11916    37946.351 
   73000    291.21054   -1414.0971    469.02044    365.66875    231.37132    37946.351 
   73100    303.42103   -1414.3018    496.60113    448.00445   -19.115224    37946.351 
   73200    303.57042   -1462.3992    476.31285    380.29119   -462.94317    37946.351 
   73300    294.93415   -1464.9574    445.39061    307.93867   -526.33878    37946.351 
   73400    300.55443   -1419.8634    481.76597    414.70505     129.4822    37946.351 
   73500    303.20707   -1448.3409    445.68951    362.09071    245.87861    37946.351 
   73600     298.8651   -1465.5579    480.89918    360.54005    485.18131    37946.351 
   73700    291.82681   -1423.0254    494.87288    385.36671    486.09989    37946.351 
   73800    306.47785    -1432.141    485.94279    433.26574    96.242892    37946.351 
   73900     302.0721   -1455.7194    457.41056    361.32468     118.3366    37946.351 
   74000    298.57269   -1406.0404    514.51074    452.35291    407.45348    37946.351 
   74100    295.17973   -1468.1042    467.06615    327.57277   -367.83656    37946.351 
   74200    293.39583   -1472.8534     461.4691     309.1972   -155.09063    37946.351 
   74300    302.84316   -1501.6326    466.03569    327.50716   -30.239929    37946.351 
   74400    296.52513   -1471.7527    496.04887    358.96264   -330.57678    37946.351 
   74500    307.45259   -1442.1903    494.55025    436.21117    622.89943    37946.351 
   74600    287.43493      -1468.3    473.41803    298.86926    487.99301    37946.351 
   74700    292.57056   -1485.8386    488.88326    319.91158    549.35905    37946.351 
   74800    312.96447   -1514.5135    445.02486    339.17175    230.50587    37946.351 
   74900    301.58746   -1472.6808    464.56607    349.33743    147.18237    37946.351 
   75000    299.16968   -1453.2879    473.67622    366.95795    184.03341    37946.351 
   75100    302.84099   -1454.0496     472.1537    381.19844     4.262966    37946.351 
   75200    295.94029   -1466.7267    487.78144    353.08888   -132.27951    37946.351 
   75300    299.96294   -1517.3258    470.29689    303.11122    -133.2992    37946.351 
   75400    302.46486   -1504.9041     465.7081    322.20539   -314.98484    37946.351 
   75500    298.71181   -1487.7987    471.80108    328.51118    -220.7921    37946.351 
   75600    281.76178   -1537.8026    424.50395    154.91771   -920.43591    37946.351 
   75700    310.54961   -1475.3746    490.61425    413.03064   -420.80972    37946.351 
   75800    303.33324   -1479.1976    481.18951    367.30181   -411.39382    37946.351 
   75900      306.749   -1464.0975    452.79899     369.3858     -329.239    37946.351 
   76000    297.12181   -1462.8276    452.24632    326.77088   -245.27305    37946.351 
   76100    291.33388    -1422.646    476.01305    364.66758    47.682419    37946.351 
   76200    303.35325   -1448.0273    494.17703    411.54971   -265.27866    37946.351 
   76300    293.53352   -1460.5306    466.10273    326.77327   -250.84564    37946.351 
   76400     307.4929   -1436.0281    480.53144    428.53604    261.40025    37946.351 
   76500    308.61197   -1440.2137    496.51974    445.37567     23.34792    37946.351 
   76600    307.97534   -1470.5653    467.42811    383.06699    462.21245    37946.351 
   76700    308.84538   -1466.4672    502.61866    426.27168    501.37001    37946.351 
   76800    304.50318    -1463.599    478.11581    385.09269     33.97049    37946.351 
   76900     301.5513   -1514.1165    488.00678    331.17967    236.37961    37946.351 
   77000    304.21501   -1512.9705    467.70747    324.01575    240.48775    37946.351 
   77100    300.62301   -1486.2632    472.00977    338.85769   -478.70719    37946.351 
   77200     294.9513   -1429.3189    497.80418    396.06793   -365.26559    37946.351 
   77300    294.94361   -1435.4714      490.592    382.66861   -250.66827    37946.351 
   77400    308.29631    -1441.307    469.38221      415.724   -349.26883    37946.351 
   77500    297.81142   -1450.4518    477.17612    367.18044   -368.13668    37946.351 
   77600      299.968   -1430.5366    487.58235    407.20864   -58.969362    37946.351 
   77700    292.16307   -1446.7828    499.33682    367.58672    245.43676    37946.351 
   77800    294.11116   -1459.5718    480.89989    345.12923    267.61142    37946.351 
   77900    294.83788   -1473.9744    479.33782    332.43553    370.05571    37946.351 
   78000    297.74117   -1495.1363    481.33486    326.33851    338.20339    37946.351 
   78100    307.37088   -1484.9395    494.06514    392.60911    262.02646    37946.351 
   78200    306.25523   -1435.7091    488.74343    431.49623    15.231399    37946.351 
   78300    290.26412   -1448.1594    511.29505    369.62121     123.1276    37946.351 
   78400    306.10795   -1438.6226    492.65616    431.83252    88.612075    37946.351 
   78500    301.75194   -1463.5156     496.6736    391.35046   -587.11362    37946.351 
   78600    299.59432   -1425.3465    478.95255    402.08699   -57.871677    37946.351 
   78700    309.58457   -1420.1807    487.03352    460.30014    371.79396    37946.351 
   78800     296.6292   -1489.9167     521.0542     366.2724    20.660254    37946.351 
   78900    304.31235    -1466.682    486.76824    389.80317    346.90031    37946.351 
   79000    296.23778    -1414.286    503.01252    422.09965    215.59364    37946.351 
   79100    297.36937   -1431.5761    488.38467    395.27497    89.663118    37946.351 
   79200    307.48532   -1437.4164    497.25883    443.84093   -596.74554    37946.351 
   79300     297.4201   -1437.4747    505.16886    406.38888   -704.09069    37946.351 
   79400    298.61486   -1419.8595    469.92336    394.13631   -151.54993    37946.351 
   79500    298.60049   -1432.1782    480.98106    392.81055   -318.24194    37946.351 
   79600    298.80756   -1422.4861    520.01161    442.46521   -1211.1884    37946.351 
   79700     287.7817   -1422.2727    478.24464    351.28399   -691.31916    37946.351 
   79800    291.11919   -1436.3249    482.59186    356.60116   -733.00853    37946.351 
   79900    303.80518   -1420.5702     507.4139    454.27783   -175.95456    37946.351 
   80000     299.0881   -1454.0789    473.83242    365.95595   -517.59836    37946.351 
   80100    297.98272   -1454.9751    476.55883    362.81085   -9.4267657    37946.351 
   80200    298.08177   -1445.1127    526.61021    423.17043    97.459676    37946.351 
   80300    294.36282    -1461.662    502.36112    365.63296    188.57784    37946.351 
   80400    295.53674   -1483.1802    521.85861    368.89614    26.202742    37946.351 
   80500    301.46246   -1465.2227    487.54996    379.21683    97.406169    37946.351 
   80600    302.17093   -1483.4172    491.34771    368.00891    739.73177    37946.351 
   80700     300.2296    -1460.429    517.09029    408.00171    793.97842    37946.351 
   80800    300.63798   -1478.5751    488.17214    362.77556    751.63328    37946.351 
   80900    306.74243   -1513.2743    488.39489     355.7754    535.50904    37946.351 
   81000    309.67771    -1521.546    502.00927    374.32981    1331.3195    37946.351 
   81100    301.14988   -1514.8298    483.58149    324.23431    1154.3903    37946.351 
   81200    290.69634   -1475.8175    466.83591    299.44935    458.34183    37946.351 
   81300    298.39991     -1478.12    484.25628     349.2412    238.67217    37946.351 
   81400    288.36516   -1439.9937    491.30738    349.25194    223.28595    37946.351 
   81500    307.11747   -1477.4673    495.91545    400.79104    419.50326    37946.351 
   81600    294.13265   -1515.0442    484.30279    293.15649      339.424    37946.351 
   81700    299.32436   -1477.2765    468.42701    338.41639    488.75616    37946.351 
   81800    294.81868   -1456.3804    500.51338    371.11874   -162.92517    37946.351 
   81900    286.57963   -1458.7657    502.21196     333.3478   -280.61338    37946.351 
   82000    296.55072   -1460.9975    468.22859    342.01274   -115.28577    37946.351 
   82100    296.88674   -1461.4713    493.30481    368.12756   -158.57088    37946.351 
   82200    302.33824     -1468.44    493.59709    385.98845   -138.36954    37946.351 
   82300    301.07095   -1447.9808    497.59396    404.74051   -131.94957    37946.351 
   82400     303.5153   -1473.8597    471.95734    364.22708   -467.56252    37946.351 
   82500    299.98551   -1467.0974    470.76362    353.90795   -239.89847    37946.351 
   82600    315.37035   -1476.4375    493.98668    437.03843   -466.51877    37946.351 
   82700    288.36699   -1464.6941     493.5822    326.83464   -932.05146    37946.351 
   82800    297.17111   -1420.3037    478.11858    395.38887   -688.41504    37946.351 
   82900    305.47623   -1470.1406    489.68502        394.5    -299.2922    37946.351 
   83000     294.8077   -1458.2965    494.97894    363.61871   -261.09428    37946.351 
   83100    306.74258   -1457.3524    490.38205    413.68513   -213.18561    37946.351 
   83200    290.75861   -1478.1367    520.43378    351.00832   -4.6373799    37946.351 
   83300    300.39619   -1484.5806    488.50814    356.01773    108.44461    37946.351 
   83400    304.87384    -1445.424     513.1234    439.94362   -122.10494    37946.351 
   83500    294.80653   -1436.9821    501.87081    391.81978   -681.89446    37946.351 
   83600    311.76172   -1434.9177    462.04202    430.37105   -661.80425    37946.351 
   83700     300.4038   -1425.4845    509.77797    436.41791   -518.66779    37946.351 
   83800     310.0035   -1466.5522    490.18849    418.96919   -331.88326    37946.351 
   83900    296.73377   -1483.6519    509.07759    361.03127   -194.96686    37946.351 
   84000    301.60186   -1447.1083    500.40316     410.8118    274.02582    37946.351 
   84100    312.05208   -1457.6075    497.45363     444.3998    121.15043    37946.351 
   84200    305.57848   -1502.6919    485.72269    358.44659   -44.565184    37946.351 
   84300    310.20026   -1470.0892    498.47076     424.6001   -279.51508    37946.351 
   84400    309.66179   -1476.5069    481.80958    399.09751    -301.8006    37946.351 
   84500    305.00951   -1465.6424    486.73031    393.94281    378.59962    37946.351 
   84600    295.61727    -1473.899    504.92605    361.60725    1036.5084    37946.351 
   84700    315.07309   -1492.6998    483.43274    408.88425    464.30272    37946.351 
   84800    296.72287   -1500.2572    484.10457    319.40387    437.89352    37946.351 
   84900    296.10261   -1488.5858    502.28562    346.46453   -143.39599    37946.351 
   85000    314.26926   -1487.1285    495.90783    423.31253    -294.6563    37946.351 
   85100    294.43168   -1479.5603    475.00462     320.6881   -624.38427    37946.351 
   85200    294.14752   -1475.5494    470.31399    318.72942   -975.92703    37946.351 
   85300    300.70582   -1496.3618    499.33369    356.45571   -546.89567    37946.351 
   85400    285.08466   -1472.3294    507.76405     318.6073   -350.37271    37946.351 
   85500    304.21569   -1509.4634     490.1481    349.96653     216.5959    37946.351 
   85600    295.62822   -1482.3822    502.64094    350.88822   -1.4896002    37946.351 
   85700    300.35153   -1536.8017    493.35768    308.44522    677.89956    37946.351 
   85800    307.51282   -1470.5497    509.48385    423.05648    407.01421    37946.351 
   85900     302.4115   -1482.5115    481.07721    359.72689    28.852545    37946.351 
   86000    289.23497   -1483.3417    472.12425    290.63589    280.68041    37946.351 
   86100    298.10118   -1451.2032     515.9947    406.55177    92.866988    37946.351 
   86200    301.70668   -1464.0116    492.27132     386.2485   -121.70081    37946.351 
   86300    299.10028   -1464.6523    505.73753    387.34257   -200.69574    37946.351 
   86400    302.42805   -1449.9771    504.14272    415.40126   -202.98982    37946.351 
   86500    295.42028   -1495.1835    478.65236    313.16236   -878.78645    37946.351 
   86600    310.37696   -1462.2543     498.9328    433.69236   -894.13053    37946.351 
   86700    295.27411   -1513.6479     500.3651    315.75281   -349.39839    37946.351 
   86800    304.59665   -1527.3169    484.63106    328.31077    67.148332    37946.351 
   86900    295.68291   -1542.7351    480.83148      268.972   -225.18956    37946.351 
   87000    304.27795   -1502.4463    490.60353     357.7193    1.4863136    37946.351 
   87100    301.49067   -1510.0515    483.13135    330.09632   -348.87585    37946.351 
   87200    298.79698   -1523.4787    494.67411    316.08759   -158.14747    37946.351 
   87300    307.03753   -1480.6413    504.79172    406.13345    78.928845    37946.351 
   87400    300.60799   -1465.2668    492.46256    380.23928    363.79091    37946.351 
   87500    300.51615   -1472.4929     510.4474    390.58468    360.37791    37946.351 
   87600    299.86702   -1475.3204    490.83359    365.22162     406.8141    37946.351 
   87700    311.18149   -1479.7154    496.82249    417.74221    349.15566    37946.351 
   87800    300.32548   -1442.2778     495.1029    404.59706    384.75565    37946.351 
   87900    301.39679   -1437.1879    514.28057    433.68663    491.38028    37946.351 
   88000    301.74367   -1450.8803    482.01568    389.29065    643.13123    37946.351 
   88100    299.23267   -1451.7478     478.3805    373.48582    14.707431    37946.351 
   88200    290.76636   -1465.2009    497.88647    341.43164    340.99002    37946.351 
   88300     302.0179   -1467.4396    489.79048    381.74049    132.86188    37946.351 
   88400    288.18807   -1465.3642    502.48049    334.25742   -148.57807    37946.351 
   88500    292.75917   -1493.9805    481.40581    305.14107    297.93146    37946.351 
   88600    293.39144   -1472.8246    492.74404    340.48116    362.66772    37946.351 
   88700     287.1632   -1445.4932     494.4519    341.48695    301.82239    37946.351 
   88800    304.42176   -1446.3272    489.24446     413.1267    386.29308    37946.351 
   88900    297.03612   -1436.3027    480.02754    380.69128    572.56944    37946.351 
   89000    303.42326   -1473.7136    493.85336     385.8549    544.20814    37946.351 
   89100    294.59034   -1499.3385    501.65397    328.27338    -581.2857    37946.351 
   89200    309.66341   -1485.2449    490.73777    399.29501   -323.72293    37946.351 
   89300    292.89824   -1533.3517    465.86345    250.85345   -397.29346    37946.351 
   89400    295.47306   -1505.0523    502.14139    327.02016   -1346.8982    37946.351 
   89500    297.76766   -1471.6423     468.0602    336.67705    -1047.857    37946.351 
   89600    301.08273   -1508.2199    499.54478    346.50522   -579.10422    37946.351 
   89700    292.48751   -1485.0808    466.08856    297.50078   -777.82297    37946.351 
   89800    313.48902   -1465.4498    513.85756    459.42907   -648.58526    37946.351 
   89900    302.77476    -1527.028    489.25936     325.0276   -845.23818    37946.351 
   90000    300.46079   -1478.7391    476.06655    349.70841    40.436488    37946.351 
   90100    308.55548   -1486.6024     494.2474    396.46033    92.263093    37946.351 
   90200    306.21496   -1487.6675    486.63265    377.24579   -211.67237    37946.351 
   90300    297.39725   -1495.7915    479.51359    322.31406    94.185938    37946.351 
   90400    312.60324   -1490.1676    501.13467    418.00147    288.04207    37946.351 
   90500    308.24073   -1519.7142    492.71789    360.40232    300.97973    37946.351 
   90600    291.96489    -1483.871    501.58239     331.8521   -88.363625    37946.351 
   90700    295.27577   -1483.5449    449.01108    294.50926    178.08442    37946.351 
   90800    299.86477   -1500.2378    491.30906    340.76955    507.92808    37946.351 
   90900    294.24992    -1488.313    500.65937    336.77205    498.63988    37946.351 
   91000    295.05673   -1497.3506    470.81199    301.51857    767.23101    37946.351 
   91100    307.54969   -1498.6188    491.26056    376.93006    351.51363    37946.351 
   91200     302.1907   -1506.1982    490.73746    344.70659    474.18805    37946.351 
   91300    301.11608   -1439.2137    521.97753    438.09429    409.82139    37946.351 
   91400     300.8527   -1455.3125    475.07204    373.90448    92.346684    37946.351 
   91500    298.22412   -1466.6597     502.4612     378.1152    284.51474    37946.351 
   91600    305.51033   -1458.8176    500.98323    417.27476   -288.46725    37946.351 
   91700    295.78277   -1430.0016    476.12929    377.45279   -849.23594    37946.351 
   91800    294.40754   -1457.8189    465.68116    332.99747   -92.834688    37946.351 
   91900    305.97209   -1476.9026    481.89812    382.18295   -317.95871    37946.351 
   92000    295.86285    -1474.264    497.47132    354.89285   -157.52351    37946.351 
   92100     311.5983   -1494.5524    492.88056    400.83933   -164.72593    37946.351 
   92200    312.60484   -1468.5505    474.94421    413.43537     -38.4083    37946.351 
   92300    307.40917   -1477.8947    472.61688    378.37794    89.296306    37946.351 
   92400    298.44608    -1503.314    490.64932    330.64809    374.83898    37946.351 
   92500     309.6117   -1478.7173    486.42836     401.2805    572.44828    37946.351 
   92600    289.56958   -1432.6363    478.64966    349.37277    217.49369    37946.351 
   92700    298.62204   -1465.2887    490.59542    369.41142    21.137229    37946.351 
   92800    304.77748    -1413.791     492.0624    450.08189   -94.924568    37946.351 
   92900    297.16536   -1430.4126    529.16111    436.29668    -581.9086    37946.351 
   93000    295.83313   -1435.8799    488.21715    383.88902   -174.70283    37946.351 
   93100    293.53746   -1457.7799     492.3404    355.77948   -38.791684    37946.351 
   93200    296.30562   -1426.1397    476.72836    384.26709   -270.12868    37946.351 
   93300    293.09904   -1424.8887    500.46272    394.81962    566.55804    37946.351 
   93400    296.40902   -1449.0494    502.66109    387.75556    428.87046    37946.351 
   93500    294.73883   -1463.4627    508.04275    371.20638     254.9714    37946.351 
   93600    300.00682   -1454.3486    492.02356    388.01258   -47.872199    37946.351 
   93700    297.99932   -1472.1571    505.08748     374.2322    5.3215017    37946.351 
   93800    304.41195   -1481.9336     473.0036    361.23527    306.20943    37946.351 
   93900    298.99437   -1482.3236    505.58031    369.03733    494.30249    37946.351 
   94000    294.89937   -1484.1524    497.38389    340.58045    378.29292    37946.351 
   94100    306.28219   -1510.7876    488.02457    355.82018    541.96546    37946.351 
   94200    289.87378   -1554.5508    476.70257    226.88041    44.475523    37946.351 
   94300     300.6009   -1530.8555    479.51963    301.67572    407.02763    37946.351 
   94400    294.86902   -1499.8348    487.62833    315.00575    31.799762    37946.351 
   94500    318.77111   -1482.6817    513.33761    465.45204   -162.04616    37946.351 
   94600    310.67479   -1488.5582    477.58937    387.38563    188.85461    37946.351 
   94700    312.42679   -1486.9658    463.02241    382.29679    373.50636    37946.351 
   94800    298.99474   -1507.7224    473.63092     311.6908   -242.73787    37946.351 
   94900     310.8254   -1474.8078    503.40732    427.63189    -368.5151    37946.351 
   95000    303.24306   -1472.3691    509.90944    402.44439   -202.17063    37946.351 
   95100    299.62438   -1464.2878    482.43581    366.76431   -311.95895    37946.351 
   95200    295.63221   -1479.4416    500.55604    351.76183    -329.8703    37946.351 
   95300    305.27227   -1480.6108    502.53005    395.95679    622.92626    37946.351 
   95400    306.26539   -1534.3692    496.67216    340.81056    1299.5848    37946.351 
   95500    308.70127    -1516.663    491.98277    364.79138    502.51955    37946.351 
   95600    304.82831   -1497.5231    497.62141    372.13761    384.31112    37946.351 
   95700    293.77535   -1526.6446    474.40489    270.04995   -50.527009    37946.351 
   95800     297.7145   -1459.5005    501.50791    382.02723   -294.60668    37946.351 
   95900    298.25873   -1439.8101    498.80468    401.46402   -294.68194    37946.351 
   96000    303.24799   -1455.5246    493.19791    402.59948   -571.62606    37946.351 
   96100      306.418   -1420.2808    503.42514    462.33891   -106.15176    37946.351 
   96200    303.80276   -1492.6029    477.53258    352.35298   -254.69321    37946.351 
   96300    297.86978   -1473.2536    500.39217    367.85731    -107.6721    37946.351 
   96400    302.27596   -1492.2566    477.23817    345.53271    50.796781    37946.351 
   96500    304.83828   -1448.8028    492.31164    415.59297   -528.65593    37946.351 
   96600    301.92683   -1465.7592    460.96406    354.18449   -447.01956    37946.351 
   96700    303.96657   -1469.8831    493.57145     391.8489   -203.37988    37946.351 
   96800    312.17297    -1462.908    507.68529    449.87506   -30.273081    37946.351 
   96900    295.32334   -1493.8875    484.29171    319.66144   -587.18899    37946.351 
   97000    302.58783   -1476.0068        497.7    383.64803    111.30905    37946.351 
   97100     299.0482   -1458.1583    493.85384    381.71836    222.49423    37946.351 
   97200     295.5752   -1464.4928    494.76108    360.65912    6.5488179    37946.351 
   97300    288.55366   -1479.1766    493.29189    312.90194    107.67276    37946.351 
   97400    303.20413   -1497.5924    499.18472    366.32108    171.96881    37946.351 
   97500    307.23042   -1481.5111     481.5276    382.86774    51.716888    37946.351 
   97600    299.29825   -1444.7438    505.11399    407.51855    288.16382    37946.351 
   97700    307.89661   -1473.4637    490.33681    402.72286    64.437666    37946.351 
   97800    294.39086   -1499.4098     514.7223    340.37253   -359.78339    37946.351 
   97900    303.69708   -1466.2049    478.06455    378.80729   -1.3423376    37946.351 
   98000    290.67194    -1477.776     465.7343    296.27939   -89.446087    37946.351 
   98100    300.41275   -1450.8043    488.19254    389.55297    91.748313    37946.351 
   98200    296.99485   -1447.5401    495.97692    385.21757    350.91404    37946.351 
   98300    302.14978   -1433.0613    493.39305    420.31492    665.18179    37946.351 
   98400    300.68072   -1493.4488    483.73274    343.65482     571.4212    37946.351 
   98500    301.02536   -1483.9597     486.0051    356.96751    267.50724    37946.351 
   98600    300.03721    -1437.479    487.14235    400.13778   -283.47911    37946.351 
   98700    301.47733   -1433.7931    466.80443     389.9678   -232.59999    37946.351 
   98800    306.40914   -1474.0051     482.0019    387.15141   -234.67955    37946.351 
   98900    291.50092   -1425.8637     517.5032    403.69191   -109.94714    37946.351 
   99000    290.08136   -1452.1898    474.27318    327.74634   -151.82899    37946.351 
   99100    302.71751   -1446.8515    481.64906    397.33604   -385.61286    37946.351 
   99200    292.37603    -1444.419    524.84841    396.42073   -92.750301    37946.351 
   99300    301.56352   -1430.6093    496.28711    423.02218    174.03938    37946.351 
   99400    306.13671   -1467.2055    477.64769    388.37064   -173.25945    37946.351 
   99500    306.74258    -1487.066    472.84995    366.43941   -433.71173    37946.351 
   99600    299.04555   -1461.9369    506.45528    390.52935    216.36574    37946.351 
   99700    297.55042    -1533.946    481.76247    287.09777    390.09209    37946.351 
   99800    293.59797   -1474.0922    505.82601    353.22506    412.68073    37946.351 
   99900    298.57918   -1471.4694    479.04903    351.49138     90.26513    37946.351 
  100000    298.42313   -1493.7469    471.23191    320.69443    -455.1636    37946.351 
  100100    295.50369   -1502.3973    493.12935    320.80097   -39.322206    37946.351 
  100200    292.89795   -1460.3839    483.99868    341.95522    -207.6651    37946.351 
  100300      306.339    -1498.686    464.74923    344.90213    216.24709    37946.351 
  100400    298.83201   -1466.6232    510.06538      388.492   -340.74008    37946.351 
  100500    296.91263    -1509.691    464.87223     291.5919   -302.20316    37946.351 
  100600    304.37134   -1543.0574    505.74826    332.67334    455.16526    37946.351 
  100700    286.85034    -1496.904    490.52803    284.74407   -157.72747    37946.351 
  100800    307.08836   -1484.4373    480.79938    378.57393    336.66511    37946.351 
  100900    302.09728   -1505.2723    486.21581    340.69037   -17.017371    37946.351 
  101000    302.99266   -1493.4337    494.26424    364.60754    544.66498    37946.351 
  101100    305.93007   -1528.1089     483.9677    332.85713    582.59116    37946.351 
  101200    299.98136   -1480.7522    503.14191    372.61279    71.445632    37946.351 
  101300    288.96373   -1479.1888    497.86544    319.30911    164.50387    37946.351 
  101400    296.46689   -1480.4619     476.7837    330.72615    35.042052    37946.351 
  101500    294.42862   -1505.4949    472.01018    291.74531   -217.59795    37946.351 
  101600    300.51932   -1491.5979    502.30259    363.34911   -704.43044    37946.351 
  101700    299.54693   -1513.5109    495.42493    330.18173   -723.73585    37946.351 
  101800    304.83274   -1451.8034    468.44405    388.69993   -804.74716    37946.351 
  101900    308.43724   -1448.4848    482.32874    422.12711    -465.7034    37946.351 
  102000     303.7899   -1487.2187    496.84428    376.99095    244.57773    37946.351 
  102100    305.61349   -1471.6699    480.67223    384.57574    77.081634    37946.351 
  102200    308.24375   -1502.6041    487.24372    372.05185    137.69432    37946.351 
  102300    290.70912   -1468.1127    494.73203    335.10778    20.134948    37946.351 
  102400    304.18508   -1482.8597    494.25341    380.53787    76.368867    37946.351 
  102500    299.90977   -1471.7702    498.28534    376.41596    30.098438    37946.351 
  102600     300.0626   -1461.5902    498.21183    387.21034    604.66835    37946.351 
  102700    295.80069    -1471.886    497.29942    356.81921    336.80778    37946.351 
  102800    299.22678   -1462.8275    496.19682    380.19597  -0.25687237    37946.351 
  102900    304.25165   -1480.4374    478.17431    367.18062    236.26955    37946.351 
  103000    296.21263   -1472.5976    484.14014    344.80246   -196.50896    37946.351 
  103100    301.10349   -1495.3788    469.25259    329.14757   -426.96402    37946.351 
  103200    294.68157    -1487.014    478.39183    317.74642    -414.4198    37946.351 
  103300    304.40172   -1462.4596    519.19902     426.8586    124.10911    37946.351 
  103400    292.90753   -1453.9919    475.22852    339.62024    390.79875    37946.351 
  103500    301.15948   -1470.1739    489.80607    375.15794      347.612    37946.351 
  103600    307.23632   -1460.2862    502.54955    425.14112      815.884    37946.351 
  103700    294.41004   -1446.2414     496.9117    375.81671    745.46382    37946.351 
  103800    307.09851   -1455.4417    465.88817    392.70404   -174.44877    37946.351 
  103900    304.24787   -1429.0142    495.73371    436.14618   -312.64056    37946.351 
  104000    294.77971   -1438.8622    471.43371    359.38185   -484.90575    37946.351 
  104100    300.48388   -1489.4324    487.73728    350.78978   -119.86782    37946.351 
  104200    301.12226   -1490.2387    461.50098    326.62056    299.48512    37946.351 
  104300    293.63963   -1447.1001    488.67331    363.25204    331.29434    37946.351 
  104400    302.58427   -1470.3389    476.38916    367.98906   -255.36214    37946.351 
  104500    309.23899   -1481.1762    473.41605    384.13169    475.75752    37946.351 
  104600     298.6066   -1484.1495    480.63987    340.52561    697.11709    37946.351 
  104700    297.56242   -1475.3576    502.16467    366.14243    371.62133    37946.351 
  104800    294.65427   -1423.0588    495.34266    398.52953    98.941192    37946.351 
  104900    298.26718    -1452.567    518.72261    408.66308    452.67358    37946.351 
  105000    292.11363   -1481.5464    485.98729    319.25113    137.25872    37946.351 
  105100    309.75967   -1474.6721    472.93997    392.50333    227.25722    37946.351 
  105200    292.44644   -1495.1081    464.85951    286.05955    104.56173    37946.351 
  105300    307.98375   -1481.6375    494.62525    399.22968    339.75144    37946.351 
  105400    305.01566   -1454.1359    489.86028    408.60693    656.07496    37946.351 
  105500    295.96054   -1482.4509    514.65724    364.33161    746.60924    37946.351 
  105600    301.82456   -1461.3219    491.76875    388.96617    710.64989    37946.351 
  105700    283.80722   -1418.9508    515.49822     373.9703    -161.9199    37946.351 
  105800    303.25433   -1459.7937    494.82852    399.98963    11.873325    37946.351 
  105900    296.98836   -1421.1227    495.53079    411.15959   -28.072011    37946.351 
  106000    309.15504    -1435.389    497.09747    453.22251    144.38866    37946.351 
  106100    293.91198   -1438.9563    498.00729    381.95561   -60.463982    37946.351 
  106200    286.87819   -1430.2034    484.79651    345.83843   -717.09674    37946.351 
  106300    300.78031   -1447.5129    493.51952    399.82577   -495.63531    37946.351 
  106400    296.81718   -1462.7813    480.79667    353.99634   -698.30677    37946.351 
  106500    304.27381   -1498.1312    499.40571    370.81803    61.097734    37946.351 
  106600    296.36717   -1481.2747    486.13569    338.81651   -404.45208    37946.351 
  106700    303.61364   -1479.4859    485.66028    372.74647   -243.93051    37946.351 
  106800    296.50884   -1447.8165    481.53437    368.31107    191.81767    37946.351 
  106900    300.34308   -1473.4129    476.35363     354.7919    89.754794    37946.351 
  107000    296.84384   -1535.0145    485.84589    286.93236    187.32364    37946.351 
  107100    302.50738   -1482.6564    493.99138    372.92769     237.9227    37946.351 
  107200    306.88119   -1448.7298     502.7296    435.27913   -754.61319    37946.351 
  107300    296.47809   -1457.4779    486.12404    363.10092   -812.44526    37946.351 
  107400    288.31222   -1456.7051    486.47301    327.46792   -424.93234    37946.351 
  107500    297.77646   -1482.7276    502.66911    360.24022   -512.83429    37946.351 
  107600    306.79827   -1468.1031    484.39389    397.19697   -283.50705    37946.351 
  107700    308.59806   -1425.5294    514.73994    478.21752   -359.67394    37946.351 
  107800    299.27115   -1442.6428    480.83456    385.21814    1.9352832    37946.351 
  107900    302.75939   -1466.6711    501.02732    397.08322   -314.55999    37946.351 
  108000    297.78405   -1421.3306    472.92667    391.92896    -293.6988    37946.351 
  108100     304.5507   -1466.6117    513.02077    417.19884    26.635399    37946.351 
  108200    302.40772   -1478.1751    492.53728     375.5063   -227.54132    37946.351 
  108300     298.2692   -1474.4157    463.05233    331.15323   -592.16587    37946.351 
  108400    306.82974   -1479.8775    493.16668    394.33696     237.5111    37946.351 
  108500    293.90321   -1466.0935    484.12135    340.89304   -165.16084    37946.351 
  108600    297.29428   -1442.0381     463.0724    359.16275   -318.59305    37946.351 
  108700    308.13881   -1400.2759    502.55201    489.21606    277.14501    37946.351 
  108800    287.96221   -1425.3263    486.50573    357.30406    192.01598    37946.351 
  108900      295.189   -1436.9391    472.78074    364.49417    119.25211    37946.351 
  109000    306.62042   -1424.9751    500.24432    455.37484    439.08782    37946.351 
  109100    292.12588   -1414.2344    481.68429    382.31528    48.740228    37946.351 
  109200    296.21536   -1418.1842    500.08189    415.16994    165.04915    37946.351 
  109300    295.72022   -1431.8504     507.8263    407.01942   -182.57511    37946.351 
  109400    296.97721   -1482.4716    497.87595    352.10568    -808.8656    37946.351 
  109500    302.01267   -1441.2961     491.1329    409.20285   -630.95177    37946.351 
  109600      286.634   -1472.9283    475.38257    292.60055   -1119.4944    37946.351 
  109700    300.18036   -1457.6881    485.50064    378.93133   -673.92691    37946.351 
  109800    308.34285   -1446.5095     490.8338     432.1826    -540.8461    37946.351 
  109900    295.77947   -1466.5538    484.67408    349.43048   -388.07141    37946.351 
  110000    290.78994   -1455.0437     492.7649    346.57344   -21.665968    37946.351 
  110100    298.79512   -1478.8336    483.37994    349.43014     141.5281    37946.351 
  110200    299.62417   -1481.3554    483.02288    350.28282    133.24178    37946.351 
  110300    288.33357   -1499.1797    531.51366    330.13002    -226.2043    37946.351 
  110400    306.52049   -1479.2283    497.46775    397.89533    234.35913    37946.351 
  110500    297.08076   -1397.6722    494.35896    433.85416    76.071602    37946.351 
  110600     302.1867   -1474.3697    484.65293    370.43254   -172.91005    37946.351 
  110700    298.36846    -1477.872    493.95465    359.04599   -502.21905    37946.351 
  110800    302.51139   -1503.4268    454.44694     312.6309   -426.49145    37946.351 
  110900    293.98838   -1482.2692    475.99203    316.97131   -142.30116    37946.351 
  111000    303.37289   -1470.4881    496.06052    391.06081   -17.236241    37946.351 
  111100    306.31413   -1484.1339    518.60802    413.20109   -491.07657    37946.351 
  111200    304.46779   -1447.7273    513.00015    435.68943   -135.87348    37946.351 
  111300    301.20056   -1503.1761    502.06874    354.60341    202.50051    37946.351 
  111400    302.27254    -1497.616    492.36578    355.28553    136.79522    37946.351 
  111500    289.93606   -1525.8691    484.58125    263.72109   -72.419528    37946.351 
  111600    300.52334   -1469.8068    493.54402    376.39972   -290.11202    37946.351 
  111700    294.93942   -1429.2726     519.4264    417.68297   -24.973466    37946.351 
  111800    291.63834    -1456.386    493.77301    350.05798   -689.54191    37946.351 
  111900    296.29127   -1472.4919    491.50675    352.62871   -843.20463    37946.351 
  112000    301.24586    -1451.788      485.481    389.60759   -362.19731    37946.351 
  112100    310.75185   -1517.1675    486.89736    368.43114    265.61849    37946.351 
  112200    297.67451   -1463.3329    490.97117    367.47812    24.107083    37946.351 
  112300    296.27291   -1457.5105    489.77893    365.79968    179.79422    37946.351 
  112400    300.36183   -1469.0049    511.13614     394.0668    458.67455    37946.351 
  112500    287.16395   -1462.0923    510.23363    340.67289    215.53024    37946.351 
  112600      289.692   -1455.8508    490.21265     338.2722    132.09233    37946.351 
  112700    302.05636   -1395.7577    511.63631    475.44123   -48.347317    37946.351 
  112800    300.04601   -1413.0432    509.65051    447.12136   -566.38233    37946.351 
  112900    302.15766   -1436.0889    494.05635     417.9861   -577.46472    37946.351 
  113000    310.43332   -1446.5035    527.12889    477.89293   -253.69445    37946.351 
  113100    307.03907   -1453.9569     506.9511    434.98422   -370.65306    37946.351 
  113200    296.76336   -1459.0859    515.01021    391.66307   -52.364589    37946.351 
  113300    289.86008   -1498.6251    482.32117      288.363    73.963731    37946.351 
  113400    306.86338   -1481.4649    482.35627    382.09058   -91.297917    37946.351 
  113500    303.31001   -1470.0786    523.98672    419.11352    417.95196    37946.351 
  113600    293.36409   -1480.1333    483.83627    324.14159    102.38178    37946.351 
  113700     309.9004   -1493.7533     488.5189    389.63454     80.51283    37946.351 
  113800     306.2359    -1487.454    506.70173    397.62258     321.1376    37946.351 
  113900    302.84737   -1520.4772    493.70115    336.34694   -76.026247    37946.351 
  114000    301.40195   -1524.9971    493.97582     325.5959   -464.20171    37946.351 
  114100    289.32655   -1501.0007    492.66853    293.93332   -34.151835    37946.351 
  114200    309.67151   -1516.4302    487.85999    365.26843    132.08692    37946.351 
  114300    295.45823   -1497.5341    497.64451    329.97476   -158.42181    37946.351 
  114400    297.48883   -1462.6824     504.5224    380.84415    110.12496    37946.351 
  114500     311.7645   -1461.3634    474.08464    415.98046    5.5042806    37946.351 
  114600    302.45574   -1420.5052    545.05246    485.90759   -662.14514    37946.351 
  114700    297.37075   -1439.4416    507.21721    406.24825   -474.85249    37946.351 
  114800    298.29006   -1418.8212    498.93489     422.7242   -463.38298    37946.351 
  114900     298.6799   -1442.8081    497.86957    399.42666   -20.367999    37946.351 
  115000    301.62538   -1437.9598    508.72805     428.3911    451.35573    37946.351 
  115100    316.30918   -1454.6972    486.68922    455.70701   -338.28184    37946.351 
  115200    299.78571   -1402.2208    480.75179     427.8734    56.172689    37946.351 
  115300    296.60755    -1438.416    498.71491    395.33638   -147.72475    37946.351 
  115400    301.78175   -1409.6202    488.04804    436.75453    6.2325623    37946.351 
  115500    294.02253   -1437.3537    492.79686     378.8454    271.78069    37946.351 
  115600    304.72982   -1472.4301    499.13141    398.29729    665.65377    37946.351 
  115700    291.81381   -1460.9022    496.67493    349.23347    625.15222    37946.351 
  115800    304.54393   -1475.2333    492.78696    388.31296    120.66205    37946.351 
  115900    289.86887   -1434.2373    522.75689    393.22611    474.91938    37946.351 
  116000    300.87924   -1421.4441    500.00835    432.82869    82.889293    37946.351 
  116100    309.17754   -1445.3659    465.84951    412.09888    565.96241    37946.351 
  116200    308.67739   -1440.2121    505.69032    454.84231    330.73128    37946.351 
  116300     307.2449   -1421.7947    507.14749    468.26925   -123.73901    37946.351 
  116400    301.66657   -1403.8385    494.09858    448.06826    269.74083    37946.351 
  116500    301.46669   -1430.0839    493.42489     420.2495   -278.31322    37946.351 
  116600    310.19586   -1375.7291    489.82987    510.29948   -365.61852    37946.351 
  116700     300.6813   -1405.8216    494.08694    441.63889   -623.92478    37946.351 
  116800    306.55729   -1391.0842    510.70726    499.44451   -690.91507    37946.351 
  116900    296.87802   -1378.8818    502.98004    460.35304   -624.79668    37946.351 
  117000    312.34173   -1406.0463    510.31884    510.12989   -474.21604    37946.351 
  117100    290.70783   -1425.6957    475.23361    358.02053    204.24798    37946.351 
  117200    303.86026   -1444.9316    466.21319     388.9637    -287.0775    37946.351 
  117300    310.57497   -1453.3809    505.80353    450.32774    141.72851    37946.351 
  117400    283.39644   -1423.6476    473.94527    325.87164    736.81557    37946.351 
  117500    305.54922    -1434.213    495.36031    436.43149      982.389    37946.351 
  117600      297.938   -1419.1117    503.78056    425.69469    413.99368    37946.351 
  117700    293.01299   -1424.2616    514.12273    408.71935    167.54207    37946.351 
  117800      298.209   -1410.6825    484.90434    416.46741    293.07415    37946.351 
  117900    307.36495   -1482.5701    497.48557    398.37221    381.88866    37946.351 
  118000     303.7363   -1426.1127    492.71877    433.73021    315.87583    37946.351 
  118100    302.15577   -1487.7722    506.72605    378.96394    101.18486    37946.351 
  118200    302.41904   -1429.1459    479.30029    411.34945    26.954548    37946.351 
  118300    304.83412   -1432.5545    496.95771    436.46862    652.59899    37946.351 
  118400    296.76397   -1448.4763    495.04337    382.30856    952.82308    37946.351 
  118500    300.64666   -1439.0509    480.77718    394.94387    471.37665    37946.351 
  118600    308.80022   -1438.6845     513.1776    464.41004    1258.1489    37946.351 
  118700    294.22788   -1423.8513    510.63521    411.11043     524.3248    37946.351 
  118800    300.92147   -1420.7023    502.46616    436.21834    -100.9686    37946.351 
  118900    312.72905   -1385.4833    466.41508     488.5325    -431.8564    37946.351 
  119000    294.06902   -1431.9676    494.95226    386.59618   -261.82972    37946.351 
  119100    295.47191   -1445.4536    502.85001    387.32236   -380.62767    37946.351 
  119200    307.67281   -1457.2653     489.9397    417.51685   -5.8250897    37946.351 
  119300    303.18115   -1495.5442    496.92831    366.00946   -272.14099    37946.351 
  119400    299.71589    -1447.662    493.52031    394.88644    460.10253    37946.351 
  119500    299.61043   -1475.8996    497.32711    369.98099    369.08299    37946.351 
  119600    292.43131    -1475.134    506.03852    347.14468    383.66304    37946.351 
  119700    295.75518    -1522.837    473.27165    281.63553    182.41367    37946.351 
  119800    295.08449   -1493.5324    488.20387    322.85353   -25.584743    37946.351 
  119900    299.55478   -1499.1871    494.27176    343.38771    231.35398    37946.351 
  120000    299.55969   -1455.2935    498.15621    391.18781    724.56398    37946.351 
  120100    303.28503   -1465.3502    459.84973    359.59251    216.62156    37946.351 
  120200     291.6252   -1436.6531    489.50576    365.46443    638.14882    37946.351 
  120300    308.58556   -1498.6176     491.1365     381.4696    643.24789    37946.351 
  120400    292.69943   -1460.2548    496.85279    354.04492    113.74832    37946.351 
  120500    307.73186   -1421.8147    490.45451    453.74806    462.51492    37946.351 
  120600    299.56902   -1474.8079    487.91046    361.46971    491.33142    37946.351 
  120700    303.95914   -1522.8711    512.64163    357.89768    199.86326    37946.351 
  120800     289.6133   -1437.5672    492.16545    358.15446   -62.965729    37946.351 
  120900    300.84894   -1470.7566    471.18897    354.56045   -651.23192    37946.351 
  121000    286.22267   -1502.1909    492.09497    278.19896   -563.19575    37946.351 
  121100    293.89318   -1454.5997    490.82824    359.04859   -449.77178    37946.351 
  121200    293.37066   -1415.2221    518.50727    423.75325   -370.57034    37946.351 
  121300    299.84933   -1423.3201    499.44649    425.75519   -517.84236    37946.351 
  121400    303.43151   -1451.4581    488.04244    402.33662   -587.04462    37946.351 
  121500    293.56874    -1444.824    514.02586    390.56158   -525.42535    37946.351 
  121600    296.71457   -1422.3813    480.64636    393.78421   -240.35618    37946.351 
  121700    300.28121   -1421.6851    503.28769    433.17531   -276.22451    37946.351 
  121800    289.06099   -1434.2364    493.60169    360.43545   -485.61112    37946.351 
  121900    298.79761   -1449.8514    488.55564    383.59921   -240.36389    37946.351 
  122000    302.07788    -1448.031    480.88314    392.51166   -412.57956    37946.351 
  122100    293.53941   -1456.0395    490.58603    355.77426   -708.40895    37946.351 
  122200    308.64174   -1483.7295    489.89736    395.37149   -702.34023    37946.351 
  122300    297.49625   -1471.2908    490.10874    357.85547   -348.37882    37946.351 
  122400    299.63829   -1467.6411    480.64528    361.68305    110.05955    37946.351 
  122500    308.29383   -1440.2521    479.70935    427.09494     593.0415    37946.351 
  122600    307.86173   -1441.3318    486.34884    430.70986   -51.432789    37946.351 
  122700    305.03616   -1487.5033     497.2835    382.75498    300.19726    37946.351 
  122800    294.96728   -1478.3029    469.46194    318.81359    206.72848    37946.351 
  122900    300.25946   -1494.0434    471.29377    328.72522    222.55662    37946.351 
  123000    305.50883   -1470.4054    492.67085    397.36777    422.53337    37946.351 
  123100    308.14537   -1542.9279    481.69386    325.73538    438.30093    37946.351 
  123200    300.76978   -1556.9128    482.64863    279.50752   -548.71147    37946.351 
  123300    298.60027   -1509.8635    476.92499    311.06827    232.44371    37946.351 
  123400    295.04959    -1533.399    477.89514    272.52124    229.53356    37946.351 
  123500    297.67585   -1543.5697    487.66757    283.94376    233.36765    37946.351 
  123600    295.04595   -1500.3444    485.49385    313.15814    87.349933    37946.351 
  123700    308.09466   -1484.0407    465.43024    368.13079    25.706486    37946.351 
  123800    299.22045   -1477.9875    479.34503    348.15569    66.269441    37946.351 
  123900    301.39738   -1484.2765    490.71265    363.03277    260.41921    37946.351 
  124000    296.54772   -1514.8579    467.43598    287.34628    657.51465    37946.351 
  124100    299.75778   -1512.1104    485.64924    322.75557    252.29873    37946.351 
  124200    309.49573    -1472.563    498.48637    418.97088    893.61071    37946.351 
  124300    297.54045   -1491.4858    463.52562     311.2763    318.15267    37946.351 
  124400     306.0533   -1478.5166    481.88201    380.91844    932.01952    37946.351 
  124500    290.44463   -1461.6812     469.5028    315.11965   -258.61782    37946.351 
  124600    308.78471    -1463.418    467.36664    393.79574   -571.77522    37946.351 
  124700     304.2379    -1456.012    501.59142    414.96125   -275.03685    37946.351 
  124800     302.7416   -1445.3233    484.68743    402.01107   -598.44003    37946.351 
  124900    290.66871   -1458.2993    483.74445    333.75177   -420.96003    37946.351 
  125000    315.33686   -1441.0974    493.78664    472.02775   -132.95204    37946.351 
  125100    290.68888   -1430.2701    481.66914    359.79646    195.86891    37946.351 
  125200    287.31259   -1423.3781    495.59547    365.41803   -270.47585    37946.351 
  125300    299.97299   -1455.1422    491.14819    386.19142   -64.879451    37946.351 
  125400    289.07697    -1461.485    504.55454    344.21167   -783.22008    37946.351 
  125500    305.41195   -1446.3995    491.88901    420.15583   -216.38251    37946.351 
  125600    290.61527   -1447.8418    477.00094    337.22525   -363.70245    37946.351 
  125700    296.74572   -1447.4938    488.02641    376.19194    182.54036    37946.351 
  125800    300.93552   -1414.4418    479.31751    419.39343   -13.309815    37946.351 
  125900    295.37686   -1405.4016    465.18857    389.28508    128.29585    37946.351 
  126000    310.15053   -1409.0117    490.11372    477.09679   -60.323536    37946.351 
  126100    289.75976   -1415.9405    489.15453    377.42944   -470.46644    37946.351 
  126200    308.29776   -1396.3807    495.14811    486.42276    274.36307    37946.351 
  126300    299.47972   -1428.9047    488.09328    407.15371   -11.308051    37946.351 
  126400    301.43577   -1423.8782    490.58362    423.47481    259.48195    37946.351 
  126500    302.47982     -1451.07    487.13445    397.53318    519.57837    37946.351 
  126600     287.5312   -1486.7085    489.75875    297.23481    264.52373    37946.351 
  126700    309.52618   -1481.5929    483.01095    394.60263    852.14032    37946.351 
  126800    295.98005    -1438.967    495.40613    388.65216    237.93526    37946.351 
  126900    295.94142   -1467.2749    487.08997    351.85423  -0.41149229    37946.351 
  127000    299.81552   -1448.1694    485.61776    386.92502    23.693836    37946.351 
  127100    308.12689   -1448.2997    452.35164    390.93826   -64.301854    37946.351 
  127200    295.77512   -1473.3008    475.26316    333.25305   -253.23691    37946.351 
  127300    294.62168   -1468.5126     450.3257    307.91215   -235.53307    37946.351 
  127400    301.87732   -1487.5594    479.97189     351.1693   -296.45452    37946.351 
  127500    295.03948   -1468.9157    483.44776    342.51159   -361.35556    37946.351 
  127600    303.32319   -1474.7009    478.27399     368.8378   -53.339415    37946.351 
  127700    309.48001   -1471.7868    463.36718     384.5571   -293.84651    37946.351 
  127800    303.10413   -1488.5045     465.4833    341.25747    94.794529    37946.351 
  127900     299.3118   -1496.0699    480.36633    331.50576   -340.54549    37946.351 
  128000    306.33151   -1499.5964    461.36716    340.57599    103.91885    37946.351 
  128100    294.79164   -1477.0798    478.63361    328.41786    27.927357    37946.351 
  128200    292.50935   -1509.6905    471.54807    278.44888   -320.17297    37946.351 
  128300    299.00527   -1479.5303    480.14098    346.44029   -6.7865893    37946.351 
  128400    311.43925    -1508.677    474.15694    367.27518    18.363586    37946.351 
  128500    300.19741   -1484.8491    501.28143    367.62789   -578.10193    37946.351 
  128600     293.1973   -1483.2821    460.03687    296.44261    -318.3389    37946.351 
  128700    297.43582   -1461.4209    468.67277    346.01742   -305.82358    37946.351 
  128800    305.93832   -1474.0282    484.34053    387.34782    614.22759    37946.351 
  128900    308.61025   -1486.9673    510.43164    412.52619    1130.3338    37946.351 
  129000    295.67626   -1467.3876    477.94686    341.40493    863.23433    37946.351 
  129100    289.39637   -1454.2729    508.25836    356.56527   -194.37756    37946.351 
  129200    296.13713   -1477.0216     482.4048    338.30322    35.361593    37946.351 
  129300    291.38632   -1451.7634    487.91269    347.68586    504.51957    37946.351 
  129400    310.71564    -1448.013    488.16113    438.68643    123.59854    37946.351 
  129500    297.34756   -1457.0498    525.07289    406.39132    322.94284    37946.351 
  129600    301.31286   -1418.1637    494.83655    432.88906    763.96008    37946.351 
  129700    297.04266   -1458.5698     483.6015    362.02759    357.61248    37946.351 
  129800    300.99833   -1471.8072    494.90788    377.90114    724.96605    37946.351 
  129900     298.0616   -1481.8085    485.42099    345.19464    25.020933    37946.351 
  130000    295.11436   -1512.6962    493.64982    309.27022    578.09897    37946.351 
  130100    293.06583   -1473.0848    498.34485    344.35616    556.57008    37946.351 
  130200    299.05083   -1485.8343    485.95527    346.15571    489.90623    37946.351 
  130300      290.021    -1415.939     494.6933    384.14558    366.97092    37946.351 
  130400    294.62176   -1435.5344    464.76411    355.32911    259.13045    37946.351 
  130500    305.60453   -1465.1015     496.8043    407.23593    177.85964    37946.351 
  130600    308.01908   -1477.0299    482.58296    391.95412    228.08585    37946.351 
  130700    302.92135   -1495.0409    454.90322    323.31839    76.934752    37946.351 
  130800     303.5571   -1455.9094    492.53244    402.94061    96.059006    37946.351 
  130900    300.85117   -1460.3817    486.11334    379.86975    -371.1795    37946.351 
  131000     300.8806   -1448.0174    447.34315    353.59629   -139.93271    37946.351 
  131100    306.92998   -1464.7888    491.27295    407.98308    405.17817    37946.351 
  131200    296.24802   -1477.2243    452.59415    308.78909    111.07842    37946.351 
  131300    307.38286   -1488.6997    472.05853    366.89621    193.55998    37946.351 
  131400    294.15044   -1482.4583    497.15229    338.67193    -355.4081    37946.351 
  131500    304.42328   -1463.1609    481.81881    388.87414    140.79492    37946.351 
  131600    297.10945   -1467.6197    485.25288    354.92968     311.3828    37946.351 
  131700    296.69945   -1502.1772    499.02384    332.29773    258.94111    37946.351 
  131800    309.41362   -1508.3055    454.46344    338.83582    278.98296    37946.351 
  131900    305.87946   -1489.9805    448.56435    335.35438    102.78964    37946.351 
  132000    310.46526   -1489.8579    465.94542    373.49884    616.98179    37946.351 
  132100    304.62777   -1514.7173    451.40234    307.82165   -213.48819    37946.351 
  132200    296.78795   -1495.7162     469.5909    309.72418   -100.54971    37946.351 
  132300    285.50576   -1466.5668    499.76631    318.26752    559.85506    37946.351 
  132400    293.44682   -1481.9375    483.33015    322.20356    837.91749    37946.351 
  132500    309.86701   -1493.6467    479.03603    380.10795    1116.3168    37946.351 
  132600    302.70173   -1489.7593    502.20071    374.90893    384.18775    37946.351 
  132700    305.34352   -1464.3415    484.05121    394.06794    82.876585    37946.351 
  132800    301.99157   -1488.9193    465.35223    335.70405   -575.36083    37946.351 
  132900    306.47071   -1460.6085    480.99598    399.81927   -242.59891    37946.351 
  133000    304.64984   -1450.1476    494.37591    415.46429   -252.88119    37946.351 
  133100    298.00282   -1461.1597    512.30137    392.45924   -538.33197    37946.351 
  133200    304.56672   -1450.3248    498.29036    418.82741   -105.25244    37946.351 
  133300    302.06997   -1451.8826     513.5267    421.26806   -280.62218    37946.351 
  133400    306.22055   -1445.3151    485.32343    418.31407   -636.72916    37946.351 
  133500    298.18578   -1432.6675    491.41265    400.88627    243.95764    37946.351 
  133600    302.37461   -1468.6391    507.04273    399.39881   -158.38494    37946.351 
  133700    290.61555   -1421.9351    495.20577    381.33798   -745.99648    37946.351 
  133800    307.77661    -1459.961    477.45096    402.79965   -611.97833    37946.351 
  133900    287.60725   -1473.8435     476.5357    297.21907   -384.30405    37946.351 
  134000    295.86079   -1419.4313    483.69467    395.93963    53.906041    37946.351 
  134100     290.0556   -1431.5297     479.0843    353.10153    72.199882    37946.351 
  134200    287.86342   -1447.7576    486.92478    334.84707   -255.58897    37946.351 
  134300    292.28232   -1448.9115    483.37029    350.02832   -227.97038    37946.351 
  134400    295.48466    -1447.058    476.54898    359.47431   -80.559065    37946.351 
  134500    297.27638   -1396.8581     494.4662    435.65596   -344.13632    37946.351 
  134600    305.15144   -1430.8982    487.64352    430.23903   -397.50567    37946.351 
  134700    295.39043   -1432.0832    496.66155    394.13755   -535.82572    37946.351 
  134800    304.51216   -1402.5875    467.80459    435.83338   -1008.0952    37946.351 
  134900    300.46844   -1379.0936     474.6535    447.97536   -637.20995    37946.351 
  135000    284.93824   -1459.0542    489.27212    312.73152   -784.41002    37946.351 
  135100    297.36508   -1479.8168    466.78452    325.41482    133.92788    37946.351 
  135200    313.55558   -1434.1176    468.11004    445.31335    382.46844    37946.351 
  135300    307.44519   -1457.7472    516.63112    442.70185    398.56918    37946.351 
  135400    310.08985   -1468.9645     452.4926    379.24972    876.02686    37946.351 
  135500    295.64156   -1447.5211    498.93967    382.10809    587.61362    37946.351 
  135600    292.88023   -1406.0161    503.55553     415.8001    533.42933    37946.351 
  135700    295.62802    -1385.501    491.29417    436.42175    1067.9166    37946.351 
  135800    303.01016   -1411.7164    506.15077    458.29009    640.01361    37946.351 
  135900    301.44288   -1444.8114    491.92261     403.9126    744.11269    37946.351 
  136000    301.38622    -1451.386    500.61778    405.77813    210.79189    37946.351 
  136100    305.70272   -1450.8346    488.07429    413.21478    416.85284    37946.351 
  136200    298.85366   -1453.2754    443.68167    335.55352    189.81185    37946.351 
  136300    301.69326   -1470.1083    472.84015    360.66025   -218.42112    37946.351 
  136400    296.34323    -1440.136    503.18676    396.89847   -51.808486    37946.351 
  136500    286.49409   -1462.7005     471.5706    298.38664   -197.04841    37946.351 
  136600    292.60979   -1474.7006    481.54669    323.88953   -158.71052    37946.351 
  136700    310.46749   -1474.8693    490.32581     412.8779   -97.351003    37946.351 
  136800    302.42054   -1461.3989    468.06212    367.86507   -46.856759    37946.351 
  136900    293.98295   -1434.3493    483.20001    372.07475    169.80732    37946.351 
  137000     303.1456   -1448.0867    456.94593    373.32463    63.186149    37946.351 
  137100    306.76524   -1441.3548    455.66724    395.06988    28.615747    37946.351 
  137200    304.62705   -1415.4318    497.30902    453.01058   -19.375974    37946.351 
  137300    302.50559   -1469.8983    486.21538    377.90172    113.24536    37946.351 
  137400     305.8952     -1448.54    498.64169    426.94304    452.00179    37946.351 
  137500    301.16677   -1459.6328    479.48489     375.4107   -378.34384    37946.351 
  137600    295.91378   -1411.3139    491.97364    412.57449   -364.16506    37946.351 
  137700    291.60289   -1418.0731    505.95264    400.39093    -86.09528    37946.351 
  137800    305.26865   -1425.9646    485.50768    433.56436   -142.51834    37946.351 
  137900    306.27981   -1421.1346    478.73444    436.17235   -304.79266    37946.351 
  138000    306.34955   -1440.5312    483.14422    421.49938   -117.84456    37946.351 
  138100     300.0377   -1420.0041    495.02812    425.50063     441.6973    37946.351 
  138200    293.89398   -1410.6482    485.64903    397.82448    444.19414    37946.351 
  138300    306.84453   -1437.7887    482.86028     426.1859    543.93937    37946.351 
  138400    296.92197   -1400.3813    483.06075    419.13214    131.55917    37946.351 
  138500    295.75815   -1438.5602    459.37829    352.03237   -206.28273    37946.351 
  138600          297    -1469.798    473.67695     340.6828    15.805954    37946.351 
  138700    300.69599   -1435.7141    483.06533    400.79082   -108.88456    37946.351 
  138800    291.33446   -1487.4359    476.69329    300.56055   -13.768256    37946.351 
  138900    302.10693   -1448.0101    520.93942     432.7196    214.33532    37946.351 
  139000    307.80147   -1441.2118    464.68239    408.89215    687.49256    37946.351 
  139100    302.09891   -1467.7906    487.48549    379.44909   -180.65012    37946.351 
  139200     308.4341   -1430.9899    469.69337    426.97247    71.319959    37946.351 
  139300    297.68625   -1428.5357    470.06039     381.4174   -45.989746    37946.351 
  139400    297.56205   -1458.6952    489.69616    370.33463    611.12647    37946.351 
  139500    312.27552   -1442.3076    496.71723    459.96902    661.94184    37946.351 
  139600     305.3692   -1407.4222    483.85441    450.90602    237.57884    37946.351 
  139700    292.86304   -1467.8347    508.33021    358.67884    393.33292    37946.351 
  139800    294.02289   -1466.9215    475.24929    331.73161    352.58925    37946.351 
  139900    307.53786   -1463.1612     473.8556    394.92944   -190.34941    37946.351 
  140000    293.78293   -1457.0919    477.70263    342.93455   -282.06538    37946.351 
  140100    293.47722    -1437.407    469.14195    352.68271   -1041.1122    37946.351 
  140200    298.41786   -1420.8658    490.10671    412.42662     -592.894    37946.351 
  140300    300.95666   -1402.1507    497.36886    449.83107   -63.733027    37946.351 
  140400    311.14478   -1425.7728    495.11046    469.80748   -427.11562    37946.351 
  140500    301.06828   -1415.3649    494.97449     434.7249    308.38528    37946.351 
  140600    302.83463   -1381.5305    520.99715    502.53236    264.12573    37946.351 
  140700    304.18154    -1403.326    517.74361    483.54579   -322.91306    37946.351 
  140800    298.73652    -1391.465    476.37797    429.53299   -101.08371    37946.351 
  140900    306.26381   -1395.5709    508.31404    491.24363    348.17415    37946.351 
  141000    292.64218   -1446.8166    513.96753    384.34013     454.5164    37946.351 
  141100    303.18904   -1429.2826    490.98701    426.36533    75.299535    37946.351 
  141200    286.04429   -1412.2167     507.6399    382.91514      -27.705    37946.351 
  141300    296.40861   -1433.5097    505.60781    406.24014   -326.14899    37946.351 
  141400    307.07717   -1400.5577    490.44801    472.05175    73.668158    37946.351 
  141500    308.71892   -1439.8157    500.78371    450.51905    -476.7246    37946.351 
  141600    292.40203   -1401.9663    507.70557    421.84758   -703.88964    37946.351 
  141700    307.26298   -1404.1029    484.41619     463.3111   -317.09303    37946.351 
  141800    297.27442   -1424.2783    500.76848     414.5293    41.741264    37946.351 
  141900     299.0519   -1453.0908    484.43302    377.38178    -219.9807    37946.351 
  142000    290.53939   -1437.8917    491.06616    360.89896   -266.50809    37946.351 
  142100    294.35399   -1437.2919    466.12686    353.72912   -442.00358    37946.351 
  142200    293.18345   -1444.8502    494.39151    369.16679   -475.85528    37946.351 
  142300    300.19871   -1433.0868     490.9326    409.04714    -115.3034    37946.351 
  142400    299.11995   -1455.2654     498.8345     389.9149    637.32048    37946.351 
  142500    301.31663   -1438.7735    515.04887    432.50848    59.211417    37946.351 
  142600    307.06032     -1446.91    486.17884    421.35446    284.60634    37946.351 
  142700    296.36955   -1464.4779    464.74445    334.23277    346.96317    37946.351 
  142800    298.16332   -1437.4463    489.01338     393.6071    555.06026    37946.351 
  142900    309.18337   -1449.1378    486.51997    429.02373    582.98558    37946.351 
  143000     305.5229   -1437.5518    511.05207    448.66596     508.8514    37946.351 
  143100      304.169   -1448.1156    500.49929    421.45537    355.31016    37946.351 
  143200    303.11333   -1436.9646    482.93175    410.28726    296.11975    37946.351 
  143300    290.26096   -1427.4635    501.02785    380.03565     141.3719    37946.351 
  143400    294.00898   -1438.6067    488.10591    372.84044    214.35764    37946.351 
  143500    307.82555   -1458.6763    498.23625    425.08994    331.20748    37946.351 
  143600    310.04983   -1419.1182    500.07535    476.49864    239.89478    37946.351 
  143700    300.91407   -1356.9736    509.84017    507.28783    12.222609    37946.351 
  143800    304.60062   -1391.8157    488.86979    468.06855    122.09379    37946.351 
  143900    305.75703   -1441.6156    515.25356    449.85742   -1.5160604    37946.351 
  144000    311.94074     -1424.98    466.20682    445.27935    456.09597    37946.351 
  144100    290.08838    -1447.296    487.77688    346.17541    293.80264    37946.351 
  144200    293.79532    -1417.559    483.72683    388.54739   -363.56083    37946.351 
  144300    298.93392   -1442.7782    491.36569    394.09599   -709.06355    37946.351 
  144400    304.48205   -1413.5064    487.24258    444.21699   -351.60949    37946.351 
  144500    305.48426   -1422.9331    487.27089    439.32951   -1055.2875    37946.351 
  144600    301.38212   -1452.0591    494.68235    399.15117   -940.38824    37946.351 
  144700    290.79029   -1533.2572    491.75537      267.352    -924.1209    37946.351 
  144800    296.69901   -1489.4736    469.80099    315.77654   -213.59049    37946.351 
  144900    303.52445   -1459.4093    508.21283    414.97413   -234.03576    37946.351 
  145000    293.14046   -1469.0632    497.95679    348.32555    43.662628    37946.351 
  145100    290.66289   -1476.6197    508.38364     340.0443    15.466038    37946.351 
  145200    304.86905   -1457.0842     504.2539    419.39229   -83.735533    37946.351 
  145300     299.2902   -1492.3624    510.41472    365.16447     531.7784    37946.351 
  145400    301.88131   -1468.8606    500.38111    390.29532    53.561065    37946.351 
  145500    302.19925   -1517.6138    490.80206    333.39414    211.15668    37946.351 
  145600    298.58652   -1509.0698    492.67179    327.54686    122.93501    37946.351 
  145700    302.19326   -1466.4703     482.5704    376.27897    75.442811    37946.351 
  145800    297.85834   -1517.3336    490.64073    313.97437   -197.25054    37946.351 
  145900    306.44995   -1561.8506    477.92636    295.41406     -527.411    37946.351 
  146000    299.26956   -1533.7587    483.02348    296.28399   -382.92324    37946.351 
  146100    299.18237   -1536.5683    502.83956    312.89806   -359.41359    37946.351 
  146200    304.67736   -1576.6657    491.36686    286.06098   -51.629819    37946.351 
  146300     296.6381   -1572.9899    470.27361    232.45862   -195.54573    37946.351 
  146400    310.08561   -1527.7964    509.41368    377.31976   -158.21515    37946.351 
  146500    294.67355    -1477.413    499.94125    348.86071   -257.06668    37946.351 
  146600    303.48061   -1490.4131    512.57646    388.13658    183.53319    37946.351 
  146700    299.29331   -1493.0293    530.38942    384.48624   -195.34734    37946.351 
  146800    302.07716   -1531.8506    478.88685    306.69259   -25.160085    37946.351 
  146900    305.64211   -1518.1278    524.19408    381.76854   -337.36282    37946.351 
  147000    304.50946   -1545.8752    516.25046    340.97934   -97.251218    37946.351 
  147100     304.1067   -1543.3001    494.67304    320.16429    320.20753    37946.351 
  147200    299.12067   -1533.3707    483.95963    296.93804   -173.41992    37946.351 
  147300    292.66594   -1521.6633    486.99391    282.62675   -271.10201    37946.351 
  147400    303.84771   -1505.7556    477.24506    339.11503   -476.48016    37946.351 
  147500    291.99623   -1503.6135    497.22626    307.89459   -316.01087    37946.351 
  147600    296.42071   -1541.1751     483.2952    276.31656   -291.78319    37946.351 
  147700     303.0358   -1522.7658    482.66905     323.8744   -207.48799    37946.351 
  147800    298.29125   -1516.8063    483.02407    308.83361   -280.10009    37946.351 
  147900    306.53663   -1519.7673    491.42784    351.38898   -372.05009    37946.351 
  148000    292.31425   -1505.9921    494.05275    303.77381   -553.88727    37946.351 
  148100    297.69719   -1508.6997    508.85279    340.09501   -33.796219    37946.351 
  148200    303.80782   -1543.1163    504.04466    328.37435   -185.70759    37946.351 
  148300    306.84702   -1546.2461    496.13501    331.01445   -337.88902    37946.351 
  148400    294.57705   -1477.4876    488.58827    336.99884   -545.93618    37946.351 
  148500    294.88017   -1464.4523    510.91117    373.72139    -180.6788    37946.351 
  148600    299.81906   -1513.4548    488.02149    324.05929   -243.31216    37946.351 
  148700    290.80565   -1509.2209    518.49556    318.19769   -648.24413    37946.351 
  148800    307.89116   -1497.7736    520.32001    408.37163    -746.4687    37946.351 
  148900    295.33244   -1470.3082     478.5643    337.55427   -741.67029    37946.351 
  149000    294.56153   -1450.6072    520.21883    395.43986   -531.50271    37946.351 
  149100    297.32249   -1458.8635    486.13728    365.52916   -185.77995    37946.351 
  149200    304.82586   -1476.4129    492.30104    387.91642    -67.03539    37946.351 
  149300    294.26241   -1474.2818     515.8056    366.00569   -852.65541    37946.351 
  149400    299.41404   -1442.3204    498.14198    403.49111   -46.779378    37946.351 
  149500    293.51899   -1471.4077    505.55484    355.28291   -419.03891    37946.351 
  149600    296.51587   -1443.5843    503.95834    394.99887   -223.58701    37946.351 
  149700     309.0535   -1452.3526    497.25237    435.95674    329.05148    37946.351 
  149800    308.02077   -1429.5358    490.43193    447.30474    53.475198    37946.351 
  149900    293.34473   -1455.3086    482.89736    347.94016   -247.33466    37946.351 
  150000    308.53849   -1474.1224    500.65755    415.27401   -94.004725    37946.351 
  150100    307.55566   -1486.2107    495.43918    393.54361    -346.1033    37946.351 
  150200    297.49252   -1499.8647    488.40387    327.55986   -894.91478    37946.351 
  150300    296.90971   -1481.5483    511.92071    366.76995   -1249.1912    37946.351 
  150400    296.84273    -1462.782    484.19044    357.50441   -760.53429    37946.351 
  150500    311.07191   -1433.6483    485.75798    452.25151   -876.35766    37946.351 
  150600    301.51871    -1512.065    493.30863    338.38631   -379.15991    37946.351 
  150700    292.04672   -1491.6674    487.76659    310.60826    199.92538    37946.351 
  150800    299.53238   -1471.9809    509.12483    385.34617    162.38143    37946.351 
  150900     305.7409   -1501.1942    523.57917    398.53178    95.618048    37946.351 
  151000    294.66653   -1478.5086     473.9654    321.75772   -14.199855    37946.351 
  151100    301.13898   -1480.1617    499.81096    375.08275    339.18547    37946.351 
  151200    295.96021   -1466.5252    481.00256    346.60107     168.3773    37946.351 
  151300    299.53901   -1520.2161    499.77102    327.78691    463.25509    37946.351 
  151400    307.61358   -1503.5776    489.96889    370.96713    296.77669    37946.351 
  151500    307.50917   -1468.8889    527.90141    443.11841    611.88809    37946.351 
  151600    293.97833   -1452.2096     502.4375     373.4312   -85.889899    37946.351 
  151700    314.75237   -1452.1069     522.3871     486.9879   -50.446009    37946.351 
  151800    294.54575   -1470.4565    494.18281    349.48358   -381.15381    37946.351 
  151900     308.6431   -1447.6414    495.85963    437.42793    -100.0862    37946.351 
  152000    301.38135    -1460.424    508.90306    405.00351   -283.04346    37946.351 
  152100    303.94624   -1520.5187    496.05735    343.60779   -605.47136    37946.351 
  152200    293.51786   -1529.5153     497.5217    289.13708   -337.45391    37946.351 
  152300    296.70017   -1505.2656    488.74341    318.93214   -151.38583    37946.351 
  152400    291.53525   -1508.2919    493.31917    297.23418   -131.52026    37946.351 
  152500     300.9066   -1551.3251    471.05716    274.11963    274.47081    37946.351 
  152600    301.64534   -1507.8108    493.38114    343.28301    291.49363    37946.351 
  152700    306.37914   -1482.8273    524.36558    420.55792    92.494025    37946.351 
  152800    297.51312   -1498.6065    476.27419    316.78119    449.67558    37946.351 
  152900    291.12847   -1531.5379     460.4096     239.2477   -19.866159    37946.351 
  153000    292.63542   -1494.5675    499.21472    321.80605     43.69071    37946.351 
  153100    306.01095   -1455.5444    466.06251    387.88044   -63.827062    37946.351 
  153200    294.94647   -1492.6821    499.66144    334.54018   -421.85517    37946.351 
  153300    297.75474   -1481.7193    492.35553    350.83717   -651.63678    37946.351 
  153400    298.75006   -1509.0544    502.46961    338.09621    26.805002    37946.351 
  153500     289.9885   -1498.2552    495.03955    302.02927    485.23986    37946.351 
  153600    296.19867   -1512.3585    494.61202    315.45065     142.9362    37946.351 
  153700    304.71844   -1517.9382    510.38787    363.99448    217.52826    37946.351 
  153800    305.38627    -1490.158    524.28456    408.67722    612.19125    37946.351 
  153900     301.2992   -1499.4028    494.99082    351.74265    37.986594    37946.351 
  154000     291.5931   -1482.3872    509.03297    339.11309    696.84345    37946.351 
  154100    310.36993    -1498.919    490.66455    388.72775    841.07229    37946.351 
  154200    304.03408   -1497.0169    498.31917    369.76668    992.64343    37946.351 
  154300    300.94191   -1464.5237    533.25241    423.27526    715.98464    37946.351 
  154400    294.89589   -1488.1934    468.00226    307.14207     492.2872    37946.351 
  154500    297.42537   -1509.0224    530.34309    360.03916   -53.797179    37946.351 
  154600     302.4228    -1497.167    476.21014    340.25514    369.35685    37946.351 
  154700    301.24633    -1540.267    487.54275    303.19243    107.16399    37946.351 
  154800    292.48457   -1489.3017    482.11276    309.29087    358.33562    37946.351 
  154900    308.17089   -1491.9938    507.55478    402.64525    416.42488    37946.351 
  155000    304.57049   -1472.9559    512.71414    410.63706    17.510621    37946.351 
  155100    305.51168   -1461.4819    502.68793    416.32114    106.61886    37946.351 
  155200     293.3046   -1500.3724    502.37912    322.17754    411.71809    37946.351 
  155300    298.61341   -1489.7746    513.20074      367.492    255.55517    37946.351 
  155400    297.01759   -1504.0293    505.46491    338.31871   -403.78168    37946.351 
  155500    294.83316   -1527.9538    481.35104    280.44813   -427.64907    37946.351 
  155600    302.42691   -1473.8662    485.20246    372.56677    -120.8037    37946.351 
  155700    297.65582   -1517.8966     492.6737    314.53282   -183.57789    37946.351 
  155800     304.7712    -1467.491    474.72934    379.02059   -107.56662    37946.351 
  155900    294.87609   -1520.5331     499.0228    305.73377   -328.29855    37946.351 
  156000    299.62839     -1512.25    485.65498    322.03933    194.51138    37946.351 
  156100    293.56797   -1440.7814    509.57745    390.15222    77.933758    37946.351 
  156200    300.87852   -1476.5223    513.34668    391.08559     456.3289    37946.351 
  156300    306.75005    -1517.439    484.63737    347.88745    763.60549    37946.351 
  156400    300.39874   -1482.6392    498.00473    367.46726    337.43709    37946.351 
  156500     299.3306   -1466.7265    512.64019     393.2076    146.40981    37946.351 
  156600    302.28339   -1437.1833    503.94575    427.34703    287.60834    37946.351 
  156700    305.37715   -1465.3012     512.4171    421.62552   -110.96395    37946.351 
  156800    303.08351   -1468.9165    462.46159    357.73099    104.53741    37946.351 
  156900    302.51966   -1472.0038    505.81289    395.45712    503.39826    37946.351 
  157000    298.30992   -1490.5677      476.376    328.50818    78.037469    37946.351 
  157100     302.5695    -1476.965     492.0461    376.95337    497.96663    37946.351 
  157200    287.47491   -1498.0188    513.18778    309.10022     234.6263    37946.351 
  157300    305.28943   -1478.9372    474.05556    369.23314    310.32813    37946.351 
  157400    294.79227   -1504.7264    490.51287    312.65334    340.32198    37946.351 
  157500    302.53982    -1429.601    498.31425      430.452    49.947161    37946.351 
  157600    300.35448   -1478.9017    503.51483    376.51555    279.44344    37946.351 
  157700    293.89286   -1459.7496    511.61947    374.68842    310.38684    37946.351 
  157800    295.66054   -1468.0201    502.73117    365.48599     23.97189    37946.351 
  157900    297.23222   -1456.7247     497.1738    378.29818    421.14232    37946.351 
  158000    295.85091   -1439.2008    526.07118    418.50214    579.76979    37946.351 
  158100    298.31871   -1432.2724    483.93518    394.40225    114.01771    37946.351 
  158200    303.04498   -1436.0567    497.66309    425.61886   -411.78187    37946.351 
  158300    306.54761    -1445.123    475.02326     409.6782   -200.47692    37946.351 
  158400    304.64839   -1447.8802    489.56754    412.91678    80.458477    37946.351 
  158500    300.50974   -1431.1536    510.18833      431.636     257.1597    37946.351 
  158600    304.91665   -1439.2737    512.63392    445.79717    308.26722    37946.351 
  158700     299.5285   -1455.1407    479.70397    372.74801    599.87679    37946.351 
  158800    295.43597    -1475.119    526.36379    381.00892    649.12151    37946.351 
  158900    296.69261   -1463.0302    510.51037    382.90051    414.42054    37946.351 
  159000     298.9203   -1478.3439    499.87095    366.97423    398.02049    37946.351 
  159100    290.37122   -1466.1771    497.04439    337.83488   -42.587551    37946.351 
  159200    294.17574   -1491.0642    482.07889    315.10646   -246.44371    37946.351 
  159300    304.80449   -1481.3968    495.06031    385.59558   -66.340514    37946.351 
  159400     295.5785   -1414.3616     498.9797    415.02379   -286.37146    37946.351 
  159500    303.32655   -1410.8472     494.8131    449.24575   -102.40819    37946.351 
  159600    302.53151   -1461.7654    509.41951    409.35544   -194.62577    37946.351 
  159700     298.5196   -1430.0556    498.40971    411.99769    410.99597    37946.351 
  159800    301.51305    -1433.638    478.27617    401.75542   -154.48675    37946.351 
  159900    303.53459   -1410.5116    481.30117    437.00578   -117.66284    37946.351 
  160000    301.83804   -1426.0071    505.55117    438.12406    260.40464    37946.351 
  160100    290.53288   -1452.8687    469.46766    324.29412     450.9318    37946.351 
  160200    309.35265   -1457.3585     507.6649    442.70988     463.7838    37946.351 
  160300    297.94505    -1489.287    496.64448    348.41505     39.70378    37946.351 
  160400    297.22989   -1495.2424    483.26401    325.86025    729.12876    37946.351 
  160500    309.55907   -1506.2135    481.06479    368.18383    348.72243    37946.351 
  160600    300.25375   -1470.3792    525.12327    406.19312   -128.88829    37946.351 
  160700    297.25246   -1472.2777    510.32553    375.98801    67.292006    37946.351 
  160800    306.74811   -1485.9185    512.72502    407.48683   -39.576368    37946.351 
  160900      308.027   -1466.0644    503.50141    423.87366    154.02293    37946.351 
  161000    299.51047   -1440.4012    485.86905    393.57145   -453.60619    37946.351 
  161100    300.63056   -1496.3694    471.86431    328.64002   -46.423855    37946.351 
  161200    308.63245   -1561.0396    505.86201    333.98419   -82.584568    37946.351 
  161300    302.14383     -1529.89    489.50507    319.57142    312.79801    37946.351 
  161400     295.4342   -1496.5946     478.6375    311.79912    235.98559    37946.351 
  161500    295.34628   -1487.1768    493.90421    336.08789    175.49226    37946.351 
  161600    292.39546   -1472.8442    482.29269    325.52727    452.18882    37946.351 
  161700    309.07296   -1484.1021    523.78439    430.82683     688.1428    37946.351 
  161800    295.12516   -1473.6682     511.2499    365.94687    1001.3604    37946.351 
  161900    296.82173   -1505.7408    494.49281    324.75351    554.71989    37946.351 
  162000     302.0714   -1516.7223    484.70824     327.6163    262.51109    37946.351 
  162100    298.01139    -1518.004    482.92555    306.27775     316.2839    37946.351 
  162200    304.21251   -1502.8864    500.93182    367.31298    -155.0328    37946.351 
  162300    304.97795   -1505.5869     520.2502    387.37614   -24.527245    37946.351 
  162400    294.05228   -1467.1288    502.28264    358.68997    -214.1162    37946.351 
  162500    300.98471    -1457.707    492.94364    389.97575   -379.99787    37946.351 
  162600    291.47287   -1466.5247    507.60169    353.00314   -165.85936    37946.351 
  162700    297.08759   -1494.9205    507.97958    350.25719   -404.13881    37946.351 
  162800    293.44443   -1463.9112    511.61226    368.50128    -305.9967    37946.351 
  162900    296.99466   -1484.4843    511.81283    364.10835    80.422403    37946.351 
  163000     296.5957   -1519.5909    499.10484    314.49804    529.21136    37946.351 
  163100    305.99255   -1517.4324    489.86272    349.70989   -214.53712    37946.351 
  163200    303.28148   -1454.2488    493.40016     404.2283    143.62378    37946.351 
  163300    304.48231   -1500.6691    496.07944    365.89228   -565.41527    37946.351 
  163400    305.03588   -1489.2358    487.61421      371.352   -134.84352    37946.351 
  163500    291.30277   -1484.0217    486.63669    313.77555   -782.93927    37946.351 
  163600    301.93724   -1504.7091    478.24331    332.56076   -931.32127    37946.351 
  163700    297.77776   -1486.9862    499.86075     353.1792   -1168.1819    37946.351 
  163800     301.8238   -1544.4713    485.64739    299.69204   -299.56656    37946.351 
  163900    299.10951   -1514.9477    489.85641     321.2075    33.714718    37946.351 
  164000    296.95095   -1508.4492    514.85328    342.98716   -53.407365    37946.351 
  164100    302.47579   -1513.9666    507.57337    355.05736    -5.691659    37946.351 
  164200    305.72491   -1457.4403    526.37266    445.00728    145.61381    37946.351 
  164300    298.84742   -1532.0802    498.73132     311.7703   -32.745963    37946.351 
  164400    292.42355   -1526.8059    499.63949    289.03878   -627.65141    37946.351 
  164500    308.33394   -1481.8607    485.89693     391.8544    -474.2615    37946.351 
  164600    307.89585   -1488.1214     478.9706    376.69562   -1118.6866    37946.351 
  164700    307.21871   -1493.1645    467.62742    357.26149   -733.85258    37946.351 
  164800    292.56112     -1493.39    484.55036    307.98476   -570.39587    37946.351 
  164900    295.77985   -1518.2224    506.93833    320.02793   -126.54259    37946.351 
  165000    292.10484   -1536.5792     492.7884    270.97988    9.6640677    37946.351 
  165100    301.46411   -1488.0589    480.88547    349.72355   -12.737206    37946.351 
  165200    298.80913   -1486.4254    510.68064     369.2021    117.58217    37946.351 
  165300    306.75737    -1471.719    496.02576    405.02879    4.9743548    37946.351 
  165400     309.8654   -1465.8078    484.73337    413.63689   -10.397581    37946.351 
  165500    300.20267   -1466.5796    512.57688    397.21643    163.06696    37946.351 
  165600    293.48578   -1499.5922    506.31783     327.7119    140.19881    37946.351 
  165700    306.37671   -1546.4958    501.34863     333.8615    302.97646    37946.351 
  165800    296.51358   -1510.5101    497.80872    321.91315    219.35429    37946.351 
  165900    307.07715   -1566.8475    494.38242    309.69632   -289.89433    37946.351 
  166000    300.27599   -1544.1424    492.09233    299.49909   -3.4181496    37946.351 
  166100    287.85585    -1528.305    501.88593    269.22683    -235.8638    37946.351 
  166200    304.75823   -1507.5282    483.45042    347.64605    283.63821    37946.351 
  166300    285.80796   -1514.8863    532.84637    304.38827   -55.486569    37946.351 
  166400    305.04442   -1468.9952    507.73928    411.75612    642.15583    37946.351 
  166500    304.39429    -1469.143    510.53543    411.47818    887.09894    37946.351 
  166600    304.44585   -1502.3556    514.36929    382.33154    549.48288    37946.351 
  166700    302.62126   -1517.6409    515.51835    359.98278    569.08911    37946.351 
  166800     309.9668   -1513.4986    475.69532    357.36448    362.89972    37946.351 
  166900     299.9327    -1522.597    492.35325    319.76029    148.80725    37946.351 
  167000      300.462    -1519.927    492.39865    324.85808      326.028    37946.351 
  167100    301.94059   -1470.6078    510.41535    398.84918   -94.608276    37946.351 
  167200    304.72806   -1522.7102    474.61248    323.49034    284.40317    37946.351 
  167300    292.02282   -1507.4863    497.71734    304.63247   -550.31581    37946.351 
  167400    309.82812   -1505.9271    503.07859    391.69506   -1003.5875    37946.351 
  167500    290.91397   -1523.3231     483.0827    269.17013   -1052.1233    37946.351 
  167600    302.03899   -1495.1065    491.18438    355.56235   -445.58928    37946.351 
  167700    300.18442   -1521.1689    471.43935    301.40749   -135.83877    37946.351 
  167800    300.83258   -1503.9137    477.06658    327.20727   -773.20026    37946.351 
  167900    295.12054   -1518.4434    487.83408    297.73511   -51.986291    37946.351 
  168000    300.42703   -1489.2592    476.63884    339.60866    456.24129    37946.351 
  168100    289.32276    -1462.867    481.16581    320.54729    252.93162    37946.351 
  168200     301.6025   -1434.1412    485.52908    408.90772    380.55149    37946.351 
  168300    301.93556   -1444.0896     498.7474    413.67673   -231.51365    37946.351 
  168400    307.36677   -1451.0703    479.43095    411.82565   -673.10417    37946.351 
  168500    301.30511    -1444.603    506.95263    418.53095   -488.28728    37946.351 
  168600     289.6462   -1437.7091    487.39524    353.39042   -95.250956    37946.351 
  168700    308.80441   -1410.9782    501.61939    480.57702   -16.441938    37946.351 
  168800    303.56961   -1412.4705    481.96156    435.86495    274.74498    37946.351 
  168900    296.24575   -1439.8747    512.44443    405.97871    17.397125    37946.351 
  169000    302.32907    -1433.602    518.36776    445.55588    1067.0267    37946.351 
  169100    304.00184   -1453.3091    476.60304    391.61332    321.47441    37946.351 
  169200    302.22064   -1440.4109    507.19782    427.08904    246.82589    37946.351 
  169300    296.47979   -1448.3249    505.54759    391.68506   -97.925249    37946.351 
  169400    295.40905   -1490.1195    494.70974    334.23322    -249.2509    37946.351 
  169500    298.90066   -1442.7248     489.8083    392.44229   -380.20867    37946.351 
  169600    300.37356   -1430.2804    508.40003      430.108   -247.56272    37946.351 
  169700    299.07956   -1440.2907    514.01528    419.88855   -59.266559    37946.351 
  169800    292.40409   -1483.1017    485.54181    318.55767   -73.785063    37946.351 
  169900    296.17271   -1474.0036    491.54352    350.62019    157.73774    37946.351 
  170000    298.65609     -1440.25    515.21354    419.22156    116.00426    37946.351 
  170100    293.97355   -1426.3549    529.63767    426.46452     605.8226    37946.351 
  170200    301.97748   -1465.2753    491.40484    385.33716    -329.4094    37946.351 
  170300    295.83312   -1443.7271    492.48149    380.30612   -114.40334    37946.351 
  170400    306.97566   -1448.2936    481.08457    414.49549    349.22288    37946.351 
  170500    301.71712   -1445.8346    532.06265    444.26383    297.64602    37946.351 
  170600    300.30029   -1433.8847    519.80303    437.57689    544.19867    37946.351 
  170700    309.85166   -1473.1808    512.94138    434.41007     258.5307    37946.351 
  170800    304.11805   -1444.5316    506.22382    430.53458    268.64698    37946.351 
  170900    293.95197   -1459.1975    510.30294    374.19008    156.20497    37946.351 
  171000    301.84334   -1464.2636    502.24298    396.58325    204.63996    37946.351 
  171100    300.99429   -1477.8657    497.65167    374.56827    145.79449    37946.351 
  171200    300.32832   -1482.7723    502.12536    371.13781    304.32398    37946.351 
  171300    287.39815   -1423.9843    496.49809    366.09946   -289.94228    37946.351 
  171400    301.21267   -1458.6469    521.25107    418.36943   -216.42458    37946.351 
  171500    300.08332   -1500.3773    502.47972    352.78442   -248.23893    37946.351 
  171600    291.78321   -1477.5512    512.29844     348.0702   -508.80705    37946.351 
  171700    312.13392   -1483.8625    498.68574    419.74529   -264.61196    37946.351 
  171800    308.75101   -1480.9329    500.93121     409.6938   -106.14989    37946.351 
  171900    308.04065   -1480.6377    494.86675    400.72715    69.426179    37946.351 
  172000    300.50385   -1453.1335    507.98771    407.42895    373.16579    37946.351 
  172100     298.3612   -1442.4075    509.54135    410.06453    243.82786    37946.351 
  172200    301.71486   -1463.0337    494.58425    389.57615    237.01875    37946.351 
  172300    303.43505   -1466.3069    509.98837    409.44967    473.02593    37946.351 
  172400     291.4752   -1469.1838    496.16311    338.91595    767.23718    37946.351 
  172500     300.5494   -1462.9225    490.25688    380.11421    323.25642    37946.351 
  172600    304.90029   -1521.2323    491.13928    342.27027    707.63223    37946.351 
  172700    297.99613   -1493.2575    475.28063    323.31067    518.80543    37946.351 
  172800    294.96193   -1476.1027    484.87394     336.4017    614.46402    37946.351 
  172900    291.03735   -1507.5973    489.58932    291.95791    179.97062    37946.351 
  173000    305.69058   -1497.0357    505.82751    384.71217     150.2604    37946.351 
  173100    303.81429    -1490.511    511.05233    388.01648    964.50373    37946.351 
  173200    301.30662   -1445.9512    473.46573    383.70265    770.72514    37946.351 
  173300    307.34784    -1423.272    530.30727      490.415    433.46143    37946.351 
  173400     304.2132    -1456.477    480.35416    393.14777   -106.00625    37946.351 
  173500    295.58332   -1472.8531    483.66195    341.23621   -423.64804    37946.351 
  173600    295.43714   -1458.4733    467.68387    338.97996   -127.88798    37946.351 
  173700    295.69404   -1462.0087    463.98321    332.90026    194.68506    37946.351 
  173800    298.25938    -1430.451     488.4622    400.48362   -241.73942    37946.351 
  173900    305.78522   -1452.9165     463.6394    387.06926    -140.1297    37946.351 
  174000     299.3154   -1419.7751    477.92477    405.37525   -95.923777    37946.351 
  174100    304.59496   -1418.4441    498.85661    451.40153    170.89181    37946.351 
  174200    299.79386   -1461.7499    483.32856    370.95773    12.706758    37946.351 
  174300    302.51975   -1425.4872    495.21215    431.37335   -201.87111    37946.351 
  174400    299.45287   -1433.4329    531.50534     445.9168    255.03199    37946.351 
  174500    303.54278   -1433.5925    494.55651     427.2171    318.49643    37946.351 
  174600      303.464   -1412.3494    486.28752    439.83657     887.4339    37946.351 
  174700    295.08384   -1446.9021    495.21734    376.49448    72.273826    37946.351 
  174800    303.71047   -1460.1752    486.73808    393.57072    321.45222    37946.351 
  174900    306.91697   -1458.7605    486.01131    408.69119   -12.385402    37946.351 
  175000    293.56064   -1433.8086    488.08204    375.59666    76.093361    37946.351 
  175100    291.10823   -1447.6233    488.00791    350.66953    187.35195    37946.351 
  175200    307.21723   -1442.6924    499.61397    439.71342    50.542936    37946.351 
  175300    303.05385     -1485.94    484.03785    362.15028   -723.58081    37946.351 
  175400    302.40336   -1503.0964    476.34292    334.37108   -349.48609    37946.351 
  175500    297.75363   -1495.0678    467.64066    312.76887   -616.28905    37946.351 
  175600    306.60346    -1479.041    520.11733    421.10563   -635.72609    37946.351 
  175700    291.71095   -1498.0073    455.23216    270.22256   -48.960803    37946.351 
  175800    289.69375    -1510.372    491.14915    284.69542    -238.9766    37946.351 
  175900    318.02067   -1561.7014    497.98751    367.70449    257.57625    37946.351 
  176000    305.54258   -1548.3254    476.47887    303.40769    248.13665    37946.351 
  176100    283.21778   -1497.1483    464.65439    242.27587   -191.21422    37946.351 
  176200     305.5614   -1519.4043     488.5118    344.44644   -81.748051    37946.351 
  176300    301.21243   -1495.0932    482.35448    343.02542   -208.54979    37946.351 
  176400    292.23063   -1492.3139    465.89229    288.91522    -342.0791    37946.351 
  176500    301.33872   -1522.3183     489.0092    323.02346   -539.74998    37946.351 
  176600     302.0875   -1488.4655    481.28409    352.52143   -235.32186    37946.351 
  176700    295.50747   -1500.5992    505.07984    334.56662   -44.211631    37946.351 
  176800    297.44013     -1501.89     487.4816    324.37654   -236.91305    37946.351 
  176900    307.69979   -1442.4001    501.18066    443.74447   -639.53318    37946.351 
  177000    295.13032   -1463.1049    513.48444     378.7679   -473.30228    37946.351 
  177100    306.76172   -1481.9223    503.24153    402.06089   -533.74805    37946.351 
  177200    302.23099   -1490.6081    514.77504    384.51562   -154.74789    37946.351 
  177300    300.00869   -1481.6178    502.20678    370.93505     276.7538    37946.351 
  177400    306.81081   -1474.1925     497.9052    404.67533    191.51339    37946.351 
  177500    285.70285   -1511.7583    500.50545    274.70234   -247.01942    37946.351 
  177600    303.12724   -1513.4441    484.47117    335.40981   -105.81487    37946.351 
  177700    303.36033   -1501.0144    488.51504    352.93246    452.95066    37946.351 
  177800     302.5733   -1522.6002    498.92959    338.21886    275.40388    37946.351 
  177900    309.22119   -1468.0837     518.8108    442.53883    92.584885    37946.351 
  178000    313.02942   -1472.2004    494.97494    431.72719    260.93477    37946.351 
  178100    295.25934   -1470.0518    497.79769    356.71499    549.31096    37946.351 
  178200    303.31846   -1454.7269    480.20367    390.72022    655.74164    37946.351 
  178300    297.73302   -1489.6317     509.3893    359.86085    393.16991    37946.351 
  178400    294.44254   -1457.6305    523.21012    390.87235    742.81468    37946.351 
  178500    293.77342    -1463.049    495.97069    355.20266    545.85352    37946.351 
  178600    305.26572   -1434.2678    532.15335    471.89364    533.71466    37946.351 
  178700    301.31148   -1452.1817    492.76383    396.79213    223.58603    37946.351 
  178800    300.94569    -1446.049    481.84938    390.36388    140.63217    37946.351 
  178900    299.65783   -1437.4036      480.646    392.00926   -59.109095    37946.351 
  179000    314.89311   -1497.8317    485.80955    405.31908   -45.185018    37946.351 
  179100    304.92578   -1449.2928    516.32792    439.51316   -24.461086    37946.351 
  179200    303.61699   -1477.8817    491.95401    380.65943    37.085914    37946.351 
  179300    304.01926   -1493.5356    491.52095    366.38312   -38.869186    37946.351 
  179400    294.10908   -1488.0228    507.95302      343.722    263.82839    37946.351 
  179500    304.89839   -1496.9931    502.45925    377.82086    114.62997    37946.351 
  179600    299.19897   -1497.9265    474.10206      322.877    127.98609    37946.351 
  179700    299.38865   -1513.1716    496.22975    330.61338   -28.639023    37946.351 
  179800    302.70535    -1526.757    509.32939    345.05619   -356.94282    37946.351 
  179900     291.0817   -1511.4502    482.14106    280.85635   -250.22284    37946.351 
  180000    299.73905    -1484.032    480.73682    345.83727   -468.09656    37946.351 
  180100    302.29655   -1491.7702    491.34313    360.21672   -957.51671    37946.351 
  180200    299.12327   -1485.8357    500.68569    361.21072   -828.91344    37946.351 
  180300    300.64385   -1459.6368     503.0011    396.56927   -297.89295    37946.351 
  180400    315.80032   -1501.0771    497.38146    417.72885   -257.35628    37946.351 
  180500    299.00306   -1528.2914    498.11925    315.64754    -153.4477    37946.351 
  180600    302.34388   -1524.7806    496.91041    332.98664    372.72338    37946.351 
  180700    291.00001   -1532.9685    496.97288    273.80214    288.64975    37946.351 
  180800    310.04188   -1529.0004    494.22591    360.73119    293.62628    37946.351 
  180900     300.7472   -1562.3231    489.75599    281.10301    690.07971    37946.351 
  181000    309.64748   -1536.7195    515.07249    372.08344    845.42383    37946.351 
  181100      296.389   -1532.0386    478.92117    280.93633    790.68234    37946.351 
  181200     303.1866   -1509.3753    482.03334    337.30797    214.46916    37946.351 
  181300    304.26257   -1491.4987    494.13749    372.13166   -76.193168    37946.351 
  181400    300.61099   -1523.3952    455.92368    285.58557    497.89796    37946.351 
  181500     297.8571   -1493.5737    490.66448    337.75248    823.82127    37946.351 
  181600    294.13482   -1512.1416    496.30461    308.07063    92.613811    37946.351 
  181700    304.16174   -1492.3384    503.09222    379.79283   -329.98021    37946.351 
  181800    296.18215   -1481.6538    484.11609    335.58499    -542.9978    37946.351 
  181900    295.83453   -1493.2881    487.20338    325.47336    438.04389    37946.351 
  182000     296.2218   -1486.4068    490.51581    337.41017    249.17696    37946.351 
  182100    304.53782   -1461.8896    502.12387     410.9661   -147.18265    37946.351 
  182200    295.00883   -1445.7904    481.01971     363.0709    26.398452    37946.351 
  182300    297.90805   -1423.3598    487.95699    405.48824   -709.20709    37946.351 
  182400     298.9448   -1443.6307    496.58885    398.51563   -540.83811    37946.351 
  182500     302.3464   -1503.8331    519.46827     376.5033   -367.79353    37946.351 
  182600    304.83611   -1459.4839    480.14469    392.73522   -207.87256    37946.351 
  182700    292.03541   -1491.5049    496.82691     319.7802   -25.412602    37946.351 
  182800    307.60735   -1488.6583    514.24486    410.13437     301.4653    37946.351 
  182900    303.52414   -1509.5711    470.13139    326.72948    645.56685    37946.351 
  183000    292.10313   -1521.1319    473.28183     266.9129   -383.16151    37946.351 
  183100    306.54944   -1499.1658    494.09157    374.71194    194.29762    37946.351 
  183200    300.96754   -1484.9983    461.40406     331.0676    153.21215    37946.351 
  183300    300.88418   -1490.6857    483.60151    347.20249     71.84856    37946.351 
  183400    307.15876   -1470.0563    499.74246    412.21492    110.87274    37946.351 
  183500    292.54789   -1485.3604    492.74859    324.15305     97.74963    37946.351 
  183600    298.88814   -1450.7035    519.97296    414.57186    262.06888    37946.351 
  183700    306.83709   -1455.5975    517.49565    442.97901    655.19971    37946.351 
  183800       316.94    -1458.464     497.3895    465.47978    337.92457    37946.351 
  183900    293.40019   -1451.2771    505.76313    375.08708     34.33868    37946.351 
  184000     296.4347   -1468.7527    507.80564    373.31241    55.779343    37946.351 
  184100    290.22639   -1494.9914    480.32918    291.65352    88.809418    37946.351 
  184200    300.70888   -1453.2165    484.92051     385.2017   -390.40365    37946.351 
  184300    306.30353   -1447.3275    502.54917    433.90099   -313.77331    37946.351 
  184400     305.2748   -1446.9173    478.04511    405.17682    204.44864    37946.351 
  184500    297.98762   -1454.6034    484.14429    370.79006    966.89222    37946.351 
  184600    311.79393   -1486.7847    505.76703      422.374    332.83136    37946.351 
  184700    292.96812   -1508.8411     503.3381    313.15327    378.89705    37946.351 
  184800    304.23389   -1524.6449    478.48467    323.20352    56.090679    37946.351 
  184900    300.27997   -1507.9284    502.89505    346.53371   -666.75688    37946.351 
  185000    295.50227   -1496.0086    471.59415    305.64813   -21.104543    37946.351 
  185100    306.18859   -1487.8267    511.49353    401.82874    -197.1122    37946.351 
  185200    307.04634   -1473.7292    489.36527    397.65882   -33.892629    37946.351 
  185300    311.30013   -1489.8196    503.72634    415.07582    506.59541    37946.351 
  185400    292.56272   -1468.3648    489.69236     338.1592   -118.38662    37946.351 
  185500    293.96649   -1463.9011    474.08249    333.33135   -32.251026    37946.351 
  185600    300.43007     -1407.08    489.86838    435.03108    186.08293    37946.351 
  185700    291.78538   -1412.4746    499.87811    400.73626   -47.393578    37946.351 
  185800    303.43041   -1400.6226    479.79214    444.91683    -71.04524    37946.351 
  185900    296.52017   -1347.8272    518.02998    504.84691   -621.55182    37946.351 
  186000    296.42471   -1401.6798    483.44468    415.97938   -530.71179    37946.351 
  186100    296.95704   -1401.5503    526.72511    461.78531    138.00934    37946.351 
  186200       301.52   -1449.9452    484.59523    391.79855   -252.31278    37946.351 
  186300    296.88847    -1440.261    510.63448    406.67538   -98.520958    37946.351 
  186400    301.48426   -1436.6092    478.52484    398.90332   -769.93808    37946.351 
  186500    294.14681    -1422.734    473.89994    375.12752   -102.98735    37946.351 
  186600    299.91998   -1431.6639    504.29204    422.57492   -430.85534    37946.351 
  186700    307.18537   -1465.2748    482.38651    399.76019    -154.1552    37946.351 
  186800    308.58941   -1473.9764    495.51674    410.50846   -142.11815    37946.351 
  186900    291.99274   -1493.0808    473.59999    294.78533   -46.542263    37946.351 
  187000     308.7324   -1521.6797    474.99358    342.92558     139.1677    37946.351 
  187100    301.65494   -1506.5835    500.32139     351.4938    678.05735    37946.351 
  187200    302.25887   -1501.5669    487.15325    346.06054    768.28988    37946.351 
  187300    304.69088   -1444.2188    487.50538    414.70727    673.53427    37946.351 
  187400    311.47316   -1459.5494    480.29027    422.68875    409.60786    37946.351 
  187500    305.51871   -1452.8456    487.14469    409.44594     351.7527    37946.351 
  187600    294.88571   -1482.1929    503.43725    348.53177    352.25695    37946.351 
  187700    298.09804   -1450.0009    474.58897    366.33429   -37.435623    37946.351 
  187800    309.89362   -1442.1119    474.27773    427.00422   -202.87999    37946.351 
  187900    313.13398   -1437.7561    495.05969    466.72685      20.7905    37946.351 
  188000    290.45826   -1455.8709    474.03906    325.52759   -799.63163    37946.351 
  188100    292.91644    -1449.832    501.45162    370.04335   -163.80931    37946.351 
  188200    302.95619   -1460.9846    476.11519    378.74347   -127.19163    37946.351 
  188300    302.15361   -1452.4827    516.38855     423.9063    635.49682    37946.351 
  188400    300.69015     -1485.71    495.35994    363.06327    285.19483    37946.351 
  188500    300.60079   -1493.0706    492.79611    352.73662    89.554734    37946.351 
  188600    299.53898   -1439.6622    491.37616    399.94582    74.136459    37946.351 
  188700    313.65238   -1430.6091    513.24013    494.38763    550.44443    37946.351 
  188800    300.47834   -1421.0178    473.51079    404.95297   -114.48885    37946.351 
  188900    303.45106    -1403.896    537.28239    499.22666    446.40428    37946.351 
  189000    289.26137   -1460.8772    498.72391    339.81881    33.994879    37946.351 
  189100    300.94515   -1440.5894    525.26575    439.23742    294.34297    37946.351 
  189200    300.46699     -1438.35    488.43898    402.49789    77.142135    37946.351 
  189300    291.37624   -1459.7328    489.81869    341.57707   -431.70133    37946.351 
  189400    301.95119   -1468.8325    473.52311    363.77993    463.05826    37946.351 
  189500    315.93679   -1475.1782    464.34812    411.20872    732.81153    37946.351 
  189600    311.70713   -1449.1372    480.62519    434.48896    133.82736    37946.351 
  189700    299.85711   -1470.0816    491.44175    371.02392   -393.11205    37946.351 
  189800    291.29502    -1444.413     493.8269    360.53958     40.38673    37946.351 
  189900    295.13585   -1468.3704    493.56755    353.61039    114.39275    37946.351 
  190000    309.38146   -1486.7571    481.37143    387.14743    25.552971    37946.351 
  190100    294.78343   -1481.5979    519.37921    364.60838   -58.973733    37946.351 
  190200    291.58491   -1471.1252    506.62517    347.93039   -164.70688    37946.351 
  190300    298.13095   -1497.3302    506.89577    351.45989   -9.0145581    37946.351 
  190400    299.29409   -1466.5092    493.77572    374.39615    -65.33748    37946.351 
  190500    304.97342   -1478.8368    487.79942    381.65503    193.79627    37946.351 
  190600    300.21173   -1491.6458    514.91584    374.53004    446.18721    37946.351 
  190700    294.89007   -1469.9839    479.17738    336.50048    46.001692    37946.351 
  190800    294.74281   -1555.8397    479.46361    250.26808    310.37985    37946.351 
  190900    295.29709   -1497.8255    477.66945    308.98302    276.12803    37946.351 
  191000     301.5529    -1474.752    500.51101    383.05561    499.67249    37946.351 
  191100    301.07285   -1447.8605    510.91972    418.19507    230.11481    37946.351 
  191200    300.84317   -1478.9923    481.61685    356.72664   -266.38525    37946.351 
  191300    296.90519   -1492.4363    493.52147     337.4623   -62.211371    37946.351 
  191400    312.26974   -1477.5456     472.9788    400.96654   -81.199624    37946.351 
  191500    298.84901   -1494.0194    499.53761    350.64456    450.88754    37946.351 
  191600    297.06328   -1481.7537    490.57982    345.91481    166.70031    37946.351 
  191700    300.82898   -1503.8295    488.15713    338.36581   -188.01125    37946.351 
  191800    301.94738   -1498.2843     533.3598    394.14765   -493.10554    37946.351 
  191900    300.81261   -1482.8775    457.06059    328.14761   -92.153291    37946.351 
  192000     310.8569   -1493.5355    481.64942    387.28807    242.10994    37946.351 
  192100    304.59228   -1481.2448    486.56208    376.29414   -499.59905    37946.351 
  192200    304.35428   -1492.2134    488.93841    366.63072   -627.91472    37946.351 
  192300    295.59925   -1510.7953    492.77991    312.48367   -404.22204    37946.351 
  192400    308.16031   -1507.1198    493.74076    373.65761    170.40902    37946.351 
  192500    295.70981    -1482.731    496.46954    344.73523   -398.62831    37946.351 
  192600    303.29067   -1461.9749    501.69039    404.83384   -288.26393    37946.351 
  192700    298.48588   -1474.0248    507.41088    376.87799   -141.44039    37946.351 
  192800    319.00353   -1484.1409    495.54269    447.24409   -453.54481    37946.351 
  192900    292.40271   -1472.6498     484.9975    328.45903   -171.84067    37946.351 
  193000    301.80251   -1488.7071    514.96431    384.67734   -173.10603    37946.351 
  193100    301.99958   -1443.2016    498.46891    414.57439    434.60736    37946.351 
  193200    302.99499   -1462.8007    524.70142     425.6882    263.91553    37946.351 
  193300    296.13044   -1492.5954    514.36049    354.65507    482.99382    37946.351 
  193400    294.80638   -1499.2648    492.57554    320.24104    823.84971    37946.351 
  193500    300.53273   -1476.1717    518.77068    395.30373    90.427874    37946.351 
  193600    300.45382   -1417.7157    513.93648    448.57033   -86.843085    37946.351 
  193700    298.38005    -1471.951    476.44332    347.50783   -13.660396    37946.351 
  193800    300.49426   -1473.0012    500.07299    379.60342   -236.29398    37946.351 
  193900    300.16606   -1472.2088    506.42836    385.27401   -204.45675    37946.351 
  194000    291.75761   -1486.5028    499.89887    326.60381   -565.68496    37946.351 
  194100    309.37533   -1489.7617    462.73958    365.48338   -74.873826    37946.351 
  194200    299.31774   -1465.3301     509.0348    390.94074    377.64988    37946.351 
  194300    298.02752   -1487.2801    499.66161    353.81031    174.67753    37946.351 
  194400    296.96423   -1499.5665    499.19999    336.27641    320.07424    37946.351 
  194500    290.00436   -1548.4623    507.88266    264.73667    150.80037    37946.351 
  194600    295.55991   -1478.5643    499.16855    350.92623    82.354379    37946.351 
  194700    316.84083   -1500.3996     491.2562    416.96454    469.63823    37946.351 
  194800    293.42085   -1540.5903    501.06678    281.17056    217.87874    37946.351 
  194900    299.46796   -1513.6085    466.21343     300.5172    193.68049    37946.351 
  195000    300.70331   -1514.0659    489.00194    328.40859    237.00247    37946.351 
  195100    306.03008   -1519.5335     483.1815    341.09647    423.24754    37946.351 
  195200    305.44444   -1487.8451    526.44692    413.41431     608.9141    37946.351 
  195300    306.21139    -1504.289    482.76596    356.74147     282.7457    37946.351 
  195400    298.09366      -1539.8    465.81538    267.74187   -132.96006    37946.351 
  195500    302.28859   -1533.2074    469.27083    296.67134    -97.64604    37946.351 
  195600    293.10176   -1495.1038    494.60775     318.7618   -40.337769    37946.351 
  195700    295.92156   -1499.5908    493.10206    325.46108    34.673602    37946.351 
  195800    304.81962   -1485.8625    508.05506    394.19273     166.8267    37946.351 
  195900    295.23934   -1451.5298    513.14843    390.49773   -234.83801    37946.351 
  196000    309.14182   -1411.5862    513.49413    493.36239   -1123.3217    37946.351 
  196100    293.35495   -1451.3695    486.73845    355.76637    -696.8898    37946.351 
  196200    306.40165   -1451.1348    503.79669    431.78279   -167.53459    37946.351 
  196300    296.81157   -1417.4498    517.95056    436.45655    -301.2986    37946.351 
  196400    292.18073   -1444.6278    502.92685     373.4113    344.58633    37946.351 
  196500     302.3367    -1438.357    510.14207    432.60961    372.78655    37946.351 
  196600    295.36871   -1443.5175     524.1275    410.07138   -200.26888    37946.351 
  196700    305.10232   -1473.8897    498.87668    398.25964    627.26634    37946.351 
  196800    301.29884   -1448.8023    480.55289    387.90367   -147.73474    37946.351 
  196900    295.99911   -1471.5905     522.6823    383.39068   -147.52772    37946.351 
  197000     297.5421   -1445.6451    509.07789    402.67665   -353.02318    37946.351 
  197100    298.98583   -1423.7218    510.00099    432.02133   -717.89789    37946.351 
  197200    287.23324   -1455.7275    496.20816    333.32408   -700.49431    37946.351 
  197300    288.51737   -1485.6653    499.99511    312.95322   -800.30028    37946.351 
  197400    288.25519   -1421.4147    537.83701    413.86566   -352.65656    37946.351 
  197500    287.85649   -1454.7915    510.36022    351.21746   -142.92991    37946.351 
  197600    289.58501   -1458.6846    509.93314    354.67734   -257.84498    37946.351 
  197700     308.3734   -1480.8364    492.77352    399.93297   -190.25491    37946.351 
  197800    301.72466   -1455.1215    507.95648    410.90464    28.296072    37946.351 
  197900    288.78594   -1475.4446    498.21233    322.59998   -203.85897    37946.351 
  198000    305.88155   -1485.9003    481.61194    372.49161    29.504861    37946.351 
  198100    296.57354   -1443.5294    483.76355    375.11851   -463.02275    37946.351 
  198200    295.45092   -1446.2259     495.4941    379.09966   -79.009647    37946.351 
  198300    283.15089   -1467.0996    485.13216    292.50128    363.93973    37946.351 
  198400    307.57927   -1451.3447    510.77444    443.85113    502.72581    37946.351 
  198500    302.09445   -1486.2556    497.74146    371.21998    227.71199    37946.351 
  198600    309.20881    -1452.673    507.94419    447.02716   -318.90867    37946.351 
  198700    292.64338   -1429.5815    486.96776     374.5809   -348.67782    37946.351 
  198800    287.38492   -1443.6129    482.35638    332.26961   -419.00141    37946.351 
  198900      289.574   -1472.1102    483.57794    314.84705   -531.28993    37946.351 
  199000    300.32328   -1487.9096    478.92955    342.78194   -848.52994    37946.351 
  199100    303.42197   -1460.4749    474.19442     379.4289   -863.76599    37946.351 
  199200     298.3896   -1454.6216    521.10666     409.5435   -429.45077    37946.351 
  199300    294.72597   -1444.9849    496.89585    378.47937   -782.73115    37946.351 
  199400    303.12009   -1478.3338    488.19001     374.2068   -70.100539    37946.351 
  199500    294.69807   -1507.9935    508.12888    326.57821   -255.11488    37946.351 
  199600    303.21884    -1493.321    480.88372    352.35775    546.65556    37946.351 
  199700    306.34463   -1521.7239    501.76048    358.90085   -730.06379    37946.351 
  199800    295.23303   -1498.0924    513.07829    343.83659   -595.18728    37946.351 
  199900    305.70531   -1469.2077    495.68585    402.46482   -998.96508    37946.351 
  200000    298.64766   -1446.1202    482.73587    380.83564   -566.08306    37946.351 
  200100    306.30901   -1469.6212     493.7879    402.87063   -95.169333    37946.351 
  200200    302.36812   -1488.9106     494.5346    366.58989    429.02619    37946.351 
  200300    292.47395    -1470.415    506.46603    352.48308    35.826023    37946.351 
  200400    295.89173   -1466.7159    488.25142    353.35109    639.68756    37946.351 
  200500    303.67277   -1479.6527    483.79498    370.98044    386.80816    37946.351 
  200600    302.11873   -1415.8101      491.552    435.58532    499.40609    37946.351 
  200700     291.3378   -1412.6349    491.29762     389.9809   -346.03189    37946.351 
  200800    292.27823   -1437.6913    515.14632    393.00605    -143.1996    37946.351 
  200900    313.94754   -1439.1936    491.97145      465.863    107.65939    37946.351 
  201000    290.59161   -1441.3937    485.61607    352.18199    119.93436    37946.351 
  201100    297.83796   -1450.1834    491.60499    381.99713    243.95282    37946.351 
  201200    305.07687   -1494.0868    485.40232    364.47356     447.4313    37946.351 
  201300    291.86627   -1487.7682    509.52846    335.45708    506.53451    37946.351 
  201400    307.94387   -1493.8342    504.25971    396.48803     419.3893    37946.351 
  201500    285.91283   -1528.8231    509.96941    268.04662    155.18485    37946.351 
  201600    288.49515   -1481.3896    499.60624    316.73996    384.57402    37946.351 
  201700     309.5465   -1494.9677    496.21343     394.5217    530.66929    37946.351 
  201800    313.94748   -1514.4455    486.60261    385.24195    1034.9776    37946.351 
  201900    294.71058   -1524.8208    493.79783    295.47621    694.40529    37946.351 
  202000    293.30723   -1494.4673    497.51921     323.2346    48.444347    37946.351 
  202100    300.16005   -1523.3068    476.54576    304.26632    181.68932    37946.351 
  202200    302.10051   -1484.4794    496.75574    372.03771    544.15293    37946.351 
  202300    299.09777   -1516.8142    489.54573    318.97757    597.11828    37946.351 
  202400    299.69259   -1527.8506    485.99307    307.06579     500.9181    37946.351 
  202500    293.74295   -1524.8651    505.65373     302.9325   -8.2167207    37946.351 
  202600    301.83112   -1491.5358    501.73611    368.74921    35.869565    37946.351 
  202700    311.10126   -1509.8351    481.48878    371.92765    298.01417    37946.351 
  202800    304.62806   -1496.1985    497.57044    372.50989    205.74672    37946.351 
  202900    294.05496   -1485.7566    514.07289    351.86449    156.93298    37946.351 
  203000    303.72745   -1469.0263     519.6033     417.6613    448.01621    37946.351 
  203100    303.36646   -1461.3302    509.99518    414.12441   -17.324119    37946.351 
  203200    303.23921   -1454.4736    488.39206    398.80515   -92.057962    37946.351 
  203300    303.33227   -1439.8166    519.30586    444.79485   -145.16409    37946.351 
  203400    313.97974   -1458.4386    522.58694    477.37844   -369.23031    37946.351 
  203500    299.41544   -1451.6274     544.3139    440.36229    73.181919    37946.351 
  203600    292.62012   -1474.1311    511.40383    354.36265    66.928514    37946.351 
  203700    299.62009   -1449.6581    493.74571    392.68459    136.82548    37946.351 
  203800    295.54175   -1485.1203    499.21249    344.33245    119.07472    37946.351 
  203900    304.95194    -1506.312    505.23697    371.52074    343.39214    37946.351 
  204000    296.63974   -1468.1979    494.73778    361.72226    572.71561    37946.351 
  204100    294.85531   -1465.6168    498.70844     360.2422    2.4319961    37946.351 
  204200    294.54812   -1441.9499    521.44812    405.26618    80.252812    37946.351 
  204300    307.55763   -1446.1366    546.32544    484.51291   -164.77769    37946.351 
  204400    290.93274   -1481.0679    502.80279    331.22983     -771.601    37946.351 
  204500    307.94325   -1462.8844    485.80069    408.97598   -246.84537    37946.351 
  204600    300.31527   -1484.2956    500.14738    367.57783   -232.82596    37946.351 
  204700    296.71146   -1474.0691    546.97306    408.40912   -469.14111    37946.351 
  204800    294.72049    -1496.988    524.03019    353.58596    -337.1727    37946.351 
  204900     301.6526   -1471.1474    520.38016    406.97817   -445.98581    37946.351 
  205000    296.44759   -1478.7371    512.79769    368.37802   -523.48471    37946.351 
  205100    298.89024   -1534.1432    519.38814     330.5568   -296.63893    37946.351 
  205200    300.89606   -1504.0874    484.61184    334.86452   -169.07358    37946.351 
  205300    306.70136   -1503.8011    500.24473    376.91355   -401.24213    37946.351 
  205400    294.86664   -1509.0049     520.2168    338.41345   -313.62104    37946.351 
  205500    293.91445   -1489.2827    488.83653    322.46958    76.290147    37946.351 
  205600    299.37642   -1451.9286    536.75714    432.32877   -69.265937    37946.351 
  205700    298.28124   -1467.8763    493.58117    368.27566    171.03837    37946.351 
  205800    301.77097   -1459.4461    526.36341    425.19546    140.17057    37946.351 
  205900    310.91185   -1459.5363    523.44391    463.32906    106.95132    37946.351 
  206000    309.27359   -1435.9644    521.66466    477.74784   -104.90639    37946.351 
  206100    298.98397   -1432.6867     501.4664     414.5135     236.1052    37946.351 
  206200    295.72231   -1450.6996     507.8817    388.23504    549.39686    37946.351 
  206300    299.89404   -1443.0081    516.14541    422.96739    1139.9751    37946.351 
  206400    306.12408   -1459.3277    532.93819    451.48204    1555.4389    37946.351 
  206500    305.93613   -1452.7834    500.27156    424.51379    288.21312    37946.351 
  206600    313.74518   -1462.0461    516.12903    466.25728    784.65118    37946.351 
  206700    302.01697   -1533.2571    491.33389    317.46221    848.60877    37946.351 
  206800    296.99965   -1518.7539      506.125    324.17338    252.52726    37946.351 
  206900    299.39761   -1500.0136    519.78865    367.37061     436.7228    37946.351 
  207000     302.0708   -1527.1153    501.20755    333.71996   -32.663635    37946.351 
  207100    293.05621   -1542.6959    501.30249    277.65942    599.04373    37946.351 
  207200    296.04088    -1519.553    524.11873    337.05259    177.11049    37946.351 
  207300    307.36032   -1507.1129    503.25326    379.57627    682.08754    37946.351 
  207400     311.7168   -1503.0283     501.0054    401.02167    474.13289    37946.351 
  207500    301.44455   -1516.1017    521.19151    361.89866    127.96927    37946.351 
  207600    301.48436   -1507.7751    509.76916     358.9822    181.58327    37946.351 
  207700    291.03453   -1472.5428    522.85046     360.2608   -188.23622    37946.351 
  207800    303.31908   -1479.9199    525.23955    410.56589   -136.44195    37946.351 
  207900    300.39893    -1493.269    501.50212    360.33565   -447.20214    37946.351 
  208000    293.16499   -1428.6857     523.3169    414.17357   -515.90303    37946.351 
  208100    301.55141   -1411.6946    525.10117    470.69649   -540.52017    37946.351 
  208200    301.41868   -1429.4344     535.9913    463.24939   -806.81437    37946.351 
  208300    309.15152   -1419.7205    526.69739    498.47505   -594.02621    37946.351 
  208400    292.26414   -1444.7242    513.43907    384.20256    171.65428    37946.351 
  208500    290.83633   -1462.5681    509.47407    355.96699    794.81719    37946.351 
  208600    310.22625   -1453.9569    525.60146     467.9801    218.92905    37946.351 
  208700    312.87519   -1476.2496      520.156    452.16485     260.4939    37946.351 
  208800     302.8685    -1468.423    508.99698    403.79212    -173.0586    37946.351 
  208900    306.04363   -1491.8304    526.40503    412.08406    205.04306    37946.351 
  209000    307.89277    -1438.213    512.48306    460.10254   -156.25269    37946.351 
  209100    306.59509   -1484.4408     528.4268    423.97758    347.11239    37946.351 
  209200     308.5731    -1477.466    520.84487    432.27354    333.92936    37946.351 
  209300    302.37884   -1495.2185    518.78651    384.58217    4.5762393    37946.351 
  209400    300.63899   -1521.8776    540.05541    371.36085   -198.38717    37946.351 
  209500    292.18789   -1495.9713    527.39531    346.56843   -412.01116    37946.351 
  209600    305.98737   -1497.5006    483.58805    363.34365   -834.57176    37946.351 
  209700    304.22405   -1471.6916     517.0312    414.65913   -699.81884    37946.351 
  209800    298.68465   -1452.6015    484.58844    376.37344   -101.71989    37946.351 
  209900    302.65464   -1525.7741    523.11538    359.59684    69.997305    37946.351 
  210000    304.50809   -1489.7641    512.79418    393.62805    688.38471    37946.351 
  210100    297.57303   -1484.5816    514.65966    369.46116   -447.11593    37946.351 
  210200    303.39659   -1482.1403    500.91101    384.36574    570.98302    37946.351 
  210300    303.04236    -1498.033    520.67436    386.64201    80.480353    37946.351 
  210400    304.77691     -1478.33    494.17841    387.65635    393.07024    37946.351 
  210500    299.58976    -1517.752    523.82208    354.53057    159.49483    37946.351 
  210600    293.57628   -1498.9425    522.08724    344.53835    28.046038    37946.351 
  210700    290.26298   -1451.6239    504.65659    359.51307   -136.70904    37946.351 
  210800    297.33363   -1522.2904    499.41492    315.43011   -338.98517    37946.351 
  210900    309.61506   -1529.2907     529.3404     393.6343   -79.751695    37946.351 
  211000    295.05391   -1542.6522    519.09481    304.48716   -250.01154    37946.351 
  211100    305.77437   -1522.3114    502.40374    356.38986   -413.59762    37946.351 
  211200    306.47605   -1512.1068    534.11701    401.46603   -378.25184    37946.351 
  211300    293.78049   -1540.4829     513.2461    295.07601    152.28002    37946.351 
  211400    299.60678    -1545.266    469.36902    272.64014   -329.85514    37946.351 
  211500    304.83594   -1556.8326    509.00198    324.24298   -764.29495    37946.351 
  211600    296.91046   -1550.8502    467.78173    253.33242    -98.37462    37946.351 
  211700    302.67033   -1557.9478    519.62806    324.00647   -205.08577    37946.351 
  211800    301.02508   -1562.4932    521.18122    313.60888   -174.75877    37946.351 
  211900    298.22606   -1533.8467    503.90284    312.37858    25.186942    37946.351 
  212000    288.74002   -1519.2009    539.84366    320.26829   -255.19356    37946.351 
  212100    301.25211   -1523.8611    536.17939    368.26105    355.09521    37946.351 
  212200    296.46178    -1501.507    511.37459    344.24893    770.54951    37946.351 
  212300    291.13584   -1583.1679    499.67259    226.91383    208.91485    37946.351 
  212400    296.23171   -1548.3915    505.99437    290.94872   -1.6931847    37946.351 
  212500    301.40007   -1494.2433    525.02495    387.39038    181.39787    37946.351 
  212600    303.64312   -1552.7057    492.43218    306.43114    423.34165    37946.351 
  212700    300.17841   -1532.8695    516.35574    334.59621    85.457963    37946.351 
  212800    299.16246   -1545.9468    502.20805    302.79837    268.59827    37946.351 
  212900    306.03981   -1527.9065    513.41745    363.00319     110.0146    37946.351 
  213000    292.46791    -1534.997    520.86176    302.26958    682.45419    37946.351 
  213100     299.1204   -1531.2881    515.80829    330.86801    424.93049    37946.351 
  213200     293.6498   -1471.5133    533.96401    384.17532    -16.26469    37946.351 
  213300     295.0278   -1492.2972     520.8873    356.51706   -852.73833    37946.351 
  213400    298.01506    -1529.706    499.21216    310.87885   -478.22139    37946.351 
  213500    301.61488   -1492.4258    519.47921    384.62891   -411.15036    37946.351 
  213600    294.37523    -1508.581    513.33927    329.74798    213.49801    37946.351 
  213700    298.89127   -1494.6975    492.59115    343.21023   -119.70599    37946.351 
  213800    301.35756   -1518.1549    494.16913    332.43165   -642.25438    37946.351 
  213900    307.06212    -1510.573    541.27409     412.7948    85.377177    37946.351 
  214000    299.65047   -1519.4988    513.04836    342.28325   -19.978068    37946.351 
  214100    291.67065    -1557.164     492.8185    248.47084   -556.42126    37946.351 
  214200    307.82192   -1531.0037    517.14531    371.65515   -431.78454    37946.351 
  214300     307.2539    -1551.814    511.44227    342.58523   -884.17831    37946.351 
  214400    300.19343   -1542.2274    509.53985    318.49005   -305.53706    37946.351 
  214500    307.94193   -1568.3597    499.48612    317.18015    322.91406    37946.351 
  214600    291.77168    -1540.333    511.10298    284.04104    842.13328    37946.351 
  214700    300.70341   -1583.8027    495.91567    265.58601    626.41693    37946.351 
  214800    305.33538   -1558.6531    506.26812    321.93668    354.82582    37946.351 
  214900     313.5566   -1531.2696    492.96295    373.01885   -87.891975    37946.351 
  215000    301.42296   -1548.3011    491.77942    300.19008   -155.52654    37946.351 
  215100    309.31197   -1539.2447    494.74696    347.72261    111.23604    37946.351 
  215200     308.5072   -1558.5108    497.24874    327.33605    107.54811    37946.351 
  215300    289.29981   -1530.3262    503.78975    275.60873    163.50774    37946.351 
  215400    301.05779   -1511.0368    510.21272    354.24399   -21.523389    37946.351 
  215500     298.7277    -1502.963    511.26946    352.88673    317.27175    37946.351 
  215600    301.48268   -1505.9166    522.78778    373.85177     112.3876    37946.351 
  215700    294.41757   -1539.2692    515.50982    301.42089    374.47758    37946.351 
  215800    307.64599   -1478.3442    510.58741    416.96495    341.59276    37946.351 
  215900    293.53887   -1491.2793    504.33222    334.27824     586.9416    37946.351 
  216000    302.90696   -1518.0609    536.55693    381.88723     306.3094    37946.351 
  216100    304.11765   -1502.9788    516.28344    382.14522      284.479    37946.351 
  216200    296.75381   -1466.0132    523.10131    392.78388    224.49878    37946.351 
  216300    291.52389   -1471.7273    516.33806    356.76653    50.319442    37946.351 
  216400    302.80536    -1472.178    524.35703    415.11293    228.23406    37946.351 
  216500    298.15877   -1470.0006    515.90572    387.92467   -333.06844    37946.351 
  216600    302.40102   -1520.5942    494.24388    334.76367   -411.06178    37946.351 
  216700    302.09554    -1485.819    525.86932    399.78936    -92.59665    37946.351 
  216800    302.44362   -1561.7317    492.92947    292.50355    292.39097    37946.351 
  216900    310.46691    -1523.796    530.50359    404.12629    339.76182    37946.351 
  217000    296.94384   -1499.1253    540.51017    377.93596   -436.83002    37946.351 
  217100    296.13749   -1526.8317    509.48895    315.57891   -325.75584    37946.351 
  217200    295.75011   -1540.9915    471.16809    261.35472    -593.1009    37946.351 
  217300    302.65039   -1516.5188    485.33703    331.05465   -922.19652    37946.351 
  217400    288.49656   -1509.9246    551.39435    339.99944     79.10597    37946.351 
  217500    292.11499   -1542.1573    504.82573    277.48475   -154.11884    37946.351 
  217600    299.68252   -1569.0116    500.16033    280.02677    161.11886    37946.351 
  217700    299.53526   -1556.8298      502.706    294.09137    78.703802    37946.351 
  217800    306.97844   -1550.8903    513.86208    344.68887    50.421148    37946.351 
  217900    300.78467   -1550.4671    504.96187     308.3335    124.08031    37946.351 
  218000    299.74344   -1572.9102    491.01419    267.25621    272.46214    37946.351 
  218100    295.53712   -1567.0278    490.26527    253.45685    346.40328    37946.351 
  218200    292.92622   -1600.7814     508.6082    226.29452   -234.94545    37946.351 
  218300    305.74281    -1579.332    494.53434    291.35782    -9.002516    37946.351 
  218400    310.20963   -1577.4102    496.00967    314.86027    228.97394    37946.351 
  218500    293.80161   -1542.1196     525.5662    305.85449   -348.15588    37946.351 
  218600    294.93987   -1595.3829    485.41186    217.56016  -0.64341224    37946.351 
  218700    300.76537   -1579.3241    499.82286    274.25069   -187.37979    37946.351 
  218800      291.954   -1569.0773    509.42855    254.44297   -189.35379    37946.351 
  218900    300.76439   -1546.5811    507.64453    314.81089   -400.96753    37946.351 
  219000    297.23251   -1567.9602    509.20183    279.09203   -268.34005    37946.351 
  219100    292.89079   -1527.6999    513.46604    304.07431   -340.55853    37946.351 
  219200    309.29307   -1526.5157    509.24398    374.86357    -81.36055    37946.351 
  219300    293.88545   -1545.7796    516.84077    293.84643   -887.14341    37946.351 
  219400    291.83711   -1542.4119    497.70926    268.86292   -384.26171    37946.351 
  219500    294.42302   -1537.3975    492.91236    280.71976    155.97308    37946.351 
  219600    300.98163   -1555.3197    512.57519    311.98081    370.35781    37946.351 
  219700    299.68005   -1590.2751    521.69145    280.28318    260.89425    37946.351 
  219800    297.15273   -1584.3632    473.85726    226.98538    379.34411    37946.351 
  219900    296.90834   -1562.2923    498.10943    272.20846    99.869498    37946.351 
  220000     305.8839   -1554.5493    503.56076    325.80196   -210.60493    37946.351 
  220100    293.44452   -1605.4952    510.04544    225.35086   -90.928719    37946.351 
  220200    306.02541   -1546.1531    523.62359    354.89796    376.34139    37946.351 
  220300    309.55332   -1563.0991    501.26785    331.47547    677.56203    37946.351 
  220400     291.7207   -1553.6609    511.04047     270.4212    171.89147    37946.351 
  220500    311.21146   -1591.2175    509.16665    318.71918    187.63419    37946.351 
  220600    300.49537   -1569.5641    504.98156    287.95411   -80.261932    37946.351 
  220700     297.1217   -1564.3573     500.5883    273.58265    89.581689    37946.351 
  220800    298.03601   -1502.6656    520.32381    359.12523   -437.44253    37946.351 
  220900    295.40299   -1548.6039    517.19556    298.20739   -24.525144    37946.351 
  221000    300.51436   -1566.3313    495.24386    281.53468   -197.54771    37946.351 
  221100    311.44496   -1559.9671    507.07543     348.9293    357.26908    37946.351 
  221200    297.54504   -1577.3191    509.89342    271.83144   -295.47877    37946.351 
  221300    308.25205    -1544.423    516.90394    359.93057    87.874988    37946.351 
  221400    299.78608   -1583.0869    513.67846    279.93569   -647.06601    37946.351 
  221500    304.46396   -1576.0552    513.05208    307.39624   -406.94517    37946.351 
  221600    289.91483   -1598.7912    531.46955    237.59168   -889.21643    37946.351 
  221700    318.02022   -1578.1586    464.38893     317.6467    150.97126    37946.351 
  221800    302.58667   -1544.1298    513.13049    330.95029   -379.20769    37946.351 
  221900    294.81303   -1552.5085    467.45836     241.9102   -132.31395    37946.351 
  222000    298.13454   -1532.6948    526.23743    335.45309    118.68605    37946.351 
  222100    290.55606   -1547.6037    512.57474    272.77055   -50.062458    37946.351 
  222200    296.81455   -1553.5028    499.28844    281.75478   -46.945345    37946.351 
  222300    294.03189   -1529.7469    502.00255        295.7    170.03008    37946.351 
  222400    295.95886   -1548.0432    492.75081    276.82533   -169.64241    37946.351 
  222500    296.96644   -1528.5373    520.82469    328.94018   -189.24297    37946.351 
  222600    293.23619   -1506.8145    493.69307    306.74149    283.87573    37946.351 
  222700    304.49366   -1511.8034    520.02598    378.75561    677.61633    37946.351 
  222800    296.95869   -1522.6285    519.77157    333.76102    314.92958    37946.351 
  222900    292.44306   -1541.7744     530.5069     305.0255    173.37813    37946.351 
  223000    310.62754   -1536.0148    510.70934    372.83632    296.49401    37946.351 
  223100    301.63452   -1540.3656    532.78534     350.0837    -84.30589    37946.351 
  223200    305.10023   -1515.0453    517.77598    375.99391    291.55854    37946.351 
  223300    302.08488   -1541.0539    507.27372    325.91086    473.61695    37946.351 
  223400     310.1571   -1514.2577    541.79731    423.56387    276.81168    37946.351 
  223500    287.21336   -1485.1971    538.23269     345.7896    378.33588    37946.351 
  223600    313.13552   -1489.3049    495.62688    415.75226    279.64074    37946.351 
  223700    301.98607   -1467.3999    524.19839    416.04477   -283.05395    37946.351 
  223800    291.88857   -1495.4571    539.38217    357.72226   -82.066255    37946.351 
  223900    302.24034   -1460.1515    504.11559    404.35489   -175.47369    37946.351 
  224000    300.34126   -1469.6216     515.5223    397.74368   -237.09675    37946.351 
  224100    292.61059   -1497.8553    527.39273    346.58442   -245.35168    37946.351 
  224200    294.42986   -1495.8285    507.05292    336.46007   -589.18851    37946.351 
  224300     301.0812   -1468.1219    516.85293     403.9045   -151.62181    37946.351 
  224400    309.43816   -1485.1963    518.78384    426.37582    200.28489    37946.351 
  224500    288.59936   -1496.3293    541.63027    344.29338   -104.34818    37946.351 
  224600    300.88569   -1482.7103    516.83577    388.41891    135.19377    37946.351 
  224700    304.81136   -1486.9415     503.7217     388.7432    403.23896    37946.351 
  224800    295.07948   -1511.2945    523.92367    340.78869   -210.34701    37946.351 
  224900    292.04093   -1524.4697     517.5955    307.60874   -154.86027    37946.351 
  225000    302.13035   -1482.2106    486.70641    364.39149    -113.2839    37946.351 
  225100    300.61979   -1483.5442    494.76982    364.32228   -294.84753    37946.351 
  225200    292.73527   -1522.3714       512.09    307.32683     -117.144    37946.351 
  225300    293.14289   -1513.0518    495.48244    301.87361    -18.96889    37946.351 
  225400    307.74703    -1500.842    526.86149    411.19597    69.900729    37946.351 
  225500     293.7232   -1496.2752    508.60077     334.3805    518.99669    37946.351 
  225600    307.08887   -1522.4875    495.38622    355.11283    536.34734    37946.351 
  225700    288.42901   -1530.2809    514.09397    282.03875    278.76552    37946.351 
  225800    311.01264   -1523.7685    519.74441    395.85103    590.73799    37946.351 
  225900     295.1685   -1497.7138    497.25782    328.10428     297.9196    37946.351 
  226000    287.99518   -1495.8133    523.91974    324.37936    72.189667    37946.351 
  226100    299.97035   -1483.8129     523.6677    390.02828    570.83082    37946.351 
  226200    311.17482   -1504.9969    504.76558    400.37379    501.00281    37946.351 
  226300    288.73742   -1508.8403    542.74105     333.5146    253.27838    37946.351 
  226400    303.79604   -1502.2929    528.75474     393.8549    786.00128    37946.351 
  226500    306.50086   -1506.4272    540.12742     413.2677    607.26597    37946.351 
  226600    305.91647   -1470.2746    516.82034    423.48286    515.11219    37946.351 
  226700      301.738   -1468.7833    503.90204    393.24848    190.35096    37946.351 
  226800    303.44791   -1445.5859    505.66677    425.90695   -39.027121    37946.351 
  226900    305.36167   -1499.5384    500.98406    375.88559   -202.33274    37946.351 
  227000    308.28516   -1495.1412    497.99358    390.45099   -163.84572    37946.351 
  227100    295.00511   -1531.7598    505.06314    301.12819   -191.26186    37946.351 
  227200    298.53236   -1532.4723    527.24945    338.47824    150.76249    37946.351 
  227300    297.49379   -1523.9468    494.85372    309.93336   -14.288487    37946.351 
  227400    304.16574   -1550.1988    498.99409    317.85236    288.72217    37946.351 
  227500    296.63281   -1537.7737     509.4766    306.85404    308.08895    37946.351 
  227600    296.84823   -1495.8652     501.1307    341.38626    115.39456    37946.351 
  227700    310.01866   -1468.1033    510.89826    438.19613   -243.12862    37946.351 
  227800    297.28323   -1490.8301     503.5725    350.82107    698.24602    37946.351 
  227900    295.96455   -1480.2504    505.26102    357.15391    298.20679    37946.351 
  228000    304.89328   -1486.4335    517.46327    403.36149    165.86169    37946.351 
  228100    299.51117   -1482.1088    517.44577    383.44369    390.71824    37946.351 
  228200    300.43094    -1495.278    499.18787    356.15653   -187.49435    37946.351 
  228300      302.615   -1473.2751    503.11018    391.91222   -276.36332    37946.351 
  228400     310.3457   -1459.2681    488.02898    425.63407   -304.43975    37946.351 
  228500    294.37492    -1475.351    511.16631    360.80361    96.597175    37946.351 
  228600     308.2342   -1477.2661    530.37449    440.47767   -57.023357    37946.351 
  228700    297.83431   -1471.9744    472.66326    341.24797   -248.55389    37946.351 
  228800    303.26858   -1506.8766     531.8437    389.98607   -641.31797    37946.351 
  228900     301.0352   -1510.8697    474.00122    318.09787    21.368578    37946.351 
  229000    304.58091   -1491.1289    492.83702    372.63387    304.35363    37946.351 
  229100    304.75717   -1505.7606      516.995    382.95348    639.90258    37946.351 
  229200    306.78699   -1486.9914    519.10691    412.97085    932.36434    37946.351 
  229300    307.80028   -1519.9664    496.32371     361.7735    735.85113    37946.351 
  229400    313.47021   -1521.2714    502.29424    391.95952    508.60266    37946.351 
  229500    300.44779   -1517.5875     520.2296    354.96458    383.75406    37946.351 
  229600    294.47855   -1509.1749    508.38004     324.6599   -185.78424    37946.351 
  229700    294.53577   -1492.8385    505.19185     338.0657     776.2914    37946.351 
  229800    304.83862   -1506.3267    491.41708    357.17611    683.28602    37946.351 
  229900    301.98774   -1529.4841     512.6046    342.37425    598.40874    37946.351 
  230000    296.65096   -1560.3567    493.28063     268.1568    277.87988    37946.351 
  230100    311.60518   -1511.3165     507.2652    398.49086    388.82373    37946.351 
  230200    293.62399   -1502.9053    509.37013    328.07323    332.65335    37946.351 
  230300    310.09525   -1524.6681    492.05313    363.13099    958.06514    37946.351 
  230400    304.84549    -1513.512    509.21041    367.81509    392.96702    37946.351 
  230500     305.5675   -1514.5002    497.14755     358.0138    196.91182    37946.351 
  230600    303.71287   -1543.3835    494.47526    318.11045   -366.18096    37946.351 
  230700    314.36106   -1505.1452    516.04297    425.84421   -22.952677    37946.351 
  230800    304.25156    -1538.067    517.47474    348.85109   -320.71421    37946.351 
  230900      294.632   -1511.8521    495.86167    310.15501   -383.63105    37946.351 
  231000    302.46945   -1525.8431    513.69534    349.27428    -563.9592    37946.351 
  231100    302.45644   -1540.7321    478.55722    299.18859   -804.94691    37946.351 
  231200    303.90622   -1543.8438    504.94138    328.98655   -382.02564    37946.351 
  231300    297.50628    -1547.163    501.35937    293.27899    223.24036    37946.351 
  231400     310.7594   -1551.6962    501.84289    348.88191    483.75045    37946.351 
  231500    300.41987   -1520.1155    504.90612    336.98744   -266.57128    37946.351 
  231600    290.43991   -1518.9825    483.52418    271.81848   -50.981732    37946.351 
  231700    295.83054   -1577.8316    488.59017     242.2987     -21.7648    37946.351 
  231800    288.92621   -1571.5895      506.152    235.02606   -170.37701    37946.351 
  231900    301.12421   -1546.2468    512.15522    321.27546   -130.16038    37946.351 
  232000    295.78603   -1537.0329    487.79833    282.10521   -456.26828    37946.351 
  232100    305.81749   -1531.8011    479.33485    324.02536    -496.2245    37946.351 
  232200    290.98676   -1498.8967    500.39454    311.23596    128.29236    37946.351 
  232300    299.66537   -1527.1673    486.17594     307.8094   -349.34909    37946.351 
  232400    303.68649   -1524.0842    518.78197    361.59768   -90.210169    37946.351 
  232500    291.55325   -1522.8042     493.2181     282.7019   -64.101248    37946.351 
  232600    292.53086   -1521.8172    502.91217    297.78319    35.937591    37946.351 
  232700    300.97304   -1513.7239    513.70074    354.66348   -150.24564    37946.351 
  232800    301.74314   -1503.9149    504.48108    358.71909    220.53946    37946.351 
  232900    297.39199   -1500.8642    515.82428    353.52834    101.56608    37946.351 
  233000    291.06178   -1524.8057    501.81829    287.08839    20.492596    37946.351 
  233100    291.42028   -1514.9438    504.28681    301.03249   -174.39558    37946.351 
  233200    303.06313   -1501.9051    500.54558    362.73465   -308.78507    37946.351 
  233300    286.69676   -1504.8337    502.46427    288.05931   -380.97032    37946.351 
  233400    310.62273   -1517.4351     505.6748    386.35983   -216.20133    37946.351 
  233500     289.3752   -1500.6147    497.73493    299.60466    416.85287    37946.351 
  233600    306.02149   -1475.0051      517.035     419.4397    22.693747    37946.351 
  233700    293.31039   -1468.1636    536.40802    388.44132    363.75002    37946.351 
  233800    310.61597   -1466.1689    496.14515     428.0659    168.45326    37946.351 
  233900    292.89899   -1499.6816    504.34132    323.00482   -40.748549    37946.351 
  234000    296.45953   -1488.9413    522.69408    368.12394    339.60765    37946.351 
  234100    300.69073   -1494.8012      505.345    363.95977   -176.85438    37946.351 
  234200     308.4893   -1516.0458    508.53737    381.00907    796.60124    37946.351 
  234300    303.99157   -1498.5761    493.89533    363.59229    998.56922    37946.351 
  234400     300.7039   -1521.1102    527.95408    360.31908    749.03938    37946.351 
  234500    296.11376   -1521.6598    497.91879    309.07388    271.54048    37946.351 
  234600    293.12672   -1509.1193     486.1467    296.39756    67.540876    37946.351 
  234700     291.2241   -1515.9843     497.2694    292.09154    430.19765    37946.351 
  234800    298.15561   -1544.7844    500.24509    297.46601    30.857965    37946.351 
  234900    310.25035   -1476.5676    492.81542    412.69185    259.30086    37946.351 
  235000    295.39041   -1511.3645    513.42693    331.62149   -1261.4635    37946.351 
  235100    300.31049   -1519.1527    509.61166    342.16344   -817.40833    37946.351 
  235200    296.89695   -1499.7625    482.38925     318.9668   -835.84502    37946.351 
  235300    295.07453    -1537.018    507.72773    298.84698   -617.81293    37946.351 
  235400    295.16856   -1556.6676    494.43012    266.32306    28.646451    37946.351 
  235500    308.59202   -1526.4169    512.89423    375.45714    144.54804    37946.351 
  235600    299.61793   -1530.2352    518.87758    337.22965    345.00071    37946.351 
  235700    302.53035   -1521.2055    498.16677     338.6574   -309.47826    37946.351 
  235800    299.59653   -1491.8672    509.36269    365.98642    35.144792    37946.351 
  235900    313.45539    -1495.235    524.35937    439.99432   -224.52656    37946.351 
  236000    295.88252   -1497.3504    524.99991     359.4236    110.51223    37946.351 
  236100    301.42037   -1454.1922    501.68753    404.19536   -16.331028    37946.351 
  236200    308.63846    -1493.228    513.23938    409.20027   -482.02045    37946.351 
  236300    295.03577   -1521.7099    511.18593    317.43885   -330.70385    37946.351 
  236400    292.36496   -1515.1056    478.77754    279.61339   -687.28143    37946.351 
  236500    295.52139   -1521.5562    500.64076    309.23322   -458.88164    37946.351 
  236600    301.33616   -1556.7484     471.9984    271.57109   -689.71627    37946.351 
  236700    296.48817   -1517.7948    513.68965    330.39497    366.10559    37946.351 
  236800    299.52456   -1507.3523    523.83138    364.64611    436.69328    37946.351 
  236900    299.14591   -1452.8434    518.29808     411.9174    646.74904    37946.351 
  237000    294.84912   -1483.8937    506.54741    349.77644    901.10205    37946.351 
  237100    302.14738   -1476.6653    528.15202    411.45908    921.03317    37946.351 
  237200     301.5423   -1490.8291    509.99578    376.41554     1068.719    37946.351 
  237300    302.45218   -1506.0011    502.58764    357.93077    784.22984    37946.351 
  237400     306.2699   -1498.4363    546.17078    426.26244    471.34566    37946.351 
  237500    297.15463   -1487.6163    497.23406    347.11769     41.90327    37946.351 
  237600    299.54674   -1478.2551    521.09849    391.11025    367.82004    37946.351 
  237700    293.50825   -1514.4733    509.88163    316.49578    515.34642    37946.351 
  237800    292.30921   -1485.7179    532.01816    361.99078    1066.7277    37946.351 
  237900    308.06912   -1545.0133    532.30426    373.91718    381.84748    37946.351 
  238000    297.78503   -1580.9224    507.05725    266.47221    105.07119    37946.351 
  238100     309.5787   -1531.6399    532.24258    394.02356   -206.63776    37946.351 
  238200    305.21719   -1507.1231    531.18541    397.85196    59.759857    37946.351 
  238300    300.27928   -1497.3358    489.44935    343.67758   -148.05326    37946.351 
  238400    308.40355   -1500.5511    518.31664    405.89709    318.87746    37946.351 
  238500    299.24644   -1462.6525    538.93388    423.19654    144.63905    37946.351 
  238600    292.93175   -1468.2135    524.03243    374.31154    394.54759    37946.351 
  238700    303.88901   -1511.1729    522.47125    379.10979    650.89282    37946.351 
  238800    304.88455   -1508.8944    520.67757    384.07553   -205.16454    37946.351 
  238900    310.32422   -1530.4284    491.92354    358.27162    20.923778    37946.351 
  239000    303.54075   -1486.8581    494.74414    374.13003   -215.98401    37946.351 
  239100    288.76394   -1468.3467    518.16227    349.54877   -1351.2042    37946.351 
  239200    297.89236   -1439.9264    491.38642    392.28041   -619.77013    37946.351 
  239300    300.54072   -1428.7654    528.96721    452.94252   -519.63984    37946.351 
  239400     296.1957   -1458.1286     541.8687    416.92382   -766.87292    37946.351 
  239500    298.01548   -1432.6009    502.52364    411.29731    142.30415    37946.351 
  239600    303.43485   -1458.1644     552.5321    460.13494    254.10266    37946.351 
  239700    291.47341     -1469.15    522.29523    365.07383    629.37442    37946.351 
  239800    307.38253   -1479.6139    519.31811    423.24007    592.62865    37946.351 
  239900     305.5315   -1452.1995    526.86449    449.86934    844.65633    37946.351 
  240000    296.19513   -1445.8346     537.5807    424.92727     827.2173    37946.351 
  240100    299.39462   -1489.9193    498.54091     356.2037    351.53154    37946.351 
  240200    302.12183   -1494.5745    527.77565    393.05849    408.12957    37946.351 
  240300    300.69525   -1512.8038    528.28088    368.91341    627.30639    37946.351 
  240400    298.90212    -1458.528    503.65283    390.49021    669.55232    37946.351 
  240500    293.31994   -1459.4969    520.71361    381.45655    535.34788    37946.351 
  240600    308.42913   -1469.5124    503.34281    422.07703    493.70069    37946.351 
  240700     301.8331    -1521.163    507.57178    344.96657    608.14249    37946.351 
  240800    308.40614   -1482.6238    494.87216    400.39159    284.69174    37946.351 
  240900     301.9887    -1460.742    522.02221    420.53831   -129.15011    37946.351 
  241000    303.95102   -1455.0116    524.87753    437.95655   -151.53122    37946.351 
  241100    295.21723   -1472.2504    524.45901    380.98821     280.6412    37946.351 
  241200    300.23129   -1474.9527    512.86684    389.26212   -9.2631895    37946.351 
  241300    302.47181   -1504.2324    507.26968    364.46993   -24.595599    37946.351 
  241400    302.83409   -1509.6001    522.61749     376.0806    113.74982    37946.351 
  241500    293.21594   -1486.3903     516.4153     349.7967    914.50316    37946.351 
  241600    305.00204   -1539.0494    510.13771    343.90951    897.68045    37946.351 
  241700    295.39388   -1532.7706    519.80425    316.60838    101.70842    37946.351 
  241800    305.79337   -1510.3861    468.23969    334.23663   -529.28575    37946.351 
  241900    292.86263   -1499.0135    488.48606    307.65406   -259.16871    37946.351 
  242000    297.89603   -1502.1281    507.54166    346.25051    296.06668    37946.351 
  242100    290.31916     -1566.01    490.95687    231.68007    78.678619    37946.351 
  242200    302.94659   -1518.2133    477.77167    323.12804   -252.35455    37946.351 
  242300    302.67993   -1541.7471    488.46016    309.08242    57.963251    37946.351 
  242400    299.22666   -1527.2557    493.50254    313.07292   -128.25105    37946.351 
  242500    287.28134   -1511.8343    499.85745    281.08308    51.521857    37946.351 
  242600     300.5928   -1510.0527    489.98127    332.90376    411.41036    37946.351 
  242700    298.61571   -1521.6314    499.21213    321.65693    1171.1924    37946.351 
  242800    299.60457   -1548.7633    509.55899    309.32282    799.68394    37946.351 
  242900    297.58923    -1532.744     489.2671    295.97911    548.95789    37946.351 
  243000    309.11441   -1511.4431     518.4952    398.38325    229.95698    37946.351 
  243100    303.11041   -1513.4554    491.38799    342.23953    597.71537    37946.351 
  243200    298.93145   -1510.9437    485.71338    320.26703   -351.63063    37946.351 
  243300     307.3607   -1500.0384     483.0947    366.49392   -67.080447    37946.351 
  243400     304.3801    -1486.229    510.37136    394.16428   -271.79185    37946.351 
  243500    296.76949   -1487.6291    504.81392    352.95117   -193.55849    37946.351 
  243600    299.85791   -1444.1057    488.16926    393.73092   -70.840362    37946.351 
  243700    300.87739   -1476.2094    520.91671    398.96344    200.81016    37946.351 
  243800     297.1845   -1476.7761    469.12136    329.97953    232.93594    37946.351 
  243900    304.80248   -1502.4783    483.66581    353.11055   -38.608787    37946.351 
  244000    296.71905   -1514.5872     521.7183    342.67039    -125.2213    37946.351 
  244100    310.49975   -1521.8601    492.39918    368.10559    238.33051    37946.351 
  244200    294.47944   -1541.7954    506.46302    290.12645    86.078875    37946.351 
  244300    300.01654   -1510.1888    485.52173     325.7143    1.8696279    37946.351 
  244400     299.9671   -1522.1187    516.59761    344.63772    455.08001    37946.351 
  244500    297.45871   -1485.5432    506.89757    360.22288    365.37607    37946.351 
  244600    315.56443   -1478.7961    508.54469    450.11138    414.31015    37946.351 
  244700    287.05613    -1537.083    499.02276    253.98609   -657.44277    37946.351 
  244800    302.95937   -1500.0683    488.26598    351.82479   -1.6116966    37946.351 
  244900    305.41678   -1493.0025    523.01485    404.70033   -23.074778    37946.351 
  245000    309.02502   -1518.4381    506.43481    378.92544   -241.47099    37946.351 
  245100    312.70304   -1489.4682    518.76411    436.77952   -216.39071    37946.351 
  245200    300.36979   -1499.7734    476.24549    328.44348    239.40579    37946.351 
  245300     300.0467   -1486.4469    514.86454    378.93478   -410.80483    37946.351 
  245400    296.19074   -1493.7667     506.7384    346.13307    523.13431    37946.351 
  245500    306.77612    -1515.475    490.95195    356.28336    858.06983    37946.351 
  245600     301.8553   -1486.2979    490.39629     362.7561    547.77491    37946.351 
  245700    304.89578   -1466.3995     546.5018    452.44527    282.53493    37946.351 
  245800    291.64929    -1463.291    490.94549    340.37468    764.32764    37946.351 
  245900    302.89208   -1524.2077    530.34872    369.46529   -287.86979    37946.351 
  246000    294.15177   -1506.4093    494.93829    312.51288   -343.27148    37946.351 
  246100    297.54028   -1463.0448    497.73488    373.92579   -53.485429    37946.351 
  246200    306.50402   -1482.2403    495.24605    392.58747    5.2549877    37946.351 
  246300    295.43049   -1484.3457    507.65347    353.04728    6.3697904    37946.351 
  246400    305.64984   -1503.3821    505.99491    378.34984    238.09236    37946.351 
  246500    306.19623   -1492.0329    522.16371    408.32709    70.765617    37946.351 
  246600    300.29828   -1513.3546    497.86678    336.16173    181.99039    37946.351 
  246700    306.32751   -1515.4342    489.60914    352.96219   -638.60847    37946.351 
  246800    307.99285   -1485.9296    497.09843    397.45182   -410.91141    37946.351 
  246900    297.65103   -1527.6747      487.327    299.38647   -253.94855    37946.351 
  247000    292.49896   -1478.1444    509.88871    348.28895    67.215064    37946.351 
  247100    290.51573   -1506.5562    526.46979    327.53158   -270.35848    37946.351 
  247200    291.53786   -1453.7692      486.415    344.86447   -212.51294    37946.351 
  247300    297.87461   -1483.4379    509.50061    366.80322   -90.825635    37946.351 
  247400     293.3725   -1483.4324    519.15481    356.19882   -557.31884    37946.351 
  247500    307.08948   -1515.4336    485.52359    352.30687   -76.489386    37946.351 
  247600    280.24569   -1510.4782    501.46334    252.37747     -561.578    37946.351 
  247700    296.37081   -1533.0713     489.4249    290.32544   -403.41487    37946.351 
  247800    296.62012   -1524.8506    498.95353    309.19695   -556.50935    37946.351 
  247900    294.26155    -1553.047    492.56494    263.99595   -577.05702    37946.351 
  248000    300.01533   -1602.0127    486.42141    234.78468   -249.57178    37946.351 
  248100    305.42923   -1541.5426    484.61993     317.8214   -23.146132    37946.351 
  248200     299.4044    -1561.337    502.66837    288.95751   -17.535688    37946.351 
  248300    297.37958   -1587.2044    488.08453    239.39246    159.29138    37946.351 
  248400    289.23634    -1554.412    505.08612    252.53362    214.96019    37946.351 
  248500    295.53502   -1552.1168    480.55161    258.64476    342.99081    37946.351 
  248600    293.21586   -1568.1374    498.29814     249.9321    107.13988    37946.351 
  248700    300.39152   -1532.5983    492.76176    312.23268     187.3947    37946.351 
  248800    291.35401   -1581.3074    471.91669    202.00043    331.06267    37946.351 
  248900    299.46387   -1554.0786    489.81632    283.63154    180.95081    37946.351 
  249000    295.69681   -1526.8325    493.88284    297.98857     180.0273    37946.351 
  249100    315.08501    -1522.688    521.29802     416.8149   -489.11172    37946.351 
  249200    290.12033   -1528.7623    479.69517    256.77114   -210.97921    37946.351 
  249300    299.08894   -1541.2608    500.92949    305.87494    15.061221    37946.351 
  249400    307.35519   -1548.5357    503.44498    338.32213   -375.87427    37946.351 
  249500    295.34121   -1540.7938    483.83044    272.37425   -20.032795    37946.351 
  249600    307.63782    -1565.928     482.1637    300.92066    179.98897    37946.351 
  249700     293.7442   -1535.1892    475.91071      262.871   -318.26541    37946.351 
  249800     296.3629   -1538.0046    511.73413    307.66584   -364.33322    37946.351 
  249900    299.56993   -1510.5798    518.75317    356.54454   -397.57646    37946.351 
  250000    295.37646   -1502.7841    485.17654    311.88876   -371.16077    37946.351 
  250100    297.29235    -1563.214    470.25047    245.15625   -161.90544    37946.351 
  250200    294.81567   -1542.1114    519.04568    303.90647   -212.64911    37946.351 
  250300    305.92286   -1553.5301    475.04988     298.4857   -191.89937    37946.351 
  250400    300.85736   -1512.4159    506.88188    348.63188    247.87018    37946.351 
  250500    289.79561   -1545.5034    478.17954    237.05284    55.585268    37946.351 
  250600    302.81061   -1541.2206    496.52797    318.26498    -77.82752    37946.351 
  250700    304.82326   -1522.6767    506.76872    356.10861    223.39067    37946.351 
  250800    302.55187   -1515.3152    491.01265    337.49041   -129.06814    37946.351 
  250900    299.38919   -1486.4552    520.89838    382.00082    109.76887    37946.351 
  251000    301.65148    -1465.952    499.72111    391.50941    104.73718    37946.351 
  251100    300.69513   -1523.9665    482.23647    311.70566   -37.925646    37946.351 
  251200    299.94478   -1505.9799    482.97768    327.05625   -158.10411    37946.351 
  251300    306.71513   -1474.7762    496.38716    402.14291   -242.03082    37946.351 
  251400    283.59684   -1474.7632    516.81655    318.52924   -482.74904    37946.351 
  251500    301.15196   -1480.2959    472.78989    347.98599   -299.87975    37946.351 
  251600    302.00543   -1542.1886    517.71035    334.85522   -22.887983    37946.351 
  251700    304.38335   -1472.1702    493.82263    391.68898   -204.31641    37946.351 
  251800     288.8946   -1496.7633    506.89011    310.44805   -137.04586    37946.351 
  251900    291.91207   -1497.9061    502.75393    318.75082     49.66906    37946.351 
  252000    298.99017   -1533.4374    501.32692    313.65121   -519.52784    37946.351 
  252100    295.98726   -1503.0086    483.67636    312.91328   -332.32413    37946.351 
  252200    303.17378   -1473.3789    527.63634    418.84961   -172.21027    37946.351 
  252300    293.24348   -1525.6998    506.83991    301.03585    431.08858    37946.351 
  252400    301.13235     -1510.84    507.91047    352.47412    449.04049    37946.351 
  252500    302.73511   -1505.7168    495.20905    352.10997    225.65015    37946.351 
  252600    287.06852   -1482.5099    490.26416    299.85629    117.08929    37946.351 
  252700    285.15642   -1457.9877    508.45664    333.96457   -602.14918    37946.351 
  252800      298.255   -1502.9976    511.14447    350.59951   -791.82521    37946.351 
  252900    299.21496   -1500.9026    510.91709    356.78795   -431.74931    37946.351 
  253000    299.52025   -1473.3095    512.87157    387.70963   -265.78191    37946.351 
  253100    294.70671   -1501.3652    498.09132     323.2078   -162.86279    37946.351 
  253200    304.10211   -1487.9678    501.48413      382.287   -55.340716    37946.351 
  253300    282.38879    -1502.571    495.19998    263.66742   -377.96228    37946.351 
  253400    288.79841    -1465.369    521.39498     355.9143    399.15771    37946.351 
  253500    298.42154   -1437.2057    525.06199    431.05858    510.85858    37946.351 
  253600    304.01535   -1486.1471    498.76062    380.99364    561.77379    37946.351 
  253700    293.14561   -1499.1759    504.76365    325.04299   -5.8069142    37946.351 
  253800    306.82271   -1531.8698    518.78045    367.92681    10.531556    37946.351 
  253900    296.61511    -1500.776    513.72993    348.02542    32.460687    37946.351 
  254000    292.96771    -1517.504    533.50267    334.65318     430.8311    37946.351 
  254100     283.7506   -1495.2504    504.09728    286.01485    420.06356    37946.351 
  254200     299.9981    -1533.379    518.63498    335.55438    -266.0039    37946.351 
  254300    301.74651   -1483.6711    537.77001    412.26701    -554.9756    37946.351 
  254400    302.69756   -1507.0993     492.8282    348.17768   -168.53808    37946.351 
  254500     297.5896   -1510.1957    500.31974     329.5817   -293.89269    37946.351 
  254600    309.47413   -1506.7196    498.46356    384.69419   -338.08228    37946.351 
  254700     298.3073   -1459.5498    507.87674    391.01498   -115.60518    37946.351 
  254800    310.43669    -1468.713    519.52852    448.09828    -364.2422    37946.351 
  254900    305.77283   -1497.4708    490.24542    369.06521   -463.53557    37946.351 
  255000    299.09727   -1506.9679    503.60164    342.87749   -444.19844    37946.351 
  255100    307.23426   -1486.9372    515.98009    411.91137   -867.30152    37946.351 
  255200    304.10259   -1456.4028    513.29479    425.66475   -1049.2137    37946.351 
  255300    299.32305   -1468.2858    508.92437    387.89852   -998.55367    37946.351 
  255400    309.42713   -1485.0711    497.67227    405.33989   -681.27576    37946.351 
  255500    302.34129    -1487.444     496.0388    369.43992   -547.11102    37946.351 
  255600    292.13727   -1531.4259     500.3406    283.83131     -647.616    37946.351 
  255700    307.12993   -1512.5119    484.56769    354.45468   -277.12544    37946.351 
  255800    303.80126   -1500.1747    539.64897    406.89074     240.1262    37946.351 
  255900     302.9869   -1550.8521    501.06299    313.96195    472.16379    37946.351 
  256000    308.19287   -1527.2084     480.2618    340.23668    139.05809    37946.351 
  256100    306.97528   -1482.2874    497.01602    396.43149   -434.33049    37946.351 
  256200    294.41295   -1482.1973    503.75117    346.71339    109.44635    37946.351 
  256300    311.63684   -1538.4986    505.20582    369.39188   -361.10449    37946.351 
  256400    289.01557   -1527.3001    495.83899    269.40469   -488.91129    37946.351 
  256500    300.26697   -1530.4525    474.79232    295.84836   -259.38873    37946.351 
  256600      304.642   -1516.3419    477.78632    332.64512   -677.86166    37946.351 
  256700    302.33334    -1493.096    510.86848     378.5818    340.89721    37946.351 
  256800     306.5685   -1474.8244    496.34041    401.38791    -62.70636    37946.351 
  256900    306.40157   -1502.7578    511.83127     388.1941    361.99623    37946.351 
  257000    298.76119   -1524.4683    520.17494    340.43766    706.10196    37946.351 
  257100    306.95398   -1518.9969    494.30803    356.91813    1029.6163    37946.351 
  257200    307.43495   -1481.4849    504.84062    407.12759     475.7567    37946.351 
  257300    294.30306   -1527.3236    507.45146    304.79281     433.2293    37946.351 
  257400    298.14655   -1477.2498    488.71865    353.43341    410.47206    37946.351 
  257500    302.32934   -1505.3018    498.81301    354.30252    309.98103    37946.351 
  257600    310.47688    -1464.343    530.40391    463.52454   -74.516525    37946.351 
  257700    311.63265   -1453.9532    485.80509    434.51764    505.42828    37946.351 
  257800    293.46849   -1520.8032     491.0087    291.11397    530.27501    37946.351 
  257900    304.55116    -1499.007    523.90536    395.69019    46.025252    37946.351 
  258000    307.26927   -1521.6306    500.72138    362.11693    372.83099    37946.351 
  258100    300.73254    -1509.604     479.9689    323.96904    368.43679    37946.351 
  258200    293.63633   -1493.9073    507.32387    335.08049   -244.38562    37946.351 
  258300    306.69657   -1495.9165    489.78554    374.31745    144.50198    37946.351 
  258400    298.67678   -1491.4877    487.55662    340.42002   -155.58457    37946.351 
  258500    304.45125   -1497.2275    496.45806    369.57267    275.62091    37946.351 
  258600    292.34954   -1509.1737    507.37152    314.06986    981.42232    37946.351 
  258700    295.74187   -1498.0031    492.12582    325.26369    583.31283    37946.351 
  258800    297.19084   -1503.7266     505.6201    339.55633    120.94278    37946.351 
  258900    305.49106   -1480.3796    517.94889    412.59165    173.30169    37946.351 
  259000    306.21844   -1497.1675    484.13564     365.2644   -90.169048    37946.351 
  259100    305.74687   -1467.6067    494.35997    402.92707     20.03443    37946.351 
  259200    299.29711   -1516.9264    501.67726    331.89402   -688.09239    37946.351 
  259300     309.1694   -1509.1321    490.60516    373.05172   -295.77381    37946.351 
  259400     298.6918   -1535.2552    501.11016    310.27362    377.80154    37946.351 
  259500    299.27055   -1555.3445    481.90243    273.58157     315.5635    37946.351 
  259600    291.00667   -1585.6949    490.18701    214.31985    213.30942    37946.351 
  259700    296.84663    -1543.653    477.47661    269.93714    286.18884    37946.351 
  259800    311.09661   -1564.5244    497.43389    333.16253     161.0285    37946.351 
  259900    301.07182   -1488.4302    504.94089    371.64187     485.8981    37946.351 
  260000    302.81133   -1520.8022    495.18262    337.34121    494.02008    37946.351 
  260100    295.03553   -1507.9147    473.80741    293.85448    399.10715    37946.351 
  260200    306.56812   -1485.2775    498.44216    393.03481    830.28046    37946.351 
  260300    309.78743   -1481.7278    508.47965    421.11221    770.52427    37946.351 
  260400    312.48338   -1494.6299     491.1478    403.01282    913.66512    37946.351 
  260500     307.6394   -1500.5383    504.07442     388.2282     613.2145    37946.351 
  260600    309.97106   -1465.3818    490.05855    419.86367    497.81398    37946.351 
  260700    301.59571   -1439.2441    493.90253    412.14771    430.67809    37946.351 
  260800    298.50948   -1500.8499    487.81349    330.56165    513.74962    37946.351 
  260900    286.20253   -1480.3605    515.64963    323.49336   -53.974271    37946.351 
  261000    305.53914    -1487.869    480.47899    367.84871   -491.85965    37946.351 
  261100    297.78213   -1430.1525     499.5042    409.67594   -68.452259    37946.351 
  261200    306.84424   -1483.2677    512.01137    409.85665   -446.33305    37946.351 
  261300    288.86118   -1492.1383    508.15463    316.18723   -382.48687    37946.351 
  261400    308.47595   -1479.3179    496.82768    405.96721    18.441896    37946.351 
  261500    286.20363   -1508.1948    487.58263    267.59703   -145.50438    37946.351 
  261600    295.03324   -1504.5546    486.85246    310.24935    285.89403    37946.351 
  261700    298.81981   -1459.8871    499.81354    384.92136    470.53414    37946.351 
  261800    309.11265   -1479.4334    467.86997    379.75978    340.34511    37946.351 
  261900    298.16936   -1464.2899     463.1171    340.89445   -25.776344    37946.351 
  262000    305.73471   -1491.3119    521.20138    406.00851     914.6675    37946.351 
  262100    298.93234   -1494.9489    489.73575    340.28821     797.4232    37946.351 
  262200    304.74433     -1492.68    494.13394    373.11528    400.53137    37946.351 
  262300    298.56889   -1486.2239    503.74032    361.38194    452.99949    37946.351 
  262400    296.47265   -1511.5982    493.34933    316.18133    12.593073    37946.351 
  262500    301.89042   -1541.2746    496.39014    313.93132    37.929642    37946.351 
  262600    299.80712   -1528.4021    495.18714    316.22384    -86.99657    37946.351 
  262700    295.20919   -1526.5925    490.14456     292.2955   -440.58876    37946.351 
  262800    300.03617   -1492.6229    491.38838    349.23521   -325.41139    37946.351 
  262900    309.98887   -1466.1505    490.71122    419.82786   -469.61058    37946.351 
  263000    298.67077   -1471.5971    485.04743    357.77445   -1120.2357    37946.351 
  263100    308.00416   -1514.9664     483.9408    355.30823   -970.15703    37946.351 
  263200    285.58397   -1486.6069    471.93952    270.75274   -830.70916    37946.351 
  263300     295.3394   -1497.0091    492.74948    325.06986    -324.8144    37946.351 
  263400    293.18406   -1484.2996    499.08709    334.41576   -387.63895    37946.351 
  263500    303.83948    -1487.164     508.0329     388.4575    153.63847    37946.351 
  263600    293.16145    -1438.489    521.15493    402.19239   -54.771052    37946.351 
  263700    295.19536   -1468.8774    526.85614    386.65993    153.04877    37946.351 
  263800    303.04312   -1496.2811    480.50116    348.22417   -401.32051    37946.351 
  263900    311.33801   -1487.7647    500.66263    414.23754   -230.03666    37946.351 
  264000     285.5625   -1479.2429     546.2314    352.31189   -971.04092    37946.351 
  264100    295.77508   -1504.7442    481.70078    308.24704   -711.64634    37946.351 
  264200    304.49093   -1502.7856    500.63643    368.37162   -619.58614    37946.351 
  264300    298.07404   -1437.1943    472.19504    376.63885    173.13347    37946.351 
  264400    300.24449   -1451.6636    515.91817    415.66197   -400.01675    37946.351 
  264500    308.51378   -1423.2921    521.33032    486.66589    232.78436    37946.351 
  264600    300.88802   -1483.0463     473.0257    344.28336    342.25617    37946.351 
  264700    304.81787   -1481.7804    504.88849    395.10038    136.83977    37946.351 
  264800    294.17563   -1458.8701    534.95906    400.18031    442.06277    37946.351 
  264900    313.49172   -1479.3546     493.7653    425.44422    226.05057    37946.351 
  265000    306.23556   -1416.7325     491.0146    452.65542    157.90381    37946.351 
  265100    288.02401   -1436.7568    511.93876     371.5847    166.31533    37946.351 
  265200    289.91049   -1502.3399    488.60132    291.15527   -292.36658    37946.351 
  265300    300.65277   -1466.4673    510.50944    397.28723   -355.34602    37946.351 
  265400    315.04013    -1486.375    499.70958    431.33746   -555.10992    37946.351 
  265500    292.25487   -1474.2913    492.79426     333.9489   -1017.8039    37946.351 
  265600    291.88617   -1447.3254    513.67651    380.13752     -921.058    37946.351 
  265700    300.42035   -1474.7552    469.42676    346.87046   -250.18087    37946.351 
  265800    298.15174   -1446.1124    504.35602    400.23154   -401.40023    37946.351 
  265900    307.46265   -1447.3248    512.45042     449.0221   -714.59364    37946.351 
  266000    291.12094    -1440.915    504.17027    373.59738   -383.75224    37946.351 
  266100    299.68151   -1422.8348    501.99334    428.03197   -444.61023    37946.351 
  266200    294.48865   -1464.6323    493.22783    354.09574    -660.4259    37946.351 
  266300    299.69424   -1469.1128     504.0188    383.83666    57.644232    37946.351 
  266400    290.65364   -1483.6451    493.37264    317.96634    163.59849    37946.351 
  266500    308.55328   -1521.0584    476.53315    344.28027    377.28887    37946.351 
  266600    309.10744   -1538.0625    500.69148    353.92876    432.40218    37946.351 
  266700    294.18761   -1533.9556     495.5692    285.75889    103.77178    37946.351 
  266800     296.0036   -1493.9863    506.29954    344.63234    259.82892    37946.351 
  266900    301.19771   -1519.0568    508.77324    345.41434   -135.04476    37946.351 
  267000    285.95886   -1520.6952    506.18447    272.59669   -319.04755    37946.351 
  267100    305.85264   -1502.5842     492.0044    366.07007    -306.7495    37946.351 
  267200    297.83581   -1519.7545    490.04018    310.85156    -432.7983    37946.351 
  267300    300.46864   -1506.2207    486.41198    332.60766   -142.91401    37946.351 
  267400    302.01607   -1457.0064    491.14467    393.51961   -350.36966    37946.351 
  267500    301.18288   -1485.0001    493.74214    364.37314     -428.554    37946.351 
  267600    284.79363   -1423.1145    495.64743    354.39561   -191.88872    37946.351 
  267700    305.95539   -1467.7048    515.43617    424.84366    73.696842    37946.351 
  267800    308.91122   -1483.0025    484.48322    391.89723      249.549    37946.351 
  267900    301.80665   -1463.2142     501.7036    396.92811   -325.27449    37946.351 
  268000    295.99104    -1438.778    504.20437    397.68887   -748.86276    37946.351 
  268100    298.94883   -1455.6038    530.10163    420.07341   0.30979373    37946.351 
  268200    298.55413   -1409.8804    505.96224    439.88097   -541.04598    37946.351 
  268300    301.18214   -1419.0863    513.42153    449.96307    -367.1265    37946.351 
  268400    298.68299   -1420.0231    521.85735    446.21335   -303.23922    37946.351 
  268500    299.54258   -1448.6749    488.96479    388.53804   -552.96089    37946.351 
  268600    302.46008   -1434.3637    525.25572     452.2718   -43.164204    37946.351 
  268700    303.81048   -1467.5636    494.86007    394.75447   -340.14368    37946.351 
  268800    295.67418   -1456.1058    514.66689    389.39744   -834.36942    37946.351 
  268900    307.82702   -1454.6326    504.20732     435.1113   -447.93403    37946.351 
  269000    300.23782   -1484.7285    512.62566    379.27461   -111.63308    37946.351 
  269100    300.07325   -1459.0476    484.73025    376.31928    158.55226    37946.351 
  269200    296.25991   -1427.1221    502.84526    409.19592   -377.32346    37946.351 
  269300    304.49397   -1457.5283     495.9637    408.96985    47.034067    37946.351 
  269400     300.5085   -1454.6284    541.89682    439.86412    296.19516    37946.351 
  269500    293.87379   -1498.4159    488.15685    312.47366    139.83448    37946.351 
  269600    290.10997   -1526.7698    496.83434    275.85628    338.25566    37946.351 
  269700    292.10402   -1487.9582    516.98324    343.79201   -297.61893    37946.351 
  269800     300.9805   -1473.3193    503.95052     385.3514    175.06468    37946.351 
  269900    306.20014   -1462.5642    506.45638    422.10614   -597.50237    37946.351 
  270000    289.06071   -1445.7473    514.42176    369.74342   -567.39829    37946.351 
  270100    318.18406   -1466.2654    496.02525    461.91368    164.62427    37946.351 
  270200    300.13611   -1458.0405    533.03244    425.91153   -692.73199    37946.351 
  270300    303.83018   -1477.5213    505.37836    395.40369    22.941936    37946.351 
  270400    294.87779   -1476.9619    503.10174    353.39158   -83.490788    37946.351 
  270500    306.77461   -1475.0015    536.48763    442.28578    142.09001    37946.351 
  270600    300.41915   -1459.9435     514.2763    406.52635   -514.35449    37946.351 
  270700    292.47584   -1493.8004    491.70339    314.34347    25.259689    37946.351 
  270800    301.55622   -1484.8354    518.93545    391.41154    202.63957    37946.351 
  270900    305.61625   -1529.3802     511.0567    357.26232    259.29971    37946.351 
  271000    294.32026   -1521.7708    489.38538    292.35684   -211.10628    37946.351 
  271100    296.29075   -1448.1793    529.71915    415.15141   -104.54066    37946.351 
  271200    303.42893   -1496.9624    487.97269    356.75097   -146.06213    37946.351 
  271300    308.60442   -1478.3873     488.7227    399.37102    27.830835    37946.351 
  271400    304.72148   -1473.3344    519.64783    417.87189   -124.81302    37946.351 
  271500    300.38383   -1482.7062    497.64288     366.9713   -107.26601    37946.351 
  271600    299.95164   -1475.2929    484.17087    358.96731   -13.995767    37946.351 
  271700    307.47685   -1502.8361    517.75837    398.88276   -68.095457    37946.351 
  271800    304.80397   -1475.5574    498.10132    394.47365   -251.01109    37946.351 
  271900    297.01206   -1454.5536    522.91528    405.21979   -189.68874    37946.351 
  272000    299.85921   -1465.2755    508.38016    392.77789    60.694585    37946.351 
  272100    307.57238   -1465.7744    470.18871    388.80474    259.82088    37946.351 
  272200    302.39697    -1432.866    533.25156    461.48133     549.8782    37946.351 
  272300    298.33039   -1478.5304    503.72906     367.9906     459.3129    37946.351 
  272400    310.67609   -1485.0892    515.93691    429.20803    438.06061    37946.351 
  272500    315.23042    -1474.813    491.10078     435.1472   -48.788545    37946.351 
  272600     300.7625   -1512.9653    482.00718    322.78083    540.95331    37946.351 
  272700    297.11323   -1526.5941    497.20816    307.92759   -340.59625    37946.351 
  272800    298.42923   -1481.5246    488.09652    349.80876    359.15268    37946.351 
  272900    297.45156   -1494.7679    503.39771    347.46624    159.30086    37946.351 
  273000    301.32632   -1495.6646    483.94582    344.55799   -6.1953004    37946.351 
  273100     299.3215   -1452.5806    501.13719    395.80956     33.30878    37946.351 
  273200    295.03537   -1469.3506    490.23425    348.84465   -282.14637    37946.351 
  273300     302.4869   -1428.2028    511.81409    445.11188   -318.92956    37946.351 
  273400    297.57955   -1421.6552    502.49839    420.25564    -114.1204    37946.351 
  273500    299.09019   -1487.6491    501.76201    360.32473   -344.99831    37946.351 
  273600    293.55905   -1438.2557    496.36591     379.4263   -505.47915    37946.351 
  273700    300.97403   -1419.9312    502.15127    436.91113    -415.2304    37946.351 
  273800    301.77612   -1444.7275    503.03419    416.60798   -358.84409    37946.351 
  273900    295.61905   -1483.1244    499.72946     347.1932   -460.44891    37946.351 
  274000    305.17492   -1462.4117    513.58995    424.77769   -23.102055    37946.351 
  274100    299.43545   -1462.7689    487.18626    372.18326    132.70502    37946.351 
  274200    309.55685   -1538.4251    486.59724    341.49471    422.47656    37946.351 
  274300    310.05941   -1540.7993    517.22853    372.01388     554.0727    37946.351 
  274400    301.90879   -1508.1078    473.83568    324.62637    192.81577    37946.351 
  274500    308.62866   -1471.4395    525.32936    443.03467    392.48188    37946.351 
  274600    311.25376   -1479.5283    506.62759    428.05968    157.78952    37946.351 
  274700    315.75112   -1474.8537    478.93524    425.28459    830.53662    37946.351 
  274800     300.9723    -1508.484    509.03056    355.22986    312.39869    37946.351 
  274900    305.56576   -1501.3671    523.73989     397.7314    129.50394    37946.351 
  275000    298.02966   -1525.6346    489.40996    305.21379    63.698256    37946.351 
  275100    311.06619   -1541.6524    502.62746    361.09116    27.392149    37946.351 
  275200    292.16417   -1594.0784    487.49155    208.45085   -385.25686    37946.351 
  275300     292.0577   -1540.6355     519.2438    293.16677    -121.1057    37946.351 
  275400    289.93326    -1550.543    488.11299    242.56626    68.562102    37946.351 
  275500    303.92089   -1571.0908    475.12871    271.99291    428.65367    37946.351 
  275600     298.2067   -1572.2416    499.35711    269.35075    323.12631    37946.351 
  275700    299.34342   -1523.6319    532.91694     356.6367    304.39723    37946.351 
  275800    301.88643   -1497.6519    520.33875    381.48472   -139.96812    37946.351 
  275900    295.97043   -1501.9362    495.36185     325.5954    600.94171    37946.351 
  276000     313.7758   -1486.9492    525.18729     450.5503    580.64127    37946.351 
  276100    302.79828   -1490.0001    505.91966    378.82165    352.15332    37946.351 
  276200     294.3068   -1486.6316    501.47106    339.52115    145.46328    37946.351 
  276300    298.73237   -1522.9528    501.10173    322.75023    357.73589    37946.351 
  276400      298.216   -1476.9977    514.33647     379.6159    224.67468    37946.351 
  276500    297.17523   -1522.7448    495.50895    310.35678    52.471584    37946.351 
  276600    303.37931   -1487.9158    505.61248    383.21395      40.7866    37946.351 
  276700    306.68066   -1497.1463    491.59923    374.82966     457.1498    37946.351 
  276800    304.58111   -1506.5104    499.30712    363.72335 -0.033806829    37946.351 
  276900    314.99561   -1516.2074    514.04187    415.63698    352.39533    37946.351 
  277000    302.96576   -1554.3174    494.99924    304.33781   -563.46522    37946.351 
  277100    304.17294   -1491.4085    518.63977    396.32074   -370.03371    37946.351 
  277200    303.51744   -1512.8153    498.63766    351.96139     -138.615    37946.351 
  277300     288.3356   -1527.9203    483.90528    253.79018    -377.3773    37946.351 
  277400    314.47839    -1470.404    482.65044    427.72095   -600.09092    37946.351 
  277500    295.81832   -1498.3495     508.7686    341.90423   -461.71399    37946.351 
  277600    292.30229   -1500.3028    488.38898    303.74557   -701.15169    37946.351 
  277700    294.66125   -1479.0586     518.3422    365.56076   -663.45606    37946.351 
  277800    306.76366   -1453.6054    518.85073    445.99571   -762.45774    37946.351 
  277900    303.80014   -1433.8803    505.27821    438.80941   -859.47098    37946.351 
  278000    307.42105   -1496.0396    479.05743    366.72712   -769.82287    37946.351 
  278100    307.63584   -1507.3582     493.8149    371.13276    181.01164    37946.351 
  278200    305.26141   -1512.5456    529.34458    390.78767    140.51743    37946.351 
  278300    303.10177   -1457.1668    501.83924    408.94055    508.75725    37946.351 
  278400    294.76511   -1462.2623    528.53693    393.01915    439.11303    37946.351 
  278500     307.8803   -1448.7249    532.84787    469.89937    723.79381    37946.351 
  278600    294.80564   -1475.9094    506.56066    357.57831    304.79996    37946.351 
  278700    298.76964   -1510.5476    542.83772    377.05923    935.01846    37946.351 
  278800    301.82794   -1490.3522    489.52272    357.70503    1122.4072    37946.351 
  278900    300.81673   -1492.6589    524.03018    385.35436    962.22976    37946.351 
  279000    295.69005   -1498.0708    496.19567    329.03269    241.24722    37946.351 
  279100     309.3766   -1452.4229    547.34846    487.43686    291.79423    37946.351 
  279200    299.27795    -1468.596    532.84123    411.30221   -48.032716    37946.351 
  279300    303.82508   -1507.7016    483.26138     343.0835    149.45097    37946.351 
  279400    302.10863   -1499.9911    507.84312    367.64998    326.92326    37946.351 
  279500    304.34894   -1490.7377    503.05043    382.19438    608.93583    37946.351 
  279600    309.47105   -1478.6251    517.20765    431.51897    243.58867    37946.351 
  279700    298.14078   -1491.3762    528.02111    378.58346    238.34171    37946.351 
  279800    292.01194   -1480.0832    522.87212    357.14142   -559.87944    37946.351 
  279900    302.71273    -1500.941    513.61331    375.18938   -173.96413    37946.351 
  280000    297.04919   -1490.1276    495.28716    342.18488   -291.29996    37946.351 
  280100    302.04737    -1470.377    551.91662    441.06182    442.20458    37946.351 
  280200    298.71353   -1517.1729    521.36872    348.71231    52.061978    37946.351 
  280300    296.70981   -1495.7169    523.91958    363.70046    396.90193    37946.351 
  280400    301.41169    -1485.373    508.76399      380.052   -105.35777    37946.351 
  280500    299.49363   -1483.1353    514.93372    379.82614    68.698578    37946.351 
  280600    292.95019   -1485.3518     524.0444    357.26825   -294.56998    37946.351 
  280700    293.13919   -1476.0735    500.96502    344.31783   -279.49504    37946.351 
  280800    302.01492    -1475.325    519.56606    403.61718   -237.58221    37946.351 
  280900    295.83924   -1497.3998    506.53145    340.71093    493.68353    37946.351 
  281000    312.07618   -1496.5085    498.54204    406.69566    370.62786    37946.351 
  281100    297.75539   -1497.6046    518.02939    360.62871     190.0653    37946.351 
  281200    295.00816   -1519.1549     502.5402    311.22386    312.26583    37946.351 
  281300     293.3412   -1476.9241    505.19896    348.61045    428.42084    37946.351 
  281400    290.11183   -1480.6821    519.17594    344.29385    456.49084    37946.351 
  281500    300.66365   -1477.6575    517.91475    393.55128     113.8009    37946.351 
  281600    307.47908   -1454.5472    523.66223    453.08547    179.16448    37946.351 
  281700    302.48262   -1498.1772    517.90853    381.21261    209.64766    37946.351 
  281800    303.20598   -1514.4497    543.42756    393.71501    675.33006    37946.351 
  281900    301.01281   -1542.6041    507.73275    319.99427    296.20812    37946.351 
  282000    297.10728   -1536.9241    526.07104    326.43369    272.69862    37946.351 
  282100    298.22194    -1495.686    505.04133    351.65918   -564.61629    37946.351 
  282200    302.06047   -1522.2493    523.12918    360.46107     40.87168    37946.351 
  282300    298.90221    -1489.176    503.99501    360.18479   -882.68215    37946.351 
  282400    299.33739   -1446.5948    523.16788    423.89756   -206.05704    37946.351 
  282500    297.98549   -1500.0628     498.0272    339.20393   -557.80181    37946.351 
  282600    291.37144   -1492.7316    512.96712    331.70511   -410.74805    37946.351 
  282700    307.72533   -1530.2367    510.14227    364.98442   -399.38247    37946.351 
  282800    297.84285    -1556.738     501.7009    285.56051    190.59139    37946.351 
  282900    298.70487   -1547.1258    477.21125    274.56293    51.120463    37946.351 
  283000    307.21166   -1508.4167    531.91363    406.26369    200.03249    37946.351 
  283100    297.71063   -1528.0463    499.34854    311.30465    253.41933    37946.351 
  283200    296.20156   -1531.2864    506.70277    308.62643    241.37549    37946.351 
  283300     297.4345   -1523.3813    541.55391    356.93214    731.81013    37946.351 
  283400    300.36244   -1516.0948    507.71389    343.55743    441.61365    37946.351 
  283500    306.15979   -1542.9066    490.54695    325.67266    274.72811    37946.351 
  283600    292.90449   -1492.0694    509.85007    336.15057    59.735835    37946.351 
  283700    299.82432   -1484.4613    530.64737    395.70232   -251.73176    37946.351 
  283800    300.40808   -1470.9277    490.66379    371.87984   -58.061406    37946.351 
  283900    301.45177   -1479.2697     535.0875    412.65922   -940.11492    37946.351 
  284000    306.67971   -1507.5517    499.62278    372.44352   -227.23902    37946.351 
  284100    307.71484   -1550.5262    521.83898    356.34439   -362.74003    37946.351 
  284200    299.90071   -1464.7587    522.35025    407.45156   -384.36303    37946.351 
  284300    292.16924   -1454.8321    524.34101    384.56943    -704.4993    37946.351 
  284400    309.73653   -1466.2921    513.64461     441.4838   -412.90997    37946.351 
  284500    297.04039   -1476.4996    519.76159    380.24763   -264.51396    37946.351 
  284600    298.23635   -1461.5762    519.62671    400.41929   -603.76078    37946.351 
  284700    303.91833   -1475.6231    514.33207    406.65244    195.59602    37946.351 
  284800    295.15822   -1523.7552    530.74705    335.50583    93.671992    37946.351 
  284900    314.22085   -1535.6992    516.73503    395.35113   -144.47438    37946.351 
  285000    289.97647   -1499.0348      520.381    326.53699   -25.931463    37946.351 
  285100     306.7766   -1509.0352    525.84477    397.61815    25.203092    37946.351 
  285200    298.63515   -1509.2214    494.48319    329.42551   -465.07092    37946.351 
  285300    300.48395   -1478.9272    526.33248    399.89051   -581.99051    37946.351 
  285400     303.3935   -1515.3294    516.96699     367.2188    -565.3193    37946.351 
  285500    294.07297   -1507.2818    492.74441    309.09185   -58.746664    37946.351 
  285600    302.56717   -1567.2926    514.72223    309.29143   -142.71855    37946.351 
  285700    308.92869   -1541.1028    464.62558    314.01791   -77.504756    37946.351 
  285800    303.90222   -1496.8063    522.49864    393.56331    199.40864    37946.351 
  285900    284.99919   -1522.3851    529.93779    290.34062    733.37684    37946.351 
  286000    307.86818   -1491.1029    503.90418    398.52307    112.84305    37946.351 
  286100    299.87808    -1484.302    502.10791    367.56409   -536.92673    37946.351 
  286200    302.49418   -1498.0832    514.90107    378.35113   -225.10928    37946.351 
  286300    299.57327   -1516.4768    484.54759    316.45699   -453.04656    37946.351 
  286400    298.87912   -1498.8444       528.68    375.09748    -953.3049    37946.351 
  286500    298.53654   -1478.0274    491.21537    356.90787   -103.69343    37946.351 
  286600    290.21771   -1512.7538    512.28958     305.8124   -372.64499    37946.351 
  286700    301.11548   -1526.9967    536.01376    364.34485    26.761598    37946.351 
  286800    298.67718   -1549.5616    505.74073    300.53198    195.52453    37946.351 
  286900    295.28624   -1566.7375    529.21888    291.57161   -313.51431    37946.351 
  287000    310.25458   -1516.6139    520.77573    400.62492   -43.704489    37946.351 
  287100     302.0372   -1520.2763    501.40728    340.60745   -442.48631    37946.351 
  287200    300.52988   -1469.3263    518.80819     402.1738   -244.56164    37946.351 
  287300    305.38388   -1524.8985    527.68261    377.32408    76.103135    37946.351 
  287400    291.75073   -1548.4396    493.86184    258.59905     597.1864    37946.351 
  287500    316.96465    -1547.709    539.22199    418.17823    769.69372    37946.351 
  287600    297.80134   -1542.9718    493.54444    290.98338    526.77021    37946.351 
  287700     304.1711   -1533.6275    534.38868    369.84237    512.33054    37946.351 
  287800    303.77889   -1539.5381    526.46478    354.24253     681.5245    37946.351 
  287900    298.91609   -1537.6145    478.90418    286.71797   -51.972727    37946.351 
  288000    299.56092   -1549.2202    503.72788    302.83834    255.40551    37946.351 
  288100    289.41033   -1527.5557     519.5386     294.6255    110.63588    37946.351 
  288200    301.05792   -1527.4945    522.80961    350.38373     524.6824    37946.351 
  288300    290.37959   -1560.8334    516.89161    263.06349    513.41182    37946.351 
  288400    298.91246   -1568.1279    501.03858    278.32261    540.88801    37946.351 
  288500     299.9616   -1562.1307    509.48018    297.48362     838.4397    37946.351 
  288600    301.38167   -1568.4876    494.78739    282.82566     835.1872    37946.351 
  288700    312.08328   -1563.1458    540.05827     381.6065    990.07957    37946.351 
  288800    297.86119   -1571.4877     508.0513    277.24376    545.83593    37946.351 
  288900    298.17833   -1567.4917    517.98359    292.59949    726.10162    37946.351 
  289000    299.86221   -1564.7206    505.52387       290.49    552.71877    37946.351 
  289100    301.20772   -1581.6274    513.61167    287.72714    423.15989    37946.351 
  289200    301.98695   -1546.6783    490.77438    303.34634    591.35491    37946.351 
  289300    298.50919   -1584.6505    491.70846    250.65475    366.95084    37946.351 
  289400    295.84417     -1576.58    515.61659    270.63812    583.40532    37946.351 
  289500    306.01873   -1541.9956     506.4408    341.84258    383.81585    37946.351 
  289600     296.2183    -1558.907    520.43693    294.81539     404.3643    37946.351 
  289700     309.3595   -1543.7138    513.79519    362.51572    331.88203    37946.351 
  289800    287.68235   -1565.8764    522.85371    251.84221   -96.666089    37946.351 
  289900    298.79797    -1536.113    532.66936    341.45298   -93.364582    37946.351 
  290000    298.20467   -1523.8966    503.05053     321.3801   -139.27447    37946.351 
  290100    303.85121   -1565.3833    521.60277    323.86079    317.97808    37946.351 
  290200    299.08798    -1594.434    506.14839    257.91632   -76.629142    37946.351 
  290300    310.02364   -1542.9424    513.53565    366.01689      522.759    37946.351 
  290400    289.98253   -1521.6846    510.48793    294.02144    567.63873    37946.351 
  290500    291.71208   -1525.1336    510.26574    298.13495    534.75084    37946.351 
  290600    311.87446   -1532.0079    520.93334     392.6796    662.60391    37946.351 
  290700    296.85462   -1537.0748    529.00922     328.0839    1009.7312    37946.351 
  290800    299.24844   -1507.0686     512.5271    352.38268    697.81522    37946.351 
  290900    288.59009   -1558.5036    501.89647    242.34351    144.72345    37946.351 
  291000    301.87859   -1525.8887    495.94005    328.81388    193.65807    37946.351 
  291100    294.96421   -1536.5307    523.35317    314.46323    200.96702    37946.351 
  291200    303.89396   -1525.0709     518.3884    361.15119    225.92695    37946.351 
  291300     300.7796   -1494.7028    531.65589    390.76908      843.379    37946.351 
  291400    297.43945    -1551.284    512.49724    299.99505    309.91441    37946.351 
  291500    294.96517   -1575.6148    517.67265    269.70296    421.03307    37946.351 
  291600    303.83567   -1545.3087    482.97984    305.24254    -230.2599    37946.351 
  291700    291.78478   -1538.5936    496.20628    270.94271   -262.78722    37946.351 
  291800    300.32964   -1553.4843    495.88264    294.18902   -201.12324    37946.351 
  291900    305.01428   -1528.3141    495.68623    340.24847   -288.63571    37946.351 
  292000    304.25885   -1523.3187     509.8226    355.98002   -72.097089    37946.351 
  292100    300.58086   -1558.2076    522.62802    317.34186    -74.24524    37946.351 
  292200    308.99909    -1494.201    494.80832     391.4194    583.67606    37946.351 
  292300    304.77158   -1509.6962    521.36374     383.4515    484.53004    37946.351 
  292400     300.5699   -1509.8262     527.2822    370.32804    862.63844    37946.351 
  292500    301.84461   -1527.8547    510.55699    341.31186    631.94204    37946.351 
  292600      301.947   -1512.4326    501.21584    347.85371    1099.9637    37946.351 
  292700    306.57067   -1505.6347      508.444      382.691    512.46708    37946.351 
  292800    305.69186   -1505.3745    508.29535    378.84696    292.02118    37946.351 
  292900     298.7604   -1522.5809    552.75105    374.89757    1063.3003    37946.351 
  293000    300.89968    -1507.503    525.64706    372.50052    476.20969    37946.351 
  293100    303.68135   -1556.4901    495.47424    305.86097    487.02421    37946.351 
  293200    300.25339   -1510.6805    530.20234    370.96929    774.33832    37946.351 
  293300    300.58056   -1529.4935    506.30209    329.72865    373.14187    37946.351 
  293400     311.4062   -1527.2163    511.04929    385.47955    400.91089    37946.351 
  293500    299.73405   -1568.9362    508.48765    288.66132    156.42511    37946.351 
  293600    302.85849   -1549.7761    488.64325    302.04019    310.67335    37946.351 
  293700    300.18232   -1553.5952    503.43412    300.96653    272.12006    37946.351 
  293800    290.76262   -1567.6884    518.78561    259.82656    400.12945    37946.351 
  293900    293.56972   -1546.7296    513.16088    287.79543    403.71115    37946.351 
  294000    303.24985   -1599.7616    482.65318    247.82615    351.86688    37946.351 
  294100    300.78012    -1554.248    541.71438     341.2847    605.25625    37946.351 
  294200    296.67048   -1545.0131    502.78967    293.09725     400.4634    37946.351 
  294300    300.44404   -1491.5594    505.07935    365.82549     95.17542    37946.351 
  294400    306.67581   -1516.8043    528.65873    392.20938   -86.492047    37946.351 
  294500     302.6014   -1526.2787    510.37111     346.1083    158.77263    37946.351 
  294600    300.43346   -1522.7964    507.12801     336.5896   -153.81427    37946.351 
  294700     290.9713   -1536.0009    519.96896    293.63667    535.01866    37946.351 
  294800    291.74122    -1555.629    506.76709    264.27206    414.02269    37946.351 
  294900     299.1711   -1572.1068    509.49876    283.96804    211.42483    37946.351 
  295000    309.21428   -1503.4138    527.92052    416.28738    699.14576    37946.351 
  295100     299.5809   -1543.7013    498.37834    303.09764    569.79498    37946.351 
  295200    298.80898   -1548.0207    516.29378    313.21922    408.62438    37946.351 
  295300    294.80508   -1537.5712    530.98792    320.34122    454.76433    37946.351 
  295400    295.14053   -1537.3126    528.84746    319.96921    230.79173    37946.351 
  295500     299.7568    -1623.106    525.51718     251.6235    -348.8738    37946.351 
  295600    303.85799   -1553.8573    517.30837    331.12286    279.50854    37946.351 
  295700    291.67928   -1563.5897    524.68643    273.95195   -9.6674792    37946.351 
  295800    299.46676   -1585.3331    515.77189    278.34557    113.14736    37946.351 
  295900    301.16839   -1598.2014    501.01146    258.37601    175.06149    37946.351 
  296000    299.93084   -1571.2312    531.20698    309.97142    179.71946    37946.351 
  296100    299.87918   -1536.4479    531.01916    344.33438   -86.367918    37946.351 
  296200    298.98603   -1538.8004    527.01635    333.95905    682.85818    37946.351 
  296300    289.86876   -1552.2461     526.4902    278.95012    241.30746    37946.351 
  296400     291.2596   -1505.3243    510.10306    315.74492   -313.41479    37946.351 
  296500    308.35825   -1549.6996    517.16308    355.39112   -320.20903    37946.351 
  296600    303.13533   -1524.3033    508.77919    348.89509   -212.75367    37946.351 
  296700    308.93059   -1507.2523    517.73622     400.9877   -205.88708    37946.351 
  296800    297.09755   -1506.3003    530.66552    361.60819   -139.99111    37946.351 
  296900    296.48583   -1524.9519    506.08055    315.61825    -102.7223    37946.351 
  297000    295.92121   -1528.8919    509.67114    312.72751    137.31271    37946.351 
  297100    305.83805   -1534.6215    518.33474    360.29743    152.47643    37946.351 
  297200    294.30336   -1526.2897    506.48189    304.85844   -186.79493    37946.351 
  297300    306.01033   -1490.4063     511.1293    398.08261   -278.47447    37946.351 
  297400    300.93838   -1518.6171    473.27905    309.19254    150.18527    37946.351 
  297500    306.05494   -1516.6422    535.13565    396.05386   -117.27741    37946.351 
  297600    311.34985   -1502.1811    510.39787    409.60972   -247.93473    37946.351 
  297700     298.9404   -1520.7579    498.85231    323.63207    103.61433    37946.351 
  297800    296.41397   -1549.0144    512.90518    298.05691   -560.90863    37946.351 
  297900    295.60387   -1534.4543    521.80021    317.86575   -94.706923    37946.351 
  298000    294.97016   -1561.1057     506.2714    272.83319   -460.26698    37946.351 
  298100    302.37174   -1528.7266    489.72118    321.97678   -499.02893    37946.351 
  298200    300.76054   -1504.8461    534.69707    383.58111   -499.64837    37946.351 
  298300    297.85775   -1517.1341    506.23336    329.76389   -780.46334    37946.351 
  298400     296.7731   -1523.3107    550.73149    363.20335   -512.60254    37946.351 
  298500    301.17398   -1525.1316    503.05576    333.51521    122.12766    37946.351 
  298600    306.93562   -1528.7658    538.89133    391.64982   -614.24199    37946.351 
  298700    300.27431   -1507.8287    519.67216    363.38514   -354.80409    37946.351 
  298800     298.2499   -1512.9703    509.94688    339.40627   -411.45059    37946.351 
  298900    305.37693   -1534.3322    545.87036    386.04676   -193.70377    37946.351 
  299000    288.31126   -1487.4922     554.2835    364.48699   -289.76289    37946.351 
  299100    302.68521   -1480.9131    555.97635    437.45638     388.9665    37946.351 
  299200    293.84726   -1475.4075    539.21416    386.41999    847.80634    37946.351 
  299300    303.58374    -1527.109    553.08172    392.41017    841.61407    37946.351 
  299400    304.28744   -1521.5929    523.87703     371.8889    245.04113    37946.351 
  299500    294.88739   -1549.5641    504.68364    282.41455   -186.57604    37946.351 
  299600     300.3427   -1532.2276    522.29082    341.91272   -235.85976    37946.351 
  299700    312.45611   -1496.7305    519.35934    429.00097    390.43576    37946.351 
  299800     302.6259   -1531.6118    537.96133    368.47572   -366.04393    37946.351 
  299900    303.09595   -1534.8689    504.39834    333.77133    170.24023    37946.351 
  300000    302.45932   -1550.8389    527.09467    337.63218    379.73719    37946.351 
  300100    286.35299   -1514.9829    522.06173    295.96032    10.451458    37946.351 
  300200    304.09582   -1490.2117    533.19334    411.72399    467.68224    37946.351 
  300300    293.48756   -1507.1944     524.4587    338.25861   -111.42535    37946.351 
  300400    305.10809   -1499.5767    531.01748    404.73939    84.078473    37946.351 
  300500    287.90279   -1528.3213    496.21418       263.75   -158.87461    37946.351 
  300600    301.39189   -1543.9315    523.50027    336.14066    -306.0705    37946.351 
  300700    297.64583   -1553.2039    520.85915      307.366   -438.49386    37946.351 
  300800    304.85235   -1528.5635    525.15888    368.74286   -394.24107    37946.351 
  300900    293.75063   -1537.4614    544.92123    329.63826    67.504769    37946.351 
  301000     303.4236   -1537.3391    516.32807    344.70561   -367.30937    37946.351 
  301100    308.72535   -1527.3651     517.6175    379.83229    418.36164    37946.351 
  301200    293.53329   -1515.2623    526.40339     332.3412    296.50114    37946.351 
  301300     300.8486   -1543.1027    497.28314    308.30697    -104.7133    37946.351 
  301400     300.3334   -1522.9451    527.81548    356.67799    816.99587    37946.351 
  301500    298.47522   -1512.9988    502.99649    333.44158    453.83686    37946.351 
  301600    304.00989   -1535.7433    514.88172      347.494    23.438837    37946.351 
  301700     304.6417   -1534.7714    542.67096    379.09891    519.17178    37946.351 
  301800    299.43444   -1504.8449    523.13229    366.04872     899.5993    37946.351 
  301900    300.16754   -1499.8846    535.51161    386.68806     455.4744    37946.351 
  302000    294.12677   -1519.5791    512.84503    317.13732   -190.88645    37946.351 
  302100    305.15394   -1540.9796    538.94603    371.47138    278.86119    37946.351 
  302200    295.33877   -1507.7865    539.94692    361.48709   -636.03327    37946.351 
  302300    293.80609   -1464.7299    499.96538    357.66343    -520.3425    37946.351 
  302400    298.34619   -1495.6433    527.77476    374.99459   0.66058119    37946.351 
  302500    289.39815   -1493.5242     548.9689    358.03251    139.92088    37946.351 
  302600    300.15928   -1529.8612    511.31221    332.47485    218.67051    37946.351 
  302700    300.63623   -1506.3473    547.89351    394.71685    675.44824    37946.351 
  302800    303.78446   -1480.6414    522.09903    408.79851    644.89893    37946.351 
  302900    298.03272    -1509.148    516.73557    349.03976   -187.53788    37946.351 
  303000    301.85967   -1536.8704    524.71716    346.52412    465.52493    37946.351 
  303100    300.60555   -1524.1465    536.33958    365.22564    482.55137    37946.351 
  303200    296.58156   -1489.8856     521.7815    366.81639    690.33478    37946.351 
  303300    297.06495   -1520.0573    522.09671    339.13561    36.983676    37946.351 
  303400    289.60902   -1454.1732    526.90432      376.268    44.022049    37946.351 
  303500    300.66675   -1452.2665     498.4762     399.5177    30.961961    37946.351 
  303600    308.37516   -1489.0343    538.10292    437.07239    226.55166    37946.351 
  303700    306.11274   -1491.1716     533.8003    420.44928     298.3177    37946.351 
  303800    308.97006   -1553.0921    541.69333    379.28259    462.14592    37946.351 
  303900    297.27904   -1520.9852    515.45777    332.53241    258.42842    37946.351 
  304000    309.66351   -1510.5755      532.442    415.66908    263.64348    37946.351 
  304100    297.49749   -1533.2901    534.46135    340.21432    70.181214    37946.351 
  304200     299.4494   -1509.3472     531.8622    370.34372    222.24795    37946.351 
  304300    300.33196   -1501.4786    512.46503     362.7876    51.690284    37946.351 
  304400    297.15419   -1503.3808    531.78139    365.89849   -260.96312    37946.351 
  304500    298.21247   -1554.6368    533.01193    320.63637   -157.42172    37946.351 
  304600    293.95051   -1517.7778    545.38019    350.68038    88.764827    37946.351 
  304700    312.91366   -1545.7161    497.22712    359.94263    220.63172    37946.351 
  304800    304.30566   -1527.7445    547.18694    389.12922   -171.97882    37946.351 
  304900    298.55517   -1540.2126    540.07908     343.6702   -147.58561    37946.351 
  305000     291.5143   -1517.8497    528.10912    322.37204   -48.320778    37946.351 
  305100    298.36698    -1512.512    546.24729    376.69203   -93.159993    37946.351 
  305200    302.12822   -1534.9905    537.46952    362.36514   -56.571339    37946.351 
  305300    304.48853   -1544.5789    542.72294    368.65398    33.694407    37946.351 
  305400    294.68719   -1502.9975    530.42835     353.8247    -132.1224    37946.351 
  305500    295.55595   -1518.6591    541.31178    352.95685   -76.771276    37946.351 
  305600    288.13827   -1517.8567    526.91604    305.97642    171.23413    37946.351 
  305700    289.26505   -1548.6964    525.24732    278.53958     136.5992    37946.351 
  305800    308.08784   -1522.1259    533.63502    398.21964    300.74599    37946.351 
  305900    312.35666   -1532.7065    522.27933    395.49735    247.95647    37946.351 
  306000    294.09763   -1525.8357    491.02467    288.92926   -415.46137    37946.351 
  306100    308.48456   -1525.6085    519.77602    382.66365   -864.87496    37946.351 
  306200    307.75428   -1518.8436    536.20332    402.56891   -223.97638    37946.351 
  306300    294.20285   -1540.7089    513.60251    297.10748   -165.61393    37946.351 
  306400    302.28607   -1483.6677    544.08375    421.01269    305.11557    37946.351 
  306500    291.63229   -1527.3394     518.3662    303.67045    555.69605    37946.351 
  306600    289.29131   -1517.1575      545.544    330.49345    397.70377    37946.351 
  306700    293.48019   -1494.5074    522.46354    348.91726    153.62462    37946.351 
  306800    286.17055   -1529.7128    529.61351      287.961   -165.58952    37946.351 
  306900    311.89099   -1559.0917    534.36163    379.09848    95.493129    37946.351 
  307000    295.32335    -1516.051    491.95762    305.16386   -318.92692    37946.351 
  307100    295.38828    -1528.966    564.56887    365.15237   -133.26756    37946.351 
  307200    291.02432   -1552.5684    512.73083    270.06963   -133.69025    37946.351 
  307300    304.92634   -1557.9428     488.3126    302.85034    272.26704    37946.351 
  307400    293.54612   -1534.2386    515.11343    302.13274   -91.708944    37946.351 
  307500    290.91697   -1537.3322    528.73718    300.82902    233.40036    37946.351 
  307600    285.45213   -1526.8792    526.18327    284.13073    386.34365    37946.351 
  307700       305.06   -1527.1104    540.96218    386.93391    734.37294    37946.351 
  307800    299.22738   -1498.1287      521.592    370.29266    926.69046    37946.351 
  307900    298.25145   -1493.3153    561.19805    410.31942    951.16308    37946.351 
  308000    302.76633   -1507.1603    534.42924    390.02721    384.52576    37946.351 
  308100    304.68495   -1554.0056    516.19659    333.58504    191.66279    37946.351 
  308200     293.8415   -1508.0612    522.08044     336.6066    80.435435    37946.351 
  308300    293.87784   -1502.9063    555.35253    375.19721   -182.61481    37946.351 
  308400    305.55197    -1490.898    547.73747    432.13598   -157.86975    37946.351 
  308500    287.19023   -1483.6927    515.36628    324.32348    60.428584    37946.351 
  308600    296.16228   -1477.1118    546.95046    402.87189    385.38546    37946.351 
  308700    297.33022   -1521.1838    535.63466     352.7411   -365.43177    37946.351 
  308800    303.76648   -1525.1392     522.0983    364.21904   -447.01085    37946.351 
  308900     296.5994   -1509.3551    507.50066    333.14632   -126.25361    37946.351 
  309000    307.02904   -1513.8548    537.07817    405.16813    466.70301    37946.351 
  309100    296.45287   -1529.4164    520.44217    325.36703    263.07965    37946.351 
  309200    297.21553   -1498.4994    515.12947    354.40411    250.69043    37946.351 
  309300    301.81051   -1478.3026    536.01467    416.16822   -96.326642    37946.351 
  309400    304.02465   -1497.3141    542.82473    413.93259   -480.04464    37946.351 
  309500    293.94805    -1469.347    524.42685    378.14684    20.427861    37946.351 
  309600    303.56355   -1496.7001    548.08128    417.72775   -572.37615    37946.351 
  309700    299.22792    -1494.499    552.73574    405.06854   -555.32779    37946.351 
  309800    293.33876   -1496.0731    527.77708    352.02853   -419.33373    37946.351 
  309900    304.15622   -1494.3814    543.26682    417.89958    23.126173    37946.351 
  310000    294.53621    -1510.064    534.22046    349.87079   -360.09936    37946.351 
  310100    300.26237    -1488.077     549.2339    412.64473    22.505577    37946.351 
  310200    304.22023   -1532.9269    524.88654    361.26193   -187.58055    37946.351 
  310300    294.17764   -1516.8708    544.68865    351.91822   -448.94861    37946.351 
  310400    298.03422   -1515.5338     526.9463    352.87146   -681.05782    37946.351 
  310500    307.21773   -1538.5487    493.86539    338.11081   -562.70563    37946.351 
  310600    296.21292   -1527.6101    579.69877    385.34991   -383.75554    37946.351 
  310700    298.24978   -1505.4603    526.44712    363.41597   -340.44529    37946.351 
  310800    291.06642   -1533.9941    530.08565    306.18821   -27.628432    37946.351 
  310900     294.5027   -1498.8007    543.53841    370.30122    93.610204    37946.351 
  311000    298.87513   -1512.6632    503.52475    336.10544    103.16203    37946.351 
  311100    310.42688   -1546.6998    529.16331    379.70206    235.05754    37946.351 
  311200      290.071   -1526.3736    521.16342    300.40615    379.49264    37946.351 
  311300    292.12869   -1505.9454    521.67755    330.61019    418.84557    37946.351 
  311400    302.55945    -1517.382    522.14312    366.58823    486.18748    37946.351 
  311500    307.12092    -1525.506    543.67657    400.52896    635.42136    37946.351 
  311600    300.54307   -1551.1449    527.13227    328.73871   -157.56322    37946.351 
  311700    302.64738   -1532.7121    514.66941    344.18014   -151.99904    37946.351 
  311800    303.76318   -1565.3799    518.14919    320.01439   -244.57146    37946.351 
  311900     308.5899   -1541.0154    500.81361    348.76846    227.88858    37946.351 
  312000    294.63872   -1591.0543    514.18404    249.30544   -95.536294    37946.351 
  312100     299.9158   -1557.3596    553.30666    345.87504   -176.49176    37946.351 
  312200    292.96774   -1530.8613    529.77875    317.57202   -382.58661    37946.351 
  312300    300.88941    -1528.042    503.37805     329.6463    242.56251    37946.351 
  312400    291.76877   -1561.1906    534.15606     286.2235    708.88757    37946.351 
  312500    309.00319   -1543.6686    541.22591    388.38781     587.2725    37946.351 
  312600    304.59113   -1525.8888    503.45516    348.53811    469.31885    37946.351 
  312700    291.22154   -1534.2277      503.437    280.00419   -14.564309    37946.351 
  312800    309.03236   -1534.0963     508.7677    365.63328   -119.17356    37946.351 
  312900      309.121   -1569.8393    511.79584    333.31737    209.21499    37946.351 
  313000    298.61521   -1543.2426    505.46231    306.29371   -413.61444    37946.351 
  313100    318.22455   -1508.8348     516.5267    440.02794   -362.87193    37946.351 
  313200    290.27084   -1507.9943    515.58296    314.10442   -151.52994    37946.351 
  313300    305.79172   -1551.9579    535.08662    359.50437     59.14355    37946.351 
  313400    294.44128   -1511.6501    536.83957    350.47652   -120.91957    37946.351 
  313500    291.21426   -1521.1019      515.527     305.1872    256.49951    37946.351 
  313600    311.06293   -1511.6782    535.11566    423.53891   -56.178853    37946.351 
  313700    302.69019   -1534.5695    515.50661    343.35267    117.58832    37946.351 
  313800     298.5555   -1501.9585    524.92863    366.77532    188.23155    37946.351 
  313900    293.08952   -1513.2325    537.42847    343.39868   -402.23907    37946.351 
  314000    308.34464   -1535.8681    513.03689    365.03516   -371.50342    37946.351 
  314100    306.06169   -1538.7751    518.40663     357.2223   -458.64822    37946.351 
  314200    297.38119   -1533.2426    514.74423     320.0212   -591.30662    37946.351 
  314300    301.82419    -1518.603    517.70006    357.61473   -243.01145    37946.351 
  314400    301.93173   -1533.1342    542.89213    368.75963    105.44525    37946.351 
  314500     309.1003   -1546.4231    504.49713    349.34167     14.44235    37946.351 
  314600    309.69999   -1499.9013    538.74311    432.80864    99.217787    37946.351 
  314700    299.24797   -1516.0702    537.39327    368.24508   -61.965135    37946.351 
  314800    304.15843   -1535.7479    505.62292    338.89913   -471.01214    37946.351 
  314900    305.69094    -1529.548    530.03781     376.4118   -633.57586    37946.351 
  315000     306.6349   -1525.5911    529.93869     384.5184   -506.79913    37946.351 
  315100    300.93206   -1561.9353    499.32027    291.88719   -239.95267    37946.351 
  315200     300.1046   -1506.6503    510.33776    354.46519   -646.08712    37946.351 
  315300    307.82824    -1496.631    517.57466    406.48574   -568.26204    37946.351 
  315400     296.9025   -1493.8697     532.7942    375.28957   -498.71225    37946.351 
  315500    296.03041   -1504.4439    512.11612    340.11202   -875.10267    37946.351 
  315600    303.15417   -1510.3808     539.2273    393.35045   -242.36646    37946.351 
  315700    300.46597   -1527.5588    518.24569    343.09112    166.51288    37946.351 
  315800    294.97745   -1521.8791    540.46023    346.28143    707.14799    37946.351 
  315900    301.19858   -1536.4217    538.32961    357.60966    565.27738    37946.351 
  316000    285.40896   -1480.3068    523.01637     327.3419    327.44829    37946.351 
  316100    295.18961   -1540.3619     523.2751    311.56847    945.32427    37946.351 
  316200    293.94598   -1488.7607    530.90067    365.19763    568.85335    37946.351 
  316300    300.25436   -1494.1512    541.01075    398.31135    237.33232    37946.351 
  316400    299.66758   -1481.4337    534.22216    401.59915     56.59941    37946.351 
  316500    299.01976   -1480.9998    534.94208    399.83711    367.55976    37946.351 
  316600     298.6786   -1516.4182    527.61784    355.55894    700.96905    37946.351 
  316700     311.5192   -1514.7914     535.6347    422.99841    961.98958    37946.351 
  316800    304.83607   -1525.9249    505.42595    351.57528    666.81177    37946.351 
  316900    296.02609   -1496.5291    542.15104    378.04225    627.57231    37946.351 
  317000    300.55322   -1493.1957    488.83434    348.43567   -140.89735    37946.351 
  317100    299.66303   -1471.8296    535.25058    412.21126   -390.90451    37946.351 
  317200    295.55298   -1450.1769    525.57101    405.68488   -139.44327    37946.351 
  317300     306.8543   -1523.7339    531.46845    388.89285   -93.764529    37946.351 
  317400    300.83323   -1500.3441    527.14281    380.85604    -190.2092    37946.351 
  317500    293.95151   -1493.3997    544.13553    373.81835    441.37134    37946.351 
  317600    291.00768   -1479.9509    544.52648    374.40793     1251.657    37946.351 
  317700    306.41105   -1501.6575    537.91242    415.41813    636.33375    37946.351 
  317800    308.07123   -1499.5049    546.88724    434.01805    978.99745    37946.351 
  317900     296.7813   -1487.2922    522.12288    370.65022    173.37567    37946.351 
  318000    295.86378    -1531.029    528.42612    329.08686   -346.93858    37946.351 
  318100    303.95075   -1500.0476     530.5164    398.55823    276.61702    37946.351 
  318200    304.96407   -1497.7218    549.58259    424.51113   -25.706163    37946.351 
  318300     295.0278   -1555.9357     501.9629    273.95421   -439.42184    37946.351 
  318400    303.45659   -1520.3809    556.83036    402.31456   -430.97764    37946.351 
  318500    308.70431     -1580.18    516.15946    325.46471   -515.57519    37946.351 
  318600    289.39182   -1545.0466    514.48034    271.99308     -574.224    37946.351 
  318700    299.19235   -1560.1928     540.7221    327.20099   -262.57785    37946.351 
  318800    286.03724   -1552.2933    535.71742    270.88439   -395.37516    37946.351 
  318900    281.69819   -1498.4377    531.49861    300.99098   -274.81922    37946.351 
  319000    293.96154   -1557.2772    530.93668    296.78719   -181.13409    37946.351 
  319100    299.76752    -1539.194    521.70483    331.77133   -65.168292    37946.351 
  319200    295.67846   -1543.8127    525.89874    312.94164    130.44114    37946.351 
  319300    297.90474   -1546.9991    534.08161    327.95866    96.869361    37946.351 
  319400    318.07832   -1552.3642    553.82535    433.13901    199.83445    37946.351 
  319500    309.45058   -1538.3278    523.90137    378.41776   -312.00198    37946.351 
  319600    300.78141   -1522.7952     515.2348    346.26372    14.182864    37946.351 
  319700    300.56966   -1548.6678    497.19918    301.40239   -271.25966    37946.351 
  319800    300.96096   -1530.6665    529.88128      353.847   -89.380103    37946.351 
  319900    296.99846   -1515.4164    510.69758    332.07808   -287.41104    37946.351 
  320000    293.39519   -1506.6557      525.934    339.85682   -460.21804    37946.351 
  320100    309.89387   -1550.5788    544.46504     388.7257   -237.50941    37946.351 
  320200    304.77395   -1535.9883    536.63142    372.43774    33.919986    37946.351 
  320300    291.81997   -1524.7495    504.22229    292.96124   -299.33037    37946.351 
  320400    292.53164   -1539.3874    530.66782    307.97213   -145.98683    37946.351 
  320500    302.19863    -1510.599    534.31716    383.92123   -87.212896    37946.351 
  320600    301.18155   -1500.3158    542.28115    397.59046   -454.35151    37946.351 
  320700    301.90865   -1525.6728    509.97157    343.19662   -687.10772    37946.351 
  320800    298.19268   -1506.6768    505.19732    340.69271    48.433554    37946.351 
  320900    304.95295   -1538.8823    535.27869    368.99672     184.7619    37946.351 
  321000    297.79506    -1556.681    535.98869    319.69016    198.12602    37946.351 
  321100    297.57554    -1478.201    525.35229    386.54571     195.6181    37946.351 
  321200    302.80663   -1490.2594    569.87998    442.56024    202.52184    37946.351 
  321300    305.24153   -1496.3678    524.08271    401.61414    398.62295    37946.351 
  321400    298.13688   -1484.7292    539.96797    397.15973   -8.0452955    37946.351 
  321500    302.27339   -1469.2684    519.59224    410.86335    191.65464    37946.351 
  321600    296.42545   -1464.2949    546.70552    416.62844   -62.021118    37946.351 
  321700    295.04977   -1479.9843    532.03156    380.07313   -17.660957    37946.351 
  321800    313.97037   -1513.8975    498.54454    397.83497    399.63375    37946.351 
  321900     307.1798   -1497.9687    535.12269    419.77734    565.67271    37946.351 
  322000    308.07779   -1537.1557    521.15216    370.66176    139.80674    37946.351 
  322100    300.50776    -1489.949    509.99599    372.63941    13.385274    37946.351 
  322200    296.96668   -1482.6662    539.54178    393.52951    263.17956    37946.351 
  322300    307.46821   -1490.5404     513.9416    407.32279    213.38094    37946.351 
  322400    291.31437   -1495.4114    529.02899    344.83038    407.62687    37946.351 
  322500    308.14908     -1503.22    515.21968     398.9858    563.10634    37946.351 
  322600    298.04382   -1492.7993    531.66985    380.37266    443.36346    37946.351 
  322700    301.46668   -1486.2067    538.74121      409.443    55.572849    37946.351 
  322800    299.41615   -1501.2468    499.42444    345.85664   -585.01506    37946.351 
  322900    296.71139   -1536.7681    505.29462    304.03134   -954.89493    37946.351 
  323000    304.18779   -1527.9905    526.52586    367.69171   -253.09203    37946.351 
  323100    304.98453   -1533.1202     501.3397    340.96195    188.04126    37946.351 
  323200    289.78743    -1489.384    531.42789    346.38384    304.01925    37946.351 
  323300    297.48102   -1466.8581    531.86212      403.973    253.45438    37946.351 
  323400     290.1905   -1498.5549    533.56038    341.15966     592.7114    37946.351 
  323500    308.49951    -1508.888    541.20316    420.87864    205.48604    37946.351 
  323600    295.72886    -1472.749    518.12959    376.46306   -251.57491    37946.351 
  323700    295.64806   -1485.9029    521.89779    366.71363   -750.49328    37946.351 
  323800    300.35224   -1488.0571    529.16531    393.00065   -1067.3566    37946.351 
  323900     304.8102     -1507.64    489.27304    353.59082   -658.90439    37946.351 
  324000    301.02163   -1477.6955      513.694    390.90385   -826.63396    37946.351 
  324100    304.80068   -1531.6583    506.45473    346.71137   -879.01582    37946.351 
  324200    306.75498   -1508.8801     493.7847    365.61589   -105.19776    37946.351 
  324300    303.81828    -1553.133    535.58425    349.94442   -8.8124008    37946.351 
  324400    311.09988   -1513.8581    520.54791    406.95754    233.83321    37946.351 
  324500    300.83113   -1529.4906    524.55285    349.11011    353.20055    37946.351 
  324600    297.44357    -1532.948    516.09951    321.95192    211.17518    37946.351 
  324700    290.67678   -1536.9111    497.90856    269.34036   -174.90591    37946.351 
  324800    302.60929   -1527.2464    512.51113    347.31614   -734.03377    37946.351 
  324900    286.87639     -1539.57    510.47135    262.13867   -780.81071    37946.351 
  325000    301.71245   -1537.7815    497.65814    317.89135    -843.3665    37946.351 
  325100     305.3746   -1534.7306    516.98253    356.75003   -248.11596    37946.351 
  325200    311.32318   -1550.8695    508.26478    358.66817    360.12635    37946.351 
  325300    302.67399   -1524.5924    532.09304    369.84326    233.76386    37946.351 
  325400    294.30318   -1555.3548    505.78548    275.09614    159.12037    37946.351 
  325500    299.77075   -1546.2045    510.56393    313.63449   -104.91675    37946.351 
  325600    299.41463    -1486.657    515.38014     376.3954    14.749202    37946.351 
  325700    302.47759   -1496.4974     519.5052    384.46642    487.53157    37946.351 
  325800    300.44286   -1536.3156    518.02853    334.01316    631.10449    37946.351 
  325900    302.21067   -1518.0359     510.0266    352.24796     26.27406    37946.351 
  326000    288.41883   -1501.2218    527.01091    323.96894   -341.74882    37946.351 
  326100    304.47657   -1536.3027    506.97201    341.12538   -315.52383    37946.351 
  326200     317.4684   -1537.8591    499.72202    390.79555   -553.78398    37946.351 
  326300     305.9933   -1545.5786    502.30613     334.0105   -453.37535    37946.351 
  326400    299.88468   -1549.8302    522.54033    322.49806   -645.72909    37946.351 
  326500    304.97916   -1509.1235    526.89415    390.48893   -482.41902    37946.351 
  326600    291.66998   -1516.2989    520.45032    316.96477   -979.75725    37946.351 
  326700    305.42186   -1538.7288    506.23584    342.21797   -297.13712    37946.351 
  326800    295.57218   -1537.9065    544.51296    336.98369    239.13065    37946.351 
  326900    306.21798   -1525.9368    508.82142    361.17881   -92.020004    37946.351 
  327000    293.65792   -1528.2413    502.71779    296.23755   -98.637092    37946.351 
  327100    289.59597   -1487.8801    532.18336    347.78144    151.13766    37946.351 
  327200    299.71057   -1510.6987     515.0908    353.39628    297.27556    37946.351 
  327300    302.53363   -1511.9302    517.83346    367.61413    78.678022    37946.351 
  327400    290.43413   -1503.3592    528.45598    332.34757   -138.56085    37946.351 
  327500     297.6946   -1547.8217    522.72795    314.83654     121.8198    37946.351 
  327600    305.02035   -1520.7069    524.77148     376.9682   -373.40137    37946.351 
  327700    302.39877   -1503.4437     503.5151    361.17529   -541.63904    37946.351 
  327800    294.94695   -1524.7648    505.38419    308.18246   -346.47563    37946.351 
  327900    294.50534   -1514.2898    502.82543    314.11105    -20.31867    37946.351 
  328000    303.11121   -1534.6697    505.43929    335.08015    683.61661    37946.351 
  328100    301.76767   -1534.7735    542.21931    365.70903    239.97784    37946.351 
  328200    297.03151   -1558.5162    497.71203     276.1416   -40.990925    37946.351 
  328300    305.15376   -1527.1274    524.00899    370.38571    750.37304    37946.351 
  328400    305.64737   -1531.7032    495.91637    339.93904    602.03907    37946.351 
  328500    293.02635   -1537.7983    496.23031    277.35038    617.00806    37946.351 
  328600    295.05548   -1541.8882    545.04046     331.2038   -105.54262    37946.351 
  328700    298.72195   -1540.4982    521.36587    325.42211   -190.39487    37946.351 
  328800    309.24596   -1518.2612    512.51304    386.17507    119.98417    37946.351 
  328900    293.32411   -1541.5776    512.31055     290.9916    1.6284793    37946.351 
  329000    303.09076   -1527.9492    518.20575    354.47509   -303.57654    37946.351 
  329100     296.7275   -1524.8418    507.23526     317.9708   -576.44931    37946.351 
  329200    305.05511   -1524.3434    521.66417    370.38084   -901.01913    37946.351 
  329300    304.38405   -1565.2121    497.25894    302.08648   -760.23646    37946.351 
  329400    300.37508   -1532.5967    549.34018    368.73872   -129.14387    37946.351 
  329500    297.56141   -1555.6825     488.7663    272.41455   -673.13004    37946.351 
  329600    295.12833   -1557.0051    515.20948    286.58381   -716.19149    37946.351 
  329700    298.80234   -1584.0394    490.35642    251.23322   -1168.2396    37946.351 
  329800    291.87038   -1538.4908     534.2266    309.45109    -1051.513    37946.351 
  329900    295.37758   -1565.3371    513.44934    277.61356   -505.91063    37946.351 
  330000    305.04045   -1551.2811    487.92347    309.63656   -404.06494    37946.351 
  330100    307.66814   -1537.1025    511.21708    358.93603   -139.33027    37946.351 
  330200    301.25719   -1579.2015    504.57191    281.33595    49.019301    37946.351 
  330300    307.01338   -1556.5654    533.15089    358.45984   -81.053319    37946.351 
  330400    303.81492   -1585.1389    537.61486    319.95398   -56.793906    37946.351 
  330500    299.04917   -1517.3759    508.77661    337.42795    680.65545    37946.351 
  330600    295.30222   -1553.7621    521.89552    297.29561   -27.968394    37946.351 
  330700    294.52966   -1538.5433    513.60669    300.74822    -227.4045    37946.351 
  330800    296.17396   -1522.5036    512.62354    323.20581    17.309963    37946.351 
  330900     292.6136   -1487.7902     517.2807    346.55109   -761.11374    37946.351 
  331000     306.7375   -1497.6011    494.47959    377.51106    -217.3526    37946.351 
  331100    306.08714   -1466.8502    521.99378    432.84888   -141.95358    37946.351 
  331200    310.08215   -1503.2001    513.44533    405.93214    914.50396    37946.351 
  331300    304.72427   -1497.5009    511.41595    385.48604     483.1046    37946.351 
  331400    281.89057   -1514.7596    511.26306     265.2995   -35.390654    37946.351 
  331500    301.34849   -1498.8624    539.00483    396.51898     538.4103    37946.351 
  331600    293.30171   -1461.1003    537.59652    396.65397   -119.00755    37946.351 
  331700    293.01476   -1512.1664    511.56879    318.26855    97.096836    37946.351 
  331800    314.42129   -1500.4827    498.18808    412.92291     159.7833    37946.351 
  331900    292.69731   -1524.2827    524.24742    317.40213    161.54415    37946.351 
  332000    302.74466   -1518.4988    549.54825    393.71016    713.83599    37946.351 
  332100    299.60285     -1513.08    518.17845    353.61784    405.58687    37946.351 
  332200    308.56428   -1580.0365    516.10256    324.92103    821.32586    37946.351 
  332300    293.97064   -1558.6009    535.79602    300.36379    612.03693    37946.351 
  332400    306.08177    -1518.972    524.76703    383.47619    858.73017    37946.351 
  332500    307.31759   -1545.3778    526.61318    364.47892    185.86719    37946.351 
  332600    300.82242   -1533.7633    522.75054    342.99591   -49.834742    37946.351 
  332700    304.47486   -1513.4814    509.42463     366.3916    61.619058    37946.351 
  332800    286.30503   -1489.0374    497.17046    296.79868   -67.840146    37946.351 
  332900    292.24837   -1493.1802    538.59265    360.82917    -473.6045    37946.351 
  333000    301.79424   -1488.4335    543.59946    413.54885   -102.77582    37946.351 
  333100    292.30897   -1529.3617    502.79684    289.12457   -72.467061    37946.351 
  333200     294.2392   -1554.4779    530.67389    300.57345    127.34843    37946.351 
  333300    288.54889   -1537.6426    516.55494    277.67757   -436.28112    37946.351 
  333400    302.77172   -1566.8223    504.74455    300.70481    -215.7945    37946.351 
  333500    301.19958   -1541.1625    525.02941     339.5732     571.7672    37946.351 
  333600    291.86371   -1510.8405    511.09964    313.94444    434.60351    37946.351 
  333700    300.81475   -1513.3916    537.54344    378.12596    359.38058    37946.351 
  333800    311.90344   -1504.3383    511.19323    410.73957    166.87805    37946.351 
  333900    299.27685   -1519.0823    492.51705    320.48673    608.45804    37946.351 
  334000    305.05841   -1498.6042    537.68034    412.15109   -80.142943    37946.351 
  334100     294.1584   -1497.0051    505.68192    332.69063    27.083489    37946.351 
  334200    298.48546   -1510.2266    519.49326    352.75663   -82.349104    37946.351 
  334300    293.95116   -1512.3545    522.54847    333.27492    160.87374    37946.351 
  334400    300.92002   -1475.1287    518.40692     397.7262    107.23781    37946.351 
  334500    306.12771   -1513.3016    527.58698    392.17327   -78.986334    37946.351 
  334600    302.48431   -1536.3543    531.88533    357.01994    47.657875    37946.351 
  334700    296.79399   -1548.3038    512.31959    299.89239    412.17534    37946.351 
  334800    318.64377   -1525.3131    518.34493    427.25486    194.74852    37946.351 
  334900    293.25273   -1538.7511    520.36755    301.55375   -277.89941    37946.351 
  335000    294.32783   -1530.9613    505.76339    299.57846    62.733046    37946.351 
  335100    300.34728   -1512.9906    513.70183     352.5813   -251.23405    37946.351 
  335200    298.18583   -1480.4394    500.43148     362.1334   -770.14053    37946.351 
  335300      289.646   -1503.7285      499.617    299.59192   -1100.4054    37946.351 
  335400    305.51931   -1493.4098    520.34131      402.081    78.572966    37946.351 
  335500    289.01159   -1477.5029    502.73894    326.08386    3.4323242    37946.351 
  335600     295.2856   -1493.9295    539.60333     374.7612    452.51082    37946.351 
  335700    301.49177   -1490.3609    520.32041    386.98096   -432.63953    37946.351 
  335800      300.533     -1477.68    521.29795    396.32396    173.51929    37946.351 
  335900    297.85627   -1481.7236     493.6992    352.63363   -176.82057    37946.351 
  336000    293.33434   -1513.0557    496.36091    303.60991   -202.77697    37946.351 
  336100    302.25835   -1508.2071    501.84875     354.1135   -612.15621    37946.351 
  336200    297.10777   -1464.8652    485.00927    357.43302   -592.26627    37946.351 
  336300    304.61962   -1493.1407    495.95274    373.91198   -94.408993    37946.351 
  336400    306.20093   -1542.8509    509.27029    344.63687    102.39631    37946.351 
  336500    297.75633   -1550.6368    491.60695    281.17825   -280.45816    37946.351 
  336600    294.20318   -1498.6827     506.1424    331.67502    37.752664    37946.351 
  336700    292.29613   -1505.9805    493.53222    303.18338    326.53598    37946.351 
  336800    299.49368   -1541.6494    469.70816    276.08678    104.41742    37946.351 
  336900    304.07567   -1550.4234    532.53408     350.7623    445.90408    37946.351 
  337000     296.0592   -1526.5336    499.63433    305.67001    16.255803    37946.351 
  337100    305.02848   -1490.7728    514.34525     396.5127    556.03047    37946.351 
  337200    305.19327   -1533.3688    505.28929    345.60242    639.97404    37946.351 
  337300    289.05941    -1557.686    490.08306    233.46019    330.16465    37946.351 
  337400    312.82449   -1539.5093    489.87112    358.39213    119.77593    37946.351 
  337500    306.43191   -1574.0768    486.12861    291.30892    658.88875    37946.351 
  337600    293.01808   -1545.5986    499.51368    272.79619    325.14414    37946.351 
  337700    306.23723   -1516.8455    498.64574    360.18111    269.67597    37946.351 
  337800    296.54565   -1576.2069    508.83478    267.38675    7.7643024    37946.351 
  337900     305.5743   -1560.0267     474.2527    289.62304    -284.7722    37946.351 
  338000     293.2636   -1589.2292    486.71963    217.47675    170.89907    37946.351 
  338100    295.77315   -1541.5432     501.6346    291.37315    267.42181    37946.351 
  338200    307.83173   -1524.5841    495.31809    356.29172    222.93337    37946.351 
  338300    295.62737   -1512.6067    509.78273    327.80169    261.88747    37946.351 
  338400    296.41221    -1585.848    464.44402    212.75426    -373.8651    37946.351 
  338500    295.70992   -1537.6944    509.06899    302.37174    115.67002    37946.351 
  338600    304.45691   -1553.5062    503.96297    320.82443   -254.36263    37946.351 
  338700    292.07669   -1563.7522    480.10547    230.99717   -408.45587    37946.351 
  338800    302.05752   -1590.4735    497.30345    266.39783   -88.124934    37946.351 
  338900    288.46769   -1557.3011     499.2045    240.30318    388.00258    37946.351 
  339000    309.67453   -1554.4247    472.42377    311.85132    198.58044    37946.351 
  339100    302.77934   -1534.7348    491.36098    319.44296   -407.71778    37946.351 
  339200    298.72053   -1543.7728     516.7096    317.48485   -946.60583    37946.351 
  339300    301.90574   -1493.8852    489.82615    354.82574   -756.52193    37946.351 
  339400    300.38783   -1497.3043    512.11828    366.86653   -525.67665    37946.351 
  339500     297.5348   -1528.3819    501.62532    312.45447    -929.6112    37946.351 
  339600    299.26938   -1525.7704    490.31954    311.56761   -8.0348867    37946.351 
  339700     303.2099   -1560.9402     492.4595     296.2741    221.42076    37946.351 
  339800    294.19966   -1525.3505    501.85848    300.70745    105.09796    37946.351 
  339900    286.91302   -1499.3716    497.81987    289.85044   -140.54699    37946.351 
  340000    303.76732   -1456.5019    523.44728    434.20916    288.05941    37946.351 
  340100    298.94851   -1503.9938    498.39437    339.97475    121.98458    37946.351 
  340200    301.00339   -1477.0271      529.938    407.73413    244.75679    37946.351 
  340300    308.51379   -1512.8494    499.21283    374.99117    328.46782    37946.351 
  340400    297.86584   -1521.5497    520.51961    339.67095    37.636856    37946.351 
  340500     305.0674   -1523.9119     499.2544    348.45797   -236.32177    37946.351 
  340600    308.64361   -1496.9098    493.13317    385.43537   -640.64239    37946.351 
  340700    303.33241   -1490.7295     503.5399    378.11662   -289.77999    37946.351 
  340800    293.74909   -1519.9441     484.0907    286.31813   -447.80742    37946.351 
  340900    306.13675   -1500.6063    527.24317    404.56551    28.626811    37946.351 
  341000    299.59481    -1478.893    491.52471    361.11486   -656.15731    37946.351 
  341100    306.97907    -1502.092    522.99318    402.62107   -599.50058    37946.351 
  341200    289.23322   -1490.4859    511.37902    322.73857   -334.36247    37946.351 
  341300    299.41406   -1483.5382    500.26307    364.39455    147.14825    37946.351 
  341400    295.50206   -1488.6274    500.09628    341.53051    171.40353    37946.351 
  341500    296.64922   -1533.2694    522.94744    324.90307    116.02757    37946.351 
  341600     298.1943   -1535.1577    510.26944    317.29124    764.04963    37946.351 
  341700    301.31531   -1523.8074    495.14208    327.56186    272.94365    37946.351 
  341800    295.57733   -1495.1269    515.26114    350.53462   -172.17517    37946.351 
  341900    295.39542   -1469.3081    506.02557    366.29915     159.6985    37946.351 
  342000    303.88943   -1492.8523    512.89965    387.86074   -266.29382    37946.351 
  342100    297.17477   -1526.6678    503.96427    314.88705   -697.08734    37946.351 
  342200    294.19705   -1506.9425    493.56613    310.81142   -651.08917    37946.351 
  342300    300.56051   -1521.5122    532.78316    364.10081    63.073708    37946.351 
  342400    292.14478   -1477.3928     513.1596    350.71718    205.01452    37946.351 
  342500    293.84881   -1475.4236    491.49682    338.69354    226.23313    37946.351 
  342600    302.81858   -1497.9301    491.51104    356.57437    93.577318    37946.351 
  342700    288.95177   -1528.8049    496.89866    268.67243   -102.50836    37946.351 
  342800    293.20425   -1505.2816    500.34435    314.78191    248.03885    37946.351 
  342900     300.6791   -1502.3375    501.54204    352.56817   -47.871802    37946.351 
  343000    305.58887   -1497.9339    487.42267    364.95138   -346.15711    37946.351 
  343100     299.3716   -1513.3026    512.69155    346.86751   -231.97942    37946.351 
  343200    300.24182   -1520.7072     489.7084    320.39656    66.416427    37946.351 
  343300    292.98454   -1535.7542     486.3969    269.37293    87.472785    37946.351 
  343400     308.6823   -1503.3617    538.72995    424.75447    248.18446    37946.351 
  343500    301.54575    -1495.988    507.83759      369.114    609.48018    37946.351 
  343600    304.92895   -1548.9349    512.86489    336.42229    937.48849    37946.351 
  343700    308.72743   -1559.9991    496.84231     326.4325    794.34897    37946.351 
  343800    293.92032    -1608.082    491.74733    206.60747    645.71217    37946.351 
  343900    293.41446      -1508.9    480.86241    292.62764    842.26733    37946.351 
  344000    297.58636   -1523.8127    523.16251    338.79291    433.81146    37946.351 
  344100    301.59315   -1504.3298    511.56967    364.71758    407.93944    37946.351 
  344200    300.13566   -1540.7211    479.92314    290.11963    46.636152    37946.351 
  344300    303.04422   -1586.9379    513.07374    290.14489    223.08481    37946.351 
  344400    295.75452   -1508.9684    493.93816    316.16769    -114.0797    37946.351 
  344500    303.17003   -1546.1482    503.42217    321.84928   -295.12814    37946.351 
  344600    302.27005   -1532.4503    471.85475      299.929   -164.82576    37946.351 
  344700    303.10241   -1559.8483     495.4453    299.86795   -163.17435    37946.351 
  344800    299.02837   -1506.2075    519.02596     358.7521    591.90561    37946.351 
  344900    302.90617   -1529.5098    472.41317    306.29104    54.129698    37946.351 
  345000    290.79256   -1510.2478    520.00261    318.61881   -101.78145    37946.351 
  345100    297.88152   -1558.3991     512.1202    294.49275   -624.11356    37946.351 
  345200    299.41642   -1514.0804    497.24967    330.84949   -672.58629    37946.351 
  345300    293.81217   -1509.5321      500.413    313.33632   -604.92784    37946.351 
  345400    291.26462    -1500.714    515.18906    325.46391   -115.55163    37946.351 
  345500    293.46201   -1486.3431    481.56804    316.10427    166.63647    37946.351 
  345600    301.59149   -1554.0848    535.02943    338.41489   -445.39207    37946.351 
  345700    285.76511   -1541.7082    504.97007    249.49721   -301.11126    37946.351 
  345800    295.98103   -1489.9442    507.05413    349.32739   -617.53949    37946.351 
  345900    299.55745   -1504.8286    525.24409     368.7305   -523.74239    37946.351 
  346000    288.41275   -1491.1195    494.73869    301.77167   -36.216624    37946.351 
  346100    300.47399   -1532.8481    501.62887    321.22122    606.12284    37946.351 
  346200    307.38162    -1497.799    513.02351    398.75628    195.80621    37946.351 
  346300     297.6204   -1465.7114    504.68492    378.56986   -147.41522    37946.351 
  346400    303.65836   -1479.9741    506.29836    393.09759    110.34513    37946.351 
  346500    295.21051   -1546.5955    508.88418    291.03797   -64.567749    37946.351 
  346600    291.61311   -1548.2125    510.55942    274.90434    56.106724    37946.351 
  346700    297.33228   -1487.6464    518.72159    369.37465    633.62387    37946.351 
  346800    301.96529   -1474.9186    548.85689    433.09112   -56.560661    37946.351 
  346900    298.54227   -1498.1319    500.70343    346.31719   -7.9693609    37946.351 
  347000    295.72273   -1526.5456    538.92699    343.43626    89.511491    37946.351 
  347100    297.15203   -1535.6978     511.9335    313.72389   -195.25745    37946.351 
  347200    298.85795   -1503.2701    519.90409    361.80053   -294.65569    37946.351 
  347300    285.19642   -1497.5368    506.53062    292.66955   -653.15526    37946.351 
  347400    316.28401   -1515.2166    506.64265    415.02774   -32.352534    37946.351 
  347500    305.25091   -1512.8038    511.86138    372.99893    -92.60172    37946.351 
  347600    299.91683   -1524.5855    500.83236    326.17943    195.97964    37946.351 
  347700    307.65792   -1533.4951    489.21479    340.49515   -151.74635    37946.351 
  347800    299.76665   -1529.5445     518.1862    337.89831    737.89688    37946.351 
  347900    305.28105   -1529.5659    522.67355    367.18471    316.97179    37946.351 
  348000    291.45773   -1540.0483    535.27766    307.08736    839.14431    37946.351 
  348100    299.94692     -1554.61    518.12789    313.58593    165.62194    37946.351 
  348200    298.07481   -1506.6163    505.75363    340.77893    344.09948    37946.351 
  348300    299.92115   -1459.9504    523.05676    413.05837    110.04811    37946.351 
  348400    296.77244   -1468.4674    512.53315    379.84536   -384.30892    37946.351 
  348500    297.08738   -1479.6847    525.45376    382.96625   -14.179866    37946.351 
  348600    305.61797   -1489.7943    509.68203    395.48128    372.73007    37946.351 
  348700    290.54478   -1484.5967    517.95645    341.10856    309.77662    37946.351 
  348800    304.44363   -1510.4342    512.19569    372.06933   -46.448047    37946.351 
  348900    302.69116   -1454.9267    538.26134    445.75454    256.82442    37946.351 
  349000    302.27665   -1495.0746    507.40753     372.8871    258.30064    37946.351 
  349100    293.23381   -1447.3356    534.55723    407.07378    178.78942    37946.351 
  349200    293.37943    -1439.968     516.3313    396.87095    343.87112    37946.351 
  349300    300.99342   -1488.2417    518.80879    385.34543    443.61097    37946.351 
  349400    297.59501    -1480.881    522.95732    381.55833    267.11651    37946.351 
  349500     307.8924   -1493.2699    516.18487    408.74575   -23.087551    37946.351 
  349600    292.26266   -1515.3444    511.52708     311.6637    281.16608    37946.351 
  349700    296.55475    -1495.112     520.3636    360.05142   -96.186146    37946.351 
  349800    311.29222   -1460.6511    528.11338    468.59576   -158.58104    37946.351 
  349900     298.9748   -1471.8343    517.23934    391.09757   -340.44548    37946.351 
  350000    292.18717   -1522.4593    528.89202      321.574   -524.12194    37946.351 
  350100    297.03746   -1512.6894    508.28022    332.56328    -297.6106    37946.351 
  350200    294.26526   -1544.0989    520.84094     301.2368   -191.67528    37946.351 
  350300    292.08681    -1525.002    519.41632    309.10381    346.05113    37946.351 
  350400     306.3205    -1546.165    496.55423    329.14492     524.8867    37946.351 
  350500    294.57179   -1530.5199    515.52256    310.87705    289.83795    37946.351 
  350600    297.15652    -1509.902     511.9534    339.55977    138.64276    37946.351 
  350700    307.64409   -1530.7048    511.45673    365.46508    113.35008    37946.351 
  350800    302.21788   -1527.9852     511.9797    344.28419    -338.8758    37946.351 
  350900    300.82121   -1559.3167    515.59001    310.27657   -62.106414    37946.351 
  351000    295.07908   -1525.5754    480.26755     282.8499   -776.63094    37946.351 
  351100    302.19353   -1560.0898    509.23827     309.3286   -367.75531    37946.351 
  351200    292.74456   -1538.1466    502.97711    282.48061     -582.458    37946.351 
  351300    296.81143   -1543.4656    502.91698    295.40656   -500.95571    37946.351 
  351400    301.38498   -1582.0628    505.38485    279.86284   -442.27997    37946.351 
  351500    299.76368   -1562.8803    497.83688    284.19981   -594.65972    37946.351 
  351600    296.33689   -1527.0619     530.4153    337.17264     39.80962    37946.351 
  351700    306.38001    -1564.589    522.88708    337.32157    363.53986    37946.351 
  351800    314.68705   -1566.9219    484.69657    334.18837   -16.257796    37946.351 
  351900    295.90063   -1550.1483    491.41152    273.11876   -671.97858    37946.351 
  352000    296.48379    -1518.176    500.49829     316.8027   -40.792789    37946.351 
  352100     299.1905   -1558.3308    505.14182    293.47436   -676.19137    37946.351 
  352200    293.48525   -1573.0478     499.7983    247.73437    88.995401    37946.351 
  352300    301.74688   -1577.3996    495.91948    276.68963   -348.20809    37946.351 
  352400    309.61035   -1560.4238    496.11225    329.25183    327.00654    37946.351 
  352500    308.33585   -1552.3166    488.93956    324.44972   -201.84387    37946.351 
  352600    303.60102   -1508.4403    522.82383     380.8988   -467.41133    37946.351 
  352700    294.92017   -1542.3357    502.52547    287.63226   -483.68037    37946.351 
  352800    295.24989   -1546.8358    503.10356    285.19437   -271.57498    37946.351 
  352900    294.86188   -1545.7664    472.58239    253.99616    294.98041    37946.351 
  353000     290.3611   -1537.6299    502.23109    271.52322    203.34965    37946.351 
  353100     303.5118    -1542.818    511.97878    335.27444    89.024221    37946.351 
  353200    298.76411   -1540.8843    488.49625    292.35618     584.1916    37946.351 
  353300    295.31326   -1540.0837     490.4622    279.59035    419.14686    37946.351 
  353400    304.53999   -1576.9003     497.2777    291.11891    611.97983    37946.351 
  353500    305.00462   -1544.6753    492.22648    320.38406    778.35723    37946.351 
  353600    294.05111   -1541.7913    510.64835    292.38785    1052.6106    37946.351 
  353700     292.2741    -1523.988    507.74663    299.29117    403.30803    37946.351 
  353800    301.49184     -1544.65     510.3708    322.74259    826.25137    37946.351 
  353900    294.44071   -1522.9813    521.81239    324.11555   -73.503504    37946.351 
  354000    313.90522   -1508.5634    493.80446    398.13573    13.039209    37946.351 
  354100    306.66641   -1497.0882    531.40003    414.62444     426.6282    37946.351 
  354200    307.05505   -1494.1387    503.47152    391.39475    574.99582    37946.351 
  354300    298.20857   -1444.8284    515.01775    412.43306    195.84159    37946.351 
  354400    302.90007   -1519.8063    511.95129    355.50518   -57.240166    37946.351 
  354500    304.97942   -1536.9481    536.44929    372.22064    119.98392    37946.351 
  354600    298.71608   -1500.2622    505.50935    349.77519    67.544533    37946.351 
  354700    299.23868   -1536.0666    502.66789    313.48147    -193.9859    37946.351 
  354800     295.1523   -1491.8608    520.30062    356.92716    79.767583    37946.351 
  354900    301.36908   -1500.0856    507.45683    363.84045   -380.97131    37946.351 
  355000    302.65571   -1466.6686    488.20173     383.7935   -211.25909    37946.351 
  355100    300.78194   -1510.1033    537.74742    381.47063   -258.53908    37946.351 
  355200    295.10264   -1517.5028    510.83212    321.59314    260.92761    37946.351 
  355300    291.11661    -1522.224    527.24959    315.34823    35.812218    37946.351 
  355400     305.8365    -1493.776    515.70765     398.5088   -32.346506    37946.351 
  355500    306.29748   -1542.6966    489.19658    325.15204   -155.46084    37946.351 
  355600    299.12054   -1551.8503    519.32825    313.82639   -201.27999    37946.351 
  355700    300.14471   -1523.4456    487.17852    314.69121   -7.1274378    37946.351 
  355800    325.14831   -1560.2113    468.25384    371.54266    465.69589    37946.351 
  355900    307.03313    -1522.435     498.6612    358.18937   -6.3778462    37946.351 
  356000    308.21608   -1507.5698    501.16673    380.88472   -177.36817    37946.351 
  356100    295.70179   -1480.2085    495.76888    346.52099    97.578958    37946.351 
  356200    294.36595   -1503.4904    514.48204     335.9396    -307.0542    37946.351 
  356300    303.61182   -1518.3981    522.10291    370.26861    -134.0849    37946.351 
  356400    296.26591   -1519.3547    493.56826    307.71327   -234.15991    37946.351 
  356500    314.07051   -1493.9714    529.88206    449.54935    552.91221    37946.351 
  356600    290.52501   -1541.0143    486.10565    252.75121   -126.13403    37946.351 
  356700    300.08516    -1508.861    504.05123     345.8805   -128.09012    37946.351 
  356800    301.12358   -1519.0871    489.72952    326.00665   -591.91979    37946.351 
  356900    297.56282   -1495.8385    519.27961    362.77832   -156.25101    37946.351 
  357000    296.76458   -1543.6768    514.44924    306.51664   -318.02556    37946.351 
  357100    299.06027   -1578.5249    490.62613    258.17846    385.74441    37946.351 
  357200    312.04992   -1519.4353    501.68479    386.79342    226.58536    37946.351 
  357300    308.36311   -1522.5902    486.81516    352.17441   -26.537294    37946.351 
  357400    301.30103   -1517.7593    525.25574    363.65937   0.63663168    37946.351 
  357500    297.54527   -1493.5029    500.18061    345.93588    13.895913    37946.351 
  357600    298.85042   -1519.6753    503.48643    328.94385    191.36521    37946.351 
  357700    303.59246   -1480.5741    531.98094    417.88352    418.22038    37946.351 
  357800    297.97553   -1492.7862    523.48891    371.89749   -195.20481    37946.351 
  357900    305.52404   -1472.2731    503.47599    406.37368   -166.73931    37946.351 
  358000    309.32433   -1506.5244    497.12965    382.88122   -360.25687    37946.351 
  358100    300.79444    -1537.483    481.41534    297.81504    -564.3791    37946.351 
  358200    309.95012   -1516.9184    496.47113    374.64543     18.78489    37946.351 
  358300    297.47773   -1496.6159    502.89875    345.23695   -18.441734    37946.351 
  358400    297.91215   -1500.7461    506.38121    346.54459   -733.83571    37946.351 
  358500    293.90406   -1465.0963    500.88673    358.65936   -138.01682    37946.351 
  358600    297.56793   -1479.2866    513.28065    373.35421   -602.34698    37946.351 
  358700    292.22733   -1469.9864    509.47611    354.81175    35.976405    37946.351 
  358800    299.09269   -1493.7765    492.77131    345.21799    208.21835    37946.351 
  358900     302.7893   -1518.3517    510.21543    354.72537    298.96648    37946.351 
  359000    296.72169   -1528.9697    515.61023    322.19177   -36.991103    37946.351 
  359100     306.5705   -1529.4373    508.67221    359.11583    504.83866    37946.351 
  359200    301.08965   -1517.4912    518.02354    355.74388   -35.056975    37946.351 
  359300    299.64144   -1514.6194    491.23912     325.3128    113.10468    37946.351 
  359400    304.94148   -1506.0639    519.79496    386.27977    8.2774831    37946.351 
  359500    300.86855   -1539.9601    475.72152    289.97774   -65.371157    37946.351 
  359600    291.52273   -1546.4531    511.28745     276.9849    349.35988    37946.351 
  359700    303.43427   -1546.4388    514.26367    333.58961     567.7071    37946.351 
  359800    293.03668   -1505.1178    515.15582    329.00291    195.08122    37946.351 
  359900    306.75367   -1484.0724    529.00199    425.63495    111.47808    37946.351 
  360000    308.71095    -1524.174    499.13613    364.47733     425.6888    37946.351 
  360100    304.58211   -1515.6885    499.80488    355.04757    537.75323    37946.351 
  360200    298.38904   -1550.4429    518.54024    311.15338    688.82568    37946.351 
  360300    300.50565   -1538.0041    516.35636    330.93513   -47.873253    37946.351 
  360400    308.26144   -1560.3677    539.10798    366.23219    148.61734    37946.351 
  360500    301.01744   -1539.1706    504.74261    320.45846      122.773    37946.351 
  360600    305.30474   -1575.5099    521.78652    320.46032    53.865006    37946.351 
  360700    297.71802   -1543.5273    487.70904    284.21742    348.72875    37946.351 
  360800    297.99788   -1590.1492    503.87556    255.02172    29.188421    37946.351 
  360900    302.71873   -1514.9465    516.03778    363.63536   -556.13995    37946.351 
  361000    299.21103   -1507.8325    530.62425    369.54756   -148.72763    37946.351 
  361100    297.96306   -1514.1304    513.00875    340.01697   -282.33712    37946.351 
  361200    307.01243   -1539.3643    482.31544    324.82122   -639.56455    37946.351 
  361300    295.47689   -1544.7068    507.52475    292.76624   -538.52714    37946.351 
  361400    301.99418   -1503.1331    519.02742    375.17719     -186.937    37946.351 
  361500    292.05167    -1523.074     519.0264    310.48373    300.80914    37946.351 
  361600    296.27607     -1509.15    538.70621     363.1017    157.57247    37946.351 
  361700    299.51065    -1534.715    529.13091    342.52025     509.8665    37946.351 
  361800    306.44884   -1518.5706       518.63    379.39276    553.03186    37946.351 
  361900    311.69076   -1535.2681    489.44407    357.10332     79.69853    37946.351 
  362000    308.28587   -1542.1569    501.61513    347.06006    253.81714    37946.351 
  362100     295.6026    -1461.922    520.08969    388.68182    211.47067    37946.351 
  362200    295.11615   -1467.4934     535.9099    396.74112   -369.31244    37946.351 
  362300    294.02128   -1448.7823      538.456    413.07028   -355.85589    37946.351 
  362400    305.60933   -1484.3037    524.20601    415.45695   -103.06499    37946.351 
  362500    287.15503   -1478.2875    504.19507    318.39899   -837.78882    37946.351 
  362600     297.8082   -1463.7592    510.04383    386.72625   -878.78829    37946.351 
  362700    303.08505   -1520.1501     552.6078    396.65048   -398.70609    37946.351 
  362800    309.98516   -1540.6713     463.0227    317.60174   -339.80032    37946.351 
  362900    291.36352   -1520.5524    515.79936    306.68095    -472.6753    37946.351 
  363000    292.72264    -1531.544    516.09439    302.10181   -638.95728    37946.351 
  363100    305.47322   -1520.6092    505.55795    359.89083   -373.46931    37946.351 
  363200    292.99422   -1483.3464    517.81659    353.24394   -547.41693    37946.351 
  363300    293.91896   -1507.7531    498.01757    313.20048   -602.36035    37946.351 
  363400    294.86781   -1453.2391    519.18657    393.15435   -746.80767    37946.351 
  363500    297.91579   -1505.6744    509.84168     345.0932   -373.57222    37946.351 
  363600    300.30149   -1484.5948    507.70215    374.77132   -482.16203    37946.351 
  363700    292.44306   -1458.2098    508.10482    366.18805   -398.75901    37946.351 
  363800    304.58738   -1469.3889    498.69556    400.26146   -296.48701    37946.351 
  363900    301.04982   -1507.3737    520.96103    368.61958    104.06618    37946.351 
  364000     304.3229   -1539.8159    520.40141    350.34989    92.535799    37946.351 
  364100    292.81099   -1535.1069    504.27771    287.11983    467.91867    37946.351 
  364200    302.23274   -1531.5826    507.43234    336.20633   -10.793967    37946.351 
  364300     302.7787   -1508.2952    490.65265    345.17137    374.10897    37946.351 
  364400    305.69395   -1508.8119    501.75388    368.87749    82.834399    37946.351 
  364500    303.96308   -1496.5854    521.70501    393.26451   -116.05448    37946.351 
  364600    298.94755    -1513.867    518.74824    350.45111   -189.27623    37946.351 
  364700    299.89518   -1459.9197    507.65464    397.57013    138.93727    37946.351 
  364800      302.675   -1474.7235    506.34115    393.96488    382.03988    37946.351 
  364900    300.50357   -1490.1812    538.00877    400.40111    104.57657    37946.351 
  365000    292.92062   -1470.2999    508.32724     356.4699   -375.68878    37946.351 
  365100    290.32442   -1515.9955     514.0048    304.76624   -324.11228    37946.351 
  365200     299.1982   -1529.4747    527.77416    344.99749   -58.281797    37946.351 
  365300    287.46903   -1529.4563    510.56273    275.01117     119.7883    37946.351 
  365400    301.92064   -1567.5008    490.00334     281.4543   -971.50315    37946.351 
  365500    292.08433   -1541.5537    494.93294    268.05762   -619.19869    37946.351 
  365600    291.16313   -1534.9735    548.20808    323.76656   -526.19833    37946.351 
  365700    290.18553   -1531.2347    484.07476    258.97186   -778.61132    37946.351 
  365800    304.64383   -1557.8921    515.81125    329.12808   -275.84135    37946.351 
  365900    294.84822   -1569.6399    500.93256     258.4113   -675.55524    37946.351 
  366000    308.21928   -1492.0338    529.53228    424.80062   -383.64646    37946.351 
  366100    304.25034   -1515.1103    509.57111    363.89867    8.7060242    37946.351 
  366200     304.7231   -1523.8103    520.62086     368.3763    141.03155    37946.351 
  366300    294.17073   -1525.3179    516.46866    315.22005     -449.572    37946.351 
  366400    293.90107   -1483.6309    524.47943    363.70407   -300.54939    37946.351 
  366500     298.8268   -1508.2663    507.07269    343.83274   -399.91404    37946.351 
  366600    294.78236   -1499.8271    508.89366    335.88885    131.66749    37946.351 
  366700    305.38857   -1535.5526    518.43659    357.44506   -428.47302    37946.351 
  366800    299.17614   -1564.2937    514.58633    296.89136   -438.32542    37946.351 
  366900    294.19167   -1565.4114    504.92282    263.67489   -540.94577    37946.351 
  367000    293.24241   -1550.9618    530.96067    299.88977   -650.60945    37946.351 
  367100    295.39203   -1555.5575    492.15378    266.16266   -689.86318    37946.351 
  367200    310.09551   -1575.4321    489.62329    309.93828   -460.25267    37946.351 
  367300    301.34919    -1519.893    497.61898    334.10563    -558.5239    37946.351 
  367400    296.25869   -1555.8685    502.41836    280.01711   -411.09338    37946.351 
  367500    302.58613   -1537.9863    527.25918    351.22011   -713.53855    37946.351 
  367600    307.58844   -1539.3018    491.53427    336.69513   -381.64378    37946.351 
  367700    292.94062   -1515.8669    493.16616     295.8318    -204.0941    37946.351 
  367800    304.55241   -1482.9014    510.70238    398.59846   -281.37346    37946.351 
  367900    298.48425   -1472.5219    498.75581    369.71848   -274.80046    37946.351 
  368000    307.75181   -1493.7874    505.51206    396.92268   -141.93315    37946.351 
  368100     302.2615   -1488.6732    502.41508    374.22792    109.59646    37946.351 
  368200    311.98705   -1482.6079    522.12433    443.77741    219.08547    37946.351 
  368300    308.97065   -1463.6416    511.79327     438.8357    648.74013    37946.351 
  368400    294.23516   -1475.0055    521.77094    371.12465   -339.56896    37946.351 
  368500    301.24786   -1440.4637    501.25152    416.71145   -277.62836    37946.351 
  368600    304.79155   -1452.2598    506.37437    425.98838    375.40807    37946.351 
  368700    293.66837   -1453.2515    518.04032    386.59702    139.61155    37946.351 
  368800    285.52867   -1431.9996    513.68021    366.85176   -341.16413    37946.351 
  368900    294.29179   -1458.0849    493.45403    359.98326   -105.07956    37946.351 
  369000     297.7351   -1510.0699    507.07801    337.12072   -365.57831    37946.351 
  369100    287.89282   -1468.9994    518.03562    344.84843   -358.56443    37946.351 
  369200    306.72468   -1501.6432    524.93484    403.86656   -703.14254    37946.351 
  369300    291.44471   -1492.1032    534.61468    354.31089    -10.40915    37946.351 
  369400    299.45177   -1477.1834    516.69324     387.3492    -316.7585    37946.351 
  369500    302.25933    -1504.837    515.80249    371.44173    -531.8911    37946.351 
  369600    299.11579   -1528.5315    503.88117    321.67675   -93.122997    37946.351 
  369700    300.73479   -1511.3371    505.22276    347.49996   -56.957593    37946.351 
  369800    296.32808   -1520.6765    495.15066    308.25371   -225.88741    37946.351 
  369900     287.0004     -1496.36    501.50397    296.93946   -120.73334    37946.351 
  370000     301.9021   -1530.8134    480.76674    308.82171   -222.84345    37946.351 
  370100    319.59397   -1500.9878    492.94643    430.45853    301.91661    37946.351 
  370200    287.54028   -1497.4847    520.39882    317.13957    163.32693    37946.351 
  370300    306.95746   -1500.6827    510.56516    391.50512    833.48121    37946.351 
  370400    300.02264   -1458.0138    527.35109    419.74611    232.43107    37946.351 
  370500    304.22567   -1478.8076    522.53858    413.05781    293.15151    37946.351 
  370600    303.33315   -1459.6966    527.84274    433.45566   -27.985235    37946.351 
  370700    298.92942   -1456.9354    525.58297    414.13583   -133.31761    37946.351 
  370800    298.46219   -1477.3573     511.1614    377.18932   -586.31548    37946.351 
  370900    289.28696    -1510.799    475.27884    266.56712   -1049.1196    37946.351 
  371000     297.6652   -1472.7531    484.69269    351.73754   -1042.5824    37946.351 
  371100    297.29008   -1497.8047    486.75762    327.06242    -684.2299    37946.351 
  371200    309.53656   -1521.4118    502.78822    374.60763   -449.12335    37946.351 
  371300    300.90871   -1494.9843    519.45435    378.86714   -199.76012    37946.351 
  371400    298.37677   -1503.7576    509.80054    349.04376   -96.163531    37946.351 
  371500    316.00067   -1484.8649    502.71784    440.17926   -41.243796    37946.351 
  371600     296.6818   -1492.3272    493.20883    336.25325   -314.82005    37946.351 
  371700    307.92793   -1531.8489     522.3356     376.4774   -39.958768    37946.351 
  371800    304.38269   -1502.4661    519.27139     386.8389    511.13653    37946.351 
  371900    283.22244   -1536.8684    499.39323    237.31555     258.9474    37946.351 
  372000    309.18548   -1570.7492     521.4146    342.31639    620.83526    37946.351 
  372100    295.60735   -1575.9695    484.57666     239.1427    526.28301    37946.351 
  372200    301.99508   -1481.8512    510.02086    387.45644    447.90247    37946.351 
  372300    312.80182   -1529.4087    520.33812    398.85764    246.69595    37946.351 
  372400    295.24313   -1552.7099    482.61531    258.80161    119.24959    37946.351 
  372500    302.46184   -1559.8332    520.02356    321.57808   -6.9173711    37946.351 
  372600    296.38101   -1543.6513     489.1767     279.5432   -242.26976    37946.351 
  372700    308.01605   -1563.8159    499.03876    321.61021    220.30349    37946.351 
  372800    305.41943   -1535.6383    508.32046    347.38204    53.692795    37946.351 
  372900     294.3242   -1520.7618    496.81719    300.81548   -389.67876    37946.351 
  373000    299.99166   -1528.7093    499.34656    320.90664    135.88485    37946.351 
  373100    296.92778    -1560.585     496.5778    272.47159    212.64949    37946.351 
  373200    296.42175   -1524.0133     508.6417    318.82953    114.53949    37946.351 
  373300     303.2293   -1515.0762    523.44731    373.21325    262.29268    37946.351 
  373400    299.77436   -1537.5123     495.3974     307.1765    -158.5475    37946.351 
  373500    301.67061   -1487.4745    506.89292     377.2448   -415.06327    37946.351 
  373600    303.64088   -1503.0758    541.93171    405.55061   -12.799418    37946.351 
  373700    298.01857   -1473.9094    505.07698    372.55614   -177.24991    37946.351 
  373800    303.13726   -1505.0203    511.78373    371.19126   -501.50934    37946.351 
  373900    304.07406   -1464.2211    508.66747    413.09075   -792.34133    37946.351 
  374000    299.94266   -1501.1107    515.48204    364.42015   -229.59465    37946.351 
  374100    304.27149   -1535.4014    495.11535    329.24696    -349.0236    37946.351 
  374200    291.81514   -1492.9158    489.76402    310.31489   -228.10511    37946.351 
  374300    295.76911   -1467.0791    515.04625    379.23073   -153.93216    37946.351 
  374400    299.64269   -1471.8702    509.68489    386.51338   -215.11179    37946.351 
  374500    296.19085   -1470.7029    523.44084    385.89976   -804.63009    37946.351 
  374600    291.93996   -1483.9402    496.30827     326.3966   -380.79593    37946.351 
  374700    300.84234   -1516.4773    494.12029    331.74136   -793.48984    37946.351 
  374800    305.79676   -1485.8269    506.76927    397.34063   -180.36519    37946.351 
  374900    293.33867   -1533.0255    486.87701    274.17564   -124.84577    37946.351 
  375000    311.31565   -1548.0454    499.56212    352.75569    247.38376    37946.351 
  375100    308.21398   -1541.4499    487.01221    332.84062    258.20606    37946.351 
  375200     290.0992   -1487.9024     508.6452    326.48597   -147.83469    37946.351 
  375300    308.88737   -1551.9408     515.5977     353.9661    59.046884    37946.351 
  375400    293.10307   -1554.9078    519.82744    284.18338   -273.63691    37946.351 
  375500    292.34869   -1572.3813     525.6782    269.16519     439.7138    37946.351 
  375600    298.72049   -1535.0525    507.84866    317.34397    294.98441    37946.351 
  375700    307.30296   -1545.2463    534.18956    372.12101    111.49151    37946.351 
  375800    298.03029   -1542.6023    462.18926    261.02818   -278.59868    37946.351 
  375900    297.97861   -1549.7896    502.83252     294.2515   -582.07486    37946.351 
  376000    289.95636   -1538.4118    500.53502    267.22353   -560.49505    37946.351 
  376100    295.54112   -1544.0929    511.22602    297.37059   -271.62601    37946.351 
  376200    301.18642    -1527.248    497.38163    325.78064   -616.55751    37946.351 
  376300    297.38338   -1552.4719     536.6181    322.67574   -416.12142    37946.351 
  376400    309.56394    -1538.861    534.94556    389.43901   -637.89429    37946.351 
  376500    294.01811   -1561.1063    491.23341    253.50944   -290.01112    37946.351 
  376600    293.73602   -1553.1099     503.0148    272.01754   -468.08275    37946.351 
  376700    296.76448   -1575.7875    510.86742     270.8237   -397.25023    37946.351 
  376800    300.94496   -1533.3166    511.26406    332.50771    284.93926    37946.351 
  376900    307.98952   -1488.5429     497.1795    394.90455     502.6072    37946.351 
  377000    311.87065   -1520.7044    531.32724    414.35989   -193.98755    37946.351 
  377100    304.10786   -1503.1628    515.01604    380.64982    338.35361    37946.351 
  377200    307.52659   -1492.4123    492.85663    384.62866    715.44957    37946.351 
  377300    299.85055   -1507.3356    543.22782    385.52652    363.86697    37946.351 
  377400    310.90665   -1469.5528      497.494    427.33927    342.45067    37946.351 
  377500     295.5356   -1492.9506    524.42042    361.68244   -449.20087    37946.351 
  377600    295.31091   -1515.7361    506.47648    319.94162   -765.85087    37946.351 
  377700    295.85324   -1486.3868    496.44187    341.69729    225.67105    37946.351 
  377800    302.98811    -1482.301    520.03066    401.48617   -244.24111    37946.351 
  377900    309.42484    -1481.843    525.19206    436.07747   -677.74709    37946.351 
  378000    294.82266   -1501.0181    510.79004    336.77558   -1036.4328    37946.351 
  378100    302.47052   -1481.3808    505.26891    385.31487   -836.60553    37946.351 
  378200    307.75965   -1482.1481    532.85445    435.93963   -649.89365    37946.351 
  378300    306.46254   -1508.9301    493.79157    364.25645   -23.313065    37946.351 
  378400    301.82822   -1507.0491    504.68883    356.17558   -285.12853    37946.351 
  378500     304.4373   -1503.3231    505.26563    372.22189   -758.42752    37946.351 
  378600    309.77915   -1497.7513    507.32841    403.90028   -698.88471    37946.351 
  378700    302.72016   -1503.7123    498.46131    357.29945   -182.55764    37946.351 
  378800    295.33054   -1495.3382    490.32668    324.27806   -500.92432    37946.351 
  378900    302.31487   -1541.4825    502.96246    322.20623   -212.94598    37946.351 
  379000    304.05923   -1530.5717    536.56722    374.57316    181.65691    37946.351 
  379100    300.65309   -1567.2054    508.01331    294.05447    975.41627    37946.351 
  379200    290.06856   -1562.8702    530.98137    273.71645    128.25981    37946.351 
  379300    308.79885   -1516.6623     544.5618     417.8103    616.29658    37946.351 
  379400     300.9846    -1561.501    466.90891    260.14654   -364.83812    37946.351 
  379500    297.29802   -1550.9063    502.08053    289.31956   -400.98783    37946.351 
  379600    302.97475   -1536.7939    494.78119    321.68372   -493.42974    37946.351 
  379700    294.18087   -1500.9418    515.22865    338.40175   -394.55643    37946.351 
  379800    311.57118   -1523.1134    526.09329    405.36898   -453.03006    37946.351 
  379900    305.76339   -1469.2319    525.71514    432.73139    -293.7599    37946.351 
  380000    301.05526   -1523.0657    517.66949    349.66049   -86.873014    37946.351 
  380100    291.29835   -1530.6558    517.85538    298.34021   -90.093732    37946.351 
  380200    352.86125   -1526.3905    500.30724    562.15336    231.87732    37946.351 
  380300    303.86705    -1543.986    504.75509    328.48168   -262.92118    37946.351 
  380400    305.76084   -1537.6163    494.17568      332.796   -305.61849    37946.351 
  380500     309.1189    -1526.375    503.14783    368.12415    6.7377562    37946.351 
  380600    285.41878   -1472.1512    503.95464    316.47999   -652.94405    37946.351 
  380700    288.35659   -1490.4804    508.57802    315.99729   -234.23008    37946.351 
  380800    307.01376   -1443.6713    518.38719    456.59198   -54.678843    37946.351 
  380900    298.24735     -1481.93    528.36947    388.85765     192.5904    37946.351 
  381000    302.57367   -1450.1676    494.17256    405.89606    31.278159    37946.351 
  381100     305.2087   -1498.4902     525.9953    401.25649    -280.8526    37946.351 
  381200    306.71962   -1515.7097    506.21961    371.06201   -301.29396    37946.351 
  381300    306.96413   -1509.4295    488.95233    361.17555   -789.53062    37946.351 
  381400    295.28588   -1527.6471    497.44419    298.88567   -7.8474371    37946.351 
  381500    303.72477   -1498.7221    527.92328    396.27339   -3.2548841    37946.351 
  381600    307.81335   -1512.2138    480.76547    354.02672    414.62191    37946.351 
  381700    300.44302     -1522.26    539.30269    369.34375    -367.2344    37946.351 
  381800    303.35043   -1472.9779    508.80469    401.21406    172.48502    37946.351 
  381900    304.65459   -1531.0546    492.26517    332.46794   -233.14097    37946.351 
  382000    292.67393   -1499.1424     506.6502    324.83989   -924.53861    37946.351 
  382100    295.79255   -1505.5775    515.37319    341.16479   -530.88744    37946.351 
  382200     295.1683    -1542.031    526.05091    312.57926   -52.808555    37946.351 
  382300    303.10635   -1570.4224    492.98744    286.85379     660.5698    37946.351 
  382400    290.95878   -1522.5676    523.01548    310.06015    533.06058    37946.351 
  382500    306.31989   -1567.0813    490.97627    302.64788    431.07001    37946.351 
  382600    303.80944   -1573.6199    505.12848    298.96197   -26.199642    37946.351 
  382700    296.42443   -1566.6696    489.97393    257.51754   -80.362978    37946.351 
  382800    292.37844   -1558.3677     526.2185    283.85289    326.49398    37946.351 
  382900    292.62112   -1569.5193    501.85562    249.43072    401.46896    37946.351 
  383000    318.01595    -1613.077    516.04825     334.3684    712.75659    37946.351 
  383100    291.62528    -1572.132    514.70627    255.18645    191.97269    37946.351 
  383200    298.29216    -1534.847    508.44427    316.21723    84.721132    37946.351 
  383300    297.76456   -1529.6879    499.69027    310.24751    105.97151    37946.351 
  383400    306.03942    -1561.945    522.11742    337.66291    196.52704    37946.351 
  383500    288.77916   -1551.0781    531.34858    280.07211    3.8956789    37946.351 
  383600    300.05586   -1570.3814    499.05986    279.23682    217.92937    37946.351 
  383700    301.83484   -1548.3517     504.4222    314.63612     338.6116    37946.351 
  383800    297.09721   -1521.2305    521.20322    337.21412     420.4787    37946.351 
  383900    296.01551   -1478.8556    517.86495    371.38201    1016.4305    37946.351 
  384000    298.28432   -1528.4936    502.74042    316.83147    228.27191    37946.351 
  384100    293.59158   -1533.9452    490.85355    278.37085    233.14498    37946.351 
  384200     294.0929   -1535.0854    502.44454    291.07808   -287.82219    37946.351 
  384300    299.57089   -1548.7186    504.91389    304.57077   -246.82532    37946.351 
  384400    287.60074   -1516.4884    519.65236     297.6616   -25.619447    37946.351 
  384500    289.27536   -1556.2129    499.04534    244.86757   -371.09422    37946.351 
  384600    299.20781    -1524.759    489.28669    311.26897   -59.914391    37946.351 
  384700    288.76649   -1500.9287    508.70455    307.52054    -744.2507    37946.351 
  384800    290.35172   -1471.3688    524.58132    360.09238   -434.33668    37946.351 
  384900    302.09707    -1475.069    506.21785    390.89476   -208.40486    37946.351 
  385000    295.96287   -1485.6643     508.4803    354.95168   -122.61999    37946.351 
  385100    304.37279   -1549.1556    521.66978    342.50316     284.7899    37946.351 
  385200    311.39211   -1550.4166    504.17053    355.33701    526.68308    37946.351 
  385300     303.1989   -1539.0078    539.17913    364.87659    251.40122    37946.351 
  385400    294.88046   -1496.4902    505.92169    336.69524    42.246903    37946.351 
  385500    295.56914   -1527.2702    517.80202    320.89534   -106.00397    37946.351 
  385600    303.33983   -1565.9257      501.416    300.82989    92.308755    37946.351 
  385700    305.62826   -1544.3619    495.98875    327.26676   -41.202818    37946.351 
  385800    298.74237   -1503.7553    527.49282    368.38382    163.53844    37946.351 
  385900    291.36979   -1492.5392    518.61367    337.53662    233.13532    37946.351 
  386000    292.92536    -1524.029     511.7687    306.20355     6.512876    37946.351 
  386100    305.13662   -1528.5289    508.74284    353.64098     182.9746    37946.351 
  386200    302.43054   -1535.5334     525.1439    350.85732   -475.51614    37946.351 
  386300    294.60235   -1497.7501    536.97994    365.24186   -575.40501    37946.351 
  386400    309.81931   -1524.1437    525.29885    395.65904   -9.9542691    37946.351 
  386500    302.21076   -1549.2975    495.90691    306.86703   -869.09376    37946.351 
  386600    307.09052   -1511.9265    520.19215    390.48716   -206.62557    37946.351 
  386700    313.01195    -1505.763    523.99291    427.10392   -48.970059    37946.351 
  386800    306.45975   -1540.0825    538.38095    377.68091    415.90879    37946.351 
  386900    296.31098   -1560.7904    498.48839    271.40058    72.023521    37946.351 
  387000    304.12651    -1498.859    507.15843    377.17984    696.69543    37946.351 
  387100    292.64144   -1533.3085    527.91371    311.79109    89.100824    37946.351 
  387200    295.28621    -1545.196    499.75696    283.65104    596.47568    37946.351 
  387300    293.32266    -1522.509    508.41352    306.15659    163.12832    37946.351 
  387400    303.40023    -1489.308    491.38204    367.68551   -25.457306    37946.351 
  387500    298.08143   -1523.2443    525.24808    343.67522    43.226952    37946.351 
  387600    295.12912   -1556.2933    508.11107    280.20076   -254.76152    37946.351 
  387700    294.75902   -1543.2988    509.73469    293.15309     75.80084    37946.351 
  387800    292.38195   -1533.1151    517.95508    300.85793   -462.71362    37946.351 
  387900    304.68254   -1541.9037    515.87151    345.35104   -295.79208    37946.351 
  388000    305.96274   -1529.3339    514.13258     361.9441   -348.61935    37946.351 
  388100      294.134   -1534.1893    496.53146    286.24614   -241.57067    37946.351 
  388200    311.66637   -1518.8853    523.91202    407.84429   -158.23588    37946.351 
  388300    288.96239   -1497.0853    516.30599    319.84716   -116.17518    37946.351 
  388400    293.28157   -1531.1479     507.7945    296.71371   -775.71584    37946.351 
  388500    291.00989   -1512.7564    524.14099    321.22685    -80.52652    37946.351 
  388600    305.01448   -1490.5514    487.15941    369.48524     182.3368    37946.351 
  388700    299.08069   -1470.4677    523.58526    399.28666    491.28713    37946.351 
  388800    302.88359   -1507.1653     543.4647    399.58549    714.95271    37946.351 
  388900    288.85546   -1505.2267    504.50351    299.42192    737.43065    37946.351 
  389000     293.9735   -1457.4433    531.00899    396.74726    626.21348    37946.351 
  389100    294.92573   -1509.9165    489.92924    307.48026   -67.361973    37946.351 
  389200    309.80257   -1520.7043    527.19102    400.91524    439.80974    37946.351 
  389300    286.54683   -1518.1459    507.97328    279.58127   -328.83142    37946.351 
  389400    308.24076   -1474.9794    510.55013    422.96957   -31.362343    37946.351 
  389500    301.44559   -1472.2408    533.27254    417.84532   -431.61839    37946.351 
  389600    307.04773   -1459.4163    529.23224     451.8449   -21.891857    37946.351 
  389700    305.06621   -1487.5305    491.49455    377.07417    46.559644    37946.351 
  389800    302.23326   -1496.2917    507.54582    371.61302   -139.67387    37946.351 
  389900    301.91819   -1503.4242    527.08935    382.60596    19.302791    37946.351 
  390000    301.91536    -1498.508    485.94562    346.36571   -355.89816    37946.351 
  390100    302.38433   -1508.1104    514.77163    367.70011   -295.83134    37946.351 
  390200    299.52364   -1461.4706    511.15125     397.8435    375.01703    37946.351 
  390300     297.0183   -1487.8497    512.33955    361.37606    44.072573    37946.351 
  390400     295.6604   -1475.2923    500.37425    355.85628   -674.04629    37946.351 
  390500    312.44117   -1474.7068    499.31347    430.91155    30.962234    37946.351 
  390600    304.48311   -1503.7518    514.06539    380.79909   -406.08761    37946.351 
  390700    302.39115   -1510.3557    503.90233    354.61618   -389.76634    37946.351 
  390800    292.06586   -1508.7525    510.69835    316.54106   -412.62847    37946.351 
  390900    305.99946   -1486.8796    522.45028    412.88135   -385.73116    37946.351 
  391000     290.6309   -1529.7128     523.9101    302.33369   -132.19504    37946.351 
  391100     305.0217   -1505.0327     513.1731    381.05015    -130.5366    37946.351 
  391200     300.6611    -1495.371    516.31845    374.23006    167.11483    37946.351 
  391300    301.73385   -1472.9777    535.84354    420.97692   -33.320752    37946.351 
  391400    293.76001   -1524.2782    509.10894    307.05136     571.3374    37946.351 
  391500    287.37017   -1538.3965    551.12071    306.18401   -276.26212    37946.351 
  391600    299.29785   -1477.9269    518.44007    387.65971    602.79753    37946.351 
  391700    298.77285   -1486.8393    535.24029    393.18454   -361.52962    37946.351 
  391800    294.43918   -1497.1805    489.05934    317.15645   -683.52177    37946.351 
  391900    304.05359   -1513.5501    531.02668    386.02887   -264.77561    37946.351 
  392000    301.69179    -1492.684    486.41173    351.64945   -461.50305    37946.351 
  392100    307.34208   -1474.8109    515.84761    424.39056    67.669406    37946.351 
  392200    294.63613   -1514.3477    524.86335    336.67975   -437.79607    37946.351 
  392300    295.78862   -1492.3074    537.80887    376.85294   -484.19344    37946.351 
  392400    299.83919   -1495.9947     504.9287    358.51713   -266.63051    37946.351 
  392500    306.38319   -1534.6134    496.53678    340.96128   -454.96323    37946.351 
  392600     301.1014   -1510.8196    488.22818      332.673   -403.08605    37946.351 
  392700    317.21414   -1503.5916    510.81079    435.00734   -20.822323    37946.351 
  392800    308.35025   -1443.5862    518.35945    462.66484    130.56367    37946.351 
  392900    300.30783   -1456.3313    511.12801     406.4892    89.621035    37946.351 
  393000    296.26884    -1527.439    523.36961    329.44354    2.3824799    37946.351 
  393100    303.61445   -1466.3077     529.1865    429.45447   -114.09133    37946.351 
  393200    302.93499   -1446.8772    525.34303    441.98325   -98.804741    37946.351 
  393300    305.78705   -1487.2846     537.9902    427.06014    -531.4626    37946.351 
  393400    290.95032   -1468.1528    519.27423    360.69551   -696.49784    37946.351 
  393500    301.82869   -1474.2247    537.42185    421.73512   -473.66895    37946.351 
  393600    304.23367   -1477.5508     521.3612    413.17323   -323.96938    37946.351 
  393700    303.32896   -1484.6779    495.16191    375.77468    26.189651    37946.351 
  393800    298.48207   -1478.6995    534.30263    399.07785   -449.37782    37946.351 
  393900    303.14412   -1485.1964     498.5239    377.78618    328.11098    37946.351 
  394000    308.00279   -1469.8927    521.50172    437.93673    -160.8444    37946.351 
  394100    301.99271   -1492.5032    528.81855    395.59156   -126.24977    37946.351 
  394200    304.46525   -1504.0923    514.83007    381.14298     252.0065    37946.351 
  394300    310.92632   -1490.9591    498.21408    406.74158   -271.79013    37946.351 
  394400    297.40152   -1508.8898    501.10385    330.82522    201.75765    37946.351 
  394500    299.85845   -1536.3787    486.23196    299.52307   -22.233108    37946.351 
  394600    302.30985   -1513.4891    538.98924    386.20382   -16.892421    37946.351 
  394700    298.91038   -1532.8594    510.03377    322.57697    223.34152    37946.351 
  394800    297.13358    -1540.123    524.25316    321.53524    9.5104766    37946.351 
  394900    298.82874   -1523.3203    506.90871    328.62354    388.43406    37946.351 
  395000    293.62971   -1509.3458    496.88743    309.17579   -316.99661    37946.351 
  395100    299.97062   -1513.6024    517.74213    354.31445   -560.10477    37946.351 
  395200    299.35738   -1494.5676    516.36715      369.214   -605.61675    37946.351 
  395300    298.16058   -1508.0351     532.6804    366.67295    108.99627    37946.351 
  395400    309.44079   -1523.1655    518.87946    388.51417   -158.11689    37946.351 
  395500    299.57482    -1501.284    521.30576    368.41496    556.38255    37946.351 
  395600     307.2085   -1509.1282    479.82767    353.45207    82.468023    37946.351 
  395700    301.08677   -1528.9886    471.74623    297.95618    229.59054    37946.351 
  395800    305.11151   -1552.8678    529.27755    349.72369    229.90461    37946.351 
  395900     296.4357   -1490.1187     501.2112    345.35643    158.36747    37946.351 
  396000    295.33064   -1518.5559    501.32604    312.06024    99.840738    37946.351 
  396100    308.16837   -1497.6387    532.31713    421.75145    27.398416    37946.351 
  396200    300.27512   -1523.7163    500.07257    327.90154   -22.485704    37946.351 
  396300    299.37948   -1499.2325    520.88108    369.16252   -75.024366    37946.351 
  396400    302.36916   -1477.1154    521.52053    405.37569    166.64563    37946.351 
  396500    300.70859   -1536.0194    501.00992    318.48686    42.011532    37946.351 
  396600    296.67747   -1516.5321    505.04141    323.86152   -206.38821    37946.351 
  396700    307.94141   -1513.3934    517.61931    390.27731    484.72847    37946.351 
  396800    300.78722   -1521.6653    514.57317    346.75812     689.7544    37946.351 
  396900      310.992   -1517.5849    515.96068    398.15797    347.91269    37946.351 
  397000    305.75404    -1470.146     540.4397    446.49969     468.8965    37946.351 
  397100    296.44516   -1525.1088      498.765     307.9627    200.99029    37946.351 
  397200     305.7782   -1537.6067    514.99476    353.70283    279.46205    37946.351 
  397300    298.02293   -1515.7105     496.7514    322.44904    383.02887    37946.351 
  397400    307.37541   -1498.4083    544.90986    430.00545    45.736145    37946.351 
  397500    297.71942   -1502.2451    524.99045    362.78737   0.71700087    37946.351 
  397600    301.38422    -1528.409    511.41614    339.54447    16.252151    37946.351 
  397700    307.12734   -1475.6524    535.49182    442.22665   -331.14231    37946.351 
  397800    301.17487   -1503.0684    518.48647    371.01318    -66.82479    37946.351 
  397900    291.32291   -1497.7886    519.52458    332.98714    304.55256    37946.351 
  398000    301.63714   -1460.5135    534.88511    432.04741    110.53697    37946.351 
  398100    294.38284   -1478.0914    512.87287    359.80543   -396.95396    37946.351 
  398200    303.81085   -1483.8813    520.59706    404.17544   -29.494864    37946.351 
  398300    297.52447   -1510.1081    512.79932     341.8558   -110.84768    37946.351 
  398400    301.39083   -1524.0091    502.02872    334.58673    293.44338    37946.351 
  398500    295.20078   -1538.7192    483.61723    273.60356   -67.346803    37946.351 
  398600    299.35479   -1514.7477    514.73888    347.39401    69.842608    37946.351 
  398700    282.61626   -1578.9521    527.51091    220.62113    22.382208    37946.351 
  398800    295.27834   -1554.7849    499.94579    274.21553    425.32282    37946.351 
  398900    303.22302   -1568.7536    542.64789    338.70815    696.91743    37946.351 
  399000    293.43478   -1535.7499    526.13152     311.1384    309.11139    37946.351 
  399100    297.62959   -1540.2038    502.54909    301.98294   -511.56869    37946.351 
  399200    306.68149   -1500.7987     508.1968     387.7786   -470.43665    37946.351 
  399300     295.8886   -1494.8189    499.72134    336.70393   -458.82713    37946.351 
  399400    296.07533   -1482.7204    517.60353    367.52513   -822.61344    37946.351 
  399500    305.06394   -1445.8796    520.41709    447.63737   -296.80166    37946.351 
  399600    296.64958   -1487.8252    486.46302    333.86444   -215.89776    37946.351 
  399700    285.75977   -1515.0879    530.24087    301.36433   -467.85521    37946.351 
  399800    312.77489   -1500.8567    498.36836     405.3187    46.801153    37946.351 
  399900    308.07601   -1514.4859    514.62279    386.79412   -107.51878    37946.351 
  400000    302.57223   -1516.1834    500.00268    345.70395   -179.32462    37946.351 
  400100      296.975   -1510.9509    504.28268    330.02308    238.76366    37946.351 
  400200    301.05346   -1487.5331    515.17487    382.69032    129.41629    37946.351 
  400300     300.8623   -1542.8903    511.13625    322.43416    -171.7272    37946.351 
  400400     293.8279   -1587.5684    494.43453    229.39229   -225.78552    37946.351 
  400500    303.10886   -1576.1984    496.36858    284.47017   -281.12304    37946.351 
  400600    292.75035   -1553.5547    495.31503     259.4364    155.02789    37946.351 
  400700    304.21768   -1541.0417     505.2883     333.5374    413.89838    37946.351 
  400800    298.14903   -1526.9627    499.90497    314.91791   -409.37694    37946.351 
  400900    290.67684   -1551.9406    491.41596    247.81855   -476.91189    37946.351 
  401000     297.7113   -1539.1226    513.50768     314.3905   -133.79617    37946.351 
  401100    304.21243    -1586.418    507.98651    290.83568   -458.26206    37946.351 
  401200    290.51042   -1567.9515    488.71561    228.35823   -155.67745    37946.351 
  401300     304.2361   -1534.9231    505.58205    340.03263   -447.71203    37946.351 
  401400    310.91746    -1487.988    492.39032    403.84905   -417.42954    37946.351 
  401500    305.74285   -1492.5895     496.6013    380.16747    -1112.191    37946.351 
  401600    316.40857   -1512.4001    514.37148    426.13371    -187.4457    37946.351 
  401700    298.10199   -1503.3431    524.61357    363.03444   -481.48314    37946.351 
  401800    297.87317   -1530.8351     513.5088    323.40771   -155.45201    37946.351 
  401900    311.78855   -1518.3801     511.3281    396.31552    447.24032    37946.351 
  402000    306.80584   -1486.6929     523.9242    418.17149   -486.37076    37946.351 
  402100     297.5841    -1496.537    500.76012    343.65608    267.66948    37946.351 
  402200    299.00496   -1548.8124    493.56986    290.58573   -21.167096    37946.351 
  402300     299.8908   -1539.2387    524.25528    334.83205    533.65265    37946.351 
  402400     302.0107   -1527.0134    504.87121    337.21497     517.0141    37946.351 
  402500    291.72902   -1543.4608    492.72132    262.33958   -49.191601    37946.351 
  402600    302.86096   -1513.8467    490.07436    339.41182    241.53695    37946.351 
  402700    296.15387   -1541.2728    509.12299    300.84565   -85.315062    37946.351 
  402800    305.50765   -1547.5745    520.73002    348.25256    165.82672    37946.351 
  402900    307.93318   -1552.2492    516.07078    349.83591    906.85935    37946.351 
  403000    312.82226   -1556.2551    493.07677    344.84193    231.53972    37946.351 
  403100    308.12528   -1551.8487    482.18303    317.21334    472.03832    37946.351 
  403200    298.89062   -1513.1182    485.48839    317.68381   -101.26181    37946.351 
  403300    289.69057   -1531.5336    509.89804    282.26842    10.101559    37946.351 
  403400    290.61704   -1516.3496     501.8339    293.55835    412.55737    37946.351 
  403500    300.93309   -1538.2397    513.32776    329.59484    613.88627    37946.351 
  403600    304.25197   -1569.3021    494.17889    294.32194   -395.60081    37946.351 
  403700    302.57755    -1543.331    506.81266    325.39019    127.36575    37946.351 
  403800    299.16086   -1510.8923    504.59538    340.23306   -361.68037    37946.351 
  403900    301.32231   -1475.5479      519.821    400.53178   -395.61068    37946.351 
  404000    300.62849   -1477.8092    494.83599    370.16254   -229.07187    37946.351 
  404100    306.75128   -1513.7562    500.83939    367.77779   -1070.4361    37946.351 
  404200    293.94271   -1520.6236    496.16489    298.58423   -589.48959    37946.351 
  404300    301.52191    -1554.178     508.3062     311.2853   -920.74965    37946.351 
  404400    289.25169   -1576.1085    508.99352    234.81355   -801.57751    37946.351 
  404500    297.51212   -1547.6693    493.46164    284.90131   -676.25826    37946.351 
  404600    292.19065   -1542.3348    533.19203    306.01414   -372.66651    37946.351 
  404700    294.13959   -1553.0242    483.41999    254.32495    -669.2961    37946.351 
  404800    301.69153   -1567.7842    505.14522    295.28159   -400.04309    37946.351 
  404900     297.4516   -1582.4579    502.20704    258.58573   -321.68254    37946.351 
  405000    302.41153   -1572.6773    494.09711    282.58107    1.1682742    37946.351 
  405100    299.96801   -1506.3655    502.29677    346.09422    324.45295    37946.351 
  405200    299.73272   -1540.2893    508.07223    316.88685   -20.618648    37946.351 
  405300    299.88076   -1544.3615    496.78204    302.19082    429.54162    37946.351 
  405400    293.84253   -1510.6433    496.91856    308.86729   -158.46756    37946.351 
  405500    288.65977   -1524.9315    497.07043    271.40322    -222.4229    37946.351 
  405600    297.87737   -1509.8235    506.60644    337.53592    146.93564    37946.351 
  405700     298.0603   -1536.5042    491.59469    296.66683    -424.3244    37946.351 
  405800    303.30541   -1532.6467    527.86869    360.40665   -902.02595    37946.351 
  405900    298.29388   -1524.8386    484.22045    302.00957   -281.55157    37946.351 
  406000    305.60313   -1536.8565    533.70832    372.37858   -498.33822    37946.351 
  406100    293.59976   -1557.7143    504.59714    268.38213   -463.24628    37946.351 
  406200    311.44169   -1550.0765    492.97971     344.7095   -170.08429    37946.351 
  406300    295.12413   -1553.4877    508.42465     283.2975   -14.033456    37946.351 
  406400    292.89686   -1540.8464    512.98687    290.47606    292.27011    37946.351 
  406500    301.66714   -1561.3635    509.67802    306.12525   -103.14325    37946.351 
  406600    301.11737   -1526.9514    501.24959    329.63447   -512.79337    37946.351 
  406700    301.51783   -1523.8316    520.00796    353.31515   -397.74335    37946.351 
  406800    295.35473   -1518.4147    495.22163    306.20545    115.96992    37946.351 
  406900    316.33196   -1526.4174    532.37153    429.77166    238.09404    37946.351 
  407000    299.70682   -1522.2309    529.55625    356.31267    164.33995    37946.351 
  407100    292.90769   -1521.4764    532.91383    329.82171    78.595839    37946.351 
  407200     294.6582   -1497.1608      535.556    364.65861    433.02808    37946.351 
  407300    295.50483   -1464.6389    531.93199    397.36723    177.55972    37946.351 
  407400    296.50719   -1532.1812    529.52522     331.9297    726.23027    37946.351 
  407500    301.80349    -1541.907    533.32456    349.84206    652.08546    37946.351 
  407600    300.36777   -1534.9951    507.86311    324.83038   -121.23996    37946.351 
  407700    301.41037   -1532.8617    517.60496    341.39833   -161.73379    37946.351 
  407800     298.8641     -1559.09    491.12618    277.23042   -433.99359    37946.351 
  407900    318.05886   -1520.0984    525.42925    436.92114   -101.16347    37946.351 
  408000    297.31333   -1583.4035    472.43561    227.24629   -683.65669    37946.351 
  408100    304.18169   -1473.7964    544.75107    440.08347   -454.46919    37946.351 
  408200    300.03698   -1503.8356    515.46351    362.10134   -359.99097    37946.351 
  408300    304.74767   -1501.9682    521.00502    390.71317    49.658505    37946.351 
  408400    299.47414   -1452.4885    541.88088    437.33239   -182.45688    37946.351 
  408500    302.57208   -1445.5793    548.92615    465.23079    5.3313149    37946.351 
  408600    311.69195   -1456.4956    534.67315    481.11026    147.60797    37946.351 
  408700    291.99653   -1492.7029    523.95508    345.53529    300.67451    37946.351 
  408800    300.65881   -1488.2352     512.7536    377.79068    137.66534    37946.351 
  408900     290.5793   -1539.7733    478.37587    246.50677   -501.37153    37946.351 
  409000    296.69122    -1495.191    512.90553    353.12863   -762.12345    37946.351 
  409100    300.52242   -1492.7326      499.145    359.07075   -422.50394    37946.351 
  409200    293.78702   -1499.9881    531.70296    354.05708   -782.14732    37946.351 
  409300    304.60895   -1517.9049    508.23631    361.38335   -635.72778    37946.351 
  409400    302.46104   -1556.2352    488.02035    293.16929   -527.93409    37946.351 
  409500    292.91888   -1557.6393    500.91557    261.71098   -363.87997    37946.351 
  409600    298.55644   -1545.0848    476.93993    275.66463    73.660302    37946.351 
  409700    298.72418   -1537.7257    508.56737    315.40608   -183.12564    37946.351 
  409800    298.87867   -1531.2209    510.29906    324.33796    -187.9303    37946.351 
  409900    302.14176    -1471.403    548.20906    436.75316   -352.62621    37946.351 
  410000    297.31977   -1487.4877    498.38036     349.1358   -291.76301    37946.351 
  410100    290.89158   -1491.1853    503.30073    321.42515   -336.34966    37946.351 
  410200     296.2369   -1488.4494    528.78434    373.70407   -494.64518    37946.351 
  410300    306.13342   -1517.0589    509.52099    370.37569   -600.85037    37946.351 
  410400    295.65845   -1515.6248    549.57275    364.71352    -78.07471    37946.351 
  410500    300.92514   -1526.9202    479.80735     307.3582    330.13056    37946.351 
  410600    303.43833    -1454.926    531.69939    442.55637   -574.44874    37946.351 
  410700    301.28709   -1493.6649    503.92965    366.36488   -613.47901    37946.351 
  410800     300.1615   -1498.1214    521.20483    374.11729   -532.51472    37946.351 
  410900    305.79719   -1513.0936    523.96888     387.2755   -2.1583087    37946.351 
  411000      295.982   -1512.3109    487.52156    307.43249    369.68647    37946.351 
  411100    308.59231   -1477.2968    534.00739     445.6917      514.483    37946.351 
  411200    294.70481   -1518.0665    513.29618     321.7028    347.25387    37946.351 
  411300    307.96935   -1560.9519    500.76814    325.99343    671.51887    37946.351 
  411400     302.5936   -1499.5527    514.38467    376.81281    410.65359    37946.351 
  411500    301.53212   -1535.6332     479.5656    301.13544    465.25984    37946.351 
  411600    290.39255   -1555.7657     509.6004    260.89826    103.13629    37946.351 
  411700    305.78947   -1525.1705    508.29579    359.49077    51.652611    37946.351 
  411800    303.33448   -1448.8618    513.70739    430.16112   -185.81355    37946.351 
  411900    305.80494   -1473.7759    512.59637    415.25554    281.31181    37946.351 
  412000     299.0497   -1515.5215    485.98756    316.49565    687.53169    37946.351 
  412100    299.87206   -1436.9091    538.74662    451.56862    155.08463    37946.351 
  412200     276.9877    -1428.725    512.79085    330.79389    391.92342    37946.351 
  412300    312.26231   -1452.1624     555.9716    509.30902    187.63341    37946.351 
  412400    292.21441   -1453.6977    512.78193    374.34809    186.41932    37946.351 
  412500    300.56595   -1508.3389    526.16535    370.68073   -207.07764    37946.351 
  412600    299.21027    -1483.037    500.17888    363.89427    241.08434    37946.351 
  412700    296.03428   -1517.0464    531.20574    346.61647    75.961743    37946.351 
  412800    298.51778   -1518.1316    497.80336    323.30726   -215.68677    37946.351 
  412900    305.42792   -1541.4198    511.48408    344.80239   -345.08353    37946.351 
  413000    301.46032   -1546.6154    503.07038    313.33482   -455.27728    37946.351 
  413100    311.48017   -1530.6386    499.41974    370.76067   -511.59292    37946.351 
  413200     301.6744   -1544.7749    505.49055    318.55915   -113.98537    37946.351 
  413300    294.02189   -1524.8843    495.57467    294.08971   -206.60424    37946.351 
  413400    284.35218   -1574.5514     472.2047    177.52904   -415.80287    37946.351 
  413500    307.47073   -1605.4533    531.25404    309.73363    130.44517    37946.351 
  413600    296.72534   -1542.7539    499.39941     292.2131    126.66282    37946.351 
  413700    304.15588   -1555.0242    516.25301     330.2415   -418.44557    37946.351 
  413800    302.26885   -1506.1512    527.51031    381.87818   -445.25665    37946.351 
  413900     298.9197   -1559.5344    505.11279    291.02289   -242.10733    37946.351 
  414000    293.92434   -1594.6782    506.33236    234.61441    496.52833    37946.351 
  414100    308.12456   -1594.6421    487.05107    279.28474    624.49587    37946.351 
  414200    292.26637   -1580.7889      511.726    246.43479    417.49204    37946.351 
  414300    301.55994   -1512.7522    518.02445    362.60053    408.11097    37946.351 
  414400    296.58003   -1487.2708     511.4466    359.08943    161.22671    37946.351 
  414500    294.91921   -1486.4673     509.2251    350.19603   -101.93644    37946.351 
  414600    300.85603   -1468.9002    510.98402    396.24375    151.36955    37946.351 
  414700    300.40025   -1547.2204    502.08552    306.97358   -239.63001    37946.351 
  414800    295.15963   -1550.4865    501.74031    279.77413   -381.28859    37946.351 
  414900    298.53641   -1540.1083    525.04623    328.65723   -71.647703    37946.351 
  415000    294.89872    -1471.657    520.33066    376.01959   -284.58995    37946.351 
  415100    291.96782     -1495.47    509.57443     328.2583   -19.095651    37946.351 
  415200    295.54315   -1474.5535    519.05427    374.74735   -276.86937    37946.351 
  415300    291.83254   -1514.3336    523.64755    322.85898    317.90404    37946.351 
  415400    302.46143   -1464.1012    526.57903    423.86372   -300.25397    37946.351 
  415500     294.6814   -1464.0658    501.89907    364.20104    -343.8837    37946.351 
  415600     297.1993   -1499.2487    513.12652    351.57877    215.77326    37946.351 
  415700    302.03683   -1514.4196    507.86767    352.92289   -129.65469    37946.351 
  415800    307.62445     -1500.21    525.77438     410.1892   -144.60143    37946.351 
  415900    301.06465   -1537.8926    472.65734    289.86369    -326.4576    37946.351 
  416000    296.90114   -1488.8525    524.04221    371.54863   -129.28291    37946.351 
  416100    294.85983   -1460.3549    490.92484    357.74089   -31.871599    37946.351 
  416200    307.40644   -1508.4696    505.96043    381.13435    817.71325    37946.351 
  416300    304.33297   -1526.4319    486.93673     330.3146    132.79309    37946.351 
  416400    288.78648   -1478.5994    522.02514    343.26035     329.4213    37946.351 
  416500    294.15846   -1500.9274    513.08068     336.1673   -360.96768    37946.351 
  416600    299.34471   -1515.7704    493.11985    324.70693   -310.21086    37946.351 
  416700    297.22116   -1505.2363    516.06938    348.63244   -298.63432    37946.351 
  416800     322.6375   -1513.3255    516.49512    455.36844   -386.96688    37946.351 
  416900    316.87328   -1512.6787    482.22695     395.8022    24.268081    37946.351 
  417000     303.1133   -1522.6695    486.12864     327.7791   -72.649779    37946.351 
  417100    291.27826   -1519.4645    496.83841    288.42409   -737.96117    37946.351 
  417200    304.14558   -1489.8723    494.35517    373.44921   -515.32261    37946.351 
  417300     298.3311   -1451.0175    500.52186    392.29956    364.14885    37946.351 
  417400    296.24039   -1471.9637    529.03918    390.46031    346.47933    37946.351 
  417500    292.13641   -1524.1491    514.95348    305.71716    423.18709    37946.351 
  417600     292.5515   -1503.0555    508.22666    321.95222    402.29302    37946.351 
  417700    284.12493   -1489.0036    530.72783     320.5771    781.93147    37946.351 
  417800     296.2215   -1516.8253    496.39048    312.86505    288.43612    37946.351 
  417900    297.84802   -1467.3103    507.45958    380.77005    907.01967    37946.351 
  418000    290.77473   -1484.4516     516.7559    341.08808    540.68976    37946.351 
  418100    301.69847   -1504.7036    499.66083    352.90906    99.083453    37946.351 
  418200    298.68141    -1445.535    511.10556    409.94254    295.60192    37946.351 
  418300    306.69074   -1421.5397    534.51171    493.39417    408.51818    37946.351 
  418400    301.57297   -1491.7598    506.04076    371.66794    66.586003    37946.351 
  418500    292.46486    -1468.434    511.06966    359.02672    362.30303    37946.351 
  418600    321.83158   -1467.0762    518.68504    500.18022    140.45273    37946.351 
  418700    303.24755   -1431.6066    540.57506    473.89271    59.176419    37946.351 
  418800    295.57533        -1429    488.64738    390.03877   -272.75877    37946.351 
  418900     307.0148   -1441.3134    503.37423     443.9415   -30.756028    37946.351 
  419000     302.3669   -1474.8937    514.91204    400.97879   -410.78973    37946.351 
  419100    300.11948    -1503.862    478.76051     325.7433    231.23899    37946.351 
  419200    288.37539    -1485.931    520.26865    332.32195    385.15032    37946.351 
  419300    286.83405   -1450.4521    506.53973    347.13435    431.22495    37946.351 
  419400    290.23719   -1496.0149    513.73236    324.08175   -280.37516    37946.351 
  419500    305.67583   -1548.4396    480.28387    307.69828    270.68161    37946.351 
  419600    304.63006   -1552.2754    503.52829    322.39983    144.21029    37946.351 
  419700    297.10924   -1499.6209    514.00863    351.68334    86.531876    37946.351 
  419800    309.26549   -1488.1447    523.99802    427.86447    107.24003    37946.351 
  419900    298.59048   -1490.7908    521.32011    374.49194    650.32154    37946.351 
  420000    306.55338   -1519.0371    474.67667    335.44344    63.910735    37946.351 
  420100     294.3695   -1506.8884    501.08319    319.15873   -303.25201    37946.351 
  420200    302.82713   -1518.9982    486.25648     330.2902   -275.91317    37946.351 
  420300    312.40939   -1538.8141    479.90806     347.2559   -480.35672    37946.351 
  420400    310.28975   -1581.8574    480.40864    295.17259   -489.32006    37946.351 
  420500    303.00413   -1562.5806     487.3967    288.64468   -193.15982    37946.351 
  420600    310.97381   -1560.0814    473.87577    313.49472    29.061506    37946.351 
  420700    294.23983   -1533.9546    517.73787    308.16359   -101.77751    37946.351 
  420800    295.34754   -1524.0691      517.849    323.14607    190.49379    37946.351 
  420900    305.17823   -1490.3298    539.86308     423.1476    615.75542    37946.351 
  421000    298.31374     -1509.74    505.55458    338.53167    658.96777    37946.351 
  421100    303.73705   -1534.4108    538.91742    371.63409    628.41362    37946.351 
  421200    304.73018   -1521.3731    521.28383    371.50832    416.61416    37946.351 
  421300    295.87649   -1549.5227    476.19165    258.41591    255.21999    37946.351 
  421400    307.60916   -1596.4931    488.87201    276.93492    469.41149    37946.351 
  421500    288.98701   -1578.3391    480.26811    202.66629    1032.0104    37946.351 
  421600    305.17055   -1529.7248    492.92229    336.77717   -89.997712    37946.351 
  421700    296.17645   -1538.0451    522.69659    317.74852     322.9881    37946.351 
  421800     304.6199   -1551.8539    493.29939    312.54669    423.62693    37946.351 
  421900    296.74272    -1497.342    503.57629    341.88017    238.42618    37946.351 
  422000    301.74518   -1507.6538    525.46128    375.96955    107.75246    37946.351 
  422100    301.04688   -1508.8158    510.72367    356.92691    722.40358    37946.351 
  422200    304.93266    -1527.754    500.71104    345.46605     682.6482    37946.351 
  422300    307.81593    -1524.596    502.81865     363.7093    528.04429    37946.351 
  422400    301.37532   -1525.4278    497.21636    328.28581   -111.39344    37946.351 
  422500    293.61532   -1502.0033    475.17357    294.73967   -134.62875    37946.351 
  422600     301.6105   -1509.9134    507.17347    354.81596   -389.84421    37946.351 
  422700    298.50143   -1516.1295    496.22321    323.65561    311.52528    37946.351 
  422800    304.31925   -1507.4734    494.07148    356.34601   -165.93633    37946.351 
  422900    301.50287   -1553.0777    522.02478    326.01849    322.03834    37946.351 
  423000    310.46618   -1522.7933    508.15032    382.77252    325.30738    37946.351 
  423100    309.78999   -1519.3684    507.69762    382.70117     366.9524    37946.351 
  423200    294.65713   -1500.7821    488.91163    314.38812    129.32981    37946.351 
  423300    295.47125   -1503.4394    498.38587    324.86943    387.68166    37946.351 
  423400    302.15185   -1518.3667     509.7333    351.35912    -38.09214    37946.351 
  423500    304.14843   -1495.2934    519.25631    392.94199   -193.19787    37946.351 
  423600    295.99623   -1488.5584    490.79563    334.52312   -178.41526    37946.351 
  423700    300.05301   -1518.0426    515.12763    347.63054    -115.2849    37946.351 
  423800    300.51204   -1535.9634    480.23404    296.88227   -380.57305    37946.351 
  423900    311.46435   -1506.0334    501.84695    397.72179    253.23088    37946.351 
  424000    293.51729   -1507.8877    516.24716    329.48756    227.58462    37946.351 
  424100    293.86601    -1553.857    502.33662    271.17732   -112.46064    37946.351 
  424200    303.90989   -1529.4405    499.96483     338.4298    82.826031    37946.351 
  424300    300.45123   -1501.7899    515.21615    365.76417     152.0394    37946.351 
  424400    310.31138    -1516.325    492.15189    372.54562    186.13854    37946.351 
  424500    296.40236   -1515.3683    499.91848    318.66408   -44.658976    37946.351 
  424600    302.05017   -1516.0823    501.23494    344.68748   -391.21791    37946.351 
  424700    313.18846   -1499.1335    491.33162    401.86664     520.8973    37946.351 
  424800    292.85223   -1518.7424    515.44059    314.83283    62.746133    37946.351 
  424900    310.37245   -1535.8419    493.04355     354.1952    481.34009    37946.351 
  425000    309.55849   -1567.8324    488.01999    313.51749    270.51435    37946.351 
  425100    299.13279   -1564.3009    495.39313     277.4959   -100.38434    37946.351 
  425200    297.76171   -1562.1819    503.71781    281.76826   -429.47942    37946.351 
  425300    308.70783   -1528.1999    495.44837    356.74959    126.94743    37946.351 
  425400    299.81292   -1537.8193    525.76314    337.40879   -415.98552    37946.351 
  425500    298.38787   -1525.4727    503.75244    321.33044   -698.33471    37946.351 
  425600    310.80732   -1521.4289    477.90298    355.42501    -330.4436    37946.351 
  425700    288.73824   -1546.9694    519.59774    272.24588   -800.28835    37946.351 
  425800    310.01592   -1517.7473    501.34001    378.98157   -789.09566    37946.351 
  425900    290.36057   -1515.7599    497.22049     288.3802   -288.43244    37946.351 
  426000    294.92049   -1546.8885    493.70565     274.2611    2.0944242    37946.351 
  426100    298.64426   -1520.0805    506.07968    330.20388   -338.40884    37946.351 
  426200     303.9012   -1494.9076    485.66966    358.62838    16.795219    37946.351 
  426300    305.56157   -1492.8498    492.02332    374.51327   -692.72558    37946.351 
  426400    291.89941   -1530.8355    498.90996    281.92047    -241.3668    37946.351 
  426500     300.8761   -1541.9194    496.37079    308.70171   -612.01978    37946.351 
  426600    301.00069   -1529.9066    501.01656    325.92099    122.32979    37946.351 
  426700    298.94244    -1508.573    502.06653    339.04038    412.43777    37946.351 
  426800    305.00187    -1486.723    505.67323    391.77069   -1.2587589    37946.351 
  426900     284.5571   -1459.6795    516.97323    338.09185     -2.25212    37946.351 
  427000    299.32462   -1461.3411    486.59084    372.51682   -186.71138    37946.351 
  427100    306.95583   -1465.8108    517.19262     432.9971    -445.6542    37946.351 
  427200    292.82976   -1494.1092    499.90694    323.83126   -703.80454    37946.351 
  427300    292.06286   -1482.4979    506.79556    338.87938   -483.30177    37946.351 
  427400     311.3212   -1488.3934    517.09205    429.96258   -167.10897    37946.351 
  427500    291.81565   -1512.1213    508.58078    309.92849   -381.08658    37946.351 
  427600    298.82017   -1475.8642    500.23227    369.36464   -795.14561    37946.351 
  427700    302.62782   -1478.9159    549.50429    432.72319   -753.72595    37946.351 
  427800    308.87328   -1460.3099    543.82083    473.75673    -415.4126    37946.351 
  427900    288.13642   -1459.3744    501.86143    339.39575   -390.74836    37946.351 
  428000    301.60411   -1482.0667    511.64315    387.10359   -490.72138    37946.351 
  428100    302.93746   -1505.2281    515.19907     373.4995    246.37778    37946.351 
  428200    299.61413    -1509.662    508.87523    347.78336   -122.86307    37946.351 
  428300    296.35424    -1486.117    518.34044     366.1208    379.02482    37946.351 
  428400     298.1005   -1503.6381    490.45595    328.57511     411.2048    37946.351 
  428500    294.89411   -1478.6304    531.99575    380.69055    243.60948    37946.351 
  428600    303.45346   -1499.5209    484.00312    350.33329     -683.106    37946.351 
  428700    294.08976   -1532.3833    509.81098    301.13253    284.93834    37946.351 
  428800     298.4767   -1541.2224    495.78677    298.01488    144.08449    37946.351 
  428900     302.0641   -1543.9127    491.56679    307.25163   -322.30961    37946.351 
  429000    308.46913   -1524.1999    507.20284     371.4296   -432.85291    37946.351 
  429100    307.00177   -1461.8271    512.47238    432.46738   -466.97346    37946.351 
  429200    300.39833    -1434.552    528.84451    446.39236   -272.21417    37946.351 
  429300    300.92485   -1472.5839    518.01909    399.90485   -345.17455    37946.351 
  429400    300.46591   -1487.6632    501.53817    366.27902    119.90365    37946.351 
  429500    306.94921   -1467.3831    496.30762    410.51007     -142.806    37946.351 
  429600    306.14466   -1481.7702    512.68437    408.87836    486.71311    37946.351 
  429700    298.17867   -1489.5825    521.65052    374.17708    133.43175    37946.351 
  429800    300.83204   -1535.4256    487.02076    305.64709    235.55196    37946.351 
  429900    305.05637   -1473.3463    508.57337     408.2929    435.01261    37946.351 
  430000    288.74128   -1538.4768    500.28673    261.44105    537.95387    37946.351 
  430100    297.96688   -1542.1238    482.91263    281.94471    296.74544    37946.351 
  430200    301.70383   -1545.3841    503.83686     316.4287    74.739994    37946.351 
  430300    295.64828    -1471.456    512.22048    371.48428   -429.32429    37946.351 
  430400    306.62354   -1508.1164    507.45789    379.46113   -581.45746    37946.351 
  430500    298.56881   -1495.2769    507.11186    355.70006   -555.14623    37946.351 
  430600      296.824    -1524.363    523.61733    335.26605   -63.300108    37946.351 
  430700    292.51551   -1527.5971    515.62475    304.64673   -536.43883    37946.351 
  430800    307.64894   -1534.6631    502.42848     352.5004    229.29577    37946.351 
  430900    293.15297   -1550.6083    521.45204    290.33203    596.78048    37946.351 
  431000    291.86854   -1496.5372    514.30521    331.47509    77.160807    37946.351 
  431100    308.07525   -1492.6745    501.80109    395.78042    133.68167    37946.351 
  431200     294.6217   -1503.6531    515.05491     337.5009   -55.712676    37946.351 
  431300    291.25333   -1574.6298    480.61487    216.92307    11.333965    37946.351 
  431400     296.0261   -1562.0942    481.75241    252.07859    54.320466    37946.351 
  431500    296.64455   -1579.9271    507.11814    262.39497   -349.72932    37946.351 
  431600     289.2219   -1539.7167    510.35885    272.43669   -31.438112    37946.351 
  431700    292.87014   -1515.1991    504.32485    307.34108   -12.310659    37946.351 
  431800    300.01627   -1516.3576    526.89553    360.91811    16.355872    37946.351 
  431900    304.37193    -1539.609    526.72282    357.09889    419.62589    37946.351 
  432000    302.80314   -1514.2729    509.71752    358.36858    25.921214    37946.351 
  432100    290.70967   -1502.5006    521.82902    327.81935    308.67995    37946.351 
  432200    302.18782   -1540.2244    526.91926    346.84926   -137.03604    37946.351 
  432300    289.71283   -1523.7602    505.21341    285.45738   -152.30443    37946.351 
  432400     292.7644   -1526.1355    504.55907    296.16291   -55.686475    37946.351 
  432500    296.97189   -1533.8187    492.93489     295.7936    -369.1026    37946.351 
  432600    305.24133   -1515.1187     517.2913    376.07091   -309.15583    37946.351 
  432700    303.89379   -1538.3975    500.06219    329.49764   -159.51824    37946.351 
  432800    285.31562   -1546.8284    501.42059    238.80443   -330.14972    37946.351 
  432900     299.6003   -1535.8119    490.15574    302.85173    197.34483    37946.351 
  433000    296.21348   -1516.4549    523.98788    340.79666    425.43248    37946.351 
  433100    295.33373   -1532.9263    518.29815    314.67587   -192.45216    37946.351 
  433200    305.36707   -1557.0263    525.81471    343.25271   -151.10242    37946.351 
  433300    296.88055   -1545.3891    496.81404    287.69115   -124.32222    37946.351 
  433400    298.93619   -1535.6651    508.04032    317.89397    209.43802    37946.351 
  433500    289.66649   -1545.2943     513.1398    271.64113    196.26868    37946.351 
  433600    299.20632    -1551.291     486.4122     281.8558    223.83205    37946.351 
  433700     307.3456   -1515.2564     519.5266    387.63984    78.749244    37946.351 
  433800    293.36623   -1494.1156    517.00995    343.34256   -184.23073    37946.351 
  433900    291.96175   -1472.5751    519.94684    361.49833   -19.833953    37946.351 
  434000    297.89979   -1497.5161    512.22717    355.56491    160.97075    37946.351 
  434100    302.98843   -1491.4447    504.63528    376.94849    373.01018    37946.351 
  434200     311.4312   -1502.5083    511.26556    410.51627    155.82904    37946.351 
  434300    305.12344   -1520.9389    520.24343    372.67222    298.97335    37946.351 
  434400    297.91962   -1535.6252    518.65455    323.97244    459.62053    37946.351 
  434500    301.54535   -1508.4458    504.28759    353.10447    137.84823    37946.351 
  434600    304.57138   -1535.3773     485.6659    321.17147   -22.835635    37946.351 
  434700    305.39944    -1559.061     490.1239    305.67284   -102.25285    37946.351 
  434800    304.51949    -1543.786    493.22535    320.08865   -105.16015    37946.351 
  434900    311.09151   -1550.9779    514.64554    363.89776    91.558126    37946.351 
  435000    299.04293   -1512.8133    521.91639    355.10221    33.284318    37946.351 
  435100    300.00359    -1525.586    518.60018    343.33729   -35.851908    37946.351 
  435200    305.69922    -1543.547    482.73466    315.14693     280.3583    37946.351 
  435300    306.68569   -1515.0209    513.62223    379.00071    238.72046    37946.351 
  435400    299.07887   -1524.5626    510.16904    331.76733    187.62038    37946.351 
  435500    304.29506    -1540.996    477.65015    306.29328   -266.42131    37946.351 
  435600    291.74222   -1519.7543    502.46076    295.84497    -537.4704    37946.351 
  435700    302.06188    -1474.925    532.16751    416.83006   -615.43708    37946.351 
  435800    304.99512   -1480.3932    518.81788    411.21483    396.45842    37946.351 
  435900    300.53659   -1486.3019    511.88021    378.30051    105.54162    37946.351 
  436000    298.11157   -1492.9977    519.78136    368.59078   -515.39639    37946.351 
  436100    299.26141   -1496.4319    522.76703    373.31763   -172.67137    37946.351 
  436200    290.50282   -1486.2782    529.30042    350.58213   -308.84609    37946.351 
  436300     295.8335   -1538.2174    495.25862    288.59461    242.10381    37946.351 
  436400    299.35186   -1530.7946    514.00896    330.60404   -148.81914    37946.351 
  436500    297.11679   -1537.3191    504.88892    304.89937   -509.07259    37946.351 
  436600    292.30212   -1494.8768    504.11908    324.90092   -1176.2327    37946.351 
  436700    288.58292   -1529.0656    495.71928    265.57208   -561.24739    37946.351 
  436800    301.76707   -1539.1955    499.99884     319.0639   -195.22996    37946.351 
  436900    297.76969   -1530.2461    493.85148    303.87359    192.40262    37946.351 
  437000    304.63214   -1537.9732     509.6436    342.82678   -261.03323    37946.351 
  437100    301.89549   -1503.4598    513.79907    369.17791    168.01213    37946.351 
  437200    306.93189   -1558.6091    506.58414    329.48255    818.75899    37946.351 
  437300     303.3842   -1539.0204    497.56527    324.08418    400.80296    37946.351 
  437400    300.80856   -1543.4324    517.27683    327.79072    389.66887    37946.351 
  437500    287.41789   -1521.3505    482.18552    254.50962     169.5869    37946.351 
  437600    290.37078   -1521.9452    526.01871    311.03908    328.92595    37946.351 
  437700    305.99397   -1568.8665    511.36866    319.78812     158.0301    37946.351 
  437800    298.77147   -1533.6524    496.10444    307.22939    573.58375    37946.351 
  437900    285.44792   -1537.6428    502.66082    249.82576    230.16156    37946.351 
  438000    300.84451   -1551.0581    510.46475    313.51474    330.18703    37946.351 
  438100    295.50582   -1596.9101    468.90774    202.07623    2.4149827    37946.351 
  438200    291.83915   -1586.7824    506.63187     233.4242   -164.59048    37946.351 
  438300     309.6635   -1611.1257    498.33052    281.00735      230.346    37946.351 
  438400    295.06597   -1562.5006     491.9808    257.57894    130.88501    37946.351 
  438500    292.96037    -1536.463    507.12628    289.28469    232.46392    37946.351 
  438600    297.00363   -1581.7611    492.77424    247.83334   -175.35851    37946.351 
  438700    298.02584   -1549.6775    503.70632       295.45   -678.95237    37946.351 
  438800     303.7677   -1527.8127    475.98168    315.43443   -900.83126    37946.351 
  438900    307.17925    -1537.159     471.5486    317.01046   -658.74059    37946.351 
  439000    295.85869   -1551.0784    495.64369    276.23208   -387.92373    37946.351 
  439100    288.05547   -1554.5353    493.66415    235.67316   -220.31322    37946.351 
  439200    298.24908   -1514.5468    459.50907    287.38832   -43.863795    37946.351 
  439300    303.70994   -1541.4637    501.43851    326.98029   -348.87028    37946.351 
  439400    286.47416   -1512.2525     465.3734    242.54773   -25.732349    37946.351 
  439500    298.39464   -1513.8019    513.06625    342.34556    133.15985    37946.351 
  439600    299.88393   -1518.8535    526.16205    357.09303    306.07546    37946.351 
  439700    302.39105   -1542.5334    500.46069    318.99641     475.7416    37946.351 
  439800    291.53778   -1550.7644    474.09186    235.54577    342.17713    37946.351 
  439900    303.27361   -1551.8709    513.86009    327.03078    341.75565    37946.351 
  440000    297.59492   -1520.3731    485.10315    304.21171    249.12307    37946.351 
  440100    306.31028   -1510.0087    513.54378    382.24471     606.6604    37946.351 
  440200    292.09674    -1488.573    525.10301    351.26417    374.91456    37946.351 
  440300    291.06472   -1488.3616    509.99583    331.72332    577.68341    37946.351 
  440400    308.35963   -1513.8217    516.85795    390.97005    128.87309    37946.351 
  440500    304.16881   -1534.1918    497.43239    332.31149    331.85497    37946.351 
  440600    310.36676    -1522.169    500.27915    375.07817   -106.50934    37946.351 
  440700    309.99725   -1521.6898    490.66434    364.27935   -728.91293    37946.351 
  440800    292.71814   -1510.2945    494.67848    301.91508   -579.45926    37946.351 
  440900    301.39131   -1535.4475    513.82878    334.95059   -275.29591    37946.351 
  441000    306.29011   -1548.0745    498.01454    328.55895   -471.17628    37946.351 
  441100    293.08149   -1540.1003    494.11383    273.18008   -400.41132    37946.351 
  441200    291.54369   -1504.4417    493.88243    301.68564   -62.336704    37946.351 
  441300    301.99327   -1487.5314    492.86315    364.61045   -204.20491    37946.351 
  441400    295.67914   -1516.6639    494.97389    309.16867    16.581615    37946.351 
  441500    303.85441   -1523.0015    527.88392    372.53817     532.6818    37946.351 
  441600    293.80124   -1520.9944    517.05318    318.46494   -156.42828    37946.351 
  441700    289.20642   -1525.1249    508.02074    284.62067     510.1336    37946.351 
  441800    287.88825   -1534.3348    506.76452    268.22139    257.72435    37946.351 
  441900    288.25475   -1544.2805    532.46555    285.62634    276.25955    37946.351 
  442000    299.13701   -1536.0389     516.8292    327.21296    8.3132582    37946.351 
  442100     305.5332   -1515.9792    510.58963    369.82245     530.6425    37946.351 
  442200     302.4561   -1524.6895    505.58171    342.25417    541.85935    37946.351 
  442300    298.22063   -1502.9563    533.60082    372.94245   -71.730681    37946.351 
  442400     304.6731   -1515.5278    510.10686    365.91972    210.94684    37946.351 
  442500    295.59092   -1541.2902     491.4166    280.58795   -500.15653    37946.351 
  442600    302.05639   -1516.7081    516.10078    358.95552    294.13588    37946.351 
  442700    306.55733   -1472.7566    500.61213    407.67717   -45.264855    37946.351 
  442800    308.66659   -1545.5561    502.92275    346.68217   -347.93081    37946.351 
  442900    297.90172   -1533.6252    513.95612     321.1935    203.05622    37946.351 
  443000    296.33163    -1524.237    491.78672    301.34529    821.25414    37946.351 
  443100    305.36463   -1485.1046    499.70936    389.05801    143.41091    37946.351 
  443200    298.35875   -1528.6968    523.76487    337.98776    861.81729    37946.351 
  443300    306.53481   -1543.6839    484.98957    321.02598     1042.081    37946.351 
  443400    297.76047   -1542.4068     521.2572    319.07719     780.7897    37946.351 
  443500    297.84006   -1519.9377    519.73893    340.38625     295.1417    37946.351 
  443600     294.5189   -1525.1149    508.74476    309.26628    286.62886    37946.351 
  443700    299.82914   -1551.7288    509.21513    307.02426    285.24763    37946.351 
  443800     297.3377   -1528.6228    514.23638    323.93744    171.61648    37946.351 
  443900    288.85553   -1529.3412    510.36286    281.16713    216.51388    37946.351 
  444000    294.50415   -1534.4444    487.93097    279.05657   -424.15779    37946.351 
  444100    301.55775   -1564.7571    512.77662    305.33788   -97.484783    37946.351 
  444200    292.36542   -1511.7208    503.93567    308.15838    193.15618    37946.351 
  444300    297.81697   -1510.2972     506.2385    336.42236    79.271817    37946.351 
  444400    298.35865   -1502.0503    523.18566    364.05457   -329.25251    37946.351 
  444500    315.70868   -1530.0277    503.87404    394.85842    190.04852    37946.351 
  444600    289.59348   -1474.3428    529.44393    358.56803   -7.1357309    37946.351 
  444700    287.60769   -1513.2204    498.66818    279.97666   -220.64487    37946.351 
  444800    310.79205   -1495.4143    511.75108    415.21896      65.5623    37946.351 
  444900    300.18169   -1508.2247    505.63122    348.53123   -150.28403    37946.351 
  445000     290.3403   -1514.1385     509.7291    302.41903   -88.672935    37946.351 
  445100    297.96154   -1497.9035    502.98154    346.20979   -290.94937    37946.351 
  445200    296.91958    -1479.299    510.17992     367.3228   -685.56086    37946.351 
  445300    309.17892     -1535.22    492.26879    348.67025   -905.58388    37946.351 
  445400    300.35341   -1469.6417     458.0632    340.31918   -865.80315    37946.351 
  445500    303.33269   -1441.2792      513.651    437.67922   -467.35786    37946.351 
  445600    314.34799   -1465.6789    502.98845    452.19711   -566.63427    37946.351 
  445700    311.44423   -1434.8781    517.47521    484.41484   -672.90701    37946.351 
  445800    308.09761   -1457.8015    497.07593    426.02894   -98.996014    37946.351 
  445900    297.72471   -1481.8869    485.06785    343.24673    55.547336    37946.351 
  446000    310.20963   -1487.2464     506.5257    415.54002    415.47857    37946.351 
  446100    301.09526   -1467.0213    508.43204    396.64748   -39.889709    37946.351 
  446200    304.22828   -1451.5996    500.67107    418.40997   -95.610269    37946.351 
  446300    291.80768   -1448.3707    494.92983    359.99223    107.30326    37946.351 
  446400    293.19548   -1457.7519     506.6875     368.6152    331.70091    37946.351 
  446500    292.71111   -1444.5131    511.28447    384.27087   -40.515314    37946.351 
  446600    290.48521   -1440.1224    513.08643    380.44469     216.0583    37946.351 
  446700    304.75104   -1493.0024    503.47701    382.16608    146.11762    37946.351 
  446800    299.80716   -1451.3473    496.41902    394.51073    435.26088    37946.351 
  446900    303.43585   -1460.9192     503.5258    408.37837    479.03741    37946.351 
  447000    310.14983   -1477.8042     468.6878    386.87513    261.63843    37946.351 
  447100    293.14313    -1458.958    508.44677    368.93279   -175.06846    37946.351 
  447200      294.893   -1456.5788    503.72342    374.46483   -28.651247    37946.351 
  447300    296.15529   -1471.2455    482.14346    343.89985    100.14603    37946.351 
  447400    295.96063   -1476.4021    531.37349    387.09704   -61.739396    37946.351 
  447500    296.40671    -1466.038    512.58752    380.68297    33.489666    37946.351 
  447600    309.78448   -1458.6581    485.61267    421.30168    2.6429045    37946.351 
  447700    290.65814    -1450.251    503.09759     361.1056   -493.32654    37946.351 
  447800    289.95019   -1441.1387    506.60541    370.53924   -1014.3505    37946.351 
  447900    288.52059   -1460.1859    498.61101    337.06299   -272.66275    37946.351 
  448000    292.30526    -1433.764    513.83118    395.73999   -621.05591    37946.351 
  448100    298.79709   -1491.5415    517.72279    371.07395   -101.75447    37946.351 
  448200    288.55212   -1447.6909     557.6531    408.74203      73.0461    37946.351 
  448300    304.48471   -1428.9729    485.93943    427.45922    193.21804    37946.351 
  448400    302.64317   -1419.3416    493.52839    436.39071    209.88843    37946.351 
  448500    311.35375   -1431.3091    511.43632    481.53768    432.09649    37946.351 
  448600    294.15687    -1427.488    514.01004    410.52896    295.41516    37946.351 
  448700    301.82171   -1412.3865    504.44577    450.56581    369.75021    37946.351 
  448800    300.06534   -1442.7964    488.02738    395.83199   -312.88185    37946.351 
  448900    302.60032   -1477.1289    523.01119    407.89336   -464.26228    37946.351 
  449000    304.54787   -1457.3299    481.77156    395.21869    -580.9141    37946.351 
  449100    303.51242   -1453.7237    498.77964    411.17242   -428.69152    37946.351 
  449200    306.62816   -1440.5474    504.87399    444.46698   -600.03316    37946.351 
  449300    295.38151   -1414.5404    506.14811    421.12674    117.47728    37946.351 
  449400    306.70888   -1410.8052    524.02281    493.72144   -16.875211    37946.351 
  449500     299.0808   -1427.5369    490.96126      409.594    232.06782    37946.351 
  449600    305.96353   -1475.2311    492.24709    394.16489    487.09246    37946.351 
  449700     304.9649   -1454.3219    505.64639    423.97857    226.78515    37946.351 
  449800    310.05531   -1452.4866    503.44579    446.52538    535.70019    37946.351 
  449900    308.32271   -1498.6502    486.46855    375.58602    1089.2584    37946.351 
  450000    309.24432   -1456.2896    513.98442    449.61065     741.6606    37946.351 
  450100    309.29124   -1452.7959    506.73053    446.06161    185.23696    37946.351 
  450200    293.03368   -1438.8617    491.88719    371.97684   -211.08795    37946.351 
  450300    306.61881   -1457.6366    494.96984    417.43158    216.58516    37946.351 
  450400    303.80777    -1514.592     493.3983    346.25214    378.66268    37946.351 
  450500    308.96763   -1496.2087     484.4823    378.94401    8.1794626    37946.351 
  450600    298.34826    -1490.507    524.16291    376.52832   -361.83751    37946.351 
  450700    298.92971   -1507.6611    496.20757      334.036    219.73206    37946.351 
  450800    294.22503   -1504.2922    502.56005    322.58149   -102.35941    37946.351 
  450900    297.42022   -1492.4638    500.37189    346.60343    147.68795    37946.351 
  451000    302.65824   -1457.9565    496.29033    400.60563    18.626671    37946.351 
  451100    294.05068   -1445.8241    506.81118    384.51604   -146.76458    37946.351 
  451200    312.58336   -1441.8709    483.97608    449.05008    11.016642    37946.351 
  451300    301.67947   -1454.2147    491.97009    395.62169   -88.853136    37946.351 
  451400     298.7563    -1458.822    490.64897    376.53594    2.7090968    37946.351 
  451500     281.6993   -1476.8749    510.50496    301.56509    -324.4446    37946.351 
  451600    298.22184   -1492.5213    506.71818    356.50026    365.66492    37946.351 
  451700    294.42838   -1486.4243    500.05192    338.85655    850.51819    37946.351 
  451800    288.83994   -1493.4496    500.33675    306.96237    149.98101    37946.351 
  451900    300.74383   -1491.9371     485.2355    346.95341    33.814475    37946.351 
  452000    301.00372   -1513.2039     469.1544    310.77521    581.76242    37946.351 
  452100    297.16178   -1530.8354     480.4622    287.15886    426.76969    37946.351 
  452200    298.18222   -1480.0124    509.04197    371.15469    420.10762    37946.351 
  452300    304.60609   -1481.4155    533.06128    422.68485     929.4845    37946.351 
  452400     302.6071    -1435.503    511.04907    437.58765    529.75346    37946.351 
  452500    299.53579    -1439.342    514.64707    423.52256    634.35037    37946.351 
  452600    308.77268   -1390.9842    501.75208    500.56089   -104.12538    37946.351 
  452700    297.81767   -1442.0706    515.00958    413.42324    86.703257    37946.351 
  452800     303.7279   -1462.7417    489.25702    393.60165   -64.858725    37946.351 
  452900     301.1253   -1460.3621    498.19093     393.2008    237.54141    37946.351 
  453000    300.95296   -1484.6443    511.69831    381.65024   -291.20388    37946.351 
  453100    291.04482   -1463.2406    500.49429    347.25319     8.234083    37946.351 
  453200    300.11326   -1452.7764    495.62341    393.66378    327.98811    37946.351 
  453300    292.29801   -1456.9153    501.48853    360.21335    6.2538437    37946.351 
  453400    309.35856   -1472.1978    499.77121    420.00343     249.2172    37946.351 
  453500    300.73806   -1496.3573    472.87194    330.14361   -426.56322    37946.351 
  453600    299.30655   -1448.9929    496.43823    394.63108   -38.218384    37946.351 
  453700    314.30847   -1489.8986      489.714    414.52504   -22.751113    37946.351 
  453800    307.83579   -1474.6996     497.2415    408.11788    117.70903    37946.351 
  453900    295.82043   -1508.9141    480.99372    303.57426    -28.31972    37946.351 
  454000    294.64656   -1465.3254     486.2112    347.09683   -181.14915    37946.351 
  454100    303.00386   -1431.6262    515.49123    447.69247   -132.57962    37946.351 
  454200    295.80725   -1474.0773    501.89179    359.24973   -108.15733    37946.351 
  454300    303.19697   -1435.1393    511.89692    441.45416     342.5457    37946.351 
  454400    301.33222   -1411.8486    512.74856    457.20328    532.61023    37946.351 
  454500    293.96846    -1409.768    504.24329    417.63415     249.6236    37946.351 
  454600    305.73654   -1394.6941    517.36953    498.80269    188.41906    37946.351 
  454700    306.48591   -1422.4146    493.28294    450.36854    115.67424    37946.351 
  454800    309.10962   -1442.0671    483.33206    432.57455    334.64304    37946.351 
  454900    308.32333   -1401.5504    523.47559    509.69563   -166.33501    37946.351 
  455000    289.97791   -1432.2666    533.52861    406.45935   -401.24673    37946.351 
  455100    292.44073   -1450.6056    501.30106      366.978   -24.185177    37946.351 
  455200    292.38801    -1424.186    486.68712    378.54631   -527.55688    37946.351 
  455300    297.99111   -1423.1597    508.07356    426.17873   -79.413521    37946.351 
  455400    295.11877   -1461.7482     489.3068    355.89498    39.459873    37946.351 
  455500    294.30987   -1487.3741    491.84771     329.1692    38.119213    37946.351 
  455600    299.43057    -1464.592    506.32193    389.47385    208.71639    37946.351 
  455700    290.92666   -1433.7654    496.70872    372.41092    120.77082    37946.351 
  455800    306.34171    -1447.992     519.2728    450.13199   -717.73982    37946.351 
  455900    308.75405   -1439.2832    493.75843    444.18431    63.194231    37946.351 
  456000     289.0263   -1476.0015    512.74186    337.65445    586.74111    37946.351 
  456100     307.3412   -1476.0349    480.40796    387.72289    121.33827    37946.351 
  456200    305.53598   -1497.3082    512.64758    390.56392   -92.033716    37946.351 
  456300    306.46972   -1510.0627    497.98106    367.34562   -773.83394    37946.351 
  456400    311.35054   -1511.9927     529.2286    418.63195   -402.01688    37946.351 
  456500    294.37465   -1470.3895    475.44429    330.04195   -148.52937    37946.351 
  456600    293.26947   -1472.3312    510.08159    357.76308    163.77193    37946.351 
  456700    299.69027   -1501.8162    488.12259    335.21928   -116.98553    37946.351 
  456800    295.09764   -1484.5454    485.11042    328.80635   -370.48332    37946.351 
  456900    303.70064   -1491.1794    483.66573    359.44998    15.539989    37946.351 
  457000    294.34499   -1488.5714    525.60104    361.88332    160.49473    37946.351 
  457100    287.13009   -1483.5757    492.09451      300.898   -97.685857    37946.351 
  457200    297.40458   -1476.5735    482.40928    344.46065   -488.00892    37946.351 
  457300     294.2991   -1462.8551    510.08285    371.87484   -274.29582    37946.351 
  457400    302.37521   -1528.0367     472.7227    305.68384   -434.49679    37946.351 
  457500    299.15197   -1472.5813    510.96403    384.87264    133.98217    37946.351 
  457600    303.40202   -1458.9052    510.79667      417.511     148.4342    37946.351 
  457700    318.87241   -1469.9284     437.3698    402.69354    155.40062    37946.351 
  457800    308.49657   -1464.4789    484.21882    408.29018    108.22654    37946.351 
  457900    297.66928    -1495.927    499.15903    343.04835    296.56329    37946.351 
  458000    297.45805   -1443.3178    505.72369    401.27145   -255.36267    37946.351 
  458100    304.28035   -1435.5119    524.05895    458.11999   -357.73597    37946.351 
  458200    288.12702   -1463.4963    512.22019    345.59028   -335.12556    37946.351 
  458300     308.3479   -1414.0919    512.23515    486.02431   -367.57458    37946.351 
  458400    303.51447   -1486.4098     506.2653    385.98117   -284.61194    37946.351 
  458500    301.36764   -1472.8935    491.98789     375.5571   -46.773771    37946.351 
  458600     295.8926   -1442.1863    512.60248    402.23568    28.288674    37946.351 
  458700    298.09704   -1469.9793    490.33536     362.0977    196.65132    37946.351 
  458800    291.32704   -1452.8109    527.79415    386.25301   -198.92487    37946.351 
  458900    301.88944   -1489.8341    513.83052    382.80774    311.70823    37946.351 
  459000      298.181   -1469.1246      498.387    371.38202   -69.903183    37946.351 
  459100    298.69275     -1498.29     504.8739    351.00691   -27.059753    37946.351 
  459200    304.80292   -1503.4601    515.59676    384.06171    65.572219    37946.351 
  459300    304.06199   -1482.9464    518.56894    404.21258    149.61896    37946.351 
  459400    283.59515   -1475.7412     512.7074     313.4346    679.43165    37946.351 
  459500    297.64357   -1449.2163    552.87599    443.36032    375.96264    37946.351 
  459600    297.50341   -1482.0234    506.75101    363.79734   -217.10586    37946.351 
  459700    299.96584   -1458.1762     491.5629    383.53986   -421.18461    37946.351 
  459800    295.18671   -1472.2727    503.66902    360.03857   -197.20015    37946.351 
  459900    302.53774    -1490.119    517.99329    389.60369   -176.87236    37946.351 
  460000    307.71784   -1497.6996    502.80751      390.153   -291.92357    37946.351 
  460100    294.04557    -1512.223    504.09981    315.38275   -850.34319    37946.351 
  460200    302.97302    -1492.912     525.5521    396.32867   -150.08712    37946.351 
  460300     309.6414   -1487.8092    479.37835    385.27227    338.56677    37946.351 
  460400     309.7777   -1478.9247    494.76168    410.15361    353.31785    37946.351 
  460500    293.73731   -1482.9544    517.87901    357.04307   -101.13319    37946.351 
  460600    310.76839   -1482.4624    526.56825     442.8816    -76.17296    37946.351 
  460700     302.0708   -1482.2759    509.08183    386.43364   -164.70987    37946.351 
  460800    307.00254     -1492.75    496.67887     385.7544   -152.67468    37946.351 
  460900    309.66099   -1492.6983     522.0771    423.17006    -260.0045    37946.351 
  461000    303.93865   -1455.9358    522.10845    434.20756   -305.00604    37946.351 
  461100    296.43857   -1486.7401    511.32217    358.85899   -642.88655    37946.351 
  461200    299.58563    -1454.825    491.72611    385.34292   -461.77292    37946.351 
  461300    295.54604   -1490.3881    495.32009    335.19156   -448.87876    37946.351 
  461400    299.51781   -1479.7091    500.13157    368.55906   -329.79548    37946.351 
  461500    296.74243   -1518.0164    488.18588    305.81404    210.46821    37946.351 
  461600    312.76902    -1497.163    502.23964     412.8573    54.883432    37946.351 
  461700    308.74322   -1493.9341    485.06671    380.79298    480.84457    37946.351 
  461800    309.28106   -1523.1202     501.0698    370.03087    155.96531    37946.351 
  461900    297.36337   -1474.5435    490.44576    354.34167    323.45481    37946.351 
  462000    305.48146   -1522.6448    478.60186    330.93621     60.56698    37946.351 
  462100    300.84003   -1511.0324    478.67596    321.73152   -175.55926    37946.351 
  462200    302.30569   -1500.2994     492.2041    352.58961   -912.07756    37946.351 
  462300    314.87879   -1510.6217    462.38907    369.04407   -982.53128    37946.351 
  462400    297.48536   -1476.0187    488.50834    351.47818   -151.63155    37946.351 
  462500    303.61121   -1452.4621    506.97005    421.06907   -504.47057    37946.351 
  462600    295.50102   -1512.4825    488.01633    305.59075   -151.94768    37946.351 
  462700    316.53493   -1513.9091    487.56256    398.38454     45.55057    37946.351 
  462800    291.88855   -1483.0748    484.84452    315.56688    229.96076    37946.351 
  462900    293.69621   -1494.7079    497.98644    325.21203     351.8885    37946.351 
  463000    293.85797     -1506.04    517.47401    334.09558    197.83204    37946.351 
  463100    288.78848   -1464.4067    531.90005      367.337    68.137645    37946.351 
  463200    293.93205   -1457.9763    512.23934    377.25799    86.097618    37946.351 
  463300    291.21111   -1466.9959    491.22869    334.98076   -10.528971    37946.351 
  463400    301.52342   -1446.2261    513.92886    424.86671   -3.4361592    37946.351 
  463500    302.12143   -1463.9104    509.25042    405.19556     381.3344    37946.351 
  463600     298.5519   -1489.5674    504.32814    358.54976    504.72064    37946.351 
  463700    295.80103   -1473.8755    528.62071    386.15247   -55.640089    37946.351 
  463800    288.40866   -1485.1502    480.99555    293.97937   -276.75451    37946.351 
  463900    292.08074   -1473.2838     508.4337    349.81211   -202.93527    37946.351 
  464000    299.01803   -1471.1852    518.78049    393.48235    70.697394    37946.351 
  464100    301.22668   -1487.5906    496.33563    364.57334    57.276667    37946.351 
  464200    292.53247   -1508.7873    506.16401    314.07213   -10.847191    37946.351 
  464300    302.40522   -1481.4647    516.12065    395.78888   -124.27184    37946.351 
  464400    302.80478   -1491.4103    505.63743    377.15845   -199.47707    37946.351 
  464500    293.96849   -1463.5249    495.35003    354.98413   -407.39261    37946.351 
  464600    301.25842   -1495.1579    498.95195    359.76525   -592.28209    37946.351 
  464700    304.99991   -1492.9191    503.55759    383.45013   -260.37167    37946.351 
  464800    292.45102   -1506.2533    501.76098    311.83644   -303.19021    37946.351 
  464900    306.84621   -1481.1529     510.5937    410.56267   -173.12177    37946.351 
  465000    291.35046   -1487.4094    507.97877    331.94453   -522.57247    37946.351 
  465100    301.04298   -1485.3476    498.08586    367.73963    424.86134    37946.351 
  465200    307.38466   -1493.3559    475.41131    365.60087    361.86297    37946.351 
  465300    300.54111   -1478.6917    489.57405    363.62482    308.97617    37946.351 
  465400    300.18653   -1493.4752    513.68122    371.35255    104.74211    37946.351 
  465500    307.40141   -1486.9752    510.42271    407.06839     169.5257    37946.351 
  465600    287.97612   -1487.1678    485.04112    294.06055    15.407973    37946.351 
  465700    304.07785    -1497.424     515.4803    386.71776    225.62016    37946.351 
  465800    295.32889   -1443.9271    523.01624    408.37131     391.4413    37946.351 
  465900    300.62059   -1440.3515    524.21634    436.96509    1013.3611    37946.351 
  466000    307.29021   -1472.3872    475.19626    385.92939   -7.7776779    37946.351 
  466100    305.55241   -1486.3402    514.62096    403.57927    419.16709    37946.351 
  466200    304.00691   -1456.6281     495.8261    407.54016    661.33005    37946.351 
  466300    310.07291   -1467.0287    509.10485    437.72153     312.7664    37946.351 
  466400    306.55119   -1507.3763    477.80385     350.2216   -522.08549    37946.351 
  466500    296.59218   -1475.2587    510.82783    370.53745   -267.96173    37946.351 
  466600    297.58213   -1497.8175    501.69141    343.29798   -604.53811    37946.351 
  466700     305.7146   -1500.7634    504.92053    380.18565   -538.19308    37946.351 
  466800    309.08159   -1467.6482    495.66574    419.20091   -335.34308    37946.351 
  466900    294.06385   -1481.4477    475.61405    317.75454    301.41213    37946.351 
  467000    293.14541   -1476.0552    530.05269    373.45173   -441.61464    37946.351 
  467100    296.22082   -1466.8769    501.42983    367.84973   -177.32862    37946.351 
  467200    295.06065   -1470.0618    518.81801    376.83105     258.5967    37946.351 
  467300    301.89194   -1454.0574    514.41214    419.17736    600.20948    37946.351 
  467400    291.41864   -1468.0238    518.21342    361.87173    28.838562    37946.351 
  467500     303.9285   -1475.7877    514.32395    406.52543    145.16232    37946.351 
  467600    302.29491   -1469.0884    475.42444    366.97247    1026.3769    37946.351 
  467700    305.19402   -1480.3006    484.89963     378.2844    172.61844    37946.351 
  467800    308.68643   -1506.1587    491.68712    374.93318    357.45468    37946.351 
  467900    293.09545   -1498.0387    484.89812    306.08889    209.34906    37946.351 
  468000    305.27883   -1470.9793    497.60868    400.69651    185.19097    37946.351 
  468100    299.60988   -1527.7723    509.33679    330.11555   -131.69458    37946.351 
  468200    298.27365   -1482.6505    491.36851    351.25468     240.6208    37946.351 
  468300    294.47189   -1450.2779    527.41805    402.56491    455.07923    37946.351 
  468400    305.24736   -1486.7115    508.10938    395.32333    157.64045    37946.351 
  468500    292.46454   -1462.5802    515.11207    368.92153    59.134595    37946.351 
  468600    311.79555   -1442.0376    504.07006    465.43145   -476.72192    37946.351 
  468700    306.96448   -1459.8532    494.11916    415.92018   -307.25308    37946.351 
  468800    291.14198   -1469.1657    518.21852    359.48961   -92.509564    37946.351 
  468900      303.602   -1526.3632    495.90182     336.0583   -144.90248    37946.351 
  469000    312.13367   -1496.8094    484.47554    392.58704   -118.39399    37946.351 
  469100    295.39883   -1503.5291    495.45422    321.52205    379.99864    37946.351 
  469200    305.03401   -1439.6279    500.31954    433.65683   -9.3079756    37946.351 
  469300    289.09592   -1498.6062     499.9258    302.54705   -455.36797    37946.351 
  469400    303.91143   -1508.5039    470.46581    329.87429     423.8407    37946.351 
  469500    288.02906   -1537.8124    484.88979    243.50284   -236.20607    37946.351 
  469600     297.9444   -1499.6791    502.19808    343.57367    418.24362    37946.351 
  469700    299.81289   -1531.3881    499.16792    317.24461    241.04627    37946.351 
  469800    298.42334   -1506.6279    509.68638     346.2688    30.588473    37946.351 
  469900     300.8181   -1532.0341    481.71075    303.66587    151.50732    37946.351 
  470000    295.10426   -1532.8867    485.76091    281.14537   -60.333445    37946.351 
  470100    285.94161   -1529.6067    507.65234    265.07544   -134.80635    37946.351 
  470200    289.68992   -1570.9603    469.97613    202.91688     156.9403    37946.351 
  470300    298.47405   -1533.2419    470.98042    281.17716   -338.42119    37946.351 
  470400    294.77116    -1519.175    473.55038    281.14716   -68.939704    37946.351 
  470500    300.11025   -1523.4521    495.56048    322.91152   -635.95314    37946.351 
  470600    298.40167   -1535.8758    504.03206    311.26907   -424.34981    37946.351 
  470700    290.59509   -1538.6909    483.58974    252.87404   -668.59306    37946.351 
  470800    293.73321   -1524.4837    514.76338     312.3797   -256.51086    37946.351 
  470900    294.88814   -1510.2522    515.21229    332.25842    264.06808    37946.351 
  471000    295.27311   -1503.6744    479.44793    304.80463    68.692406    37946.351 
  471100    304.11189   -1480.1827    500.99045    389.62245    431.57514    37946.351 
  471200     308.1249   -1505.9447    494.86129    375.79392    727.48145    37946.351 
  471300    302.39544   -1487.6445    503.60377    377.04811    140.30753    37946.351 
  471400    299.33707   -1500.9516    481.42772    327.79922    101.17101    37946.351 
  471500    312.17821   -1500.4099    486.81204     391.5235    46.641548    37946.351 
  471600      302.903   -1527.1496    499.31461    335.53837    35.930027    37946.351 
  471700    311.54212   -1505.2238    523.44582    420.48034   -264.49254    37946.351 
  471800    299.94114   -1521.9883    503.70114     331.7549   -30.792274    37946.351 
  471900    307.94865   -1504.5295    502.73853    384.29298   -63.379145    37946.351 
  472000    305.96978   -1467.2252    510.00908     419.9609    -254.0855    37946.351 
  472100     303.8247   -1500.3282    513.75155     380.9454   -250.31469    37946.351 
  472200    306.71239   -1497.9473    504.09266    386.66493    394.18393    37946.351 
  472300    300.68408     -1523.59    480.54521    310.34125      52.5345    37946.351 
  472400    299.31016   -1510.4512     503.4676     340.2183   -5.4398722    37946.351 
  472500    304.44917   -1509.1553    506.04564    367.22314    161.34385    37946.351 
  472600    310.59271   -1515.0337    498.05288    381.00413    262.18592    37946.351 
  472700    291.42631    -1495.528    472.19971     288.3883    113.89571    37946.351 
  472800    297.00011   -1523.6759    495.33968    308.46816    277.15628    37946.351 
  472900    305.61829   -1493.6967    497.20242    379.10074    29.058949    37946.351 
  473000    296.94705   -1514.3964    506.83807    329.00722   -268.33933    37946.351 
  473100    303.22806   -1501.6874    504.42902    367.57814    -373.8927    37946.351 
  473200    310.49056   -1537.5129    490.94899    350.96123   -666.33876    37946.351 
  473300    305.17401   -1574.5484    472.33936    271.38631   -260.79979    37946.351 
  473400    290.95775   -1534.1151    506.90297    282.39547   -303.80973    37946.351 
  473500    293.41717   -1514.8417    504.15576    309.99149   -577.60075    37946.351 
  473600    302.39452    -1538.831    498.53313    320.78681   -84.894788    37946.351 
  473700     299.9409   -1496.1909    505.72325    359.57332   -296.71399    37946.351 
  473800    296.83045   -1506.2873    524.29049    354.04388    314.44485    37946.351 
  473900    304.19094   -1495.2098    486.65199    360.61266    245.40518    37946.351 
  474000     298.1033   -1519.6499    522.92238    345.04237   -452.97487    37946.351 
  474100    306.91437    -1466.551    520.40102    435.27869    385.79143    37946.351 
  474200    298.55218   -1492.2863    494.79274    346.29669   -414.32365    37946.351 
  474300    306.04709   -1469.5007    529.75417    437.77854   -188.24448    37946.351 
  474400    302.33553   -1459.8266    521.42539    422.41802   -244.09378    37946.351 
  474500    293.72515   -1473.1806    487.62445    336.50763    149.90641    37946.351 
  474600    293.86355   -1485.5066    519.42469    356.60476   -218.35954    37946.351 
  474700    282.86911   -1467.6012    518.11599    323.71525   -368.36911    37946.351 
  474800    297.83715   -1477.9128    502.13503    364.79419    2.1670835    37946.351 
  474900    308.34483   -1449.6092    506.42436    444.68234    12.613494    37946.351 
  475000    302.57031   -1444.0601    513.51922    431.33504    54.104573    37946.351 
  475100    301.12096   -1492.5291    502.48155    365.30484    139.04998    37946.351 
  475200    298.81592   -1473.0931    518.59954    390.48383    159.31366    37946.351 
  475300    298.65376    -1450.629    526.82186    420.44038   -448.36783    37946.351 
  475400    293.61299   -1479.7223    507.63109    349.46764   -307.33009    37946.351 
  475500    296.12858   -1489.3811    524.76972    368.27026   -297.99716    37946.351 
  475600     288.4352   -1480.4557    525.75808    343.55585    -439.5854    37946.351 
  475700    311.50326   -1460.2388    494.87587    436.72041   -128.02646    37946.351 
  475800    298.33777   -1502.7675    504.84882     344.9065   -370.86361    37946.351 
  475900    302.50932    -1473.213    519.67314     408.0616   -407.92158    37946.351 
  476000    299.50826   -1458.5006    496.04934    385.64233   -283.80547    37946.351 
  476100    305.59272   -1434.7263    498.93734    439.69096   -739.62681    37946.351 
  476200    293.18542   -1495.1081    498.35159    322.87789   -564.33979    37946.351 
  476300    298.38657   -1461.0739     532.7657    414.73671   -420.43167    37946.351 
  476400    297.60912   -1463.4947     534.8305    410.88136   -464.81354    37946.351 
  476500      307.991   -1435.0058    512.44177    463.71058   -270.70804    37946.351 
  476600     297.2371   -1456.6709    494.46472     375.6649   -567.74533    37946.351 
  476700    300.25232   -1430.7728    527.44996    448.11984    47.659008    37946.351 
  476800    293.31673   -1449.3691    526.50936    397.36563    397.56179    37946.351 
  476900    293.78507   -1438.1135    524.77119    408.99109    81.870475    37946.351 
  477000    295.83912   -1535.9557     537.6952    333.31818   -69.313416    37946.351 
  477100    295.24492   -1516.5143    499.83312    312.22303   -179.68351    37946.351 
  477200    297.12088    -1493.968    514.46545    357.84542    39.782974    37946.351 
  477300    302.60869   -1511.7439    504.34916    354.65393   -363.78022    37946.351 
  477400    303.55603   -1514.9692    495.18671    346.53019     67.52702    37946.351 
  477500    296.38952   -1468.5921    534.07769    399.54164    152.83931    37946.351 
  477600    298.39822   -1499.3491    504.15577    347.90395   -170.67445    37946.351 
  477700    294.43837   -1476.9313    510.19102    358.53365    32.188665    37946.351 
  477800    297.89982   -1475.5593    518.85164    384.14634    2.4027209    37946.351 
  477900    296.66438   -1482.2791    516.27056    369.28466    -215.8532    37946.351 
  478000    292.33437   -1467.3297     516.2962    364.77026    -366.7123    37946.351 
  478100    295.17024   -1468.3223    541.46323    401.70906   -275.89073    37946.351 
  478200    305.81767   -1441.4133    514.72128    449.80041   -17.490432    37946.351 
  478300     295.6097    -1485.713    502.83976    347.67285   -502.21593    37946.351 
  478400    305.26872   -1475.8832    526.54912    424.68749   -789.42824    37946.351 
  478500    287.90164   -1495.3777    518.35965    318.83392   -878.40538    37946.351 
  478600    309.59356   -1480.5177     504.2737    417.24381   -700.25307    37946.351 
  478700     292.3488   -1506.7416    546.41103    355.53814   -548.01158    37946.351 
  478800     300.9666   -1458.9432    516.24407     411.9585   -255.98427    37946.351 
  478900    306.15832   -1497.9248    495.17899    375.27986   -469.39219    37946.351 
  479000    302.36106   -1508.5241    501.77568    354.18576   -233.39515    37946.351 
  479100    293.81191   -1540.4028    515.71732    297.76873   -507.21072    37946.351 
  479200     307.8651   -1550.7778    493.89097    328.82108   -321.00354    37946.351 
  479300    297.29624   -1523.6982    493.28419     307.7233   -341.71811    37946.351 
  479400    300.12883   -1512.6509     523.8062     362.0421    350.81762    37946.351 
  479500    305.82695   -1536.8547    486.83869     326.5182    468.04185    37946.351 
  479600    303.50286   -1549.5719    510.23366    326.73518    704.76046    37946.351 
  479700    298.72673   -1527.0079    517.38203    334.95006    829.51448    37946.351 
  479800    297.26978   -1546.1097    518.25256    310.16104    612.22579    37946.351 
  479900    310.22947   -1549.5076    492.69407    339.53645   -261.90352    37946.351 
  480000    293.34724   -1545.4774    481.79265      256.678     -363.189    37946.351 
  480100    294.19617   -1471.1203     493.5941    346.65758   -962.81319    37946.351 
  480200    311.73836   -1455.1687    533.49579     481.4687   -724.83527    37946.351 
  480300    293.74246   -1496.0419     497.5734    323.67315   -824.48647    37946.351 
  480400    297.69996    -1480.338    483.18875    342.80521   -888.34157    37946.351 
  480500    300.46625   -1445.9333    516.73094    423.20317   -826.97944    37946.351 
  480600    293.33129   -1493.6767    516.46312    343.07741    -109.6397    37946.351 
  480700    294.05616   -1459.5332    540.48534    404.50576   -110.02848    37946.351 
  480800    297.68084   -1476.8011    504.36791    367.43521   -399.62711    37946.351 
  480900    300.94921    -1473.424    493.67483    374.83015   -12.605583    37946.351 
  481000    304.06104   -1496.0435    521.92658    394.46888    187.41261    37946.351 
  481100    297.02557   -1477.6118    494.19895    353.50613    120.11893    37946.351 
  481200     305.9023   -1452.0509    517.13102    441.95348    585.13556    37946.351 
  481300    294.64212   -1445.3372    510.20002    391.05385    390.95211    37946.351 
  481400    292.18342   -1471.9994    523.43977    366.56472    462.33001    37946.351 
  481500    298.24825   -1468.6813    520.02825    393.76922    726.77217    37946.351 
  481600    306.45376   -1463.4913    510.46883    426.33296     145.9075    37946.351 
  481700    288.35785   -1461.6254    520.79538    357.07533    192.42067    37946.351 
  481800      297.263   -1456.0059    506.05332    388.03509   -649.32239    37946.351 
  481900    300.59379   -1448.7615     505.6549    409.87299   -278.73643    37946.351 
  482000    302.17384   -1488.8085    525.58623    396.86922    415.92322    37946.351 
  482100    303.34664   -1528.9981    493.56863    329.94075    710.39139    37946.351 
  482200    308.43389   -1524.1704    512.16873    376.26645    876.35211    37946.351 
  482300    299.69764   -1487.3693    503.83924    365.41595    27.338365    37946.351 
  482400    298.18313   -1508.7322    486.91612    320.31316    27.899832    37946.351 
  482500      316.806   -1520.8237    524.30356    429.43105    29.880518    37946.351 
  482600    302.71804   -1492.1971    513.36823    383.71204    -384.0344    37946.351 
  482700    303.46067   -1472.8045    488.99432    382.07332   -792.06741    37946.351 
  482800    296.03045    -1488.046    513.05792    357.45186   -780.41386    37946.351 
  482900    298.11805   -1511.4466    492.23849    322.62808   -930.52102    37946.351 
  483000    297.57402   -1459.4222    527.25063    407.21599   -462.19105    37946.351 
  483100    286.06322   -1452.1657    523.95324    359.36469   -815.59014    37946.351 
  483200    304.55124   -1437.3755    499.09344    432.51015   -267.71484    37946.351 
  483300    297.95732   -1423.4345    540.24023    457.91858    133.77293    37946.351 
  483400    309.80174   -1463.4231    498.28868     429.2904    399.26124    37946.351 
  483500    300.51628   -1502.6123    503.10829    353.12675    550.02717    37946.351 
  483600    299.98518   -1454.6598    490.93653      386.517    754.35748    37946.351 
  483700    303.70893    -1486.962    531.19331    411.23228     999.4803    37946.351 
  483800    301.63091   -1500.6352    519.81737    376.82992    511.66176    37946.351 
  483900     297.7435   -1490.9251    496.23246    345.45777    877.14615    37946.351 
  484000    301.56661   -1498.1375    495.00683    354.22764    279.08883    37946.351 
  484100    305.72826   -1461.6811    549.78147    464.19034   -220.09917    37946.351 
  484200    293.55893   -1509.2426    493.59671    305.66961    -129.3008    37946.351 
  484300    305.72871   -1466.3949    526.25282    435.94989    73.011619    37946.351 
  484400    299.13029   -1477.4875    527.89448    396.79938   -405.66021    37946.351 
  484500      299.429   -1465.2894    494.24254    376.69004   -106.07318    37946.351 
  484600    297.91183   -1494.9955    513.84152    359.75409   -70.438321    37946.351 
  484700    292.89501   -1479.1867    536.16913    375.30959    116.40129    37946.351 
  484800    296.09238   -1487.8995    500.58208     345.4013   -52.470793    37946.351 
  484900    307.21124    -1478.587    502.40865    406.58659    12.632279    37946.351 
  485000    302.22187   -1506.8277    517.30806    370.78798    539.98762    37946.351 
  485100    288.86059   -1467.5103    515.08464    347.74259    273.74327    37946.351 
  485200    298.20824   -1451.3554    518.52879    409.41556    182.90852    37946.351 
  485300    303.05883   -1445.3764    515.91277    434.61123     414.8966    37946.351 
  485400    297.93604   -1459.5841    520.53668    401.96964    408.76386    37946.351 
  485500    311.26433   -1443.9875    511.80615    468.82662    419.06882    37946.351 
  485600    307.03433   -1464.3895    515.83116    433.41027    26.717384    37946.351 
  485700    293.58162   -1488.4444    497.72846    330.70172   -391.20214    37946.351 
  485800    296.39525    -1472.464    495.92221    357.54008    33.524984    37946.351 
  485900    293.81282   -1464.5254    525.73728    383.67019   -422.52411    37946.351 
  486000    307.19093    -1437.091    506.46284    452.04534   -271.97947    37946.351 
  486100    293.74143   -1432.7135    512.04476    401.46819    54.030788    37946.351 
  486200    299.31265   -1473.6009     524.7349    398.34721    342.72441    37946.351 
  486300    310.88787   -1459.7528    507.51286     447.0736    39.146405    37946.351 
  486400    302.92698   -1460.1385     504.6281    407.97098   -402.41848    37946.351 
  486500     304.2423     -1435.74    518.05645    451.71806   -539.95119    37946.351 
  486600     290.5944   -1456.9477    516.92778    367.95219   -1001.3323    37946.351 
  486700     296.4966   -1498.5921    480.50263    316.44864   -87.926666    37946.351 
  486800    308.27421   -1465.3222    496.98962    419.21677   -571.07303    37946.351 
  486900    293.09992   -1459.2576     521.7095    381.70145   -927.45871    37946.351 
  487000    298.88829   -1445.1744    535.72687    435.85556   -474.53271    37946.351 
  487100    303.93365    -1482.005    512.53294    398.54033   -336.86108    37946.351 
  487200    294.84078   -1488.3735    534.64391    373.35563   -51.889479    37946.351 
  487300    308.55601   -1516.3772    516.02071    388.46123   -50.628814    37946.351 
  487400    299.96441   -1487.9026    521.78941    384.03359    145.01422    37946.351 
  487500    300.70388   -1496.1719    504.72738    362.03066   -139.07558    37946.351 
  487600    293.37158   -1518.2488    499.62404    301.84752    -111.7582    37946.351 
  487700    294.43166   -1479.4092    516.81668    362.65118    38.882281    37946.351 
  487800     307.7711   -1535.1689    502.95448    353.07042    139.54877    37946.351 
  487900    303.54913   -1553.6038    484.83917    297.51707   -242.90095    37946.351 
  488000    306.21868   -1549.1015    498.03417    327.23002   -703.94821    37946.351 
  488100    299.91518   -1563.5948    481.43913    267.76953   -933.92523    37946.351 
  488200    294.22978   -1535.3113    490.91665    279.94042   -785.46436    37946.351 
  488300    303.37732   -1535.8723    506.82867    336.46468   -480.07102    37946.351 
  488400    295.67658   -1533.7073     507.6293    304.76917    322.35555    37946.351 
  488500    301.66444    -1544.689      519.636    332.74561    225.97089    37946.351 
  488600    296.14593   -1575.8017    514.29408    271.45211   -221.97204    37946.351 
  488700    296.60924   -1606.3564    463.40966    192.09837   -343.99513    37946.351 
  488800    304.77799   -1539.9803    500.24307    332.07554   -498.42709    37946.351 
  488900    294.46133   -1493.8009    515.75346    347.32985    290.59138    37946.351 
  489000     292.6359   -1530.5013    522.04704     308.7067   -322.85486    37946.351 
  489100    296.59691   -1524.4898    509.35268    319.85243   -13.210687    37946.351 
  489200    303.03729   -1589.4909    492.18977    266.67677   -143.10174    37946.351 
  489300    304.27025   -1547.7114    499.29101      321.107   -523.05214    37946.351 
  489400     296.9358     -1527.71    520.00494    328.80989   -396.70982    37946.351 
  489500     299.8658   -1568.0212    514.01021    295.69195   -107.89963    37946.351 
  489600    296.92327   -1529.6148    475.55743    282.40121   -135.68441    37946.351 
  489700    317.85152   -1522.7569    512.94843    420.84858    376.57657    37946.351 
  489800    295.98566    -1567.227    481.86126    246.87252     998.6143    37946.351 
  489900    301.93486   -1545.6373    491.22194    304.60042    711.88628    37946.351 
  490000    310.55346   -1529.3505    513.22177    381.67963    696.42056    37946.351 
  490100    306.15891   -1548.2978    505.22102    334.95153    761.56364    37946.351 
  490200    298.20733   -1490.1336    509.53242    361.63694    956.15474    37946.351 
  490300    311.25621   -1487.8085    495.54066    408.70361    105.51367    37946.351 
  490400    304.78086   -1493.3577    494.57523    373.04326   -587.94362    37946.351 
  490500    299.68103   -1474.5625     502.4688    376.77759    -750.5424    37946.351 
  490600    294.32817   -1534.6062    507.67865    297.85037   -163.37918    37946.351 
  490700    294.28362   -1498.4331    498.48638    324.63062   -374.96418    37946.351 
  490800    288.63707   -1427.4246    502.90575    374.64324   -1232.9218    37946.351 
  490900    297.19292   -1404.9898    518.62349    451.30595   -716.79442    37946.351 
  491000    300.76997   -1438.3768    508.26197    423.65779    -792.2857    37946.351 
  491100    295.86645    -1453.226    512.45373    390.92948   -760.14686    37946.351 
  491200    283.67322   -1460.8034     504.3748    320.39116   -927.64943    37946.351 
  491300    297.40458   -1503.4174     542.2537    377.46115   -691.35228    37946.351 
  491400    297.81369   -1466.7537    512.53884     386.2514   -44.722234    37946.351 
  491500    295.19236   -1483.7792    507.44598    352.33445   -231.17544    37946.351 
  491600    297.64151   -1474.6919    520.11209    385.11149    359.24806    37946.351 
  491700    306.06917   -1465.8733     503.2659    415.01707   -97.220547    37946.351 
  491800    288.78659   -1489.1094    503.64881    314.37455   -300.09967    37946.351 
  491900    308.23269   -1517.2982    504.95612    375.02043   -169.74265    37946.351 
  492000    301.18344   -1514.6227    468.92819    309.93917    13.401007    37946.351 
  492100    297.90327    -1515.252    498.01209    323.62958    -418.8149    37946.351 
  492200    306.27589   -1534.5155    488.84925    332.88865   -152.83428    37946.351 
  492300    305.74699   -1519.3855    472.58799    329.37682   -129.14716    37946.351 
  492400     294.3835    -1497.879    491.65406    318.80205    257.86012    37946.351 
  492500    300.76521   -1549.4835    496.32638     300.5941   -29.821028    37946.351 
  492600     303.1225   -1555.2687    500.94009    310.03285    409.78698    37946.351 
  492700    287.70681   -1561.7524    491.34794    224.57057    699.49565    37946.351 
  492800    295.13918   -1510.1416    511.31923    329.60595     874.1364    37946.351 
  492900    299.11246   -1505.3937    529.05162    369.97005    424.76725    37946.351 
  493000    301.31977   -1527.5123    496.14509       324.88     540.1764    37946.351 
  493100    296.36232      -1532.7    484.70874    285.94247    779.45625    37946.351 
  493200    302.47418   -1491.4154    485.78591    355.81385    618.31722    37946.351 
  493300      298.754   -1514.8969    496.59571    326.39745    171.46307    37946.351 
  493400    298.11546   -1474.3406    514.37289    381.85692    364.36779    37946.351 
  493500    283.73315    -1463.452    513.80562    327.44308    133.52349    37946.351 
  493600    293.16717    -1451.742     505.1346    372.94485      317.849    37946.351 
  493700    302.76317    -1429.717    517.00319    450.03023   -40.482449    37946.351 
  493800    299.32978   -1469.2149    511.34172    389.41708    35.082015    37946.351 
  493900    308.35239   -1490.6765    505.20026    402.42499   -198.01667    37946.351 
  494000    290.66431   -1529.5197    491.20658    269.97363   -4.1893711    37946.351 
  494100    299.29541   -1533.4393    478.07613     291.7724    236.83374    37946.351 
  494200    315.15559   -1526.1503    513.44144    405.81376   -655.03486    37946.351 
  494300    292.87803   -1511.7288    475.23125    281.75324   -133.56594    37946.351 
  494400     304.9016   -1484.9061    511.48757    398.95064    458.30261    37946.351 
  494500    304.63315    -1518.188    496.75583     349.7287   -56.303882    37946.351 
  494600    299.36475   -1485.4989    507.17011    369.11892    -716.0321    37946.351 
  494700    304.23997   -1513.3408    520.08913    376.13944   -306.06828    37946.351 
  494800    305.74979   -1492.5699    506.22526    389.84228     513.7698    37946.351 
  494900    292.52372   -1498.7578    512.73056    330.62883    426.43347    37946.351 
  495000    294.54221   -1510.1104    537.03959    352.67051    660.55023    37946.351 
  495100    308.69722   -1577.3421    511.46065    323.57192    626.17016    37946.351 
  495200    305.26485   -1528.8722    497.50677    342.63869   -79.524351    37946.351 
  495300    294.60589   -1524.3125    522.51936    324.23483    103.24485    37946.351 
  495400    301.01634   -1492.9653    497.04243    358.95871   -59.252088    37946.351 
  495500    288.95537   -1510.8923    522.93628    312.63874   -381.93227    37946.351 
  495600    303.96891   -1518.6904    495.81718    345.29788    447.16432    37946.351 
  495700    307.90987   -1519.9037    513.52468    379.53039     254.3205    37946.351 
  495800    303.73144   -1536.0459     510.1547    341.21102    734.07674    37946.351 
  495900    296.22066   -1538.0281    498.58888    293.85681    215.53567    37946.351 
  496000    309.72088   -1490.7832    516.43954     419.7172    375.53016    37946.351 
  496100    308.90955   -1479.0698     518.2953    429.63459    65.987105    37946.351 
  496200    305.28503   -1502.4047    499.45766    371.14797    213.50629    37946.351 
  496300    303.38634    -1517.631    522.94317    370.86111    209.24294    37946.351 
  496400    303.30866   -1502.7255     506.0235    368.49734   -265.38436    37946.351 
  496500    308.85443   -1489.6315    514.93797    415.46743    122.44051    37946.351 
  496600    307.80815   -1465.4855    533.80803    453.77415    7.1157271    37946.351 
  496700    292.79897   -1481.9787    480.81459    316.73088    140.85133    37946.351 
  496800    314.31827   -1510.9456    516.37678    420.18501   -263.59999    37946.351 
  496900    300.07049   -1518.4213    504.05879    336.26173   -526.10117    37946.351 
  497000    296.28871   -1521.2721    506.75532    319.08556   -4.9618979    37946.351 
  497100    303.68422   -1512.7475    530.89853    385.04075   -85.280053    37946.351 
  497200    299.94521   -1524.8814    530.61369    355.79261   -196.56989    37946.351 
  497300    294.79059   -1475.4611     521.2694    372.66751   -269.67215    37946.351 
  497400    301.93187   -1481.8424    520.61157     397.7715    367.31501    37946.351 
  497500    309.98508   -1504.3038    524.01442    414.96068    674.15845    37946.351 
  497600    303.58769    -1509.844    510.69848    367.30974    12.361516    37946.351 
  497700    292.06569   -1512.1999    492.70276    295.09733   -800.06708    37946.351 
  497800    305.69056   -1505.7543    489.79404    359.96007   -718.89383    37946.351 
  497900    303.06219   -1542.3415    514.43997    336.18838   -269.69384    37946.351 
  498000    303.47271   -1543.8356    458.84026    280.94242    285.26956    37946.351 
  498100    301.39327   -1492.7823    477.62374    341.41951    270.31387    37946.351 
  498200    300.76218   -1533.0218    507.87021    328.58593  -0.96634724    37946.351 
  498300    308.02598   -1586.6098    510.62852    310.45081    291.59659    37946.351 
  498400    301.94713   -1537.4543    481.13566    302.75237    140.98287    37946.351 
  498500    294.59206   -1547.5814    499.48314    277.86741    312.39386    37946.351 
  498600    308.67879   -1533.0819    467.20633    323.49478    111.18467    37946.351 
  498700    293.77308    -1492.994      485.189    314.47438   -335.78539    37946.351 
  498800    306.51474   -1471.3159    501.70236    410.01641   -306.24482    37946.351 
  498900    295.28485   -1468.4656    513.55036    374.16869   -231.89329    37946.351 
  499000    300.61302   -1470.6385    514.22858    396.65618     388.9345    37946.351 
  499100    302.06773   -1430.0545    533.39694    462.95624    293.53789    37946.351 
  499200    302.92601   -1455.0026    529.51044    437.98485   -57.254099    37946.351 
  499300     294.7257   -1480.7926    518.63366     364.4083   -394.31575    37946.351 
  499400    304.38607   -1475.3564    497.35658    392.04895   -560.46152    37946.351 
  499500    302.96133   -1492.8391     513.1287    383.92561   -389.37766    37946.351 
  499600    291.24036   -1479.3813    516.99095    348.48929   -489.90798    37946.351 
  499700    289.11095   -1450.9309    511.79155    362.15572   -552.67338    37946.351 
  499800    290.14705    -1457.853    515.68344    363.78901   -481.59107    37946.351 
  499900    294.42975   -1441.7469    505.81453    389.30275    213.00304    37946.351 
  500000    298.19913   -1443.4032    493.01988     391.8179   -280.36467    37946.351 
  500100    287.01321   -1472.3525    500.25569    319.75626    48.406533    37946.351 
  500200    303.13348   -1526.1745     496.2589    334.49524    97.300588    37946.351 
  500300    295.57892   -1515.3833    501.62434    316.64858   -466.72953    37946.351 
  500400    299.30934   -1459.9421    504.77943     392.0356   -679.21518    37946.351 
  500500    306.04927    -1443.695     506.5324    440.37224   -831.85858    37946.351 
  500600    295.73586   -1503.5124    518.55953    346.16115   -580.66767    37946.351 
  500700     301.5664   -1464.6808     484.2297    376.90625   -1102.4748    37946.351 
  500800    307.84036   -1496.1155    493.52575    383.00688   -672.91224    37946.351 
  500900    302.72211   -1477.0417    499.91997    385.43752   -440.24475    37946.351 
  501000    297.81526   -1496.8886    526.74632    370.33116   -26.512801    37946.351 
  501100    288.59607   -1449.2017    491.41692    341.19285    456.15655    37946.351 
  501200    299.45724   -1474.8002    508.67465    381.73843    34.209657    37946.351 
  501300    306.44273   -1475.7988    503.36586    406.87286    628.55864    37946.351 
  501400    292.33349   -1478.9215     502.8247    339.70296    515.93227    37946.351 
  501500    295.44509   -1516.6375    505.42467    318.59234    218.65592    37946.351 
  501600    307.45073   -1502.7272    516.70157    397.81726    126.17355    37946.351 
  501700    296.87339    -1500.283    506.75092    342.70195    50.023005    37946.351 
  501800    302.34394   -1523.1488    515.94641     353.6547     198.5636    37946.351 
  501900    309.02591   -1527.3611    495.25149    358.82313     84.22013    37946.351 
  502000     307.3869   -1573.2084    483.57352    293.92068   -56.173915    37946.351 
  502100    292.56288   -1533.3446     488.5258    272.01353    268.58097    37946.351 
  502200    298.76985   -1531.1037    492.53939    306.20572    165.71837    37946.351 
  502300    294.92159   -1514.8408    517.85944     330.4675    95.519632    37946.351 
  502400    293.39139   -1485.7747    508.90589    343.69268    108.77032    37946.351 
  502500    302.63563   -1478.8995    478.73704    362.00749    7.2391317    37946.351 
  502600    295.30307   -1493.4448     520.8594    356.58054    65.072717    37946.351 
  502700    302.72006   -1455.3864    472.27035    379.43398    292.06256    37946.351 
  502800    300.17944   -1484.4725     540.7807     407.4228    794.06419    37946.351 
  502900    302.10037   -1533.1532    492.13106    318.73861    805.40411    37946.351 
  503000    315.13023   -1521.1597    496.52954    393.77832    392.26238    37946.351 
  503100    310.99749   -1514.8378    513.03626     398.0054    636.31689    37946.351 
  503200    300.46221   -1509.3409    503.07111    346.11752     108.8036    37946.351 
  503300    297.53161   -1528.4372    487.61183    298.37136     374.0519    37946.351 
  503400    304.42292   -1513.1205    492.07509    349.16919   -122.76498    37946.351 
  503500    301.09822   -1552.7739    486.07251    288.54865    803.76726    37946.351 
  503600    298.50559   -1586.7189    487.83158    244.69326    318.28393    37946.351 
  503700    308.76567   -1568.6876    489.82922     310.9031    184.16903    37946.351 
  503800    306.27929   -1531.4857    493.65871    340.74316     417.9786    37946.351 
  503900    284.03962   -1551.5735    507.76515    234.66055   -11.440231    37946.351 
  504000     291.2873   -1528.4278    486.58351     269.2466   -101.52979    37946.351 
  504100    302.46117   -1496.9445    468.58466    333.02489    241.84892    37946.351 
  504200    290.60736   -1503.3848    522.45114    327.09683   -254.18017    37946.351 
  504300    294.52364   -1475.1124    508.62396    359.16931   -545.38526    37946.351 
  504400    310.95705   -1471.0303    507.56336     436.1579   -226.51368    37946.351 
  504500      300.458   -1485.8232    495.94418    362.48935   -211.83975    37946.351 
  504600    296.46509   -1496.6041    500.29674    338.08887   -440.49894    37946.351 
  504700    301.99636   -1485.1127     488.6191    362.79903    612.27285    37946.351 
  504800    308.55633   -1492.3948    491.26981    387.69423     416.2252    37946.351 
  504900    308.68333   -1501.2347    521.50339    409.65953    648.00791    37946.351 
  505000    294.43427   -1520.2094    485.47707    290.52316    407.31511    37946.351 
  505100    308.12464   -1493.1268    494.37053    388.11989    318.75337    37946.351 
  505200    296.17319   -1496.7442    516.40698    352.74516    46.512314    37946.351 
  505300    294.53773   -1469.6679    488.03611    344.08935    635.98784    37946.351 
  505400    299.39253   -1452.3312    517.47386    412.71541    200.08249    37946.351 
  505500    301.02367   -1508.3116    474.98582    321.58871    496.66748    37946.351 
  505600    295.14564   -1470.3895    503.47717    361.54499    283.01109    37946.351 
  505700    299.00468   -1482.1782    523.97302    387.62184    569.87131    37946.351 
  505800    312.47452   -1418.2109    513.43696     501.6811    1016.8725    37946.351 
  505900    291.63816   -1481.2368    520.72094    352.15425    304.57334    37946.351 
  506000    305.84786   -1502.4959    499.45231    373.58466    59.926738    37946.351 
  506100    293.43975   -1508.0589    503.40934    316.12954   -140.19575    37946.351 
  506200     295.8355   -1503.3587    498.04711    326.25085   -209.37699    37946.351 
  506300     301.3436   -1494.7582    504.12346    365.71978    373.10512    37946.351 
  506400     295.5949   -1504.4131    495.38426    321.45067    599.31071    37946.351 
  506500    295.56944    -1540.277    501.31768    291.40559    224.07368    37946.351 
  506600    304.86837   -1492.0171    503.09898    383.30144     243.8304    37946.351 
  506700    295.60182     -1469.83    497.08987    357.77052    28.187191    37946.351 
  506800    313.23244   -1504.3478    506.61261    412.13125    413.95116    37946.351 
  506900    294.21108   -1508.2303    479.88821    295.90881    206.78368    37946.351 
  507000    304.89535   -1507.2317     526.8855    391.99485    451.76657    37946.351 
  507100    299.43222   -1490.7362    473.42374    330.43891    158.44279    37946.351 
  507200    311.13807   -1509.2308    513.42853    404.63736    140.60911    37946.351 
  507300    289.86453   -1472.5314    514.61238    346.76798   -546.25892    37946.351 
  507400    307.05473   -1435.1352    512.69208    459.61727    302.01784    37946.351 
  507500    295.90875   -1474.3864    521.58547     379.0912   -52.521939    37946.351 
  507600    293.88113   -1509.7581     523.7464    336.75404   -174.21719    37946.351 
  507700    296.73725    -1487.887     504.4791    352.21336    131.76307    37946.351 
  507800    295.90812   -1465.6485    520.63492    386.87571   -52.640052    37946.351 
  507900    296.70715   -1435.2991    538.18294    438.36964   -39.980885    37946.351 
  508000    297.01885   -1462.1629    498.90563    373.63143   -259.94215    37946.351 
  508100    293.07828   -1456.9907    503.97457    366.13593      59.3056    37946.351 
  508200    299.38901   -1465.5142    524.94354    406.98624   -42.872793    37946.351 
  508300    294.38601   -1474.6247    498.23933    348.65288   -250.28026    37946.351 
  508400    299.61391   -1495.4074      494.746    347.90773   -272.92636    37946.351 
  508500    289.58069   -1514.8994    522.69848    311.20853   -100.62485    37946.351 
  508600    296.84342   -1506.1529    482.06477    312.01099    578.34018    37946.351 
  508700     301.1017   -1484.9621     508.8032    379.10681    20.109702    37946.351 
  508800    307.11581   -1522.6386    504.29515     363.9919   -251.85477    37946.351 
  508900    297.84716   -1507.6399    483.66498    316.64205   -137.86409    37946.351 
  509000    297.89479   -1460.2428    508.18981    388.77835   -363.24938    37946.351 
  509100     303.3664   -1520.8176    489.40867    334.05029   -153.33701    37946.351 
  509200    299.87955   -1490.1536    503.46323    363.07443    72.605609    37946.351 
  509300    296.32492   -1456.2377     531.1007    408.62835    100.48246    37946.351 
  509400    296.29005   -1494.1237    525.04988    364.53457    503.59414    37946.351 
  509500    298.09451   -1515.2131    497.97173    324.48895    345.82947    37946.351 
  509600    292.22486   -1535.8375    510.48679    289.96014    369.75182    37946.351 
  509700    296.09467   -1550.4154    501.38812    283.70167    715.53324    37946.351 
  509800    297.07682   -1534.9762     486.9115      289.085    706.59958    37946.351 
  509900     302.3759   -1486.1449    515.53993    390.39597    212.30774    37946.351 
  510000     299.4203   -1499.4453    502.98155    351.23393    96.854484    37946.351 
  510100    304.09647   -1522.1849    503.48114    350.04148    34.082174    37946.351 
  510200    292.07603   -1522.0424    485.69664    278.29519    514.96596    37946.351 
  510300    295.60753    -1505.219     475.3127    300.63008   -206.77779    37946.351 
  510400    296.97045   -1455.7187    524.23597    405.18817    -162.4231    37946.351 
  510500    289.06298   -1494.4624    521.74714    328.36395   -542.30506    37946.351 
  510600    296.63852   -1478.3261    510.37695    367.22773   -150.46577    37946.351 
  510700    307.32408   -1495.9443    503.15427    390.48273   -187.67189    37946.351 
  510800    301.87547   -1496.2861    514.44505    376.90742   -15.758487    37946.351 
  510900    300.42763   -1516.9647    502.53513    337.80218   -358.71578    37946.351 
  511000    298.85564    -1461.601    486.58035    370.13552   -538.43145    37946.351 
  511100    306.46603   -1520.8575    476.90243     335.4556   -369.07179    37946.351 
  511200    300.61701   -1493.0861    497.73729    357.73533   -277.09167    37946.351 
  511300    307.47166    -1465.088    499.53381    418.38283   -225.26828    37946.351 
  511400    305.61491   -1496.0195     496.7919    376.35222   -175.46746    37946.351 
  511500    295.04077   -1482.1262    501.14428    347.00346    36.200658    37946.351 
  511600    307.48764   -1471.2231    515.16757     427.9535   -748.85093    37946.351 
  511700    293.25221    -1450.445    532.13582    401.62584   -84.596663    37946.351 
  511800    296.88277   -1457.9243    523.16569    401.51759   -376.05189    37946.351 
  511900    294.52991    -1450.724    505.24356    380.20553   -575.94685    37946.351 
  512000    300.78336   -1463.2185    527.23705    417.85137   -568.61145    37946.351 
  512100    308.51647    -1460.879    520.90464    448.66549   -700.84744    37946.351 
  512200    307.15307   -1449.9836    511.38244    443.90191   -1022.7147    37946.351 
  512300    290.57787   -1459.1546    507.01053    355.75369   -764.75383    37946.351 
  512400    297.97184   -1464.7714    517.77121    394.17796   -331.55122    37946.351 
  512500    296.45951   -1498.9762     520.4094    355.80434     3.724175    37946.351 
  512600    308.99749   -1509.9616    533.62889    414.47218    220.93743    37946.351 
  512700    296.13166   -1516.2486    490.01567    306.66255    246.69262    37946.351 
  512800    287.67622   -1533.6624    529.72236    290.89724   -431.83534    37946.351 
  512900    299.63912   -1529.8925    497.63166    316.42176    -250.1286    37946.351 
  513000    292.02329   -1479.7444    518.25187    352.91108    -7.732921    37946.351 
  513100    300.44815   -1503.7464    515.83055    364.40826   -388.02006    37946.351 
  513200    304.31903   -1495.6354    528.85043    402.96205    224.68048    37946.351 
  513300    304.79952   -1485.3601    533.72195    420.27155    187.41818    37946.351 
  513400    288.62596   -1477.4778    516.54573    338.18007    487.39195    37946.351 
  513500    300.95887   -1526.7436     507.7456    335.62479     -47.0371    37946.351 
  513600    302.65802   -1506.3634    520.03437    375.94176     399.4428    37946.351 
  513700    297.84794   -1509.4995    522.53528    353.65624   -80.258972    37946.351 
  513800    302.24415   -1479.8592    525.43568    405.98444    4.6655225    37946.351 
  513900    303.00909   -1483.7663    494.26633    374.35101    469.43476    37946.351 
  514000    303.41056   -1527.3291    497.90131    336.23022   -94.437321    37946.351 
  514100    298.06198   -1487.7288    504.39371    358.24875     -249.649    37946.351 
  514200    306.02319   -1502.9995    524.19403    398.61197    123.80954    37946.351 
  514300    296.97966   -1490.1402    482.80315    329.37529    440.00481    37946.351 
  514400    304.48735   -1499.4187     539.3533    410.43921     948.6404    37946.351 
  514500    295.51411   -1550.4145    507.22715    286.92852    218.22699    37946.351 
  514600     293.3112   -1527.2651    484.22508    277.16055    712.16552    37946.351 
  514700    290.81793   -1517.1765    510.50913    302.31083    40.132885    37946.351 
  514800    292.51821   -1540.8377    467.02581    242.81933     285.4611    37946.351 
  514900     300.5458   -1524.3195    490.78224    319.22639    378.14572    37946.351 
  515000    301.50411   -1546.8221    518.10717    328.36206   -299.58185    37946.351 
  515100    301.30238   -1505.3058    500.52101    351.38421   -364.44625    37946.351 
  515200    295.65703   -1513.4361    506.31448    323.63751   -175.40807    37946.351 
  515300    302.86148   -1556.5252    485.76951     292.4308   -239.75471    37946.351 
  515400    308.04865   -1513.4166    478.77617    351.89367    10.991516    37946.351 
  515500    293.23387   -1548.0968    498.20874    269.96439    228.55267    37946.351 
  515600    297.51972   -1540.1941    477.26207    276.21112   -490.93857    37946.351 
  515700    301.87863    -1523.782    512.35946    347.34021   -428.05246    37946.351 
  515800    306.18768   -1492.7764    518.12469    403.50614   -129.82304    37946.351 
  515900    297.83178   -1533.7848    473.19932    279.96227   -767.07815    37946.351 
  516000    294.20479   -1501.3999    516.94619    339.76887   -707.60172    37946.351 
  516100    298.43849   -1547.2418    509.52337    305.56007   -601.75351    37946.351 
  516200     289.2504   -1513.9767    482.50412    270.45022   -403.94099    37946.351 
  516300    289.64803   -1533.0558    510.19854    280.85529   -446.33879    37946.351 
  516400    302.32239   -1472.8313    502.22228    390.15102   -163.50131    37946.351 
  516500    308.57221   -1525.3667    472.79915    336.32315   -278.14434    37946.351 
  516600    305.00372   -1464.7795     523.0962    431.14551   -631.95586    37946.351 
  516700    304.04959   -1504.5397    505.38332    369.37789   -367.18668    37946.351 
  516800    301.22749   -1505.1219    508.30355    359.01353   -125.33032    37946.351 
  516900    299.70968   -1546.1432    509.06808    311.92513    430.33308    37946.351 
  517000    298.96709   -1559.2512    472.18956    258.59613    710.24501    37946.351 
  517100    298.60847   -1540.4364    529.38407    332.99135    351.48227    37946.351 
  517200    304.11019   -1559.2083    497.12018    306.71891     115.7989    37946.351 
  517300    297.46876   -1514.2493    502.57955    327.24398    224.30568    37946.351 
  517400    308.68275   -1529.2406    499.74404    359.89169    63.143236    37946.351 
  517500    311.71296   -1546.9933    486.85497     342.8889    449.30221    37946.351 
  517600    309.48239   -1513.1827     524.4098    404.21449    381.79653    37946.351 
  517700    291.86562   -1530.0691    516.16672    299.79156    338.33528    37946.351 
  517800    302.84333   -1504.0785    517.12221    376.14858    109.24566    37946.351 
  517900     308.3987   -1539.9748     491.2937    339.42857   -214.51262    37946.351 
  518000     302.8873   -1555.7267     524.2251    331.80119   -960.67124    37946.351 
  518100    300.34374   -1580.6963    494.38359    265.54145    -772.6323    37946.351 
  518200    293.22392     -1560.41    469.60268    229.00038   -318.57889    37946.351 
  518300    304.93913   -1554.6194    473.57775    291.49649   -34.675905    37946.351 
  518400     290.5169   -1566.8605     494.0851    234.84787   -161.51404    37946.351 
  518500    316.30822   -1565.9025    508.18577    365.99388    232.58971    37946.351 
  518600     297.2815   -1518.9155    503.14235    322.29778    38.977926    37946.351 
  518700    298.07059   -1547.5862    505.03445    299.07085   -12.199139    37946.351 
  518800    294.74182   -1555.0985    495.31066    266.85195    91.438381    37946.351 
  518900    296.48655   -1569.6003    480.56258    245.45509    70.508458    37946.351 
  519000    304.59085   -1543.8027    491.40552    318.57327    -683.6936    37946.351 
  519100    300.67761   -1520.5583    515.92627    348.72489    -1264.398    37946.351 
  519200    309.71172    -1525.974    479.19616    347.24175   -386.28988    37946.351 
  519300    300.47035   -1485.8943    498.12608    364.65581   -845.04933    37946.351 
  519400    306.26823   -1496.3881    499.70875    381.84099   -805.03132    37946.351 
  519500    296.17137   -1491.7028    516.97537    358.34681   -271.98594    37946.351 
  519600    306.12628   -1507.3155    506.46553    377.03152    329.37209    37946.351 
  519700    307.79092   -1484.5554    504.55318     405.3718    222.57055    37946.351 
  519800    300.03009   -1500.9343    502.67974    352.18785    212.29753    37946.351 
  519900    310.63766   -1503.7219     510.2584    404.72383    614.33562    37946.351 
  520000    295.13955   -1516.1357    513.71471    326.00893    642.10802    37946.351 
  520100    280.44983   -1475.6364    497.88511    284.55991    483.65459    37946.351 
  520200     294.7139   -1485.1089     504.1334    345.53855    90.968524    37946.351 
  520300    303.01454   -1504.9954    500.18637    359.06642   -159.05797    37946.351 
  520400    302.85006   -1468.5974    501.42981    395.96753   -63.766345    37946.351 
  520500    312.73519   -1486.6307    493.28852    414.28616    142.04319    37946.351 
  520600    300.22776   -1487.4771    523.44409    387.29906    175.59793    37946.351 
  520700    296.74908   -1495.2448    500.39059    340.82026    618.74214    37946.351 
  520800    292.28762   -1508.1317    494.49119    301.95287   -40.761424    37946.351 
  520900    298.04065   -1492.6598    525.21315    374.04119    212.41941    37946.351 
  521000    308.34302   -1484.8781     508.7671     411.7481   -246.48745    37946.351 
  521100    292.10337   -1517.1056     485.3156    282.97401    -28.38601    37946.351 
  521200    303.41825   -1498.9005    504.79201    371.58406   -307.14793    37946.351 
  521300    319.01018   -1482.6956    528.54549    481.72216   -490.89366    37946.351 
  521400    294.52823   -1496.0091    497.48911     327.1584   -525.91627    37946.351 
  521500    301.33714   -1552.5769    516.61095     320.3595   -596.36893    37946.351 
  521600    304.77584   -1489.7152    507.24057    389.32852   -127.30625    37946.351 
  521700    297.27045   -1482.3232    479.54893    335.24694    -254.6785    37946.351 
  521800    299.23667   -1520.4164     499.4875    325.94229   -667.35001    37946.351 
  521900    293.39813   -1519.3612    485.00961    286.24022   -529.13571    37946.351 
  522000    297.39136   -1561.3239    529.91686     307.1584   -327.54052    37946.351 
  522100    305.80017   -1515.5626    504.06372    364.91473    267.74127    37946.351 
  522200    296.56456   -1580.5364     507.1147    261.42222    463.57711    37946.351 
  522300     300.8652   -1530.8412    510.42042    333.78045    442.11368    37946.351 
  522400    303.41181   -1530.3221    488.48081    323.82231   -71.113852    37946.351 
  522500    295.43041    -1575.316    498.70735    253.13044   -613.75714    37946.351 
  522600    306.12402   -1540.9477     505.9036    342.82723   -385.96562    37946.351 
  522700     305.6845   -1478.8533    500.70312    397.74286   -550.52268    37946.351 
  522800    305.73311   -1517.6312    494.83467    353.31528   -850.67775    37946.351 
  522900    295.99995   -1493.3821    494.42444    333.34502   -287.83579    37946.351 
  523000    309.58564    -1529.648    496.67621    360.48035    104.91585    37946.351 
  523100    309.24304    -1535.454    502.43976    358.89588   -11.707343    37946.351 
  523200    298.65692   -1578.9003    500.95184    266.31325    278.40765    37946.351 
  523300    306.40507   -1580.4039    488.51847    287.25093     122.4603    37946.351 
  523400    296.03233   -1578.3375     496.9152    251.02604    44.877954    37946.351 
  523500    300.56795   -1540.6315    512.33056    324.56238   -69.838868    37946.351 
  523600    317.00434   -1579.2991    504.22587    351.77063    615.11386    37946.351 
  523700    310.02555   -1549.4221    519.89661     365.9067    166.15154    37946.351 
  523800    305.49272   -1561.9192    500.56499    313.67566    261.86354    37946.351 
  523900    300.61125    -1557.426    496.39825    292.03048   -163.68823    37946.351 
  524000    283.97298   -1542.4181    513.04073    248.79158    342.89941    37946.351 
  524100    301.26919   -1542.2635    496.76775    310.52392    408.66291    37946.351 
  524200    300.18823   -1529.7502    505.32192    326.72588    27.874604    37946.351 
  524300    303.89385   -1524.9387    515.36396    358.25849   -308.36158    37946.351 
  524400    306.80062   -1503.6764    498.38189    375.62224   -450.40044    37946.351 
  524500    298.38128   -1520.1834    516.32913    339.16683   -901.56858    37946.351 
  524600    288.01753   -1548.0266    490.72598    239.07291   -1189.2481    37946.351 
  524700    298.25318   -1568.2363    491.19067    265.39883   -319.63931    37946.351 
  524800    304.05072   -1569.2104     513.8767    313.20559   -247.61777    37946.351 
  524900     290.8684   -1536.3876    500.66361    273.48141   -221.13857    37946.351 
  525000     293.4868    -1550.483      498.677    269.18489   -357.98252    37946.351 
  525100    287.94188   -1522.6217    501.17025    274.58158   -36.172026    37946.351 
  525200    307.29773   -1542.0533    499.90071    341.00164   -66.164182    37946.351 
  525300    304.81718   -1528.2823    492.66041    336.36727   -30.660674    37946.351 
  525400     290.1979   -1501.8792    512.14801    316.45628   -542.44041    37946.351 
  525500    293.45563   -1552.0581     519.6209    288.41339    -418.5873    37946.351 
  525600    291.97212   -1468.0338    516.89853    363.03804   -946.91953    37946.351 
  525700    292.84716   -1456.7577    530.15018    391.50432      104.669    37946.351 
  525800    292.22842   -1457.9914    512.21667     369.5522    233.10722    37946.351 
  525900    298.56624   -1534.3241     491.6133    301.14274    53.025213    37946.351 
  526000     293.1687   -1542.0287    523.18574    300.71613    447.97978    37946.351 
  526100    296.23571   -1532.7214    504.36355    305.00594    547.42151    37946.351 
  526200    297.39908   -1539.6562    511.28914     310.2331    18.454877    37946.351 
  526300    293.90998   -1544.1887    505.90542    284.61235    19.971951    37946.351 
  526400    290.19728   -1550.4929    487.37416     243.0659    105.73413    37946.351 
  526500    291.75405   -1530.9734    484.49847     266.7168    307.33601    37946.351 
  526600    302.93307   -1521.4416    496.88694     338.9541   -168.40338    37946.351 
  526700     301.9396   -1504.7808    486.03558    340.29194   -482.25519    37946.351 
  526800    303.24921   -1553.2428    487.37481    299.06374   -1025.7458    37946.351 
  526900    304.93107   -1523.2644    516.49187    365.72924    -711.8107    37946.351 
  527000    290.38612    -1515.382    511.19982    302.85247   -829.15399    37946.351 
  527100    297.18628   -1455.9644    478.78988    360.46781   -574.61605    37946.351 
  527200    311.05966   -1524.9306    504.72217    379.87827    -92.36717    37946.351 
  527300     305.5221    -1528.624    510.86485    357.40285    573.27287    37946.351 
  527400    303.38949   -1520.7305    527.07387    371.90654    880.36921    37946.351 
  527500    308.69928   -1507.3641    502.48832    384.58689    1068.0557    37946.351 
  527600    295.70738   -1517.7458     504.0673    317.30733    616.58614    37946.351 
  527700     305.8909   -1500.2495    534.94585    411.51842    488.96205    37946.351 
  527800    291.31736   -1464.3453     487.0804    333.96126    107.89416    37946.351 
  527900    306.18116   -1518.5207    497.86433    357.47209    361.92706    37946.351 
  528000    311.89993   -1509.8335    495.47125     389.5066    399.02602    37946.351 
  528100    298.24174   -1539.1504    494.70623    297.94877    74.390076    37946.351 
  528200    297.79498   -1520.8711    503.25576    322.76679   -4.4908296    37946.351 
  528300    302.16629   -1510.0206    524.19182    374.22873    305.58558    37946.351 
  528400    309.23138   -1509.6342    504.07007    386.29351   -102.48499    37946.351 
  528500    300.12205   -1506.8653    500.25819    344.24921   -193.39639    37946.351 
  528600    308.58509   -1472.1603    495.78015    412.56848   -193.40409    37946.351 
  528700    291.80424   -1504.8808    510.11178    318.64867   -1.0712984    37946.351 
  528800    295.54541   -1494.1199    534.67105    370.80791    212.89146    37946.351 
  528900    301.92106   -1511.4099    539.97578     387.5196    280.09304    37946.351 
  529000    296.46145   -1487.6291     498.4961    345.24687    165.91421    37946.351 
  529100    298.44053   -1471.5807    510.67121    382.37819   -290.10061    37946.351 
  529200    306.42774   -1444.8355    506.59998    441.00287   -98.611681    37946.351 
  529300    300.57829    -1487.759    485.80384    350.95469   -869.67572    37946.351 
  529400    300.04338   -1496.5963    488.48582    342.39168   -564.36145    37946.351 
  529500    295.87284   -1471.3102    492.17043    352.59073   -264.08509    37946.351 
  529600    296.16271   -1431.3265    513.93995    415.64871   -114.86352    37946.351 
  529700    311.99429   -1459.0207    515.51122    460.78403    171.92401    37946.351 
  529800    293.10452   -1462.2912    509.40785    366.38685   -123.68453    37946.351 
  529900    299.18058   -1458.9709    507.08226    394.73003   -587.29039    37946.351 
  530000    303.77744   -1442.9382    473.33912    397.71018   -549.96345    37946.351 
  530100    301.33686   -1507.3523    498.81033    347.78226   -909.84074    37946.351 
  530200    295.96835   -1486.1277    494.21167    340.24438   -673.23716    37946.351 
  530300    305.94433   -1452.2275    515.39512    440.23015   -421.91841    37946.351 
  530400    299.85298   -1501.0121    493.66427    342.29739   -151.30529    37946.351 
  530500    303.84092   -1478.2367    494.45267    383.81094    2.7399301    37946.351 
  530600    301.26013   -1552.8177    478.02782    281.18897    756.06457    37946.351 
  530700    304.78851   -1492.0665    485.30853    365.10222    659.58943    37946.351 
  530800    287.85069   -1478.6389    514.65275    331.63643    85.459954    37946.351 
  530900    293.27165   -1566.5185    498.08679    251.59076      148.856    37946.351 
  531000    302.40155   -1515.0241    499.64109    345.73337    290.50848    37946.351 
  531100    312.35962   -1518.4827    516.96351    404.41866    180.46753    37946.351 
  531200    295.36713   -1496.9906    480.76547    313.22914    321.31577    37946.351 
  531300    305.84496   -1502.8647    513.77312    387.52364    106.55798    37946.351 
  531400    294.38647    -1511.697    507.12814    320.47147    407.15452    37946.351 
  531500     292.1818   -1473.8291    475.84008    317.12803     668.0392    37946.351 
  531600    306.47115   -1470.3092    521.72626    430.85081    421.34733    37946.351 
  531700    302.56234   -1480.4294    494.06194    375.47263   -5.6487125    37946.351 
  531800    296.35696   -1512.2243     488.5981    310.28337   -109.25527    37946.351 
  531900    304.41021   -1483.0406    516.61872    403.73556    -225.4719    37946.351 
  532000    306.42718   -1447.4246    487.56776    419.37901   -369.40834    37946.351 
  532100     303.2757   -1475.4547    519.59644    409.19266   -112.94035    37946.351 
  532200    298.32644   -1482.5225    485.61894    345.87062    395.32191    37946.351 
  532300    300.84182   -1474.8115    496.40291    375.68745    244.73079    37946.351 
  532400    300.78775   -1498.1939    508.84528    364.50401    1040.5371    37946.351 
  532500     295.2779   -1516.6052    529.08986    341.53732    1296.4951    37946.351 
  532600    317.39899   -1487.9397    519.28706    459.96757    1193.4676    37946.351 
  532700    304.12203    -1494.831    514.22461    388.25386    1004.5201    37946.351 
  532800    300.67087   -1500.0785    509.07273    362.32081    1165.5019    37946.351 
  532900    305.17433   -1507.3286    501.77958    368.04772    823.00351    37946.351 
  533000    299.41882     -1538.78    507.07339    315.98438    515.22929    37946.351 
  533100    293.95469   -1531.6415    513.97332    305.42865    450.46685    37946.351 
  533200    300.71687   -1534.3109    495.83717    315.05985   -319.33231    37946.351 
  533300    287.53174   -1549.6318    493.38803    237.94323   -222.28659    37946.351 
  533400     291.8868   -1506.5882    483.81992    291.02091    -223.9574    37946.351 
  533500    296.11212   -1483.8339    509.69522    358.66884   -529.79655    37946.351 
  533600    307.74998   -1510.9604    488.95405     363.1835    149.25145    37946.351 
  533700    305.84104   -1523.9387    515.28983    367.94878   -273.09265    37946.351 
  533800    292.18249   -1503.2839    499.41936    311.25561   -924.75883    37946.351 
  533900    286.55025   -1526.8334    527.86003     290.7959   -410.39084    37946.351 
  534000    297.14314   -1514.5884    480.87034    303.73006    218.95446    37946.351 
  534100    296.67887   -1542.1727    494.96156    288.14733   -292.51769    37946.351 
  534200    298.68106   -1536.7693    505.86273    313.46381    480.02486    37946.351 
  534300    304.70882   -1479.3635    514.18256    406.32059   -3.6139091    37946.351 
  534400     300.2502   -1523.1828    509.41388    337.66421   -164.01858    37946.351 
  534500    293.32708   -1561.5431    521.40702    280.13588   -95.860593    37946.351 
  534600    290.52471   -1530.3192    502.39201    279.73132    265.25568    37946.351 
  534700    303.50928   -1558.7819    504.60969    311.93008    143.79373    37946.351 
  534800    292.10723   -1515.5475    492.14881    291.38275   -169.46033    37946.351 
  534900    307.28071   -1509.4723    505.71574    379.32103   -93.217893    37946.351 
  535000    292.60859   -1557.0842    500.56988    260.52377    13.739477    37946.351 
  535100    312.63281   -1572.1301    493.50121    328.53862     340.7191    37946.351 
  535200    302.93088   -1555.1828    503.04944    311.36554    16.975154    37946.351 
  535300    295.23222   -1554.5643    529.26644    303.54925    332.67359    37946.351 
  535400    287.83156   -1559.8021     532.7117    268.44607    460.77946    37946.351 
  535500    297.77246   -1507.8401    515.73576    348.17641   -23.775034    37946.351 
  535600    296.27188   -1545.1586    491.21811    279.58606   -503.88972    37946.351 
  535700      297.136   -1548.8928    499.20965    287.73281   -584.62423    37946.351 
  535800    291.27338   -1503.4977    513.23926    320.76976   -650.09107    37946.351 
  535900    303.53191    -1522.423    497.11644    340.89755   -465.60742    37946.351 
  536000    297.47783   -1514.9735    505.45713    329.43817   -270.07784    37946.351 
  536100    297.61176   -1558.7011    481.13128    261.98759   -94.912908    37946.351 
  536200     304.6558   -1550.2809    502.16164    323.14355   -546.68163    37946.351 
  536300     304.8102   -1527.0628    498.87606    343.77105   -357.25597    37946.351 
  536400    297.62243   -1517.2727    503.62139    325.95413   -412.12235    37946.351 
  536500    304.94099   -1501.7545    493.79904    364.59103   -427.92403    37946.351 
  536600    304.50182   -1516.6862    521.02475    374.90828   -327.54889    37946.351 
  536700    295.49952   -1538.1584    493.93457    285.82633    690.95769    37946.351 
  536800    295.34265   -1540.7298    515.55099    304.16534    330.99256    37946.351 
  536900    306.06214   -1572.9689    500.66406    305.28792    328.65512    37946.351 
  537000    293.64055   -1526.6827    511.48889    306.48907    -117.6063    37946.351 
  537100    300.45199   -1541.8184    510.52753    321.05046   -25.973123    37946.351 
  537200    308.91352   -1542.3014    513.71666     361.8422    401.34939    37946.351 
  537300     310.3892   -1489.7927    506.33232    413.60863    428.85495    37946.351 
  537400    296.52645   -1471.3727    506.69043    369.99013    150.58368    37946.351 
  537500    296.90078   -1474.2989    516.34984    378.40819    155.36963    37946.351 
  537600      293.719   -1453.3074     512.2897    381.01827    263.49606    37946.351 
  537700    315.05818   -1462.1346    492.79637    448.74598    236.25752    37946.351 
  537800     300.9298   -1426.3542     534.7428    462.88062    482.98036    37946.351 
  537900    303.66205   -1453.1051    490.99407    404.67895     270.3841    37946.351 
  538000    292.16914   -1423.4368    527.41992    419.04322   -132.44737    37946.351 
  538100    292.56565   -1465.2218    496.30398    347.92693    -407.6555    37946.351 
  538200    297.51483   -1488.1245    483.23462    334.23127   -36.091151    37946.351 
  538300    288.34385   -1485.2737    508.05305    320.62176   -337.71454    37946.351 
  538400    304.45001   -1494.1996    501.38473    377.52169    -306.2055    37946.351 
  538500    297.30099   -1468.1986    512.02684    381.98684   -194.34363    37946.351 
  538600    304.10131   -1497.0011    510.72728    382.49318   -179.96314    37946.351 
  538700    299.99322   -1473.1452    514.44418    391.57539   -389.86551    37946.351 
  538800    300.60329   -1479.8871    516.16823    389.30348   -107.30578    37946.351 
  538900    296.02995   -1475.8863     493.3881    349.93945   -33.545571    37946.351 
  539000    294.48946   -1472.5137    523.28684    376.27705   -329.94809    37946.351 
  539100    302.54134   -1518.4454    498.93274    342.23298   -146.25962    37946.351 
  539200    310.65796   -1512.0474      487.065    373.29624    290.59729    37946.351 
  539300    299.22103   -1522.7513    516.05537    340.10489    4.0989988    37946.351 
  539400    303.60978   -1512.9789    503.27258    356.84835    27.365908    37946.351 
  539500    302.30834   -1545.5104    471.21841    286.40483    -339.9151    37946.351 
  539600    294.96317   -1518.3935    511.50561    320.74818   -577.19919    37946.351 
  539700    297.41544   -1510.4343    485.12035    313.35984   -240.65947    37946.351 
  539800    295.74611   -1508.2915    502.62241    325.49101    114.52184    37946.351 
  539900    290.80466   -1535.0375    482.67182    256.55282    182.26052    37946.351 
  540000    299.06652   -1487.8236    510.63399    368.91575   -410.45362    37946.351 
  540100     291.3212   -1456.6839    498.99346    353.55306   -74.431276    37946.351 
  540200    302.94081   -1524.2741    495.70183    334.97136   -148.83326    37946.351 
  540300    303.18838   -1511.0353    503.96568    357.58826   -194.67139    37946.351 
  540400    298.77183   -1521.5825    478.54275    301.73916   -494.87498    37946.351 
  540500     302.6816   -1489.9851    523.97524    396.36708   -427.13664    37946.351 
  540600    306.11866   -1519.5503    479.08808    337.38495   -438.85983    37946.351 
  540700    302.36106   -1506.2543    485.02446    339.70424    252.93637    37946.351 
  540800    308.08113   -1473.9589    479.57896    392.30035    138.84987    37946.351 
  540900    302.73966    -1486.102    494.60552    371.14176    76.694256    37946.351 
  541000    301.40683   -1474.1695    503.51475    385.98436   -632.42938    37946.351 
  541100    301.95983   -1522.4102    478.55045    315.26848   -527.13935    37946.351 
  541200    299.94582   -1495.9088    513.53204    367.68634   -1016.4757    37946.351 
  541300    298.25018   -1509.0091    518.62131    352.04316   -688.64128    37946.351 
  541400    292.95569   -1552.4924    499.99048    266.09842   -1045.9103    37946.351 
  541500    301.78533   -1498.1577    501.21902    361.40409   -803.50216    37946.351 
  541600    297.28829   -1496.4672    492.47954    334.11383   -574.46782    37946.351 
  541700    294.60441   -1531.4893    495.63268    290.16461   -144.65884    37946.351 
  541800    297.45251    -1500.858    528.58075    366.56335   -448.31406    37946.351 
  541900    301.51154   -1499.2832    490.32542    348.15267    64.364627    37946.351 
  542000    298.54573   -1500.0197    513.26903    357.01053    432.99763    37946.351 
  542100    305.27553   -1495.1879    489.30301    368.16735    431.89026    37946.351 
  542200    297.77805   -1493.4677    505.99865    352.83684    278.25264    37946.351 
  542300    294.57414   -1463.4586    536.71668    399.14315    359.31929    37946.351 
  542400    303.81732   -1501.6064    527.98567    393.86807    390.44163    37946.351 
  542500     309.9754   -1484.6813    476.12799    386.65313    333.39475    37946.351 
  542600    305.06772    -1522.523    498.54348     349.1374    399.56913    37946.351 
  542700    286.53113   -1480.6146    512.36373    321.43242    519.68618    37946.351 
  542800    302.18802   -1474.8312    501.14066    386.46475   -104.01174    37946.351 
  542900    295.19349   -1548.7414    479.08037     259.0117   -177.70703    37946.351 
  543000    310.02377   -1488.5397      473.843    380.72748   -112.34389    37946.351 
  543100    297.15585   -1499.4451    515.08802    353.14832   -183.01001    37946.351 
  543200    303.91567   -1542.9703    507.66822    332.62937    279.84482    37946.351 
  543300    298.92218   -1503.9002    517.02103    358.57652    316.32371    37946.351 
  543400    296.07354   -1510.6366    514.99248    336.98972   -174.63116    37946.351 
  543500    299.80673   -1518.6479    507.16904    337.95816    56.361199    37946.351 
  543600     293.2088   -1537.0465    486.76802    269.46115   -212.37147    37946.351 
  543700    308.31906   -1571.1149    498.26696    314.90335    343.96915    37946.351 
  543800    289.86591   -1519.5352    520.88155    306.03959   -109.49031    37946.351 
  543900    304.11206   -1542.0326    497.16306    323.94589   -346.56462    37946.351 
  544000    297.68228   -1573.2453    467.59799     234.2275    333.11703    37946.351 
  544100    297.56544   -1558.1525    521.76314    302.95959   -169.33664    37946.351 
  544200    295.76092   -1525.6302    494.58649    300.18304    192.03557    37946.351 
  544300    296.28638   -1534.7764     518.6604    317.47591    136.44104    37946.351 
  544400    304.58959   -1536.2129     513.7189    348.47079   -393.36655    37946.351 
  544500    301.70403   -1540.4912    511.14953    328.63512   -475.63088    37946.351 
  544600    306.32572   -1541.4513     505.7283    343.05618     167.5391    37946.351 
  544700    299.92923   -1499.8492    514.78525    364.92444     68.31277    37946.351 
  544800    293.13109   -1539.9295     520.3579    299.81821   -182.18556    37946.351 
  544900    299.59601   -1531.5032    500.49631     317.4817   -246.05719    37946.351 
  545000    304.58338   -1502.3717    499.04173    367.60693   -12.846282    37946.351 
  545100    300.88091   -1523.4288    496.97529    327.81841   -575.16259    37946.351 
  545200    304.32631   -1546.2566    483.22672    306.74994   -419.96846    37946.351 
  545300    306.49516   -1543.4455    505.66674      341.763   -314.39214    37946.351 
  545400    308.17726   -1513.8886     518.8044    392.02877   -352.90221    37946.351 
  545500     301.6404   -1520.9546    502.81617    339.55197    111.38959    37946.351 
  545600    302.55928   -1574.2969    495.77559    283.30503    51.645421    37946.351 
  545700    306.96498   -1571.9383     487.5868      297.305   -673.02328    37946.351 
  545800     291.7487   -1564.0328    503.34403    252.47892   -263.50318    37946.351 
  545900    299.58828   -1587.9523    497.83291    258.33444    240.68511    37946.351 
  546000    297.44933   -1608.3902     464.2211    194.65721    469.11215    37946.351 
  546100    300.90118   -1547.6563    536.31614    343.02303    207.15476    37946.351 
  546200    304.81082   -1569.9045    499.00666    301.06276    44.501891    37946.351 
  546300    304.93295   -1557.9497    493.56251    308.12308   -190.61415    37946.351 
  546400    301.24872    -1566.518    527.04957    316.45902   -70.452727    37946.351 
  546500    303.33483   -1543.4633     507.6374    329.49115   -414.21333    37946.351 
  546600    301.05548   -1482.9297    515.15167    387.27973    15.053257    37946.351 
  546700    299.21517   -1507.6158    520.13823    359.29688   -349.32608    37946.351 
  546800    294.73036   -1490.7259    541.16998    377.03223   -122.89431    37946.351 
  546900    291.02781   -1516.4735    515.93597    309.38538   -795.46039    37946.351 
  547000    290.94473   -1485.2055    501.89283    326.23638   -832.66263    37946.351 
  547100    298.10585   -1493.4959    533.42108    381.70648    -917.1522    37946.351 
  547200    299.12856   -1546.2643    533.53027     333.6505   -190.69705    37946.351 
  547300     303.1155   -1537.8306      523.384    349.88333    -144.6255    37946.351 
  547400    299.70399   -1515.5854    516.92015    350.30937   -22.712221    37946.351 
  547500    299.96061   -1528.9919    509.96055    331.09832   -174.28835    37946.351 
  547600    294.47012   -1527.8734    507.90294    305.44635    297.46639    37946.351 
  547700    300.65129   -1478.6465     518.6353    393.22719   -127.21542    37946.351 
  547800    291.67464   -1523.2787    509.19187    298.74747   -130.86134    37946.351 
  547900     306.6018   -1534.5473    502.26266    347.73718    52.147441    37946.351 
  548000    291.50808   -1532.8891    528.38378    307.57929   -56.362127    37946.351 
  548100    299.47703   -1489.3582    537.41701    396.01184    207.52392    37946.351 
  548200    297.82102   -1496.3839    508.27922    352.39461   -175.56147    37946.351 
  548300    294.30756   -1491.8959    545.33622     378.1255    115.03134    37946.351 
  548400      294.342    -1528.244    531.11357    327.70977    349.80003    37946.351 
  548500    303.46134    -1544.476    524.42893    345.83943    945.99641    37946.351 
  548600    294.25285   -1511.1377    533.02165    346.32286    1400.3928    37946.351 
  548700    302.61057   -1502.3674    533.15378    392.84361    808.21573    37946.351 
  548800    300.11011   -1510.0384     509.4813    350.24552    540.18275    37946.351 
  548900    304.59619   -1482.8133    563.46657    451.64775    571.98853    37946.351 
  549000    298.71855   -1485.6638    506.02621    364.90153    84.374871    37946.351 
  549100    295.38574   -1485.4128    516.91711     361.0424    471.20174    37946.351 
  549200    306.43016    -1528.128    513.30384    364.42514   -596.84006    37946.351 
  549300    304.81461   -1490.5727    509.30811    390.71303   -5.0052784    37946.351 
  549400    304.07937   -1485.3684    483.86525    367.16509   -123.85024    37946.351 
  549500    296.45877   -1489.4143     538.2528    383.20628   -136.85486    37946.351 
  549600    294.04224   -1548.4674    499.50671    274.53022    12.209529    37946.351 
  549700    315.17532   -1538.0986    516.99765    397.51053    368.00119    37946.351 
  549800    301.73275   -1503.4686    501.50246    356.13997   -15.520045    37946.351 
  549900    307.97404   -1532.4038    502.60894    356.40346    70.210316    37946.351 
  550000    305.72716   -1529.2957    502.40073     349.1901   -216.51506    37946.351 
  550100    299.71443   -1509.7522    484.38841    323.65784    266.44636    37946.351 
  550200    298.32067   -1503.2706    494.85974    334.33742    325.79989    37946.351 
  550300    297.95119   -1564.4356    501.84839    278.49802   -64.266018    37946.351 
  550400    309.00576   -1535.1236    509.31525     365.0337    40.483773    37946.351 
  550500    303.45472   -1564.2568    508.93249    310.53242   -275.77297    37946.351 
  550600     302.7466   -1531.8415    514.69784    345.52577   -70.332396    37946.351 
  550700    294.94851   -1517.4386    497.55095    307.68246   -335.28927    37946.351 
  550800    302.15507    -1522.781    502.93473    340.16069   -276.88376    37946.351 
  550900    302.45614   -1515.2152    516.96157    363.10851    241.09189    37946.351 
  551000     299.2129   -1514.8344    507.50388    339.43364    196.02867    37946.351 
  551100    289.64609   -1512.4663    523.36029    314.59776    732.22625    37946.351 
  551200    298.28754   -1501.7463    530.04136    370.89413    412.14423    37946.351 
  551300     293.6503    -1541.019    481.51077    262.21857   -39.773483    37946.351 
  551400    289.27354    -1514.131    512.00149    299.89738   -500.29482    37946.351 
  551500    302.57134   -1469.0974    516.31546    409.09867   -678.59486    37946.351 
  551600    298.90559   -1508.8109    523.85273    360.42281   -261.68068    37946.351 
  551700    296.46629   -1523.6507    477.23612    287.98705    -636.7317    37946.351 
  551800    302.71348   -1497.0632     510.6286    376.08582    96.410179    37946.351 
  551900    301.26125   -1503.8563    513.10029    365.22786   -532.85146    37946.351 
  552000    297.04624   -1469.3965    515.19067    382.80614   -380.80747    37946.351 
  552100      289.384   -1465.5008    507.31767    344.34099     -1095.41    37946.351 
  552200    302.11829   -1497.1551    490.69726    353.38355   -583.98934    37946.351 
  552300    306.65195   -1492.1633      511.997    400.08117    80.969854    37946.351 
  552400    287.45057   -1467.6716    515.61402    341.76407    331.89652    37946.351 
  552500    305.76436   -1476.1066    534.03168    434.17753    566.00376    37946.351 
  552600    293.52176   -1472.6123    522.50665    371.04263    62.917967    37946.351 
  552700     297.3709   -1507.9332    518.59602    349.13612    200.87027    37946.351 
  552800     297.6759    -1474.332    548.30416    413.81828   -251.09648    37946.351 
  552900       303.81   -1495.1691    500.65176    372.93846   -243.12095    37946.351 
  553000    294.43762   -1509.6281     515.6795    331.32192   -209.06014    37946.351 
  553100    304.92444   -1521.7141     517.2872    368.04503    150.58532    37946.351 
  553200    311.53557   -1465.0636     550.7323    487.89756    342.58515    37946.351 
  553300    309.10529   -1493.3329     529.3236    427.28082    1002.8572    37946.351 
  553400    300.97691   -1519.2477    488.12376    323.58016    717.28077    37946.351 
  553500    298.21621   -1490.4779    536.67408    388.47419    24.033914    37946.351 
  553600     296.5327   -1490.6676    509.94172    353.97468    217.11509    37946.351 
  553700    290.63401   -1493.3622    545.61726    360.40547    1026.9032    37946.351 
  553800    307.00697   -1482.6363    507.53239    406.74158    341.44778    37946.351 
  553900    305.85476   -1525.5575     520.4734    371.57522   -288.76637    37946.351 
  554000    312.18632   -1513.7073     485.8261     377.2766   -7.5323385    37946.351 
  554100     306.6469   -1497.7989    525.80366    408.22953    489.49589    37946.351 
  554200    308.87123   -1538.8351    500.20182     351.6033    307.99064    37946.351 
  554300    308.13977   -1516.9773    495.84398     365.8109    479.61353    37946.351 
  554400    298.44076   -1498.7867    526.15344    370.65548    274.85986    37946.351 
  554500    294.81892   -1421.0267    509.18784    415.14791     273.2719    37946.351 
  554600    298.70259   -1462.6043    527.61145    409.47439   -462.75485    37946.351 
  554700    296.48797   -1472.6473    524.99206    386.84395    -336.6244    37946.351 
  554800    311.18014   -1461.1608    531.81524    471.28345   -667.68972    37946.351 
  554900    304.36436   -1484.2181     530.5201    416.25303     13.16003    37946.351 
  555000     295.3741   -1461.0313     513.0589    381.51326   -209.77945    37946.351 
  555100    300.64922   -1479.1924     487.2637    361.30043   -282.83593    37946.351 
  555200    296.24356   -1469.1532    503.03218    367.27804   -49.708057    37946.351 
  555300    298.01435   -1498.9113    519.36909    361.82734   -296.52979    37946.351 
  555400    304.81361   -1536.3461    474.44724    310.07422   -303.64164    37946.351 
  555500    299.79869   -1548.8817    479.69583    280.21502   -74.229016    37946.351 
  555600    297.09184   -1501.9815    532.11656    367.35232   -209.99495    37946.351 
  555700     297.6892   -1486.2717    493.77563     347.4099   -328.94993    37946.351 
  555800    298.76895   -1500.0836    517.16479    361.84718   -198.93461    37946.351 
  555900    291.93975   -1502.7814    482.86737    294.11352   -519.61577    37946.351 
  556000    316.74873   -1496.0926    504.70838    434.30909   -499.70835    37946.351 
  556100    291.73915   -1504.8457    489.61733     297.8963    -58.23548    37946.351 
  556200    295.31057   -1485.0315    515.98426     360.1525    165.44142    37946.351 
  556300    290.44874   -1469.5002    490.25712    328.07345    -231.0915    37946.351 
  556400    311.34126   -1491.4902    503.55584    413.41986    216.68657    37946.351 
  556500    297.46319   -1506.1837    518.79345     351.4985   -67.731254    37946.351 
  556600    306.40436   -1458.0059    497.21211    418.33934    302.56443    37946.351 
  556700     297.5299   -1456.5463    523.29635    405.93899     -220.006    37946.351 
  556800    300.96687   -1467.0487    504.61006    392.22024    92.248392    37946.351 
  556900     294.4025   -1438.7159    483.25109     369.6477   -61.008368    37946.351 
  557000     307.9622    -1460.161    513.40825    439.39224    165.99409    37946.351 
  557100    294.48857   -1484.1109    506.55266     347.9416    277.02852    37946.351 
  557200    308.72456   -1505.6961    500.39759    384.27793    26.918392    37946.351 
  557300    296.76903   -1459.9095    502.03297    377.88775   -288.10846    37946.351 
  557400    303.80526   -1484.7634    508.83716    391.50832   -243.84997    37946.351 
  557500    294.11881   -1453.8824    494.89336    364.84652   -576.36611    37946.351 
  557600    311.65489    -1483.703    490.85803     409.9209   -801.42695    37946.351 
  557700     290.0764   -1464.3908    503.09018    344.33998    -978.4858    37946.351 
  557800    301.49183    -1466.912    506.33936    396.44908   -429.37316    37946.351 
  557900     293.8662   -1501.5764    510.61027     331.7325   -687.01953    37946.351 
  558000     290.9619   -1502.2266    505.18696    312.58659   -525.87217    37946.351 
  558100    293.54326   -1505.4967    500.60129     316.3496   -525.85764    37946.351 
  558200    294.43558   -1495.1283    528.66682    358.79986   -724.78136    37946.351 
  558300     300.5505   -1498.7211    488.36061    342.42425    -146.2983    37946.351 
  558400    305.35217   -1513.5313    490.53643    351.40228   -229.55008    37946.351 
  558500    297.11471   -1547.4898    503.03653    292.86691   -312.89171    37946.351 
  558600    304.21968   -1573.0713    477.94789     274.1764   -584.45121    37946.351 
  558700    302.60843   -1565.4443    500.09372    296.69695    129.39614    37946.351 
  558800    292.39993   -1546.5958    480.49073    249.99384   -247.05621    37946.351 
  558900    303.08361   -1500.7736    499.51578    362.92853   -280.98356    37946.351 
  559000    298.76328   -1532.6159    485.31066    297.43524    -395.3936    37946.351 
  559100    295.83332   -1536.1905    510.30537    305.66751    -593.3457    37946.351 
  559200     289.5223    -1513.067      514.433     304.5126   -84.541651    37946.351 
  559300    297.14857   -1540.7528    461.55846    258.27823   -204.19143    37946.351 
  559400    308.88165   -1529.7844     490.2834    350.78252   -385.22366    37946.351 
  559500    294.71436    -1470.322    527.43256    383.62675   -153.48605    37946.351 
  559600    295.62715   -1506.2071    469.74917    294.16676    343.51983    37946.351 
  559700    309.47546   -1479.1589    522.26044    436.05776    273.45918    37946.351 
  559800    299.09137   -1490.9521    492.77368    348.03881    96.172074    37946.351 
  559900    305.92567   -1476.0793    481.04842    381.94769   -65.994942    37946.351 
  560000    295.77173   -1501.5391    506.50949    336.24579     489.0668    37946.351 
  560100    298.40403   -1471.4405    504.88791    376.57092    345.36161    37946.351 
  560200    298.19345   -1510.9583    502.99891    334.21621    265.35248    37946.351 
  560300    296.09907   -1496.9126    496.50796    332.34412    103.16416    37946.351 
  560400    289.44612   -1519.0765    485.85693    269.58411    51.244547    37946.351 
  560500    291.11928   -1520.1445     507.1739    297.36402   -65.212761    37946.351 
  560600    306.75596   -1484.7777    493.38094    389.31893    78.391537    37946.351 
  560700    295.62724    -1484.961    509.59758    355.26161    297.88863    37946.351 
  560800    308.29819   -1478.8117    484.54301    393.38858   -167.16039    37946.351 
  560900    300.62599   -1471.8606    491.10652     372.3705    440.09381    37946.351 
  561000    306.57226   -1471.4909    494.69922    403.09716    673.56296    37946.351 
  561100    299.33277   -1491.7729    528.78474    384.31559    783.15036    37946.351 
  561200    293.69887   -1490.2691     484.6847    316.36101    432.08507    37946.351 
  561300    297.00686   -1445.4114    496.22283    387.64619    13.646917    37946.351 
  561400     294.3266   -1505.1974    512.58234    332.15581   -49.951162    37946.351 
  561500    303.74695    -1465.896    498.62604    399.90216    336.66584    37946.351 
  561600    312.11394   -1487.4516    495.32512    412.70558    508.54717    37946.351 
  561700    296.94265    -1488.055    498.62672    347.11748      724.437    37946.351 
  561800    294.83848   -1446.2444    505.14923    385.97965    1059.7274    37946.351 
  561900    298.24967   -1448.4432    493.33359    387.31906    612.96246    37946.351 
  562000    293.52777   -1443.2172    503.59451    381.55256    542.05314    37946.351 
  562100     308.0631    -1448.238    498.30324    436.66439    583.57902    37946.351 
  562200    298.09822   -1492.8981     492.8287    341.67761    396.97055    37946.351 
  562300    306.25587    -1451.951    515.41888    441.93265    450.05777    37946.351 
  562400     293.9049   -1464.3616    528.58167    387.09281   -127.78297    37946.351 
  562500    298.89625   -1450.4092    493.63096    388.56067    181.16156    37946.351 
  562600    299.70819   -1483.0503    497.99697    363.94021     2.725521    37946.351 
  562700    302.85214   -1474.4731    507.96034    396.63177   -120.36263    37946.351 
  562800    299.20729   -1426.9406    514.29289    434.09124   -139.77942    37946.351 
  562900    297.51839   -1455.4644    504.78987    388.46269     18.53069    37946.351 
  563000    306.47167   -1449.1685    517.28973    447.55732    77.859586    37946.351 
  563100    307.45672   -1499.3528    500.07914     384.5962    336.97224    37946.351 
  563200    297.86937    -1447.765    520.96706    413.91905    858.59991    37946.351 
  563300    290.33055   -1487.2649    544.87527    364.39487    624.47044    37946.351 
  563400    300.93388   -1466.3467    503.18812    391.35182    854.57484    37946.351 
  563500    281.79709   -1459.3614    504.01466    313.02852    110.16805    37946.351 
  563600    291.70381   -1472.2974    491.51052    332.17871   -379.25432    37946.351 
  563700    293.45766   -1474.6127    492.22538    338.47243   -622.49365    37946.351 
  563800    303.99787   -1476.8779    511.67122    403.09482   -202.15687    37946.351 
  563900    301.61784   -1510.8361    505.93548    352.68824    211.97443    37946.351 
  564000    308.80087   -1501.5407     521.5783    409.95743    236.32202    37946.351 
  564100    304.15283   -1505.4074    499.76667    363.35823   -340.98955    37946.351 
  564200    306.63981    -1509.391    491.14272    361.94461   -234.85025    37946.351 
  564300    290.44211   -1524.0159    473.71117    256.98192   -109.98757    37946.351 
  564400    294.73511    -1501.024    507.32841    332.91399    208.10682    37946.351 
  564500    300.09362   -1477.4308    502.54365    375.84119    183.83241    37946.351 
  564600    306.77047   -1468.1492    519.86916    432.50099    568.17947    37946.351 
  564700    296.07598   -1494.9263    485.11852    322.83706     224.7046    37946.351 
  564800    298.84155   -1495.0944    495.09561    345.09394    86.293199    37946.351 
  564900     292.2955   -1515.2289    509.54436    309.94424    222.53003    37946.351 
  565000    306.22771   -1473.9923    494.29154    398.63725   -254.33605    37946.351 
  565100     297.5264     -1479.83    478.49537    337.83859   -315.47626    37946.351 
  565200    289.85186   -1488.9865    527.97809     343.6215   -64.016588    37946.351 
  565300    290.77267   -1539.7375    499.15993    268.19693    108.22258    37946.351 
  565400     307.7781   -1531.1461    497.89911    352.06943    59.058521    37946.351 
  565500    289.02051    -1491.136    528.41857    338.17058   -449.45801    37946.351 
  565600    306.93693   -1482.0767    491.87367     391.3272   -10.190222    37946.351 
  565700    293.77849   -1489.4923    506.83624     339.6478    -86.86406    37946.351 
  565800     304.1169    -1466.464    499.29994    401.67312    393.03281    37946.351 
  565900    309.02918   -1453.8541    500.05784    437.15124    483.68903    37946.351 
  566000     304.1454   -1457.6027    511.09045    422.45327    579.51948    37946.351 
  566100    286.93404   -1468.2122    505.56285     328.8474    191.91902    37946.351 
  566200    301.80527    -1473.521    494.06812    378.97962   -265.77598    37946.351 
  566300    295.79189   -1482.4964    500.10712    348.97681   -242.59975    37946.351 
  566400    308.42367   -1515.4707    494.53719    367.28855    215.08521    37946.351 
  566500    306.12058   -1474.0533    518.61398    422.41648   -308.42985    37946.351 
  566600    287.63344    -1485.933    494.87381     303.5856   -175.02781    37946.351 
  566700    305.42293   -1469.4725    492.78413    398.02736   -171.53915    37946.351 
  566800    299.01451   -1472.5695    521.86692    395.16871   -124.41318    37946.351 
  566900    292.22197   -1517.9771    497.02855    294.34928   -166.00252    37946.351 
  567000    300.30292   -1479.8441    503.67064    375.49691    388.70612    37946.351 
  567100    292.74298   -1494.4839    504.24386    327.40294    401.85575    37946.351 
  567200    294.07662   -1475.6039    518.27664    366.31841    670.25086    37946.351 
  567300    309.44987   -1454.4067    526.22001    464.65439    371.81872    37946.351 
  567400     283.4724   -1462.8029    507.76792    320.88088     618.2724    37946.351 
  567500    299.01906    -1457.623    520.70763     408.9763    76.612444    37946.351 
  567600    300.64833   -1447.9951    508.02499    413.25503    94.171938    37946.351 
  567700    299.80538    -1463.709    510.64271    396.36467   -50.295452    37946.351 
  567800     299.4149   -1475.6649    516.13172    388.14021    -575.6909    37946.351 
  567900    304.00642    -1458.409    520.57023    430.50119   -179.09991    37946.351 
  568000    294.80455    -1473.288    503.51459    357.14869   -629.73875    37946.351 
  568100    291.56603   -1453.6242    508.25979    366.98102   -94.147402    37946.351 
  568200    310.24572   -1459.5393    535.94971    472.83352   -342.28292    37946.351 
  568300    298.98624   -1479.8588    495.03129    360.91647    105.81157    37946.351 
  568400    303.13978   -1508.5171    511.26678    367.18886    186.72718    37946.351 
  568500    307.10883    -1462.045    525.31745    445.57645    60.136043    37946.351 
  568600    304.63743   -1473.5339    516.41633    414.06255    139.05604    37946.351 
  568700    288.09854   -1478.9834    538.91462    356.66936   -165.56317    37946.351 
  568800    303.37536   -1471.2251    535.24788    429.52232    286.13072    37946.351 
  568900    288.44453   -1469.2867    506.34822      335.357   -402.01205    37946.351 
  569000    299.55473   -1496.3045    492.73465    344.73294   -529.98973    37946.351 
  569100    295.26385   -1480.9831    515.02707    363.03338   -358.28594    37946.351 
  569200    290.72459   -1445.2143    527.72011    391.06394    -718.4985    37946.351 
  569300     302.5406   -1475.7504    503.67027    389.66215    -311.1768    37946.351 
  569400    302.87548   -1484.0536    513.15536     392.3513   -493.04272    37946.351 
  569500    298.98599   -1484.4597    524.83111    386.11428    78.264343    37946.351 
  569600    301.60974   -1483.3097    534.51602    408.75872   -163.72307    37946.351 
  569700    292.80163   -1507.3139    501.92553    312.51859   -335.04011    37946.351 
  569800    306.42111   -1478.8691    511.91205    412.25142     70.62669    37946.351 
  569900    295.13551   -1497.6063    494.89286    325.69831   -221.49405    37946.351 
  570000    307.18584   -1525.6838    522.23814    379.20499      763.675    37946.351 
  570100    291.36838   -1506.4517    521.81005    326.81423    656.45543    37946.351 
  570200    292.94758   -1531.5611    503.14883    290.15156    302.16713    37946.351 
  570300    299.33734   -1506.1965    510.69236    351.82015    533.25916    37946.351 
  570400    293.58347   -1524.7417    503.02066    299.70493    291.24501    37946.351 
  570500    295.73156   -1562.6826    513.19758    281.60963    113.21647    37946.351 
  570600    301.36979   -1516.6182    500.86369    340.71791    623.71759    37946.351 
  570700    302.87837   -1527.6996    524.00202    359.56505    301.09324    37946.351 
  570800    289.97524   -1580.7996    513.77045    238.15609   -267.17046    37946.351 
  570900    299.65155   -1584.7964    505.82501     269.7672    527.16583    37946.351 
  571000    302.38069    -1530.718    514.61178    344.91627   -103.73835    37946.351 
  571100    293.04704   -1549.6444    500.44829    269.81539   -371.95205    37946.351 
  571200     295.3327   -1528.4412    512.35413    313.21225    94.002335    37946.351 
  571300    306.01181   -1518.4962    486.08476    344.95476    238.12354    37946.351 
  571400    300.70641   -1533.7652     511.3642    331.08549    452.63589    37946.351 
  571500    315.75401   -1538.9016    507.95057    390.26509    323.90597    37946.351 
  571600    305.83603   -1526.9444    510.90302    360.53366   -40.869146    37946.351 
  571700     301.2248   -1530.7465     532.7886    357.86188    -150.8009    37946.351 
  571800    301.22146   -1502.2567    512.23214    365.78022    -173.4242    37946.351 
  571900    300.80718   -1497.2197    523.09306    379.81348   -511.01273    37946.351 
  572000    305.52044   -1481.7158     537.1672    430.60598   -116.87663    37946.351 
  572100    309.05841   -1476.4147    534.99858    449.66292     -606.246    37946.351 
  572200    291.34924   -1480.3854    511.47011    342.45441    37.406671    37946.351 
  572300    311.31986   -1472.4436    530.31874    459.13301   -176.27446    37946.351 
  572400    301.84623    -1436.894    541.17743    462.90028   -594.63928    37946.351 
  572500    300.36719   -1498.5621    515.54722    368.94479   -290.20778    37946.351 
  572600    307.21087   -1507.4557    528.43963    403.74715   -251.66235    37946.351 
  572700    301.58174   -1530.9044    518.91072    345.43274   -520.71054    37946.351 
  572800    302.95394   -1475.2174    541.62335    430.00871   -158.76866    37946.351 
  572900    311.94661   -1486.5612    549.37194    466.88963   -807.23257    37946.351 
  573000    295.92983   -1489.7216    509.86995    352.13543   -424.42052    37946.351 
  573100    303.52118    -1493.511    553.88469    426.52957   -810.33393    37946.351 
  573200    310.20328   -1515.7591    496.48053    376.95359   -513.12567    37946.351 
  573300     289.9385   -1550.3523    529.88935    284.55698    19.392868    37946.351 
  573400    310.78743   -1560.6638    510.98729    349.18494    141.38998    37946.351 
  573500    298.96518   -1564.1508    501.50254    283.00093   -134.56353    37946.351 
  573600    303.53049   -1533.6827    527.30025    359.81531   -296.41683    37946.351 
  573700    303.16622   -1541.0351    504.87831    328.40144    37.011033    37946.351 
  573800    308.67289   -1536.2753    504.91959    357.98812    146.80721    37946.351 
  573900    305.94794   -1556.4887    518.22462    338.81466    -92.54143    37946.351 
  574000    300.69488    -1542.831    528.93755    339.54119    573.38927    37946.351 
  574100    293.25017   -1521.1948    504.78826    303.51934     848.5727    37946.351 
  574200    306.36015   -1568.7981    522.49051    332.62657    700.40671    37946.351 
  574300    295.46925   -1534.9749    527.85468    322.79377    567.89233    37946.351 
  574400    302.26738   -1522.3283    532.73891    370.92309    527.86141    37946.351 
  574500    316.15949   -1528.2865    520.82479    415.57952    8.6440482    37946.351 
  574600    302.35663   -1526.1053    494.96704    329.77592    -219.3388    37946.351 
  574700    310.50517   -1513.9221     520.1483    403.81715    352.49029    37946.351 
  574800    320.55242   -1512.3373    547.85368    478.33022    523.42761    37946.351 
  574900    300.19094     -1562.68     493.6534    282.13974   -718.82139    37946.351 
  575000    293.97139   -1527.1106    533.53108    329.59254    -756.7959    37946.351 
  575100    291.60646   -1535.7202     516.3203    293.12755   -575.67186    37946.351 
  575200    302.20591    -1536.964    544.89895    368.17075   -441.39888    37946.351 
  575300     303.9748   -1544.7815    511.93976    335.35583   -238.63324    37946.351 
  575400    296.48221   -1564.2847    534.46205    304.65066   -358.65151    37946.351 
  575500    295.28111   -1545.1858    510.47234    294.35366    351.46466    37946.351 
  575600    313.26508   -1525.9578     522.5126     406.5682   -103.49776    37946.351 
  575700    305.30869   -1490.9434     528.7667    412.02486   -155.37831    37946.351 
  575800    306.80834   -1487.1975    537.94299    431.69693   -209.30766    37946.351 
  575900    295.01945   -1478.3738     504.5598    354.07537   -291.81048    37946.351 
  576000     288.9863   -1507.2295     536.6494    330.15394    422.77857    37946.351 
  576100    297.17974   -1523.6562    506.83389    320.79056    363.99831    37946.351 
  576200    292.04765   -1531.2446    529.35551    312.62414   -182.16248    37946.351 
  576300     303.7806   -1524.2836    544.63699    387.67688    88.472983    37946.351 
  576400    298.42235   -1490.8612     540.3338    392.67854    29.885993    37946.351 
  576500    288.80459   -1511.1832    539.02378    327.75676   -468.43748    37946.351 
  576600    303.39045   -1516.1378    552.31663    401.74623    16.585731    37946.351 
  576700    305.36119   -1481.8103    526.92337    419.55087     -169.205    37946.351 
  576800    299.08597   -1478.2334    522.31492    390.27443   -91.595655    37946.351 
  576900    300.05242   -1451.8934    535.90898    434.55851   -65.133691    37946.351 
  577000    295.40981   -1465.7682    565.06246    428.94063   -75.024115    37946.351 
  577100    287.59153   -1499.2432    512.94442    308.15738   -447.92149    37946.351 
  577200    305.68089   -1478.6589     532.5971    429.81492    67.925472    37946.351 
  577300    302.46676   -1502.6006    515.45058    374.25992   -83.801384    37946.351 
  577400    303.42041   -1491.2103    513.33746    387.82941    34.767518    37946.351 
  577500    314.47583   -1521.3352    538.78859    432.91638    448.32803    37946.351 
  577600    301.11894   -1537.5272    519.60747    337.42365    455.00603    37946.351 
  577700    306.64852   -1551.9899    537.38062    365.62283    1142.0645    37946.351 
  577800    295.39005   -1545.7747    535.56681    319.34954     473.1439    37946.351 
  577900    290.46311   -1507.7836    541.69444    341.29206     39.64305    37946.351 
  578000    294.34101   -1526.3977    508.74974    307.18772    13.099757    37946.351 
  578100    303.12179   -1518.4209    540.21324    386.15054   -177.26842    37946.351 
  578200    288.50953   -1546.2603    534.27389    286.60169      267.271    37946.351 
  578300    294.84011   -1517.0569     511.3249    321.35014   -28.591663    37946.351 
  578400    296.59242   -1549.5122    509.49816    294.95527    -127.3695    37946.351 
  578500    303.80827   -1564.9342    522.10661     324.6205   -189.26704    37946.351 
  578600     296.2369   -1549.7926    510.05262    293.62919    617.94836    37946.351 
  578700    304.15008   -1541.8415    509.44036    336.58542    312.17204    37946.351 
  578800    315.36888   -1539.7331    493.20103    372.95053   -31.241757    37946.351 
  578900    296.94076   -1512.7015    527.29362    351.12935   -88.338047    37946.351 
  579000    305.51374   -1553.7133    497.75152    319.16265   -26.016779    37946.351 
  579100    300.77139   -1561.8447    534.14427    326.07854   -518.94081    37946.351 
  579200     303.8536   -1559.6001    517.14524     325.1972   -630.28323    37946.351 
  579300    301.94557   -1563.2382     518.1266    313.95244   -1083.0028    37946.351 
  579400    294.37587   -1559.1299    515.58959    281.45233   -949.69958    37946.351 
  579500    294.33674   -1555.1685    508.25491    277.90286   -983.17798    37946.351 
  579600    298.74545   -1518.2392    526.08266    352.50363   -394.53444    37946.351 
  579700    298.98461   -1511.0836    543.40475    378.05778   -489.20108    37946.351 
  579800    303.63843   -1511.4569    537.29391     392.5206   -84.146947    37946.351 
  579900    292.48877   -1514.1327    509.05699    311.42299   -457.68249    37946.351 
  580000     300.0948   -1522.0026    529.70584    358.43689   -406.95881    37946.351 
  580100    299.51067   -1532.2321    524.69077    340.56318   -84.563557    37946.351 
  580200    309.34296   -1555.6642    513.78329    350.47888    340.85637    37946.351 
  580300    298.65126   -1520.2144    546.39566    370.41754   -42.372098    37946.351 
  580400    300.01103   -1527.2193    510.48768    333.62495   -100.83474    37946.351 
  580500    292.09977   -1493.3161    540.87328    362.30499   -434.10191    37946.351 
  580600    296.26823   -1555.8339    519.37169    297.04795   -877.69677    37946.351 
  580700    308.52773   -1533.6915    526.50619    381.50516   -1274.1561    37946.351 
  580800    301.57334   -1538.0874    520.55535     339.8565   -796.95476    37946.351 
  580900     307.5067   -1516.5061    548.73926    416.32796   -711.41989    37946.351 
  581000    307.70983   -1492.0833    542.84091    435.76671   -286.44713    37946.351 
  581100    303.57229   -1495.7749    526.72722    397.33828   -707.14108    37946.351 
  581200     303.9546   -1498.0237    532.08671    402.16976   -181.06349    37946.351 
  581300     295.5098   -1536.0671    516.09818    310.12751    77.272011    37946.351 
  581400    310.99597   -1561.2446    530.25247    368.80789   -10.333988    37946.351 
  581500    298.36653   -1557.0354    522.16438    308.08362    -194.9162    37946.351 
  581600    296.01641   -1554.8352    518.47007     296.0116    -43.25767    37946.351 
  581700    298.54538   -1534.1721    541.01344    350.60101   -248.49793    37946.351 
  581800    294.98861   -1470.7574    513.08096    370.07411    381.96493    37946.351 
  581900    291.38361    -1533.798    563.06708    340.79343    106.44108    37946.351 
  582000     294.4546   -1548.5439    532.09993    308.90305    308.74623    37946.351 
  582100    300.89381   -1549.4557    541.07349    345.94784    772.61639    37946.351 
  582200    292.34862   -1565.9267     540.3228    290.26403    340.97917    37946.351 
  582300    311.11599   -1527.7656    528.78113    401.35583    1099.9527    37946.351 
  582400     294.7479   -1543.4219    514.75255    297.99774    238.61541    37946.351 
  582500    301.40013   -1539.2166    552.89043    370.28277    720.53859    37946.351 
  582600    298.79402   -1503.5713    514.44037    355.74791    582.39969    37946.351 
  582700    289.11891   -1535.2052     532.0263    298.15201     72.78374    37946.351 
  582800     296.6562   -1537.8718    510.49907    307.88373   -205.82318    37946.351 
  582900    300.65328   -1513.5021    555.96948    395.71481   -2.1397002    37946.351 
  583000     307.4735   -1563.4417    491.46238      311.966     87.20484    37946.351 
  583100    305.36792   -1589.6669    491.62571    276.42692   -87.052873    37946.351 
  583200    301.26621   -1548.4282    513.10024    320.67825    323.33988    37946.351 
  583300     297.5248   -1559.9311    515.93028    295.16521    104.67413    37946.351 
  583400    303.21426   -1529.6546     534.9784    370.09818     161.6007    37946.351 
  583500    305.66935   -1544.4378    538.45912    369.84616    442.53357    37946.351 
  583600    288.36128   -1546.3218    534.26483    285.86386    290.76896    37946.351 
  583700    303.05735   -1576.6581    510.18849     297.5985    712.18066    37946.351 
  583800    286.45158   -1521.0916     515.4075    283.64113    513.88437    37946.351 
  583900    301.79893   -1528.4589    518.91585    348.86094    522.97147    37946.351 
  584000    306.49659   -1571.0264    512.84643    321.36823    143.93315    37946.351 
  584100    295.99821   -1561.0699    506.05608    277.28094   -301.81358    37946.351 
  584200    294.57442   -1577.8932    499.95486    247.94789    -498.6802    37946.351 
  584300    307.53548   -1557.3772    512.26693    339.11409    -866.8486    37946.351 
  584400    304.02417     -1549.57    526.94669    345.79655   -534.72388    37946.351 
  584500    290.08659   -1570.9625    503.32146    238.04539    -306.9478    37946.351 
  584600    297.43608   -1555.8759    511.92706     294.8179   -254.33471    37946.351 
  584700    300.33511   -1557.3782    503.82115    298.25823   -31.145201    37946.351 
  584800    297.37732   -1524.0958    530.04143    344.44785    358.66702    37946.351 
  584900    299.68509   -1547.7241    478.92794    280.09337    339.53387    37946.351 
  585000    304.84296   -1548.9431    508.54619     331.7083    330.96749    37946.351 
  585100     305.6161   -1547.2456    512.04874    340.38835   -79.404114    37946.351 
  585200    284.65478   -1522.7885    502.77484    261.22408   -178.42838    37946.351 
  585300    296.35659   -1540.3666    512.70856    306.24987   -232.15685    37946.351 
  585400    301.70767   -1527.0215    528.79832    359.77001     133.0123    37946.351 
  585500    304.30363    -1486.765    542.44172    425.35437     126.4487    37946.351 
  585600    297.85689   -1515.4665    514.64167    339.83597   -539.19172    37946.351 
  585700    306.59694   -1512.7784    535.01253    402.23409    244.29079    37946.351 
  585800    305.93114   -1559.9303    523.71751    340.79042   -245.26254    37946.351 
  585900    304.05437   -1529.2033    524.37753    363.73002    -351.4043    37946.351 
  586000    303.49517   -1499.1058    502.06342    368.99646   -451.81662    37946.351 
  586100     304.1871   -1526.5682    520.83865    363.42362   -570.78266    37946.351 
  586200    296.41242   -1537.8396    545.05507    341.37463   -109.77863    37946.351 
  586300    306.12336   -1519.2142    531.22457     389.8787    423.40553    37946.351 
  586400     291.0499   -1552.0635    565.33538    323.29422    147.88775    37946.351 
  586500    293.86721   -1489.0858    542.57492    376.19227    334.20842    37946.351 
  586600    293.74243   -1499.9631    533.45563    355.63401    197.10528    37946.351 
  586700    293.07522   -1478.9442    537.27315    377.46729    169.44332    37946.351 
  586800    292.79861   -1496.4579    535.47898    356.91448    228.40391    37946.351 
  586900    301.37766    -1513.524    523.72069    366.70451    314.68268    37946.351 
  587000     297.8726    -1530.291    503.73675    314.17724    229.70704    37946.351 
  587100      304.993   -1549.8342     551.6962    374.64253    659.90383    37946.351 
  587200    299.12922   -1550.2289     520.1984    316.35705    600.99148    37946.351 
  587300    288.91883    -1525.329     509.0612    284.16257    460.59961    37946.351 
  587400    292.59591   -1516.3506    518.18612    318.81649    269.38004    37946.351 
  587500    299.35822   -1526.2884    524.02709      345.157    652.78277    37946.351 
  587600    295.56333   -1515.2967    504.92168     319.9624   -141.71769    37946.351 
  587700    310.21594   -1470.2197    516.25497    442.32441     3.689187    37946.351 
  587800    297.74979   -1502.2588    523.63031    361.55017   -771.65787    37946.351 
  587900    297.55767   -1510.6426    514.22103    342.89239   -322.55253    37946.351 
  588000    300.58274   -1526.2429    510.40228    337.08931    80.485487    37946.351 
  588100      305.598   -1535.3683    519.46915    359.60456    331.96369    37946.351 
  588200    291.50361   -1534.1835    543.75865    321.63962    108.19962    37946.351 
  588300    300.57326   -1518.6649     537.0756    371.29789    -219.0932    37946.351 
  588400    300.95705   -1498.4561    527.29919    383.45777    172.30453    37946.351 
  588500    307.33814   -1472.3927    523.72697    434.67039    302.97049    37946.351 
  588600    300.35655   -1477.7735    533.05224    407.19052    251.43587    37946.351 
  588700    293.16663   -1508.4675    525.16502    336.24731   -501.38401    37946.351 
  588800    302.28885    -1524.736    519.86377    355.73686   -488.94499    37946.351 
  588900    290.86228    -1525.091    572.23203    356.31894    65.861413    37946.351 
  589000     289.2205   -1548.4169    508.64089    262.01221    716.75011    37946.351 
  589100    293.22966   -1534.8659    511.13743      296.105    632.02056    37946.351 
  589200    298.82329   -1571.1793    527.19217    301.02341    592.28278    37946.351 
  589300    304.16938   -1543.2278    520.54537    346.39099    646.17488    37946.351 
  589400    302.18637   -1553.5671    516.74803    323.32873    -56.96906    37946.351 
  589500    306.14665   -1548.0898    497.22572    327.10911   -321.22722    37946.351 
  589600    297.11105   -1552.1261    507.07428    292.25189   -85.306396    37946.351 
  589700    305.50102   -1556.5026    514.42515    332.98972   -146.08426    37946.351 
  589800    301.85957   -1472.2095    510.91845    397.38592   -417.86731    37946.351 
  589900    294.42455   -1521.4159     512.6377     316.4335   -260.96705    37946.351 
  590000    297.74449   -1510.0777    505.94836     336.0255   -512.40662    37946.351 
  590100    296.18265   -1507.1267    527.36922    353.36744   -439.92246    37946.351 
  590200    295.00376   -1490.8881    506.90178    343.83249   -394.48094    37946.351 
  590300    302.41361   -1473.5069    505.18112    392.84493   -169.83909    37946.351 
  590400    308.02354   -1525.9966    517.45037    377.87485   -35.596943    37946.351 
  590500     300.2803   -1476.9582    515.57613    390.18656    7.7880175    37946.351 
  590600    295.41173   -1508.7253    504.97137    325.90117   -39.714026    37946.351 
  590700     308.5727   -1467.1632    512.00655    433.73625   -134.97513    37946.351 
  590800    298.87489   -1463.5184    533.73498    415.45944   -282.23436    37946.351 
  590900    293.90823   -1466.1954     531.1664    387.85879    154.71436    37946.351 
  591000    292.81506   -1484.4359    538.97775    372.50923    563.70829    37946.351 
  591100    310.51354   -1485.1445    528.59421    441.07836    294.15238    37946.351 
  591200    300.94247    -1512.339    510.55224    352.76226    318.70607    37946.351 
  591300    302.42339   -1486.8965    526.01736    400.33549    777.53538    37946.351 
  591400    299.00053   -1516.9022    504.56311    333.46918    714.39254    37946.351 
  591500    308.48572   -1544.6231    543.07865    386.95696    605.39141    37946.351 
  591600    294.13677   -1516.4828    492.24671    299.68032      231.036    37946.351 
  591700    310.00067   -1475.3491    533.31871    453.28977    41.981732    37946.351 
  591800    292.47808   -1482.9625    495.85622    329.34434    362.51776    37946.351 
  591900    307.84932   -1493.4132    522.11568    414.33942    451.89218    37946.351 
  592000    305.37689   -1513.2293    510.09769    371.37687    656.50409    37946.351 
  592100     303.4322   -1563.6205    492.70962    294.84445   -12.016849    37946.351 
  592200    297.03316   -1513.3583    515.30844    338.90331    89.404182    37946.351 
  592300    309.39963    -1548.209    511.17164    355.57754   -151.21401    37946.351 
  592400    298.66062   -1536.2362    517.54555     325.5877   -779.44734    37946.351 
  592500    291.12779   -1551.6515    511.67724    270.39862   -267.39217    37946.351 
  592600    298.12724   -1522.7652    525.44706    344.55953   -541.83602    37946.351 
  592700    305.96516   -1506.4754    512.79619    383.47701   -489.04897    37946.351 
  592800     293.8733   -1499.6393    519.29318    342.38441   -721.64638    37946.351 
  592900    309.18309   -1502.7961     514.5879    403.43206   -742.02585    37946.351 
  593000    299.80802   -1489.0152    494.03536      354.463   -341.18462    37946.351 
  593100    306.24631   -1466.6712    503.53352    415.28405    121.00444    37946.351 
  593200    301.52562   -1470.4743    504.37719    391.07675    112.50796    37946.351 
  593300    300.41759   -1456.4414    530.36744    426.11256    351.79609    37946.351 
  593400    305.12475    -1459.456     546.1315    460.04906    81.771376    37946.351 
  593500    291.22353   -1513.9377    491.85099    288.71716   -388.24394    37946.351 
  593600    301.62088   -1508.9758    481.74803     330.3748    137.20787    37946.351 
  593700    361.48861   -1518.4682    530.92968    639.53013    511.92445    37946.351 
  593800    260.33041   -1473.6118    511.55791    209.69931   -148.76972    37946.351 
  593900    301.58059   -1524.1005    531.05479    364.37546   -94.267116    37946.351 
  594000    306.01953   -1517.6402    509.88136    369.64214     671.9751    37946.351 
  594100    292.54606   -1585.9236     512.3708    243.20379    516.15792    37946.351 
  594200    306.79755   -1573.6055    500.50312    307.80049   -172.93475    37946.351 
  594300    305.87919    -1544.631    513.08499    345.22335    -158.1236    37946.351 
  594400    258.86175   -1522.5069    544.54354    187.17939   -629.00385    37946.351 
  594500    306.55168   -1531.5397     547.5768    395.83332   -277.24104    37946.351 
  594600    309.21378   -1552.8535    499.00909    337.93401    -394.0875    37946.351 
  594700    293.03652   -1519.3296    530.54202    330.17652   -504.34439    37946.351 
  594800    298.68415   -1552.0059    518.97756    311.35597   -416.62681    37946.351 
  594900    297.32611   -1571.3814    491.19157    258.08185   -694.54638    37946.351 
  595000     283.8157   -1513.5663    513.33901    277.23381   -430.98476    37946.351 
  595100      298.247   -1544.4251     535.4048    333.39639    309.86878    37946.351 
  595200    307.30118   -1531.2467     491.8702    343.79325    628.77594    37946.351 
  595300    301.05025   -1508.9801    526.33089    372.38489   -181.47219    37946.351 
  595400    298.90825   -1521.0272    517.75704    342.12277   -206.62831    37946.351 
  595500    301.03281   -1554.2408    498.62122    299.33614    972.86413    37946.351 
  595600    288.75998   -1528.2991    500.80086    272.21712    766.14812    37946.351 
  595700    295.91534   -1518.6579    524.85195    338.11579    766.32812    37946.351 
  595800    299.45916   -1525.8384    490.46977    312.50397   -88.558498    37946.351 
  595900    299.05448   -1519.9279    513.47375    339.59706    386.37407    37946.351 
  596000    297.24841    -1553.179    487.94123    272.68419   -385.75938    37946.351 
  596100    299.67158   -1554.3763    493.33494    287.78736    -423.4284    37946.351 
  596200    304.01197   -1533.4216      478.575    313.51837    71.527893    37946.351 
  596300    295.36306   -1524.8276    488.41231    293.02073    180.68561    37946.351 
  596400    296.64588   -1540.0181    523.00364    318.19552   -69.106307    37946.351 
  596500    309.80357   -1467.1183    511.14086    438.45564   -91.667455    37946.351 
  596600    294.63082   -1516.4517    473.14567    282.83415   -572.19655    37946.351 
  596700    296.29027   -1493.7196     531.1325    371.02229   -508.87623    37946.351 
  596800      299.462   -1531.3074    491.56793    308.14594   -380.57899    37946.351 
  596900    306.10875   -1536.0414    498.52667    340.28788   -494.33731    37946.351 
  597000    301.59608    -1543.531    511.58065     325.5406   -353.72773    37946.351 
  597100    289.60035   -1503.7112    515.47662     315.2633   -45.634394    37946.351 
  597200    301.58633   -1500.6093    511.34872    368.18649    189.30055    37946.351 
  597300    308.51741   -1527.7975    472.51845    333.36495   -14.714084    37946.351 
  597400    292.50618   -1492.7522    490.26069    314.08555    165.60632    37946.351 
  597500    307.64053   -1521.8457    523.24717    386.09865     513.3608    37946.351 
  597600    305.83779   -1518.7672    535.24992    393.06572   -32.805744    37946.351 
  597700    300.53271   -1484.5636    492.55952    360.70063   -384.67365    37946.351 
  597800    312.98025   -1512.5443    532.45506    428.64218   -756.30619    37946.351 
  597900     310.0968   -1532.4303    463.87933     327.2019   -366.52243    37946.351 
  598000    307.92855   -1528.7621    511.19496     368.4264   -503.97577    37946.351 
  598100    300.27939   -1505.0547    509.32506    355.83484   -355.17982    37946.351 
  598200    295.62165   -1515.9427    503.54043    318.19762    645.62718    37946.351 
  598300    299.87212   -1503.8916    541.27102     387.1108    570.00682    37946.351 
  598400    303.11248    -1536.562     512.7968    340.55108    394.92818    37946.351 
  598500    293.66885   -1529.4288    504.07773    296.45921    23.613493    37946.351 
  598600     300.1016   -1574.8287    501.42293    277.35844    102.18359    37946.351 
  598700    302.56918   -1536.0773    505.42247    331.21605    188.29443    37946.351 
  598800    303.60416   -1570.3012    500.52705    296.75515   -229.30987    37946.351 
  598900    299.50315   -1568.4124    477.30064    256.95887   -526.68165    37946.351 
  599000     314.3011   -1573.7206    525.90283    366.85879    371.13501    37946.351 
  599100    298.28378    -1579.185    499.31373    262.71097    37.292506    37946.351 
  599200     298.6496   -1558.0297    513.15525    299.35435   -43.877511    37946.351 
  599300    295.84725   -1567.8057    498.82361     262.6332   -397.86363    37946.351 
  599400    294.89878   -1581.7066    519.20031    264.83997   -1042.4495    37946.351 
  599500    295.33726   -1522.0834    525.89972    333.13619   -625.74811    37946.351 
  599600    301.23411   -1605.0575    497.00868    247.81291   -626.91488    37946.351 
  599700    303.01661   -1539.7211    524.63654    348.80024    -388.2392    37946.351 
  599800    292.33441   -1513.7863    490.44089     292.4585   -506.35263    37946.351 
  599900    290.11269   -1518.0447     488.5358    276.29502   -585.27943    37946.351 
  600000      307.861   -1532.5371    499.79591    352.94831    52.223959    37946.351 
  600100    297.96049   -1568.1205    503.91742    276.92398    12.332367    37946.351 
  600200    303.68107   -1566.1517    497.16916    297.89296   -365.67638    37946.351 
  600300    299.33869   -1590.3142    475.11811    232.13431    -304.7431    37946.351 
  600400    306.17606   -1522.3393    504.55892    360.32515    105.95686    37946.351 
  600500    291.89351   -1546.5304    501.33816    268.62724      259.573    37946.351 
  600600    308.71389   -1547.4562    480.19117    322.26336    362.06966    37946.351 
  600700    293.76327   -1589.7501    501.06479       233.55    156.31049    37946.351 
  600800    294.29543   -1527.5392    522.11317    319.20458     199.5484    37946.351 
  600900    304.65643   -1549.7228    520.78844    342.33132    -649.6236    37946.351 
  601000    291.35257   -1568.3442    502.90347    245.94397    -854.4744    37946.351 
  601100     292.2999   -1466.4311    497.24664    346.46413   -755.08625    37946.351 
  601200    306.49741   -1496.3101     493.0852    376.32705   -133.94122    37946.351 
  601300    301.38947    -1550.951    486.51415    292.12409    333.97193    37946.351 
  601400    304.50676   -1550.9054    509.00327    328.68989   -124.19535    37946.351 
  601500    296.15489   -1565.4418    480.20347     247.7617   -138.17024    37946.351 
  601600    293.17331   -1578.6314    472.42024    213.36875     -135.457    37946.351 
  601700    286.61299   -1536.5161    518.01276    271.54833   -600.30757    37946.351 
  601800     301.5314    -1529.376    499.78778    327.61164    216.49025    37946.351 
  601900    304.27663   -1521.4272    500.64593    348.77492   -425.72019    37946.351 
  602000    296.09345   -1526.5967    510.20025    316.32704   -737.34041    37946.351 
  602100     291.4985   -1507.6818     524.4081    328.76784    308.06122    37946.351 
  602200    302.43135   -1529.8365     505.2175    336.63155    107.23674    37946.351 
  602300    301.06453   -1549.9704    479.47719    284.60522    445.98181    37946.351 
  602400    297.70225   -1553.6808    508.02403    294.30791     18.94913    37946.351 
  602500    295.13401   -1540.8413    497.14386     284.7076    474.62332    37946.351 
  602600      294.402   -1541.7964    520.29343     303.6073   -27.378938    37946.351 
  602700    299.37327   -1555.1243     501.8417    294.20338   -503.01252    37946.351 
  602800    306.44731   -1533.8855    514.07673    359.51764   -452.22119    37946.351 
  602900    304.80549   -1567.4433    487.59914    292.09235   -204.67562    37946.351 
  603000    303.12293   -1576.9154    494.96781    282.41571   -122.81867    37946.351 
  603100    297.40445   -1536.6595    507.91714    309.88198   -139.24644    37946.351 
  603200    296.13126   -1563.8785    511.27499    280.29016   -71.349083    37946.351 
  603300     287.4904   -1534.3412    498.66129    258.32111   -549.69538    37946.351 
  603400    309.26103   -1572.4646    505.78023    325.30669   -243.31123    37946.351 
  603500    301.97294   -1528.0556    501.14075     332.2724   -503.81459    37946.351 
  603600    308.11672   -1476.5135    517.23275    427.55978    245.81131    37946.351 
  603700    292.61836   -1517.4894    499.18655    298.77916   -206.35055    37946.351 
  603800    304.12311   -1487.2896     516.5774    398.15296    -31.32494    37946.351 
  603900    284.15866   -1556.2606    505.16081    227.90497   -260.65906    37946.351 
  604000    299.28364   -1527.4298    520.92913    340.58195   -147.61613    37946.351 
  604100    289.85972   -1509.8661    543.46711    338.26636   -120.70897    37946.351 
  604200    297.94338   -1526.3292    498.11088    312.83179   -19.576095    37946.351 
  604300    308.62107   -1498.6604    517.80753    408.25771    -14.12197    37946.351 
  604400     299.0397   -1502.5366    499.15296    342.60102   -174.07371    37946.351 
  604500    302.91205   -1522.6579    518.15451    358.91082   -64.609843    37946.351 
  604600    301.78155   -1497.4809    504.98972    365.83451   -121.08747    37946.351 
  604700    296.35035   -1508.3605    525.24352     350.7628      13.1517    37946.351 
  604800    303.27308   -1522.4706    518.60071    361.16932   -335.24453    37946.351 
  604900    305.06989    -1497.505    516.95168    392.57338   -139.16481    37946.351 
  605000    300.95894   -1524.1015    529.13969    359.66132   -381.23162    37946.351 
  605100    290.92247   -1524.1549    496.23296     281.5268   -316.85865    37946.351 
  605200    304.53797   -1503.8393    518.25767    385.15078   -82.850731    37946.351 
  605300    294.08662   -1506.8484    520.89966    337.74195   -148.77571    37946.351 
  605400    289.83481   -1509.4355    533.47222    328.58992   -11.824589    37946.351 
  605500    307.14146    -1484.855    490.75539    388.35119   -199.24829    37946.351 
  605600    308.97593   -1483.4198    531.77718    439.06522      294.369    37946.351 
  605700    304.19014   -1521.2568    499.07974    346.98978   -276.92151    37946.351 
  605800    298.52528   -1538.1087    512.72131     318.2818   -754.45272    37946.351 
  605900    299.68828   -1516.6741    526.77104     359.0008   -480.94707    37946.351 
  606000    298.88828   -1537.0383     498.0174    306.28217   -214.88068    37946.351 
  606100    298.94812   -1534.3863    516.89004    328.07622   -238.21374    37946.351 
  606200    293.48371    -1536.427    521.36109    305.91109    482.69725    37946.351 
  606300    308.82837   -1561.0848    513.09604    342.05493    523.77881    37946.351 
  606400    302.34732   -1587.4953    488.00793    261.38491    414.90463    37946.351 
  606500    301.27415   -1531.9879    523.58391     347.6379    261.19549    37946.351 
  606600    289.85178    -1572.548    476.84692    208.92845   -295.39683    37946.351 
  606700    301.74362   -1538.6854    502.17638    321.64604   -37.260055    37946.351 
  606800    296.53048    -1556.067     504.6923    283.31584   -361.89173    37946.351 
  606900    312.06621    -1530.889    511.45629    385.18461    85.073596    37946.351 
  607000    292.70178   -1553.3309    504.63012    268.75671    -680.5092    37946.351 
  607100    290.39919   -1550.3142      527.705    284.48424   -286.75482    37946.351 
  607200    298.66383   -1559.7924    480.21115    264.71162   -673.59833    37946.351 
  607300    301.14687   -1560.4932    529.19536    324.17119   -557.78133    37946.351 
  607400    296.33389   -1521.0934    506.83001    319.54235   -399.07254    37946.351 
  607500    304.31101   -1523.2034    480.46872    326.97629   -144.29535    37946.351 
  607600    301.93892   -1515.1835    548.19643    392.04696    225.27954    37946.351 
  607700    284.02382   -1499.2171    513.44899     292.6297   -151.97773    37946.351 
  607800    301.87445   -1570.6598    505.89802    293.98214    125.85076    37946.351 
  607900    311.50826   -1568.1815    492.06417    325.98857    153.99262    37946.351 
  608000    310.10492   -1486.1073    511.58275    421.26482   -456.51095    37946.351 
  608100    287.33773   -1495.6351    498.13223    295.81091   -463.44672    37946.351 
  608200    297.61477   -1519.6609    552.03956    371.94963    160.87229    37946.351 
  608300    291.53124   -1500.6669     506.2939    317.81584    198.08141    37946.351 
  608400    298.78467   -1515.2135    515.95241    345.57558    542.58576    37946.351 
  608500    295.12742   -1505.0575    518.42026    341.73809   -426.10166    37946.351 
  608600    302.41724   -1481.7328    538.44701     417.9012    116.81946    37946.351 
  608700    297.14325   -1519.0917     512.1461    330.50306   -866.04622    37946.351 
  608800    301.18247   -1528.1988    505.91141    333.34195   -678.14113    37946.351 
  608900    303.96438   -1501.5957    512.18203    378.73704   -515.50618    37946.351 
  609000    291.07564    -1512.979    526.52684    323.68606   -362.89836    37946.351 
  609100    294.68804   -1525.1515    545.36825    346.61441   -448.43179    37946.351 
  609200    293.62538   -1503.1889    516.15273    334.57847   -711.38593    37946.351 
  609300    304.92792   -1494.4688    504.23492    382.25373    137.03458    37946.351 
  609400     299.3833   -1468.0405    523.73509    403.22583    197.49476    37946.351 
  609500    302.56066   -1497.5745    540.61505    404.87311    599.08403    37946.351 
  609600    294.02258   -1517.2242    513.18779    319.36609    341.40263    37946.351 
  609700    302.40115   -1483.4183    562.39436     440.0906    224.04844    37946.351 
  609800    304.59378   -1508.2549    520.06339    382.79214    455.50718    37946.351 
  609900     302.9889   -1478.3073    533.04489    418.49762    496.95489    37946.351 
  610000    296.41913   -1465.0151    514.45652    383.63077    179.90234    37946.351 
  610100    298.16419   -1537.3467    510.94681    315.64404    182.78096    37946.351 
  610200    299.10084   -1499.4199    505.03288    351.87277    121.66414    37946.351 
  610300    292.61134   -1484.7684    531.22197    363.50395    237.70907    37946.351 
  610400    297.81796   -1494.5516    545.54342    391.47737    454.96732    37946.351 
  610500    307.14579   -1460.5018    526.92473    448.89329    393.33355    37946.351 
  610600    290.83597   -1465.2265    512.35033    356.18331   -272.11177    37946.351 
  610700    299.12758   -1486.0846     516.3483    376.64389    332.48629    37946.351 
  610800    304.53325   -1489.3346    518.12529    399.50185   -474.34765    37946.351 
  610900    308.61262   -1453.2876    551.28498    487.06994   -249.69504    37946.351 
  611000     299.4611   -1488.3576    560.05321    419.57694    16.072118    37946.351 
  611100    295.35935   -1495.7064    537.71426    371.42711    437.64649    37946.351 
  611200    296.58338   -1542.8974    530.91557    322.94685    761.94229    37946.351 
  611300    283.68648   -1558.9978    508.97402    226.85563    318.84151    37946.351 
  611400    309.70922   -1544.3978    511.32047    360.93099   -187.82705    37946.351 
  611500    295.33193   -1555.9554    499.56354    272.90398   -32.005517    37946.351 
  611600    297.50204   -1540.8777     501.9688    300.15464    -42.34174    37946.351 
  611700    302.64639   -1528.0253    507.29794    341.49104    477.34002    37946.351 
  611800    290.22388   -1527.9439    513.41985    291.78034   -284.65903    37946.351 
  611900    289.51115   -1505.9182    512.80337    309.98155   -426.68662    37946.351 
  612000    300.90017   -1476.5805     535.3362    413.11434    22.047716    37946.351 
  612100    291.91114   -1490.7697    507.05087    330.18001    -8.810943    37946.351 
  612200    300.01355   -1524.5595    506.12416    331.93264   -207.24133    37946.351 
  612300     309.0397   -1514.0456    530.70656     407.6558   -142.68153    37946.351 
  612400    309.75971   -1537.3519    542.42771    399.31138    217.15857    37946.351 
  612500     314.5792   -1540.0098    503.52618     379.4446   -16.411212    37946.351 
  612600    298.81575   -1503.5105    517.82004    359.28616     108.4562    37946.351 
  612700    304.34484   -1488.8435    527.35992    408.37963   -442.43242    37946.351 
  612800    300.03119   -1515.2543    517.62021    352.81323    -339.3821    37946.351 
  612900    302.66462   -1526.0245    512.68565    348.96166   -340.25239    37946.351 
  613000    308.77249   -1532.7456     523.9383    380.98479     136.8014    37946.351 
  613100    292.33608   -1516.6892     521.2967    320.41897   -267.38235    37946.351 
  613200    296.18627    -1516.119    547.24272      364.265     134.8052    37946.351 
  613300    304.45704   -1553.8639    510.14591    326.65021    207.97074    37946.351 
  613400    295.14794   -1571.6161    483.87882    240.73041    108.42455    37946.351 
  613500    305.47617   -1570.9433    505.18429    309.19629    136.67084    37946.351 
  613600     307.5036   -1560.8359    509.89283    333.13779    270.75372    37946.351 
  613700    314.20144   -1541.9928    547.08036    419.31553    313.23169    37946.351 
  613800    305.64607   -1576.0513    493.57132    293.24011    291.69905    37946.351 
  613900    294.96454   -1576.8156    517.65527     268.4819    232.43411    37946.351 
  614000    306.73426    -1527.064    510.43437    363.98845   -22.986965    37946.351 
  614100    294.35402   -1533.0314    539.17976    331.04265   -496.67463    37946.351 
  614200    293.88899   -1514.0812    513.36809    322.08806   -306.32588    37946.351 
  614300    302.22703   -1538.1983    519.91581    342.04838   -788.87014    37946.351 
  614400    301.46704   -1469.6589    513.24198    400.49316   -42.989346    37946.351 
  614500    294.36094   -1535.6108     525.1337    314.44832    104.86623    37946.351 
  614600    289.93057   -1559.9537    539.47018    284.50064    415.36529    37946.351 
  614700    303.80342   -1531.5431    526.13461    362.01776    469.02311    37946.351 
  614800    313.07426   -1549.6495    523.68414    383.18915    126.08069    37946.351 
  614900    303.89747   -1535.8768    528.56129    360.53408    299.11007    37946.351 
  615000    300.50208   -1535.0933    509.60227    327.07579   -91.417975    37946.351 
  615100    294.16232   -1472.9217    559.72819    410.83791   -42.691716    37946.351 
  615200    303.31199   -1482.6628    527.71094    410.26248    520.61303    37946.351 
  615300    295.77891   -1537.2589    522.95819    317.00705    416.23321    37946.351 
  615400    287.97156   -1490.5672    541.29701    346.89644   -81.272576    37946.351 
  615500    289.57593   -1466.7408    527.24822    363.89537    418.36688    37946.351 
  615600    288.78482   -1485.5877    530.78834    345.02777    103.61502    37946.351 
  615700    295.72896   -1484.3528     531.3623    378.09236     197.7824    37946.351 
  615800    304.20564   -1494.5093    528.83114    403.55845    251.46338    37946.351 
  615900     294.2221   -1526.7038    494.57725    292.17392   -118.46113    37946.351 
  616000    305.99708   -1496.6218    529.29729    409.97545    229.09076    37946.351 
  616100    303.70469   -1513.9019    508.17963    361.25958    -15.89468    37946.351 
  616200    294.82659   -1488.1632      527.864    366.72213    115.21829    37946.351 
  616300     300.4736   -1531.1675    517.23155    338.50269   -277.22843    37946.351 
  616400    293.53631   -1535.3437     499.9038    285.77386   -271.08383    37946.351 
  616500    294.52327   -1512.0955    518.58975    332.15031    -474.9816    37946.351 
  616600    290.94339   -1484.9436    522.51317    347.11252   -235.24255    37946.351 
  616700    305.74625   -1506.5785    509.51336    379.10585    118.20898    37946.351 
  616800    297.09154   -1525.1847    520.72381    332.75497    182.11722    37946.351 
  616900    302.93852   -1523.0486    538.17055    378.65529    615.27274    37946.351 
  617000    302.09726   -1566.4216    541.54983    334.87505    757.95974    37946.351 
  617100    298.54467   -1536.7975    550.56125    357.52026     911.0107    37946.351 
  617200    300.29387   -1546.7023    544.36129    349.28867    786.15292    37946.351 
  617300    307.73285   -1564.0277    512.75988    333.84484    962.94666    37946.351 
  617400    306.33188   -1570.7715     522.2601    330.29547    58.621375    37946.351 
  617500    309.22016   -1584.3766    507.64462    315.07513    185.92981    37946.351 
  617600    302.48064   -1579.4006    517.65092     299.7227    404.74662    37946.351 
  617700    297.47536   -1577.6802     499.5066    260.76985   -246.90895    37946.351 
  617800    293.60703   -1532.4154    512.21541    301.33208   -444.86637    37946.351 
  617900     295.9522   -1515.8132    519.39979    335.67427   -529.00154    37946.351 
  618000    299.09571   -1526.8223    506.18212     325.5965   -459.52201    37946.351 
  618100     303.3837   -1498.7597    502.74125    369.51857   -45.807688    37946.351 
  618200    313.74143   -1542.2827    524.73987    394.61459   -461.95249    37946.351 
  618300     291.4976   -1528.4991    542.92572    326.46403    536.88383    37946.351 
  618400    295.34236   -1536.8105    507.32309    299.85542   -98.000314    37946.351 
  618500    294.19431   -1544.7385    515.63309    295.06998    352.92938    37946.351 
  618600    298.55318   -1527.4476    527.83908    344.18628     168.6289    37946.351 
  618700    306.66548   -1553.2564    546.30867    373.36074    526.56646    37946.351 
  618800    293.98614   -1535.9081     514.9244    302.25472    142.07232    37946.351 
  618900    305.43723   -1526.8227    516.56975    364.52713   -62.976702    37946.351 
  619000    302.23678   -1525.4561    540.86732    375.78599     115.3417    37946.351 
  619100    298.69827   -1544.7556    528.88021    328.57241    48.186994    37946.351 
  619200    297.57664   -1533.0538    548.22801     354.5736   -256.99812    37946.351 
  619300    296.55573   -1510.7188     540.2615    364.34688    -70.21913    37946.351 
  619400     298.5191   -1503.5099    528.73987    368.87131    511.64371    37946.351 
  619500    303.95799   -1577.6909    520.58089    311.01197    352.32224    37946.351 
  619600    303.13139   -1537.2527    546.96057    374.10929     596.2478    37946.351 
  619700    301.50949   -1561.6587    518.74531    314.18783    450.16238    37946.351 
  619800    292.89978   -1523.4321    513.52723    308.44388   -178.73737    37946.351 
  619900    296.83811   -1532.2047    518.36293    322.23346   -263.68453    37946.351 
  620000    298.93359   -1484.3983    520.13407     381.2428    237.44672    37946.351 
  620100    295.24671   -1505.5241    527.73199     351.1202    201.23606    37946.351 
  620200    293.51831   -1533.8104    519.69788    307.02022    36.204169    37946.351 
  620300    308.38331   -1553.1451    508.11013    343.00542    122.69664    37946.351 
  620400    293.31947   -1518.0401    524.24611    326.44376   -74.985146    37946.351 
  620500    306.54974   -1558.9153    513.25859    334.13077    353.48464    37946.351 
  620600    296.56372   -1565.7112    501.73768    270.86668    387.10937    37946.351 
  620700      298.509   -1590.8272    515.73435    268.50311    332.63299    37946.351 
  620800    291.43326   -1593.6579    537.03933    255.12924    644.38973    37946.351 
  620900    300.77665   -1573.7912    514.23648      294.248    780.71516    37946.351 
  621000    306.07517   -1563.7509    537.27942    351.17999    399.60349    37946.351 
  621100    303.79473   -1518.0673    522.48278    371.80254    211.76055    37946.351 
  621200    287.79242   -1547.1992    518.07238    266.23354   -79.154929    37946.351 
  621300    298.13812   -1594.8282    513.36048    260.45887   -362.13487    37946.351 
  621400    300.00476   -1552.1183    520.81278    319.02282    26.684911    37946.351 
  621500    289.65135   -1544.0681    519.71852    279.37793   -214.65124    37946.351 
  621600    295.10042   -1568.7837    529.45547    288.92563    291.40711    37946.351 
  621700    300.98647   -1527.1626    511.69014    339.27462   -349.87515    37946.351 
  621800    313.86977    -1516.896    536.99038    432.82954   -45.083197    37946.351 
  621900    318.04342   -1505.6498    523.75432    449.62529   -183.01613    37946.351 
  622000    302.36964   -1552.6341    535.50139    343.84011    184.04968    37946.351 
  622100    299.95865   -1529.1843    517.00264    337.93924   -108.01265    37946.351 
  622200    299.36446   -1559.5223     514.6007     302.5248   -244.21883    37946.351 
  622300    307.96065     -1563.01    490.45841    313.58638    20.605102    37946.351 
  622400    302.74833    -1518.613    513.77639    357.84066    453.24109    37946.351 
  622500    295.64778   -1546.8896    529.58273    313.41065   -51.275119    37946.351 
  622600    307.43991   -1530.4615    520.71263    374.04531    64.983133    37946.351 
  622700    306.49362   -1530.3957    504.94957    354.08879    622.64631    37946.351 
  622800    295.49305   -1509.2077    520.04661       340.86   -557.99509    37946.351 
  622900    307.92929   -1523.2642    509.05351    371.78616   -121.40025    37946.351 
  623000    299.25805   -1511.2785    486.12765    321.81654    94.255692    37946.351 
  623100    292.23846   -1497.0496    536.73156      355.054   -488.31608    37946.351 
  623200    289.77238   -1563.3581     509.9665    250.88061   -304.85308    37946.351 
  623300    301.19801   -1507.1457     513.4301    361.98363   -322.11945    37946.351 
  623400    312.91605   -1496.4027    510.44841    422.48814     -751.161    37946.351 
  623500    298.42492    -1518.179    523.79731    348.83579   -1132.7393    37946.351 
  623600     287.6614    -1545.811    521.99949    270.95914   -709.55776    37946.351 
  623700    296.26518   -1552.0469    536.30718     317.7567   -33.635632    37946.351 
  623800     295.4969    -1525.245    520.75064    325.54399    98.764541    37946.351 
  623900    297.14711   -1555.6111    512.33437    294.18931    -153.0757    37946.351 
  624000     301.3918   -1544.2436    491.08131    303.40922    97.359506    37946.351 
  624100    309.16547   -1543.7332     506.4252    354.25296    428.20455    37946.351 
  624200    297.69615   -1565.0081    513.06428    287.99347    -138.6903    37946.351 
  624300     303.2341   -1526.4229    507.83423    346.27503   -95.863434    37946.351 
  624400    299.77389   -1520.9013    510.34141    338.72929    123.62629    37946.351 
  624500    286.82106   -1542.9638    520.49893    268.52341   -57.275603    37946.351 
  624600    306.34998   -1522.1007    524.76414    381.55186   -357.02327    37946.351 
  624700    300.43907    -1563.536    494.08195     282.8292    10.198214    37946.351 
  624800    308.02403   -1571.6795    513.76946    328.51324   -488.09939    37946.351 
  624900     304.4124   -1562.3126    507.55971    315.41432   -363.44738    37946.351 
  625000    308.85149   -1564.3645    521.16713    346.95036    358.10874    37946.351 
  625100    292.74648    -1575.267    500.02535    242.41709   -39.724238    37946.351 
  625200     305.6662    -1562.437    518.79024    332.16388   -944.20246    37946.351 
  625300    307.39612   -1523.7569    503.51269    363.35278   -742.21068    37946.351 
  625400    302.43237   -1561.2308    523.60913    323.63345   -400.12902    37946.351 
  625500     296.8359    -1565.815    520.86715    291.11743   -415.28753    37946.351 
  625600    298.17833   -1559.7363    494.45947     276.8307   -212.75749    37946.351 
  625700    301.88701   -1586.1797    513.03815    285.65891    284.86322    37946.351 
  625800    284.47304    -1565.905     526.7912    241.30591    7.3243418    37946.351 
  625900    290.59982   -1566.3925    512.81657    254.42061   -294.70366    37946.351 
  626000    294.12119   -1533.8464    513.36124    303.36115   -162.05733    37946.351 
  626100    305.20035   -1551.0828    525.26871    347.89972   -411.13118    37946.351 
  626200    297.81501   -1515.5475    518.99939    343.92411    2.5570539    37946.351 
  626300    301.90031   -1556.2537    526.94918    329.55576    43.650584    37946.351 
  626400     311.7217   -1517.8554    519.71158    404.92272    438.34455    37946.351 
  626500    300.87714   -1513.4752    512.18012    352.95994    684.90434    37946.351 
  626600    299.10648   -1494.2052    524.34032    376.42034    1077.6171    37946.351 
  626700    297.93788   -1518.0513    534.94784    357.92189    549.42937    37946.351 
  626800    299.30563   -1536.8924    524.93037    335.21953   -455.61941    37946.351 
  626900     317.6931   -1486.7608    520.07515    463.25836    182.35226    37946.351 
  627000    293.14662    -1497.402     513.2487    335.30646    369.04945    37946.351 
  627100    298.32758   -1446.7987    531.77467    427.75528    351.43331    37946.351 
  627200    294.12003   -1489.3034    540.09763    374.63525    634.25849    37946.351 
  627300     305.9484   -1471.6173    534.11781    439.58134    598.54395    37946.351 
  627400    291.94476   -1515.2626    528.00471    326.79225    212.33445    37946.351 
  627500    299.78185    -1507.848    517.90782    359.38487    411.08699    37946.351 
  627600    298.52338   -1511.4803    511.72432    343.90469     -55.0663    37946.351 
  627700    292.53427   -1504.6175    533.64533    345.73132    181.28081    37946.351 
  627800     293.1776   -1517.6734     521.9826    323.90837   -605.93204    37946.351 
  627900    301.26261   -1487.2108    510.71215    379.49135   -569.69781    37946.351 
  628000    306.59769   -1477.9129    511.79092    413.88137   -633.02301    37946.351 
  628100     305.6465   -1471.7776    489.68696    393.63131   -461.26285    37946.351 
  628200     296.9854   -1510.9232    522.49292    348.30787    203.84632    37946.351 
  628300    291.30717   -1507.5025    508.50849    312.18635    556.49347    37946.351 
  628400    305.59663   -1470.4755    509.44159    414.46359    -28.32923    37946.351 
  628500    293.58248   -1487.2616    522.78841    356.94836   -624.93058    37946.351 
  628600    296.85706    -1490.415    524.15543    369.90091   -192.46152    37946.351 
  628700    293.40645   -1443.1937    548.86488    426.30043   -687.97204    37946.351 
  628800    301.25004   -1465.7297    532.07872    422.28248   -585.10109    37946.351 
  628900    295.32376   -1458.3203    530.81694    401.75572   -345.64721    37946.351 
  629000    308.90133    -1453.149    512.42532    449.64839   -619.78982    37946.351 
  629100    290.65629   -1436.3297    512.45209    384.37314   -882.57266    37946.351 
  629200    285.61999   -1460.3087    522.32048    347.59393   -516.45298    37946.351 
  629300    300.08776   -1457.1887    520.10023    413.61346   -550.87917    37946.351 
  629400    305.98494   -1454.7125    506.50157    429.03441   -400.64777    37946.351 
  629500    293.30977   -1473.3331    513.80675    360.66772   -801.24687    37946.351 
  629600    294.96216   -1479.6431    508.03885    356.02729   -566.24079    37946.351 
  629700     302.9802   -1498.6699    510.98386    376.03485   -68.702668    37946.351 
  629800    292.07012   -1519.3178    492.09268    287.38927   -223.51935    37946.351 
  629900    305.31886    -1514.381    530.76501    390.63133    -611.0123    37946.351 
  630000    287.65423   -1517.6826    489.84376    266.89954   -287.60278    37946.351 
  630100    299.21352   -1501.1035    506.41211    352.07561    223.32143    37946.351 
  630200     304.2588   -1495.2468    526.06518    400.29433   -175.23688    37946.351 
  630300    308.23685   -1478.2617    516.17737    425.29693    176.99107    37946.351 
  630400    307.73378   -1510.5025    515.68172    390.29614   -49.634216    37946.351 
  630500    298.34233   -1500.9176    509.49355    351.42172   -25.500424    37946.351 
  630600    299.08446   -1489.3578    493.54044    350.36873    209.03347    37946.351 
  630700    295.56184   -1493.6403    511.14429    347.83469   -234.65207    37946.351 
  630800    302.11643   -1506.1215     494.4072     348.1188   -394.99878    37946.351 
  630900    312.59359   -1469.0011    502.40977     440.3997   -495.86525    37946.351 
  631000    298.10859   -1485.1379    490.98142    347.63714   -109.91332    37946.351 
  631100    304.40622   -1487.4482    511.57624    394.26747   -137.26905    37946.351 
  631200    308.29786   -1496.9245     500.2516    390.98294    119.53451    37946.351 
  631300    298.13519   -1516.6371    503.10496     328.3812   -234.59087    37946.351 
  631400    305.53897   -1497.8445    501.52027    378.91374   -769.64039    37946.351 
  631500    297.08227   -1445.3377    528.67201    420.50847   -543.41513    37946.351 
  631600    300.10765   -1514.3501    511.42262    347.86398   -693.48304    37946.351 
  631700    283.02167   -1504.0777    499.59815    269.40752   -442.39748    37946.351 
  631800    299.12597   -1495.8231    497.75274    348.30256     369.9238    37946.351 
  631900    296.03658   -1472.7502    493.62012    353.33742   -384.40366    37946.351 
  632000    305.79716   -1466.2792    523.40893    433.52979    141.35447    37946.351 
  632100    302.51499   -1444.4981    516.58049    433.70939   -460.44477    37946.351 
  632200    308.02831   -1477.4129    521.26559    430.29526    610.92564    37946.351 
  632300    301.09284   -1477.8481    519.03654    396.41432    227.80123    37946.351 
  632400    285.61769   -1458.5906    547.46879    374.45009    104.65818    37946.351 
  632500    301.13959    -1458.361    498.36445    395.43974    192.57124    37946.351 
  632600      301.828   -1482.6001     548.6267    424.56138    471.32926    37946.351 
  632700    294.34197   -1456.2331    511.18937    379.79635    197.58599    37946.351 
  632800    303.52136   -1440.7226    530.79424    456.22837    288.87061    37946.351 
  632900    305.13165   -1452.3835    515.58972    436.61083    237.32576    37946.351 
  633000    308.84621   -1444.0766    520.26241    466.30977     518.9823    37946.351 
  633100     304.6531   -1478.1172    515.03372    408.16717    322.63333    37946.351 
  633200    303.44693   -1456.3228    517.20409    426.70296    534.54474    37946.351 
  633300     294.1567   -1478.4925    509.26832     354.7819    134.81121    37946.351 
  633400    292.78515   -1496.6269    540.58985    361.79576   -374.77813    37946.351 
  633500    309.37511   -1492.8766    514.42033    414.04824     73.39564    37946.351 
  633600    299.07253    -1494.163     523.7997    375.76911   -203.29935    37946.351 
  633700    302.63194   -1467.8857    512.53454    406.80224    6.0933886    37946.351 
  633800    311.97786   -1482.1797    509.40412    431.44403   -81.372936    37946.351 
  633900    308.19953   -1475.1461    497.22718    409.29431   -69.864462    37946.351 
  634000    300.78181   -1470.3968    496.62861    380.05768   -376.08079    37946.351 
  634100    307.47333   -1421.9182    497.87836    459.90473   -784.07054    37946.351 
  634200    295.28544   -1475.3283    530.69105    384.44938   -433.79646    37946.351 
  634300    303.77364    -1501.507    504.15459    369.93977    23.480127    37946.351 
  634400    302.65424   -1465.0474    532.58054    429.78693   -76.659746    37946.351 
  634500    305.85672   -1468.4903    509.74821     417.9261     105.3042    37946.351 
  634600    311.45408   -1440.9016    525.75561    486.71608    -12.40649    37946.351 
  634700    294.10133   -1478.6193    523.88109    369.01868    20.053181    37946.351 
  634800     293.6815   -1487.7158    521.33614    355.48764   -189.39344    37946.351 
  634900    295.01545   -1464.6439    507.98264    371.21008    67.806386    37946.351 
  635000    302.77044   -1509.2141    488.48666    342.04934    158.26628    37946.351 
  635100     295.3783   -1521.6561    496.41418    304.26272    520.85415    37946.351 
  635200    312.04848   -1524.0896    507.54822    387.99607    512.65161    37946.351 
  635300    287.06702   -1524.9671    543.47682      310.605    444.06817    37946.351 
  635400      293.934   -1522.8005    510.02833    310.23157    341.55367    37946.351 
  635500    301.51677   -1535.3836    507.86579    329.61617    338.29442    37946.351 
  635600    298.46106   -1516.6013    524.69617    351.47506    123.95587    37946.351 
  635700    303.49676   -1512.9601    538.10392    391.18982   -92.526073    37946.351 
  635800    300.61025   -1524.9156    505.66198    333.80008    118.40925    37946.351 
  635900    297.26316   -1489.3095    504.93431    353.61321    150.29557    37946.351 
  636000    304.48925   -1501.8973     510.3225    378.93835    328.75034    37946.351 
  636100    282.04038   -1519.3744    492.64312    242.73901   -528.03829    37946.351 
  636200    308.73492   -1463.7752    508.20866    434.05651    -363.8689    37946.351 
  636300    290.16734   -1492.4205    509.21115    322.84054   -510.47632    37946.351 
  636400    297.30152   -1459.2759    524.18348    403.06859   -648.69152    37946.351 
  636500    305.53134   -1461.9509    506.56548    419.81826   -42.409574    37946.351 
  636600    292.44518    -1471.313    515.05135    360.04087   -125.19167    37946.351 
  636700    292.07659   -1458.1476    535.41839    391.91431    434.10422    37946.351 
  636800    310.71074   -1497.3382    504.75952    405.93761   -149.34373    37946.351 
  636900    301.71491    -1513.618    510.40351    354.81134   -49.644306    37946.351 
  637000     306.9025   -1476.7883    519.66777    424.25468   -31.225003    37946.351 
  637100    301.38188   -1504.1213    504.11124    356.51674    232.59693    37946.351 
  637200    291.66388   -1513.0094    514.20312    313.97964    8.2307874    37946.351 
  637300    299.54408   -1511.6355    530.40005    367.01938   -205.41585    37946.351 
  637400    302.89774   -1511.3805    485.68187    337.65112   -239.61759    37946.351 
  637500    290.26488   -1500.0512    509.60219    316.03996   -375.66728    37946.351 
  637600    307.88456   -1510.5653    508.11193    383.34218    -247.6412    37946.351 
  637700    301.22334   -1488.8315    493.71251    360.69423    92.826345    37946.351 
  637800    296.94228   -1488.8449    505.99698    353.69621    25.883301    37946.351 
  637900    305.98877    -1465.725    526.99729    438.53487    584.45782    37946.351 
  638000    298.30117   -1505.6642    477.19099    314.18728    68.798163    37946.351 
  638100    304.52489   -1530.5804    515.23159    355.32473   -304.45638    37946.351 
  638200    290.45358    -1532.074    522.71903    297.98337    262.65834    37946.351 
  638300    292.45977   -1480.6907    503.40081    339.07834    172.16435    37946.351 
  638400    304.23403   -1485.7928    512.79629    396.36789    629.64247    37946.351 
  638500    292.37244   -1545.8639    503.16864    273.27989   -9.0809672    37946.351 
  638600    299.62602   -1455.0708    523.16739    416.72026    762.31407    37946.351 
  638700    295.11688   -1464.5528    495.45917    359.23424    483.48651    37946.351 
  638800    300.62176   -1500.6785    505.74342    358.17044   -105.59144    37946.351 
  638900    313.47382   -1489.9094     485.8616    406.90516    282.08753    37946.351 
  639000    303.48979   -1513.8215    511.56757    363.76065    305.36782    37946.351 
  639100    293.95224   -1454.5129    505.16187    373.73483    261.18144    37946.351 
  639200    292.43409   -1459.3452    517.69094     374.5983   -29.488556    37946.351 
  639300    304.22716   -1476.6039     512.8564    405.58592   -678.50279    37946.351 
  639400    294.68235   -1480.5579    488.25902    334.07318   -822.40967    37946.351 
  639500    305.37379   -1434.8911    509.08521    448.68859   -701.25985    37946.351 
  639600    295.72766   -1451.7483    491.45289    370.78161   -195.58294    37946.351 
  639700     297.9481   -1491.8612    506.50116    355.71132   -178.52274    37946.351 
  639800    289.59987   -1519.1361    492.03879    276.39842   -65.379771    37946.351 
  639900    289.95322   -1530.9874    467.82536    241.92417   -194.37828    37946.351 
  640000    297.91446   -1524.6548    520.27259     336.5377    -173.2442    37946.351 
  640100      304.666   -1491.9675    479.47409     358.8153    52.945114    37946.351 
  640200     309.5623    -1430.484    509.62629    472.48944    91.986643    37946.351 
  640300    306.19155   -1383.6879     502.3126    496.79997   -48.681664    37946.351 
  640400    298.27884   -1437.9752    505.33634    409.92113   -132.24895    37946.351 
  640500    289.59984   -1427.6462    511.26742    387.11678   -369.33162    37946.351 
  640600    303.86628   -1462.1736    511.03747      416.573   -111.82639    37946.351 
  640700    298.25682   -1451.6088    495.02094    385.87295    433.53605    37946.351 
  640800    295.62607   -1496.7822    519.16879    353.00635   -3.4107739    37946.351 
  640900    299.01213   -1500.1642    523.61859    369.31488   -350.52458    37946.351 
  641000    305.38958   -1498.6717    467.11446     343.0084   -686.20072    37946.351 
  641100    295.93854   -1505.0805    520.69226    347.63801   -77.041083    37946.351 
  641200    292.83603   -1524.9262    482.57802    275.71359    167.39186    37946.351 
  641300     304.3703   -1514.9592    489.33108    344.34961    565.52877    37946.351 
  641400    297.19228   -1498.6154    506.25277    345.30672   -48.709789    37946.351 
  641500    292.79683    -1503.422    497.81406    312.27741    127.01166    37946.351 
  641600    300.31684   -1479.7343    523.06206    395.06085    91.344581    37946.351 
  641700     293.6583   -1531.0397    492.33379    283.05685    45.223382    37946.351 
  641800    303.18991   -1464.4289    505.94508    406.18093     77.24317    37946.351 
  641900    304.65404   -1495.3438    508.02984    383.94092    -382.3311    37946.351 
  642000      307.378   -1493.5677    499.62305    389.57082   -128.85738    37946.351 
  642100    313.19171   -1497.7962    515.97668    427.86359     261.7538    37946.351 
  642200    307.67362   -1447.8965    495.09194    432.04149    73.702082    37946.351 
  642300     296.7707   -1453.2648    506.89493     389.4019   -502.33428    37946.351 
  642400    294.00594   -1443.6662    522.63684    402.29826    169.28811    37946.351 
  642500    302.49732   -1491.7086    513.08234     382.9212   -194.44008    37946.351 
  642600    292.74626   -1451.7237    508.35568    374.28969   -441.49596    37946.351 
  642700    297.93931    -1433.126     489.4168    397.32256    -493.9933    37946.351 
  642800    298.78699   -1430.2824    505.66179    420.22661   -107.19508    37946.351 
  642900    298.20019   -1463.8133    518.72563    397.11835   -128.12796    37946.351 
  643000    309.92128   -1459.6351    507.62167    442.94946    403.13591    37946.351 
  643100    296.22789   -1510.5164     518.0474    340.85967   -618.55888    37946.351 
  643200     288.5992   -1468.6449    516.04218    346.38896   -516.46832    37946.351 
  643300    294.20473   -1458.5288    504.48462    370.17812   -580.10211    37946.351 
  643400    292.82915   -1443.9634    533.67576    407.74314   -550.85578    37946.351 
  643500    306.03068   -1472.7945    492.40153     397.0582   -100.13665    37946.351 
  643600     288.1526   -1493.3011     537.8007     341.4811   -137.67374    37946.351 
  643700       299.23   -1510.3397    498.77058     335.2721   -376.45141    37946.351 
  643800    301.92116   -1508.9964    512.58062    362.53837   -376.20836    37946.351 
  643900    305.15887   -1493.9501    495.82197    375.39899   -174.81234    37946.351 
  644000    296.72199   -1456.9558    481.67283    360.26962   -424.60734    37946.351 
  644100    301.87846   -1456.0286    516.00607    418.73943    -592.2883    37946.351 
  644200    287.60543   -1475.0134      530.759    350.26433   -541.10473    37946.351 
  644300      290.787   -1483.2802    521.10336    346.66219    339.94922    37946.351 
  644400    293.89205   -1526.8928    491.56945     287.4916    4.4371281    37946.351 
  644500    308.59293   -1518.7691    479.69239    349.90727    339.49369    37946.351 
  644600    302.01186   -1499.2539    490.46661    350.57507   -194.68425    37946.351 
  644700    293.11592   -1528.0521      503.233     294.5024    -46.00977    37946.351 
  644800    307.82539   -1520.0919    510.29885    375.73616      294.255    37946.351 
  644900    307.05925   -1479.0705    492.66288    395.67314   -95.847711    37946.351 
  645000    303.65264   -1481.9017    500.08965    384.93557    12.255702    37946.351 
  645100    306.20008   -1486.4046    508.73035    400.53941   -71.331538    37946.351 
  645200    305.15686   -1524.3042    471.06895    320.28284   -175.33024    37946.351 
  645300    289.55937   -1489.9535    505.28425    318.64424   -226.39657    37946.351 
  645400    299.33126   -1550.2834    497.09987    294.11336    194.95047    37946.351 
  645500    295.28613   -1546.5621    491.50445    274.03203    337.87817    37946.351 
  645600    299.06897   -1533.2058    496.97642    309.88696    340.04139    37946.351 
  645700     288.4284   -1532.3633    508.63905    274.49863   -121.20174    37946.351 
  645800    307.72196   -1484.9171    495.10345    395.25004    882.62831    37946.351 
  645900    299.86648   -1512.2406    498.58926    336.05461     834.9309    37946.351 
  646000     290.0908   -1495.0653    513.40692     324.0471    119.22032    37946.351 
  646100    298.00043   -1479.8595    501.91594    363.36327    667.07039    37946.351 
  646200    295.66167   -1458.7956    523.31353    395.29795     875.0782    37946.351 
  646300    298.51589   -1485.8321    500.61426    358.40913    144.47089    37946.351 
  646400    295.32949   -1460.3876    527.16539    396.06266    324.25884    37946.351 
  646500    304.84298   -1476.5613     505.0612    400.60524    647.42273    37946.351 
  646600    302.19029   -1468.4869     502.4235    394.10213    -53.11888    37946.351 
  646700    290.65036   -1489.3831      515.022    333.86287   -40.129249    37946.351 
  646800    304.32438    -1492.174    476.44717    354.04431   -235.16362    37946.351 
  646900    293.95916    -1496.163    514.54922    341.50316   -544.90985    37946.351 
  647000    288.15132   -1508.6664    504.47758    292.78696   -770.86741    37946.351 
  647100    291.41681   -1454.7073    504.91161    361.87815   -492.32014    37946.351 
  647200    287.39234   -1494.2259    512.38011    311.71383   -690.95234    37946.351 
  647300    292.99749   -1477.7287    506.54878    347.60856   -772.61704    37946.351 
  647400    296.66231   -1495.2485     487.9092    327.94466   -516.03486    37946.351 
  647500    296.64268   -1554.6023     507.0329    287.62618   -590.44495    37946.351 
  647600    295.22379   -1553.9967    487.14234    261.95475    62.751971    37946.351 
  647700    292.99514   -1493.8944     510.7943    335.67779   -220.20363    37946.351 
  647800     288.9549   -1533.6397     495.6163    262.56936   -522.41379    37946.351 
  647900    310.24167   -1517.9982    523.03717    401.44395    -76.74506    37946.351 
  648000    298.60211   -1483.4897    489.75484     350.2802   -3.4392031    37946.351 
  648100    297.96165    -1495.074    492.62444    338.68275   -218.37637    37946.351 
  648200    302.19607   -1479.4414     497.4606    378.21074   -490.16492    37946.351 
  648300    290.71361   -1511.4497    501.37295    298.43199    -219.8746    37946.351 
  648400    310.26786   -1544.2614       486.17    338.43144   -219.45731    37946.351 
  648500    294.31835   -1488.1619    509.50414      346.076   -293.26314    37946.351 
  648600    307.05444   -1478.3702    510.13583    413.82478    166.09036    37946.351 
  648700    306.89986   -1501.6284    463.55766    343.29263   -228.20243    37946.351 
  648800      294.753   -1551.9433    489.22847    263.97524   -114.00119    37946.351 
  648900    300.38979   -1526.3368    488.00071     313.7253    -84.39423    37946.351 
  649000    281.53666   -1518.0271    483.85002    233.02598   -762.27496    37946.351 
  649100    309.56382    -1482.036    497.50821    408.82612    637.83527    37946.351 
  649200      295.568   -1508.1697     510.0247    332.21343    647.43529    37946.351 
  649300    304.19365   -1476.9245    506.19931    398.45743    815.77204    37946.351 
  649400    300.18256    -1464.621    522.14358    408.65129    442.03097    37946.351 
  649500     299.5329   -1503.8628    505.11916     349.4609    245.30344    37946.351 
  649600    291.09734   -1450.0036     531.6969    391.92915    -246.9652    37946.351 
  649700    306.29281   -1472.7461    504.81562    410.70051   -472.10615    37946.351 
  649800    303.83885    -1510.127    525.49677    382.95542   -138.78186    37946.351 
  649900    290.26104   -1486.5505    504.20052    324.12163   -142.96869    37946.351 
  650000    305.67789   -1483.7914    498.24871    390.32057   -282.18841    37946.351 
  650100    297.90833   -1509.7796    479.87374    310.98647   -622.12645    37946.351 
  650200    307.95736   -1471.1948    495.02795     409.9564    -393.0688    37946.351 
  650300    298.29889   -1474.5694    505.09789    373.17869   -711.13542    37946.351 
  650400    302.18957   -1468.4087    518.20696    409.96054    8.5378733    37946.351 
  650500    304.94779    -1521.553     518.6495    369.67352   -32.909094    37946.351 
  650600    299.37229    -1485.848    532.33325    393.96684   -372.42463    37946.351 
  650700    305.16925   -1474.5261    500.17808    399.22583   -887.83743    37946.351 
  650800    292.84916    -1512.226    503.91669     309.8115   -153.06679    37946.351 
  650900    305.65171   -1508.5184    502.56882    369.79583   -15.814069    37946.351 
  651000    297.30011   -1516.9268    488.35037    309.57827     53.81363    37946.351 
  651100    298.38322   -1535.4991    530.92214    338.45284    26.772099    37946.351 
  651200    295.17238   -1490.9265    510.80152    348.45274    36.931254    37946.351 
  651300    301.60839   -1531.1498    525.36054    351.75706   -115.16003    37946.351 
  651400     298.9722   -1518.9971    502.01136    328.69507   -498.25354    37946.351 
  651500    304.87632   -1512.6376    501.69874     361.3165   -530.77417    37946.351 
  651600    299.35214   -1497.8162    504.20081    353.77556    -394.0361    37946.351 
  651700    301.56634   -1481.3376    479.89721    355.91662     -356.427    37946.351 
  651800    298.18238    -1493.368    510.44129    359.19912   -961.99581    37946.351 
  651900    292.64212   -1514.2339     517.8264    320.78151   -405.07579    37946.351 
  652000    303.36561   -1498.1154    500.15117    367.49143    346.54014    37946.351 
  652100     306.2064   -1513.6906    472.16082    336.71235    648.94194    37946.351 
  652200    310.98556   -1545.2778    521.79278    376.26821    766.37319    37946.351 
  652300    297.82624   -1495.5347    480.40593    325.39408    522.27441    37946.351 
  652400    299.97849   -1569.8421    499.33114     279.6992    475.49653    37946.351 
  652500    292.48953   -1561.5897    529.57484    284.48731    1014.3052    37946.351 
  652600    296.45241   -1543.7104    483.81382    274.44262    744.56091    37946.351 
  652700     297.9035   -1534.1082    545.87267      352.635    369.99788    37946.351 
  652800    306.02192   -1567.7686    499.47584    309.11905    390.71649    37946.351 
  652900    299.37742   -1514.2228    484.17292    317.45482    366.49305    37946.351 
  653000    297.91077   -1490.7506    550.84177    400.99448    461.31364    37946.351 
  653100    311.28969    -1483.896    489.89103    407.11711    223.36963    37946.351 
  653200      300.293   -1515.2266    495.88552    332.28465    588.70247    37946.351 
  653300     291.6845   -1515.5745    503.24775    300.55196    348.48765    37946.351 
  653400    302.90923   -1494.3639    508.20921    377.24674   -170.96657    37946.351 
  653500    303.79947   -1447.4641    467.76143    387.70583   -511.95837    37946.351 
  653600    296.01336   -1464.5251    522.57846    390.41638   -174.42022    37946.351 
  653700    300.76702   -1474.2219    496.97653    376.51396   -148.18808    37946.351 
  653800    305.30972   -1455.0449    507.44809    426.60935   -84.755603    37946.351 
  653900    296.68831   -1452.7076    532.03762    414.73098   -77.874262    37946.351 
  654000    304.41621   -1482.0292    534.49152    422.64669     111.5448    37946.351 
  654100    297.12388   -1492.7262    482.92681    327.56208   -100.45889    37946.351 
  654200     299.7563   -1486.5267    524.78405    387.46742   -405.54838    37946.351 
  654300    298.31681   -1490.2123     495.6015    348.12007     185.4283    37946.351 
  654400    301.36239   -1476.5814    507.11519    386.97289    382.82437    37946.351 
  654500    302.13564   -1505.1595    510.20605    364.96607    221.08935    37946.351 
  654600    287.99292   -1514.8448    496.36348     277.7815   -170.52179    37946.351 
  654700     301.6367   -1537.4554    482.74684    302.96522   -396.83282    37946.351 
  654800    298.11523   -1536.8151    501.47008    306.47856   -46.897279    37946.351 
  654900    306.84839   -1503.0182    489.89789    368.01135   -3.1081544    37946.351 
  655000    305.64584   -1543.7107    497.38059    329.38891   -14.699546    37946.351 
  655100    300.11559   -1528.9512    467.16835    289.04444     144.8727    37946.351 
  655200    300.60196    -1535.266    511.82348    329.57387    89.480886    37946.351 
  655300    292.50695   -1560.0109    499.90325    256.47292     166.2797    37946.351 
  655400    299.56209   -1561.6696    502.75006     289.4164    388.50823    37946.351 
  655500     298.3695   -1506.4203    492.93057    329.47826    505.70314    37946.351 
  655600    306.66273   -1488.8282    476.17263    367.64047    141.44668    37946.351 
  655700    305.67528   -1470.6807    518.79562    423.96641    97.813359    37946.351 
  655800    291.68344   -1520.5742    511.96912    304.26887   -55.381064    37946.351 
  655900    306.93145   -1498.1641    475.98887    359.33037    -56.57947    37946.351 
  656000    296.63293   -1526.6747    487.37032    295.84734    142.00132    37946.351 
  656100    297.36153   -1511.4917     520.7899     347.7293    -255.8378    37946.351 
  656200    294.61034   -1523.5077    465.88145    268.42169   -4.0993189    37946.351 
  656300    304.07865   -1497.5817    483.84676    354.93012   -9.1343556    37946.351 
  656400    299.92243   -1480.9586    509.78037    378.77955   -18.554748    37946.351 
  656500    296.05492   -1514.5823    495.05964    313.02737   -87.312202    37946.351 
  656600    304.92563   -1491.8613    510.73362    391.34967    589.86279    37946.351 
  656700    290.05181   -1542.1583    490.87234    254.24398    639.46516    37946.351 
  656800    308.04862    -1535.992     487.3025    337.84451   -7.6536873    37946.351 
  656900    297.85871   -1525.2885    494.89225    310.27267    124.06105    37946.351 
  657000    303.13665   -1475.8666    532.89651    421.45501    57.754202    37946.351 
  657100    301.48949   -1493.2612    491.55046    355.30048    250.85436    37946.351 
  657200      309.272   -1506.4505    485.10185    370.69181    17.885427    37946.351 
  657300    298.12213   -1524.6965    507.80422    324.96237   -66.967808    37946.351 
  657400    300.96157   -1545.3811    498.69853    307.95241    37.869809    37946.351 
  657500    294.47384    -1538.904    513.96027    300.48988    719.51656    37946.351 
  657600    300.26551   -1544.1296    508.50591     315.8783   -80.377086    37946.351 
  657700     298.4821   -1506.0443    481.16327    318.59381    231.49894    37946.351 
  657800    288.81558   -1505.2739    521.12435    315.81608   -373.83534    37946.351 
  657900    297.94649   -1583.2536    497.14131    254.95169    250.44723    37946.351 
  658000    292.69741   -1532.5482    471.74446    256.63406   -540.00553    37946.351 
  658100    309.74289   -1536.4887    497.34411    355.01533   -107.19352    37946.351 
  658200    307.82289   -1510.3575    493.61301    368.77343    3.5106361    37946.351 
  658300    308.74076   -1515.4386    512.36933    386.58007    79.146866    37946.351 
  658400    306.91407   -1574.4174    510.75839    317.76831    151.14148    37946.351 
  658500     307.0396   -1518.6516    474.73155    338.07229    -56.77129    37946.351 
  658600    304.91077   -1497.5843    494.41177    369.23785   -375.43298    37946.351 
  658700    311.43037   -1560.0928    482.66908     324.3316   -619.30219    37946.351 
  658800    296.04801   -1514.0859    486.65771    305.09078   -389.36898    37946.351 
  658900    294.89524   -1518.9963    481.95411    290.28811   -382.72767    37946.351 
  659000    292.04184   -1523.0418    483.13325    274.57857   -636.40807    37946.351 
  659100    303.61476    -1541.831    523.89185    348.63789   -453.46762    37946.351 
  659200    306.43624   -1498.0926    477.89636     359.0804    -188.4727    37946.351 
  659300    307.34829   -1495.7399    504.29305    391.93497    182.60297    37946.351 
  659400    295.84203   -1507.0534    507.94503    332.48348    339.43787    37946.351 
  659500    300.89573   -1505.6254    514.85926    363.57251    14.230634    37946.351 
  659600    304.82718    -1514.499    484.08464    341.61986   -313.77583    37946.351 
  659700     305.0069   -1505.4849    500.09051     367.4488    126.58375    37946.351 
  659800     294.7178   -1514.0895    501.44249    313.88462   -86.546584    37946.351 
  659900    307.01017   -1526.0841    495.80791    351.58375    530.70535    37946.351 
  660000    292.69923    -1499.437    490.97477    308.98375    -76.76187    37946.351 
  660100     290.6926   -1489.1724    482.72472    301.96645   -685.94498    37946.351 
  660200    297.25527   -1515.3784     490.3977    312.97214   -227.00485    37946.351 
  660300     298.0587    -1485.322    516.21548    372.46262   -134.68569    37946.351 
  660400    295.45898   -1463.0169    502.99339    369.84424    584.39684    37946.351 
  660500    306.14081   -1474.1134    499.17798     403.0115    620.38694    37946.351 
  660600     304.1335   -1482.8206    537.64056    423.73185   -211.04423    37946.351 
  660700    295.99466   -1496.2882    515.71392    351.70457   -44.468772    37946.351 
  660800    302.88535   -1508.7788     490.6991    345.21428   -127.81749    37946.351 
  660900    296.51766   -1496.1076    486.77351    325.29879   -723.45962    37946.351 
  661000     304.1116   -1508.9164    500.71455    360.61156   -211.92935    37946.351 
  661100    291.19324   -1509.1871    484.70452    286.18498    751.93153    37946.351 
  661200    301.53421   -1556.6385    512.40339    312.97737    548.92597    37946.351 
  661300    301.32775   -1500.3768    502.09131    357.99774    328.66128    37946.351 
  661400    298.45189   -1491.9883    542.04691    393.39754   -102.32014    37946.351 
  661500    301.49439    -1485.279     507.9813    379.73548   -304.49153    37946.351 
  661600    296.49001   -1498.1597    485.71074    322.05942   -729.50636    37946.351 
  661700    295.84175   -1494.3337    501.73527    338.99213   -920.71744    37946.351 
  661800    294.80577   -1472.9144     522.0993    376.11251   -731.92951    37946.351 
  661900    294.62182   -1525.5811    486.53313    287.05172   -332.24588    37946.351 
  662000    313.83036   -1557.5643    509.58091    364.57436   -613.64942    37946.351 
  662100    308.72692   -1568.8575    486.13187     306.8614   -309.20441    37946.351 
  662200    291.53045   -1524.2531    499.60466     287.5369   -154.88456    37946.351 
  662300    290.13184   -1526.3766    497.04282    276.55638   -338.81061    37946.351 
  662400    289.86341   -1511.6388    508.79325    301.83637   -78.398926    37946.351 
  662500    292.85949   -1532.1231    492.35143    278.39574   -255.44592    37946.351 
  662600    301.74658    -1574.026    477.03143    261.17377   -506.21002    37946.351 
  662700      303.108   -1545.6565    477.65718    296.29686   -864.82619    37946.351 
  662800     300.0278   -1542.8374    487.00631    294.60094   -1202.7596    37946.351 
  662900    299.24247   -1584.7545    473.00136    235.14414   -878.21917    37946.351 
  663000    304.51703   -1571.2225    487.16305     286.5788   -823.75517    37946.351 
  663100    294.77671   -1541.4889    507.28305    292.59092   -895.91282    37946.351 
  663200    295.91258   -1575.4148    487.31804    243.81258   -539.08254    37946.351 
  663300    300.48775   -1546.5304    526.44124    332.41313    -263.2188    37946.351 
  663400    302.94547   -1545.8415    496.33409    314.05713   -925.17193    37946.351 
  663500    301.66704   -1528.4659    492.85694     322.2014   -946.75496    37946.351 
  663600    302.92987   -1521.8766    478.70124    320.31902   -275.80703    37946.351 
  663700    288.07548   -1536.7403    510.83777    270.73188   -142.03439    37946.351 
  663800     304.2476   -1535.8715    502.73234    336.28633     289.6167    37946.351 
  663900    308.39269   -1525.5318      503.222    365.77282    56.074077    37946.351 
  664000    296.74065   -1569.8688    486.55083    252.31858   -340.53059    37946.351 
  664100    296.24286   -1517.1509    515.74884    331.99387   -703.91925    37946.351 
  664200    304.89441   -1555.5757    511.81813    328.57923   -494.55322    37946.351 
  664300     294.5701   -1507.4283    459.28609    277.72467   -254.94714    37946.351 
  664400    306.45634   -1470.0428    513.06622    422.39052   -255.96831    37946.351 
  664500    290.76089   -1506.7015    531.13106    333.15108     108.9726    37946.351 
  664600    296.74333   -1516.4916    504.60353    323.76051    988.99935    37946.351 
  664700    311.12122   -1515.4276    515.40847    400.34473    548.88787    37946.351 
  664800    302.95428   -1520.8021    484.70296    327.50512    668.27902    37946.351 
  664900     295.8154   -1490.9878    516.63757    357.12167    111.32126    37946.351 
  665000     310.5576   -1504.9333    507.95084    400.84445    566.66327    37946.351 
  665100    293.45434   -1525.6333    514.62672    309.83819    145.18979    37946.351 
  665200    300.19381   -1527.6969    490.11269    313.59505    298.00417    37946.351 
  665300    304.34664   -1538.3231    508.06228    339.61052    211.56545    37946.351 
  665400    293.95848   -1515.3924    504.76439    312.48594    1.6744074    37946.351 
  665500    304.05368   -1518.7078    488.61283     338.4577   -334.36833    37946.351 
  665600    296.24085   -1535.9056    494.03185     291.5132   -206.79785    37946.351 
  665700     294.7928   -1548.6127    520.69593    298.95249    353.84715    37946.351 
  665800    300.74071   -1580.5084    512.25981    285.39235    371.09463    37946.351 
  665900    298.34338   -1523.2992    529.51143    349.06268    276.20571    37946.351 
  666000    311.76518   -1528.6043    478.23177    352.88976    153.79017    37946.351 
  666100    290.45932   -1491.6774    504.03915    319.72591   -168.78874    37946.351 
  666200    295.13919   -1509.3143    524.76271    343.87676    297.41028    37946.351 
  666300    306.77604   -1507.7256    490.84742    363.92788    309.84158    37946.351 
  666400    307.57047   -1513.5861    494.14164    364.93736    161.84312    37946.351 
  666500    304.35839   -1517.7746    520.07279    372.22235    276.48531    37946.351 
  666600    304.64426     -1575.38    489.36275    285.19361    667.35374    37946.351 
  666700    297.48484   -1528.7608    506.83154    317.05689    713.42692    37946.351 
  666800    292.40017   -1537.0974    527.86816    306.87071    741.87189    37946.351 
  666900    285.05058   -1534.2672    540.33594    289.08804    664.83822    37946.351 
  667000    299.35285   -1519.3006    515.46479    343.55829    220.96393    37946.351 
  667100    308.69561   -1515.2288    502.15013    376.36736   -509.28332    37946.351 
  667200    300.39268   -1499.6797    525.64426    378.03894    -299.5461    37946.351 
  667300      302.918   -1486.5751    519.26881    396.13465   -273.17487    37946.351 
  667400    297.13023   -1483.3361    525.35941    379.41338   -584.29153    37946.351 
  667500     304.5162   -1482.5757    503.74483     391.8036    -431.5884    37946.351 
  667600    287.91103    -1485.698    490.87677    301.07297    5.4011735    37946.351 
  667700    297.57778   -1478.0846    533.66168    394.98152   -231.65275    37946.351 
  667800    310.78685     -1521.87    515.54027    392.52907    212.06799    37946.351 
  667900     292.7045   -1505.1162    534.32889    346.68249    75.973261    37946.351 
  668000    298.39851   -1467.4081    526.06332    401.75385    1.8264146    37946.351 
  668100    301.11274   -1512.4745    528.11586    370.95682    615.92423    37946.351 
  668200    292.42499   -1473.8108    528.40116    370.80203    485.96656    37946.351 
  668300    307.07438   -1503.3662    520.72237    399.50506    207.27916    37946.351 
  668400    298.07049   -1472.0498    527.06277     396.6352    98.531981    37946.351 
  668500    300.65661   -1500.5865    537.22423    389.90008    208.86482    37946.351 
  668600     302.9335   -1516.8719     515.7886    362.42742     467.4013    37946.351 
  668700    290.90352   -1495.9641     509.8595    323.25883    504.90132    37946.351 
  668800    291.81068   -1491.8647    531.36538    352.94729   -6.1237637    37946.351 
  668900    304.77579   -1533.0451    541.09731    379.85508    226.50079    37946.351 
  669000    308.82631   -1533.7607    521.80863    378.08233    692.72949    37946.351 
  669100    302.52164   -1553.0192    529.51772    338.15541    634.16431    37946.351 
  669200    300.06468    -1568.808    508.25472    290.04478    94.780286    37946.351 
  669300    306.74009   -1544.2948    507.94109     344.2905   -55.696457    37946.351 
  669400    291.73039    -1565.139    502.21181    250.15799    37.350115    37946.351 
  669500    303.63141   -1607.1892    477.05351    236.51636   -181.88581    37946.351 
  669600    296.95563    -1575.194    487.15878    248.56896   -556.26255    37946.351 
  669700     292.7776   -1576.3684    486.49475    227.92513   -359.06006    37946.351 
  669800    292.29829    -1598.974    484.71681    201.38421   -68.055249    37946.351 
  669900    303.10152   -1592.4022    500.99473    272.85953    736.09435    37946.351 
  670000    296.60823   -1583.4522    527.30491    278.89323    927.18419    37946.351 
  670100    307.50828   -1530.8885    510.72163    363.93503    615.22932    37946.351 
  670200    309.17699   -1537.7842    480.45883    334.28747    461.06814    37946.351 
  670300     303.5825   -1523.7082    490.39292    333.11663    694.53227    37946.351 
  670400     305.1482   -1501.4047    494.27578    366.35015    289.93612    37946.351 
  670500    292.19484   -1586.7506    498.65796    227.08312    95.976455    37946.351 
  670600    299.12873   -1586.0306      490.093     250.4477    638.38759    37946.351 
  670700    294.30644   -1545.1599    512.36353     291.8837    547.23616    37946.351 
  670800    306.52484    -1567.363    474.47935     286.7918     632.4362    37946.351 
  670900    311.87329    -1537.897    517.79326    383.64519   -462.33851    37946.351 
  671000    293.30757   -1529.0414    496.69902    287.84174   -588.19771    37946.351 
  671100    288.05969   -1598.9297    479.86833      177.502   -636.21611    37946.351 
  671200    304.52691   -1541.1429    496.41629    325.95605   -660.23053    37946.351 
  671300    301.15323   -1537.6039    484.73117    302.62494   -510.61332    37946.351 
  671400    304.53139   -1530.0346    512.94391    353.61216   -269.61433    37946.351 
  671500    295.89566   -1550.2362    515.97837     297.5754   -104.33073    37946.351 
  671600    293.21682   -1552.6755    503.55465    270.65485   -68.342646    37946.351 
  671700    298.86505   -1527.2938    512.44334     330.3481   -212.78025    37946.351 
  671800    287.17548   -1502.6794    507.53422    297.43827   -288.92998    37946.351 
  671900    300.15625   -1498.9301    540.06684    392.14699   -435.01567    37946.351 
  672000    292.07515   -1496.4503    494.12129    312.30801   -549.29736    37946.351 
  672100    306.92028   -1498.8624    523.39945    405.99237   -32.736499    37946.351 
  672200    303.84406    -1509.653    536.24895    394.20513    198.39755    37946.351 
  672300    299.38179   -1515.6782    499.93515    331.78126    61.513731    37946.351 
  672400    306.02744   -1529.7952    488.33386    335.97524   -544.46162    37946.351 
  672500    305.68151   -1503.1012    520.47161    393.25001    -250.4428    37946.351 
  672600    295.70274   -1520.8453    500.64537    310.76494   -92.500261    37946.351 
  672700    291.23751   -1502.4055    506.85403    315.31537   -36.518151    37946.351 
  672800    305.24821   -1530.6125    505.69203    349.00875   -168.69127    37946.351 
  672900    303.91335   -1533.8419    531.00238    365.08154    407.33619    37946.351 
  673000    285.80968   -1536.9931    491.04962    240.49255   -88.490689    37946.351 
  673100    307.10432   -1577.4754    505.49382    310.30206    447.57261    37946.351 
  673200    307.67391   -1508.7692    514.55939    390.63766    304.17395    37946.351 
  673300     299.0389   -1468.6618    502.04172    379.36097    364.57875    37946.351 
  673400    304.14073   -1466.4801    539.92784    442.39218    361.56422    37946.351 
  673500    305.02165   -1467.6274    492.84584    398.12793    157.63902    37946.351 
  673600    307.05185   -1498.8045    504.30811    387.55115   -217.72475    37946.351 
  673700    302.64522   -1522.8758    513.16262    352.49991    20.062636    37946.351 
  673800    297.22427   -1495.5744    511.89291    354.13181    312.25951    37946.351 
  673900    303.06306   -1526.4806    527.42582    365.03911   -23.998276    37946.351 
  674000    306.83199   -1515.8111    497.90741    363.15414   -165.63949    37946.351 
  674100    289.47663   -1494.7365    494.60696    302.81147    70.206116    37946.351 
  674200    305.02195   -1529.3175     518.4081     362.0015   -218.84441    37946.351 
  674300    299.79656   -1505.1143    499.04689    343.32381   -210.16038    37946.351 
  674400    301.48463   -1543.5405    514.38758    327.83638   -323.87694    37946.351 
  674500     303.9853   -1565.5536    496.19491    298.88616    213.37431    37946.351 
  674600    303.51938   -1524.2129    490.74531    332.68017    185.85079    37946.351 
  674700     299.1626   -1544.7231    533.97448    335.78912    322.91206    37946.351 
  674800    293.23787   -1513.4826    503.88155    310.26937   -280.25613    37946.351 
  674900    306.34854   -1548.0291    505.46082    336.31358   -515.84335    37946.351 
  675000    293.71401    -1521.496    456.67337    257.19099   -153.48387    37946.351 
  675100    295.46352   -1550.8542    508.53715    287.57112    -125.5014    37946.351 
  675200    306.00342   -1597.1457     505.6571    285.83989     22.83879    37946.351 
  675300    296.35295   -1555.5087    505.39218    283.77497   -98.117267    37946.351 
  675400    292.73486   -1491.2958    510.49147    336.80205    -331.6899    37946.351 
  675500    301.66045   -1537.5082     484.4986     304.7711   -251.95676    37946.351 
  675600    304.51648   -1514.1596    522.04354    378.51963    256.06081    37946.351 
  675700    291.11948   -1519.2236    510.84671    301.95862    69.648212    37946.351 
  675800    305.70973   -1544.5733     461.1219    292.55518     130.8535    37946.351 
  675900    298.42839   -1538.8573    518.87013    323.24594    250.61031    37946.351 
  676000     298.6221   -1531.4265    486.77088    299.44942    494.80902    37946.351 
  676100    312.54359    -1535.334     521.1291    392.56111   -91.678777    37946.351 
  676200    314.20172   -1521.2033    484.03725    377.06314   -29.862886    37946.351 
  676300    297.77353   -1512.1886    515.75017    343.84717    -428.3834    37946.351 
  676400    299.79185    -1558.152    496.19549    287.41361   -492.03173    37946.351 
  676500    315.95309   -1566.8507    483.98814    339.24965    153.61552    37946.351 
  676600    294.82895    -1520.306    541.36262    348.08859    38.481274    37946.351 
  676700    290.09776   -1534.9833     489.8868    260.64022    43.837903    37946.351 
  676800    304.63399   -1523.8991    497.04008    344.30563    265.11645    37946.351 
  676900    291.92185   -1540.2167    511.61553    285.34587   -513.38326    37946.351 
  677000    308.30248   -1548.7756    499.88075    338.78178    15.668197    37946.351 
  677100    283.70191   -1535.1242    511.18176    253.00645    -19.95386    37946.351 
  677200    296.22195   -1529.6164    500.14703     303.8325     185.3482    37946.351 
  677300    300.93152   -1551.4215    526.76002    329.83827    603.02562    37946.351 
  677400    302.05619   -1545.8996    517.67311    331.33538    768.28028    37946.351 
  677500    295.94843   -1559.1841     482.5153    255.40193     825.6837    37946.351 
  677600    294.29657   -1512.7795    511.83251    323.68867     439.4932    37946.351 
  677700    298.33009   -1478.4217    500.32748    364.69638    467.19706    37946.351 
  677800    304.68953   -1537.4038    506.43771    340.44856    892.96044    37946.351 
  677900    303.81179   -1539.8485    508.63823    336.25361   -39.563658    37946.351 
  678000     295.1827   -1525.1927     519.8258    323.25727    12.571529    37946.351 
  678100    308.12496   -1507.3602    489.23838    368.75574   -168.89425    37946.351 
  678200    314.77441   -1544.2854    504.60841    377.12992     521.9085    37946.351 
  678300    299.58049   -1567.2664     491.3706     272.5229    352.17921    37946.351 
  678400    310.59386   -1576.3853    540.74931    362.35416     785.1581    37946.351 
  678500     306.8096   -1565.8479    504.00208    319.11134    590.66286    37946.351 
  678600    290.58725   -1547.3113    512.25733    272.88594   -252.35453    37946.351 
  678700    310.47019    -1553.591    482.05539    325.89793    68.220801    37946.351 
  678800    294.90515    -1553.616     510.4297    284.18866    321.35314    37946.351 
  678900    296.60332   -1600.2352    494.73085    229.51408    264.81889    37946.351 
  679000      305.925    -1567.776    509.16335    318.36281    547.53258    37946.351 
  679100     297.9012   -1549.0797    511.24248    303.02297    524.79966    37946.351 
  679200    305.14466   -1540.2117    514.40066    347.65212    571.44665    37946.351 
  679300    300.00243   -1570.0007    509.36977    289.68696    733.35357    37946.351 
  679400    311.38813   -1577.8894    512.24506    335.92087    580.37449    37946.351 
  679500     298.2988   -1559.4598    516.18121    299.37124    226.53108    37946.351 
  679600    315.14892   -1528.2982    520.85466    411.04906    317.01412    37946.351 
  679700    307.61705   -1502.4265    533.80153     415.9665    183.55108    37946.351 
  679800    295.19968   -1500.8812    504.14378    331.96314     545.8161    37946.351 
  679900    308.77997   -1532.1046    516.32798    374.04919    649.31369    37946.351 
  680000    300.65701   -1503.2371    512.40641    362.43342    465.60932    37946.351 
  680100    305.22674   -1489.8409    493.98527    377.97704    598.02205    37946.351 
  680200    309.26857   -1544.8111    531.87024    379.08417    504.07956    37946.351 
  680300    301.80554    -1510.477    503.08697    351.04371    913.19409    37946.351 
  680400    299.19291   -1519.8156     532.0623    358.92091    105.11606    37946.351 
  680500    303.66698   -1500.2863    526.27149    392.79737   -54.861273    37946.351 
  680600    309.80996    -1513.562    520.07379    400.97364   -97.863105    37946.351 
  680700    300.92737   -1516.5259    515.62682    353.58202   -342.66135    37946.351 
  680800    305.04714   -1522.1825    505.56886    356.41061   -211.01857    37946.351 
  680900    294.75649   -1530.0094    497.21406    293.91047   -568.71589    37946.351 
  681000    307.74681   -1509.8127    531.27392    406.63679   -313.81894    37946.351 
  681100    291.81365    -1486.039    513.76381     341.1848   -154.75739    37946.351 
  681200     307.7715   -1513.6939    536.47589    408.06869   -340.17744    37946.351 
  681300    291.79788   -1526.6188    505.49172    292.26199   -329.82572    37946.351 
  681400    293.10859   -1512.6822    529.61433    336.22067    45.904498    37946.351 
  681500    298.53938   -1536.7669    508.36552     315.3313     725.9732    37946.351 
  681600    298.36711   -1516.3488    504.27432     330.8828    305.44475    37946.351 
  681700    305.45561   -1514.9943     529.0852    388.95372     185.6985    37946.351 
  681800    308.67177   -1556.1321    507.29893    340.50563   -592.49159    37946.351 
  681900    293.41127    -1533.372    485.17137    272.45033   -33.354619    37946.351 
  682000    292.72694   -1531.2541     501.4039    287.72055   -664.13642    37946.351 
  682100    300.11474   -1564.3759      501.716    288.16356    188.75592    37946.351 
  682200    298.12329    -1530.276    491.65677    303.24064    82.871975    37946.351 
  682300    296.47742   -1540.2275    544.27501    338.49927    286.05084    37946.351 
  682400    303.33251   -1522.5868     497.1495    339.86937    296.40439    37946.351 
  682500    295.13671   -1531.2039       488.48    285.69324   -93.976939    37946.351 
  682600    300.56461   -1518.0737    516.62563    351.40023   -402.24302    37946.351 
  682700    299.02297   -1520.0782    526.38593    352.21707   -235.37287    37946.351 
  682800    315.28923   -1514.1656    500.63925    405.59784    254.66117    37946.351 
  682900    297.64712   -1503.4601    502.63746    338.89395    108.19851    37946.351 
  683000    294.35982    -1488.156    523.86956    360.63397    725.21792    37946.351 
  683100    304.27509   -1512.1633    507.09332    364.47926     502.4999    37946.351 
  683200    291.66785   -1498.0838    526.90008    341.61999    665.92634    37946.351 
  683300    305.58918   -1478.9137    507.47287    404.02317    812.84347    37946.351 
  683400    312.12766   -1455.0322    561.61062    511.47221    319.71776    37946.351 
  683500    294.95142   -1449.1514    521.92634     400.3581    720.36786    37946.351 
  683600     305.9271   -1470.6362     525.3936    431.74237    732.32335    37946.351 
  683700    304.96894   -1497.6831    523.38372    398.37287    301.58713    37946.351 
  683800    292.70598   -1551.6852    507.05954    272.85076    524.61098    37946.351 
  683900    301.72348   -1561.9757    503.09263    299.18135    270.15653    37946.351 
  684000    291.65022   -1527.4171    506.46621    291.77352    74.406756    37946.351 
  684100    305.60975   -1497.5735    505.14173    383.12484    220.79444    37946.351 
  684200    309.81171   -1516.3896    513.36865    391.44874    141.72974    37946.351 
  684300    302.90161   -1549.8714     489.7931    303.28887     75.37233    37946.351 
  684400    297.27035      -1491.1    500.73176    347.65245    29.232723    37946.351 
  684500    308.64834   -1483.6315    504.79871    410.40055    -71.27735    37946.351 
  684600    309.27814   -1504.0071    504.05547    392.11648    265.68144    37946.351 
  684700    305.64154   -1487.9491    525.56369    413.31426    357.36942    37946.351 
  684800    293.09307   -1455.9448     498.9501    362.22405    320.49855    37946.351 
  684900    307.06842   -1507.7211     529.7402     404.1412    315.87228    37946.351 
  685000    284.52054   -1492.6315    478.71813    266.72021    423.98989    37946.351 
  685100    290.37358   -1561.8933    518.98233    264.06723    390.15113    37946.351 
  685200    312.10483   -1560.8709    511.47905    355.39925   -43.811864    37946.351 
  685300    292.16668   -1530.8238    497.48606    281.71121    532.78428    37946.351 
  685400     298.8425   -1546.6065    484.92251    283.41303    408.36262    37946.351 
  685500    295.03583    -1522.256    494.32352    300.03058   -338.04144    37946.351 
  685600    301.73696   -1540.1371    528.06268    346.05067   -556.72595    37946.351 
  685700    312.06962   -1580.7061    482.05494    305.98147   -253.26048    37946.351 
  685800    305.65527   -1606.5575    500.39431    269.59823   -575.38565    37946.351 
  685900    295.67097    -1532.193    520.29228    318.92114   -257.89201    37946.351 
  686000    294.63591   -1545.5223     489.6503    270.29105     85.01608    37946.351 
  686100    294.62418   -1546.0005     519.3278    299.43757   -162.40182    37946.351 
  686200    306.89342   -1566.5288    494.74098    309.54659    647.39636    37946.351 
  686300       299.54   -1578.6677    516.61639    286.18516    565.07763    37946.351 
  686400    298.65494   -1569.9501    513.53075    287.83343    270.83491    37946.351 
  686500    314.72339   -1562.2108    519.94681    374.31324    307.14044    37946.351 
  686600    292.15913   -1564.9893    486.92507    236.95079     340.7784    37946.351 
  686700    306.65756   -1573.5581    504.93193    311.64664    636.20811    37946.351 
  686800    308.98445   -1541.8292    503.64448    352.56146    764.80902    37946.351 
  686900    295.71134   -1543.8659    475.21284    262.35056    194.90005    37946.351 
  687000    295.80902   -1534.2384    517.48188    314.68668    200.05329    37946.351 
  687100    295.88389    -1519.557    509.19971    321.42293    307.87648    37946.351 
  687200     304.9665   -1549.7315    483.32509    306.25491   -253.43515    37946.351 
  687300    296.68287   -1518.2189    529.35386     346.5114   -110.16011    37946.351 
  687400    295.01064   -1539.2517    512.99421    301.59226    281.91621    37946.351 
  687500    304.68231   -1546.9574    498.55817    322.98293    832.17666    37946.351 
  687600    295.35697   -1536.2304    491.69411     284.8723   -34.760197    37946.351 
  687700    304.91475   -1514.8015    552.75624    410.38304     367.4454    37946.351 
  687800    303.46373   -1526.9619    499.09216    338.02757     469.2347    37946.351 
  687900    304.47524   -1556.4089    495.10886    309.15007    854.28559    37946.351 
  688000    307.37363   -1488.2199    517.78324     413.0592    169.44122    37946.351 
  688100    299.98817   -1438.4636    520.41154    432.20165    42.839699    37946.351 
  688200    297.84512   -1470.4755    501.61955    371.75184    -4.157866    37946.351 
  688300    306.60739   -1480.7043    523.02528    422.36797   -545.49562    37946.351 
  688400     299.0029   -1498.5933    516.06615    363.29183   -364.00253    37946.351 
  688500    301.92937   -1509.1935    514.18987    363.98749   -501.67469    37946.351 
  688600    292.68347   -1513.2122    486.77726    290.94015   -690.49728    37946.351 
  688700    305.07852   -1502.7745    498.93638    369.32738    -656.1748    37946.351 
  688800    299.71691   -1494.3055    506.60905    361.33631    -426.0054    37946.351 
  688900    282.16556   -1525.6043    492.43434    236.86378     -651.124    37946.351 
  689000    297.69881   -1505.7377    505.34891    339.56048   -435.87357    37946.351 
  689100    305.71699   -1493.0683    529.67597     412.6469   -196.89698    37946.351 
  689200     308.5078   -1491.2343    510.38621    407.75267   -332.17976    37946.351 
  689300    298.76446   -1507.2703    519.65568    357.13117    101.51261    37946.351 
  689400    303.94219   -1496.0481    504.97974    376.98252    161.62347    37946.351 
  689500    301.04462   -1473.3964    531.59115    413.20352    552.61778    37946.351 
  689600    304.27721   -1455.9446    519.76094    433.37511    698.36801    37946.351 
  689700    291.47108   -1490.8149    527.41286    348.51608    448.16988    37946.351 
  689800    293.91614   -1477.1937    503.10494    348.83462    378.54687    37946.351 
  689900    309.67468   -1485.5233    514.58269    422.91234    198.51262    37946.351 
  690000    299.40208   -1522.0369    495.41341    320.99219    79.455017    37946.351 
  690100    306.37596   -1553.8046    503.95006    329.15072    278.96753    37946.351 
  690200    306.89963   -1554.5074    499.40686    326.26183   -114.48546    37946.351 
  690300     301.0487   -1510.1844    535.94114    380.78389   -930.88773    37946.351 
  690400    303.24141   -1486.6084    520.91864    399.20687   -778.16397    37946.351 
  690500    297.37208   -1514.8803    494.00915    317.60748   -695.98293    37946.351 
  690600    304.04684   -1504.1003    513.48429    377.90585   -668.30944    37946.351 
  690700    293.35843   -1486.0899    536.04661    370.36981   -637.65377    37946.351 
  690800    290.34406    -1516.549    500.15407    290.45043   -784.62214    37946.351 
  690900    311.64309   -1511.7082    505.69137    396.69599    -488.6591    37946.351 
  691000    297.66392   -1506.6674    530.65164    363.77649   -626.86204    37946.351 
  691100    304.09611   -1526.3353     478.7783    321.18659   -369.67153    37946.351 
  691200     299.8517   -1450.8833    525.01959    423.77575   -58.990242    37946.351 
  691300     306.2307   -1500.5507    524.24494    402.04577    317.08028    37946.351 
  691400    304.32543   -1454.7237     543.0983    458.15038    285.65185    37946.351 
  691500    305.46499   -1464.5344    534.54226    444.91283   -45.223289    37946.351 
  691600    294.07492   -1475.2799    512.44454    360.80272   -353.47997    37946.351 
  691700    294.35686   -1484.5848     510.6868    351.00906   -641.07582    37946.351 
  691800    298.38984   -1452.5292    507.56571    398.09605   -271.27907    37946.351 
  691900    297.22997   -1502.8141     492.2069    327.23181    212.86895    37946.351 
  692000    310.01893    -1514.233     507.1733    388.34264    364.41794    37946.351 
  692100     293.2411   -1504.6769    527.79191          343    203.53088    37946.351 
  692200    301.03254   -1571.6576    527.48041    310.77729   -416.62144    37946.351 
  692300     295.6165    -1534.598    478.47527    274.45398   -614.21642    37946.351 
  692400    308.28193   -1551.4921    496.76665    332.85864    -458.9728    37946.351 
  692500     289.3814    -1516.368    512.85595    299.00035   -1071.6329    37946.351 
  692600    295.56495   -1515.9275    518.18334    332.60051   -463.24948    37946.351 
  692700     305.3022   -1531.1174    499.57402    342.62886    86.859537    37946.351 
  692800    299.74687   -1552.3808    516.65772     313.4445    273.71818    37946.351 
  692900     299.8767   -1481.5575    498.29466     366.4891    479.34176    37946.351 
  693000    305.67293   -1512.8676    508.10641    371.07978    300.23884    37946.351 
  693100    307.23326   -1549.5678     520.0978      353.394    197.45075    37946.351 
  693200    294.77665   -1492.1307    487.08819    321.75407   -119.83462    37946.351 
  693300    296.99542   -1550.1064    486.72494    273.40178   -427.22314    37946.351 
  693400     294.0222   -1570.1371    479.32498    232.58865   -105.56908    37946.351 
  693500    307.48609   -1532.5977    513.16692    364.57129     356.8638    37946.351 
  693600    294.64716   -1509.9973    503.71362    319.92998    391.27654    37946.351 
  693700    298.07494   -1536.3652    532.54917    337.82616    377.70232    37946.351 
  693800    292.56245   -1579.7355    514.89291    251.98777    385.43266    37946.351 
  693900    299.77089   -1540.6888      491.247    299.83391   -402.42859    37946.351 
  694000    297.90124   -1522.1708    494.31262    313.00218   -96.007315    37946.351 
  694100    295.18109   -1548.9659     506.4088    286.05986   -96.193894    37946.351 
  694200    303.07939   -1516.2198    508.42163     356.3692   -571.29256    37946.351 
  694300    308.82162   -1485.6523    504.75771    409.11862   -216.87244    37946.351 
  694400    293.27655   -1528.6764    532.55845    323.92654   -283.66979    37946.351 
  694500    307.11007   -1530.9073    497.81418    349.21648    26.474023    37946.351 
  694600    290.69591    -1517.026    505.43197    296.83504    64.041277    37946.351 
  694700    310.39089   -1512.8071    511.95315    396.22268   -249.18813    37946.351 
  694800    307.54882   -1497.3926    507.78563    394.67737   -64.483129    37946.351 
  694900    297.54522   -1522.1952    481.60857    298.67126   -341.90248    37946.351 
  695000    304.67086   -1470.5514    526.73763    427.51688    406.47239    37946.351 
  695100    298.26432   -1501.0349    507.81184    349.27158    65.013715    37946.351 
  695200    291.51602   -1456.8742    521.16061    376.40681    72.740292    37946.351 
  695300    311.23721   -1468.7891     501.8348    433.93154    472.21106    37946.351 
  695400    295.11714   -1549.8557    492.42991    270.90332     396.8541    37946.351 
  695500    300.90095   -1493.2733    511.59544    372.68432   -11.725198    37946.351 
  695600    311.29046   -1509.7525    494.57234    385.94541   -242.07706    37946.351 
  695700    300.32054   -1497.0367    536.71755    391.43051   -200.95906    37946.351 
  695800    302.75478   -1511.8791    502.02687     352.8541   -14.525595    37946.351 
  695900    305.59745    -1515.383    506.36299    366.48125   -86.662823    37946.351 
  696000    294.96713   -1539.3709    499.22373    287.50668   -575.12099    37946.351 
  696100    312.03792   -1556.3369    497.73057    345.88359   -507.43522    37946.351 
  696200    309.73987   -1518.9484    481.14066    356.33857   -605.18927    37946.351 
  696300     295.2177   -1502.9873    522.02548    347.81994    -728.7861    37946.351 
  696400    307.90629   -1504.2255    506.97434    388.64219   -98.114958    37946.351 
  696500    305.13551   -1511.5533    492.42309    354.29175   -190.97068    37946.351 
  696600    297.45534   -1538.4102    513.98762    314.43078    514.34693    37946.351 
  696700    295.87662   -1495.6047    489.98673    326.12952   -658.61464    37946.351 
  696800    307.61354   -1452.5896    503.68284    435.66892    99.266392    37946.351 
  696900    306.95984   -1464.6834    514.88587    431.83579    360.76203    37946.351 
  697000    297.64355   -1497.0259     538.3558    381.03042    746.77024    37946.351 
  697100    297.09424   -1502.6454    484.95459     319.5373   -33.083417    37946.351 
  697200    305.94069   -1487.0187     494.5778    384.60528   -500.33238    37946.351 
  697300    302.83754    -1413.353    506.21317    455.93893    141.36224    37946.351 
  697400    297.77954   -1458.8254    509.23079    390.71798   -579.90638    37946.351 
  697500    297.57295   -1468.4298    518.18667    389.13964   -172.87359    37946.351 
  697600    304.74665   -1493.5071    498.83038    376.99504   -171.62685    37946.351 
  697700    306.80273   -1480.8671    497.97697    398.03607   -43.452587    37946.351 
  697800    295.43786   -1485.4415    482.55457    326.88572   -865.03666    37946.351 
  697900    294.02815   -1464.9178    515.75645     374.2661   -398.15672    37946.351 
  698000     300.5288   -1443.3411    520.06668    429.41265    82.478778    37946.351 
  698100    304.40441   -1499.2158    486.45337    357.36883    25.510069    37946.351 
  698200    293.99698   -1510.5454    523.80751    336.54932     637.6949    37946.351 
  698300     289.5151    -1484.896    505.43969    323.65788    305.73017    37946.351 
  698400     308.8577    -1484.525     511.4943    417.14498     466.6842    37946.351 
  698500    309.51434   -1465.7906    502.51134    429.85194    487.21456    37946.351 
  698600    309.69732   -1439.3949    497.66187    452.22173    314.12901    37946.351 
  698700    292.41437   -1453.1956    516.13688    379.10513    85.738933    37946.351 
  698800    292.55709   -1469.8725    506.43933    353.37307   -237.04884    37946.351 
  698900    292.96247   -1471.2239    510.79206    358.19907   -436.91789    37946.351 
  699000    300.71771   -1501.9875    510.84921    362.39907    437.18531    37946.351 
  699100    298.90709    -1531.692    490.89545    304.59118    406.50121    37946.351 
  699200     298.2462   -1479.8055    502.49281    365.10041    747.14123    37946.351 
  699300    298.15787     -1527.84    521.12762    335.30314    475.71366    37946.351 
  699400    311.83999   -1558.4511    494.78455    339.93246    386.89531    37946.351 
  699500    299.46867   -1526.7718    496.57318    317.71684   -84.578857    37946.351 
  699600    296.82433   -1500.4866    508.93019    344.45683   -531.17164    37946.351 
  699700    298.65706   -1501.9407    494.48969    336.81134   -351.12873    37946.351 
  699800    299.87655   -1535.5502    489.41207    303.61316   -76.546612    37946.351 
  699900     296.8865    -1505.569     493.4672    324.19125    -89.59363    37946.351 
  700000    292.51196   -1487.7974    530.15996    358.96572    74.688108    37946.351 
  700100    292.53055   -1506.6326    479.60752    289.66169    33.983773    37946.351 
  700200    300.65236   -1474.4556    493.76001    372.54769    639.30485    37946.351 
  700300    298.79263   -1456.7537    502.69799    390.81686    175.60684    37946.351 
  700400    293.98166   -1488.5922    492.69377    327.31986    407.02789    37946.351 
  700500    302.77894   -1511.5619    502.10271    353.35583   -64.866159    37946.351 
  700600    303.26479   -1487.6534    518.01303    395.36153   -460.81673    37946.351 
  700700    287.24664   -1486.2424    508.09163      314.753   -610.71893    37946.351 
  700800    306.70864   -1497.3946    504.33822    387.44635   -510.67316    37946.351 
  700900    295.01329    -1492.638    493.28994    328.51354   -679.05659    37946.351 
  701000    300.34973   -1536.0588    493.76442    309.58672   -569.88276    37946.351 
  701100    307.54227   -1526.5225    506.44835    364.18072   -273.17686    37946.351 
  701200    298.81299   -1538.0187    494.35361    301.29912   -154.67528    37946.351 
  701300    296.36725   -1540.5821    510.24304    303.61676    5.0922831    37946.351 
  701400    297.65959   -1528.4901    500.03144    311.31408   -188.74024    37946.351 
  701500    305.73967    -1538.843    515.66792    352.96626   -147.44801    37946.351 
  701600    309.05336   -1536.2332    492.97884    347.80196    -379.6364    37946.351 
  701700    298.18254   -1542.2931    477.62973    277.46313    -31.69046    37946.351 
  701800    302.30794   -1536.7877     496.0666    319.97391   -567.05471    37946.351 
  701900    301.87722   -1534.8777    501.28533    325.16403   -336.36313    37946.351 
  702000    305.97611   -1506.2532    499.33486    370.28725    164.58234    37946.351 
  702100    297.47881   -1502.7038    484.74364    320.99885   -83.156603    37946.351 
  702200    296.16853   -1532.3601    512.92135    313.62272    575.70668    37946.351 
  702300    301.24825   -1468.6451    537.76894    425.04914    647.75358    37946.351 
  702400    299.68921   -1538.2712    500.15355    310.79041    399.32326    37946.351 
  702500    300.55543   -1509.1084    475.57461    319.27317   -114.75783    37946.351 
  702600    298.47623   -1474.0719    503.78614     373.1627   -381.34089    37946.351 
  702700    300.91961   -1479.3327    493.91647    369.02986    197.10284    37946.351 
  702800    303.71154   -1513.6649    503.87789    357.22564   -391.50689    37946.351 
  702900    297.26994   -1529.6647    511.83672    320.19094   -247.76631    37946.351 
  703000    297.57754   -1492.8359    524.22521    370.79278   -182.58269    37946.351 
  703100    298.24785   -1485.8627    502.37192    358.92968   -97.948454    37946.351 
  703200    304.39846   -1504.2986    506.83011    372.63603   -140.67373    37946.351 
  703300    302.26699   -1488.9622    510.14435    381.69287    30.791487    37946.351 
  703400    298.76173   -1498.4531    497.42744    343.70787    260.80054    37946.351 
  703500    290.43938   -1474.7386    490.31843    322.85418    479.97242    37946.351 
  703600    298.69022   -1457.4713    523.84739    410.78773     260.0513    37946.351 
  703700    291.16314   -1503.9134    488.95196    295.57059   -463.75833    37946.351 
  703800    297.65806    -1486.789    497.24369    350.22053   -261.88611    37946.351 
  703900    285.27747   -1476.0316    520.11047    328.11936   -67.699401    37946.351 
  704000    312.22106   -1483.5031    479.11298    400.92411   -43.119286    37946.351 
  704100     292.6141   -1472.8977     511.2836    355.44875   -672.02253    37946.351 
  704200    297.01978   -1473.9359    500.30216    363.25916   -342.75083    37946.351 
  704300    295.34276   -1516.7559    487.88022    300.46894   -362.89193    37946.351 
  704400    306.85145   -1524.7494    489.11405    345.51016   -304.00114    37946.351 
  704500     290.3768   -1511.6722    517.18981    312.51035   -392.40218    37946.351 
  704600    307.32685   -1492.8985    496.93352    387.32031    -324.6717    37946.351 
  704700    299.15059   -1497.1107    501.15356    350.52662   -301.37494    37946.351 
  704800    296.43777   -1501.1973    531.86415    364.94012   -34.180318    37946.351 
  704900    299.14976     -1486.48    492.41941    352.41936   -18.901897    37946.351 
  705000    301.20309   -1472.8816    498.56896    381.40947   -343.63436    37946.351 
  705100    304.29918   -1494.3307     510.9588    386.28577   -51.576681    37946.351 
  705200    303.36999   -1489.7375     518.9657    394.70358   -291.49071    37946.351 
  705300     294.5017   -1493.7232    499.35164    331.18744   -115.43303    37946.351 
  705400    305.19207   -1501.4919    512.91064     385.0953    -87.17989    37946.351 
  705500    305.66833   -1503.7247     522.7345       394.83    147.57171    37946.351 
  705600    294.47428   -1497.5968    517.12733    344.96614    189.49989    37946.351 
  705700    302.55265   -1547.3831    486.96129    301.37468    123.40259    37946.351 
  705800    298.90003    -1512.636    527.48645    360.20641    191.57982    37946.351 
  705900    292.81899   -1518.9947    529.64927    328.63964    596.88073    37946.351 
  706000    304.47216   -1568.7008    476.38721    278.12266   -173.47519    37946.351 
  706100    301.62472   -1564.1444    545.22519    338.70059   -398.24929    37946.351 
  706200    301.33883   -1539.9071    465.69662    282.12256   -631.96409    37946.351 
  706300    302.37499    -1503.017    517.98213    375.96194   -665.10371    37946.351 
  706400    299.93338   -1519.1446    498.95009     329.8126    28.478134    37946.351 
  706500    299.15289   -1572.2489    492.14606    266.39126    209.50667    37946.351 
  706600    307.79456   -1536.6001    525.32609    374.11645    664.26672    37946.351 
  706700    296.49837   -1523.0936    476.41902    287.87143    3.0875736    37946.351 
  706800    303.46613   -1503.0892    543.57885    406.39771   -328.09228    37946.351 
  706900    304.12446   -1474.3692    477.22512    371.72719   -113.40519    37946.351 
  707000     305.6902   -1473.0084    508.69778    411.60805    187.55553    37946.351 
  707100    304.38026    -1497.494    508.33928    380.86791   -103.61432    37946.351 
  707200    307.52348   -1466.5873    530.51089    448.09391     38.42757    37946.351 
  707300    292.04184   -1465.4559    514.02407    363.05523    391.61527    37946.351 
  707400    295.79169   -1456.3717    507.84149    382.83504   -195.96934    37946.351 
  707500    291.28737   -1491.3774    536.67272    356.38656     17.60634    37946.351 
  707600    305.07795   -1470.5572      535.393    437.99867    36.451873    37946.351 
  707700    294.19398   -1506.5994    505.22435    322.79882   -5.7482117    37946.351 
  707800    301.82175    -1500.271    522.22646    380.46218    206.15198    37946.351 
  707900    300.50971   -1464.3394    524.99116    413.25294   -39.531954    37946.351 
  708000    314.08092   -1452.5143    501.88949    463.06071   -91.892245    37946.351 
  708100    297.58288   -1462.4431    525.27217    402.25649   -195.25818    37946.351 
  708200    301.87164   -1485.8835    500.19117    373.03897   -221.63387    37946.351 
  708300    303.49662   -1467.0044    502.74537    401.78632   -223.23245    37946.351 
  708400      305.057   -1450.5322    520.15182    442.68822    49.878774    37946.351 
  708500    296.66995   -1447.2631    516.90489    404.96016   -145.52828    37946.351 
  708600    297.17855   -1445.5625    505.35077    397.39579   -346.62789    37946.351 
  708700    293.88094   -1470.2889    512.31337    364.78937   -158.32975    37946.351 
  708800    305.45547   -1436.9536    510.00223    447.91081    344.18901    37946.351 
  708900    306.70561   -1512.2459    492.73352    360.97669    318.95934    37946.351 
  709000    299.52851   -1473.6073     488.5844    363.16189    73.609124    37946.351 
  709100    295.25968   -1430.1342    488.98542    387.82185    311.37298    37946.351 
  709200    304.49075     -1442.22     509.9817    438.28158   -284.74066    37946.351 
  709300    296.92107    -1483.168    486.92631    340.20687   -407.45564    37946.351 
  709400    298.02877    -1482.876    522.43394    380.99233   -988.90557    37946.351 
  709500    290.25907   -1426.4738    517.06636    397.05538   -782.44782    37946.351 
  709600    293.40324   -1453.5667    504.62825    371.67638   -595.20337    37946.351 
  709700    304.87893   -1472.0705    520.02265     420.2193   -316.51341    37946.351 
  709800    295.96119   -1498.7037    513.59802    347.02248   -832.77926    37946.351 
  709900    307.60823   -1456.5636     479.3058    407.29402   -653.47168    37946.351 
  710000    299.03762   -1455.3703    518.36521    408.97013    -397.9895    37946.351 
  710100    295.86578   -1501.3145    503.62929    334.01354   -45.735592    37946.351 
  710200    302.06511   -1465.9789    507.96798    401.59119    419.02745    37946.351 
  710300    285.58407    -1497.248    493.54594    281.71849    114.18506    37946.351 
  710400    291.20687   -1515.4726    522.48116    317.73743   -13.746624    37946.351 
  710500    302.07546   -1495.1532    499.56507    364.06046    353.55975    37946.351 
  710600    307.20225   -1489.2094    513.74723    407.26229   -126.96242    37946.351 
  710700    290.50196   -1531.8387    493.91042    269.62775     76.75005    37946.351 
  710800    297.98904   -1539.1013    494.70114    296.85539     224.4555    37946.351 
  710900    307.42438   -1501.5602    493.66948     375.8335   -157.32331    37946.351 
  711000    308.17357   -1516.6449    514.12901    384.58047   -191.46862    37946.351 
  711100    306.28232   -1550.7094    493.40069    321.27514    362.06932    37946.351 
  711200     302.2503   -1508.2825    494.29083    346.44397    265.02494    37946.351 
  711300    300.21923   -1539.7694    492.21334    303.73764   -689.66573    37946.351 
  711400    293.72409   -1542.6705    485.85155       265.24   -590.03788    37946.351 
  711500    301.97467   -1528.1548    479.48995    310.53014   -505.78686    37946.351 
  711600    290.38296   -1509.7143    496.06436    293.37047    -651.2523    37946.351 
  711700    298.20677   -1526.3719    483.67163     299.5353   -458.52227    37946.351 
  711800    307.28224   -1485.0744    477.24091    375.25094   -172.10261    37946.351 
  711900    295.61656   -1544.6494    481.53919     267.4668   -404.24565    37946.351 
  712000    301.25952   -1513.2097    511.87111    354.63751   -334.43962    37946.351 
  712100    304.46309   -1480.6308    485.91153     375.6761   -39.672054    37946.351 
  712200    304.44258   -1491.8902     506.9464    385.35932   -199.32016    37946.351 
  712300    291.56018   -1464.3045    526.42959    374.44424   -358.44609    37946.351 
  712400    307.30893   -1477.4092    484.93355      390.729    708.92568    37946.351 
  712500    300.35849   -1467.2075    499.94023    384.65324   -181.53953    37946.351 
  712600    294.22533   -1482.0303    497.22858    339.51327   -264.82523    37946.351 
  712700    293.29927   -1488.1092    506.66605    338.70372    79.903606    37946.351 
  712800     299.4427   -1504.6571    482.64322    325.78467   -333.14718    37946.351 
  712900    307.36809   -1517.6536    493.86212    359.67944   -111.60788    37946.351 
  713000    314.70356   -1517.0815    507.18685    406.59334   -47.231402    37946.351 
  713100    301.20208   -1538.3079    509.90658     327.3162    -695.4888    37946.351 
  713200    292.37803   -1514.1841    512.17668    313.99285   -1082.6039    37946.351 
  713300    295.68096   -1527.0639     476.2259    280.02891     -168.254    37946.351 
  713400    292.47148   -1515.8261    491.72641    292.32118   -355.99156    37946.351 
  713500    291.69079   -1499.7964    496.94056     310.0512   -348.82478    37946.351 
  713600     302.6349   -1487.2717    484.71629    359.61126    284.20778    37946.351 
  713700    301.49695   -1501.7266    502.06045    357.37861    57.401609    37946.351 
  713800    297.17488   -1537.3328     481.9771    282.23533   -588.86418    37946.351 
  713900    302.19193   -1488.9532    498.82916    370.04883   -349.53892    37946.351 
  714000    305.91979     -1486.77    497.94359    388.12568   -407.08331    37946.351 
  714100    302.62193   -1479.1398    507.09778    390.06628   -397.23818    37946.351 
  714200    301.96388   -1502.4591     493.1978    349.88511   -212.39228    37946.351 
  714300    293.67253   -1493.5088    505.35246    333.67047    95.465697    37946.351 
  714400     301.8415   -1492.1666    507.64558    374.07455    236.32674    37946.351 
  714500     289.9691   -1483.7541    505.11971    326.52326    268.20362    37946.351 
  714600    296.54171   -1525.0096    493.93118     303.6627    117.97678    37946.351 
  714700    292.89661   -1477.9578    504.58997    344.96661    399.53628    37946.351 
  714800    297.41703    -1498.143    494.08075     334.6187    509.28782    37946.351 
  714900    293.82081   -1508.3432    509.41175    323.56285   -15.801661    37946.351 
  715000    294.78442   -1513.3813    504.24753    317.69769    480.84763    37946.351 
  715100    296.19216   -1486.4226    523.50245     370.2476    126.86408    37946.351 
  715200    295.46682   -1452.0135    507.16021    385.04968    -88.82472    37946.351 
  715300    307.49509   -1442.7517    514.31474    455.60552   -219.18347    37946.351 
  715400    308.69586   -1507.8892     512.3412    393.89924    81.577005    37946.351 
  715500    297.35685   -1502.6918    491.52596    327.24423   -389.67251    37946.351 
  715600    312.09629   -1528.2378    501.61033    378.12516    -121.5698    37946.351 
  715700    301.03504    -1520.651    477.18488    311.49962   -195.36975    37946.351 
  715800    302.34248   -1535.7749    513.09902    338.17465    91.424755    37946.351 
  715900     299.1183   -1476.9569    494.98078    364.36228    73.682271    37946.351 
  716000     293.0316   -1479.4065    498.55243    338.08798    149.28036    37946.351 
  716100    298.01519   -1523.8159    494.60456    312.16194    106.82297    37946.351 
  716200    302.23562    -1473.129    510.44773    397.68821    576.62578    37946.351 
  716300    304.27187   -1488.9731     519.7177    400.27932    73.558014    37946.351 
  716400    304.87147   -1492.3075    477.56923    357.49528   -418.16227    37946.351 
  716500    298.34115   -1467.1604    502.04723    377.72725   -592.40739    37946.351 
  716600    292.65278   -1497.8062     511.1809    330.61166   -458.40925    37946.351 
  716700    303.30997   -1493.0516     504.6233    376.77687   -326.25297    37946.351 
  716800    304.50645   -1526.0015      518.582    363.17109   -471.50366    37946.351 
  716900    303.79756    -1521.256    492.76412    338.90795   -278.29274    37946.351 
  717000    293.24688   -1455.1312    486.26805    351.04788    54.738484    37946.351 
  717100    295.77968   -1510.6542     496.4422    317.09915   -169.29701    37946.351 
  717200    299.74283   -1517.3472    518.78717    350.58936   -7.2487717    37946.351 
  717300    292.78251   -1476.6914    487.56369    328.69318    258.73941    37946.351 
  717400    293.30732   -1495.3955    474.50669     299.2942    90.598228    37946.351 
  717500     299.0153   -1519.3333    505.96423    332.50576   -83.571521    37946.351 
  717600    299.57863   -1503.9347    488.69774    333.17337     800.6201    37946.351 
  717700    303.19044   -1544.8286    514.13581    333.97436   -71.048806    37946.351 
  717800    302.69046   -1493.5827       480.64    349.47405   -112.78666    37946.351 
  717900    298.61161   -1486.5134    519.39107    376.93542   -121.43581    37946.351 
  718000    299.30781   -1491.1194    493.27574    349.34777   -461.38752    37946.351 
  718100    289.44183   -1474.0856    461.28764    289.98646   -882.49716    37946.351 
  718200    308.81188   -1427.4737    515.82402    478.31968   -1124.2516    37946.351 
  718300    299.36852   -1436.1939    478.57235    389.84308   -647.82366    37946.351 
  718400    299.85536   -1475.3343    491.07151    365.39314   -254.23432    37946.351 
  718500    299.82355   -1488.2212    519.68642    380.97795    325.07343    37946.351 
  718600    297.66223   -1446.9763    498.76853    391.57677    127.58461    37946.351 
  718700    297.10292   -1467.0194    494.61507    364.86275     363.2714    37946.351 
  718800    294.09867   -1454.5323    505.82412    375.03678   -36.592765    37946.351 
  718900    302.86046    -1535.041     493.2205    321.36142   -65.069466    37946.351 
  719000    294.11097   -1472.8838    495.67099    346.58752    434.04208    37946.351 
  719100    296.63411   -1467.7676    492.66854    360.05794   -87.187841    37946.351 
  719200    302.24752   -1456.1952    522.04692    426.27485   -233.87438    37946.351 
  719300    292.42305   -1474.3208    476.40538    318.28753   -226.21427    37946.351 
  719400    301.98488   -1484.9127    508.35272    382.68101   -341.27977    37946.351 
  719500    297.24832   -1485.5619    503.86306    356.22278    -126.2787    37946.351 
  719600     314.5881   -1501.0114    472.22837    387.18527    114.46991    37946.351 
  719700    299.09542   -1495.2342    504.52676    355.52797    246.67965    37946.351 
  719800    292.71679   -1471.4953    489.89083    335.92062   -258.53009    37946.351 
  719900    299.33698   -1474.1709    516.35202    389.50376   -716.39209    37946.351 
  720000    297.84997    -1431.496    501.63654    410.77014   -320.37015    37946.351 
  720100    302.54686   -1445.8202     519.8294    435.77959   -155.01833    37946.351 
  720200    297.50223   -1539.4356    504.47451    304.10333   -178.35089    37946.351 
  720300    297.70046   -1549.6856    458.29273    248.56378   -4.2587419    37946.351 
  720400    303.14885   -1522.0499    513.38495    355.81505    106.59038    37946.351 
  720500    301.19189   -1457.6061    511.77388    409.83949   -166.54334    37946.351 
  720600    308.31084   -1477.0099    488.94362    399.64793    59.845625    37946.351 
  720700    303.53173    -1493.105    501.38211     374.4805    389.38723    37946.351 
  720800    293.20878   -1499.1527    533.53735    354.12413    148.45784    37946.351 
  720900    303.12082   -1497.7301     500.9691    367.59279    919.03104    37946.351 
  721000    310.18231   -1498.8173    496.11693    393.43737    227.75654    37946.351 
  721100    306.43447   -1442.7415    511.26659    447.79376   -275.59864    37946.351 
  721200    300.23105   -1462.5806    495.63226    384.39859   -105.37257    37946.351 
  721300    298.95203   -1497.0261     496.7792    345.34314   -269.92789    37946.351 
  721400     309.5784   -1483.4833    513.42859    423.36485    206.74681    37946.351 
  721500    304.31309   -1474.1814    493.82412    389.36294    453.17244    37946.351 
  721600    307.52689   -1476.1148    503.96357    412.03441    394.88385    37946.351 
  721700    300.13156   -1506.5069    510.98613    355.37837   -425.79008    37946.351 
  721800    301.07035   -1505.8934    496.90791    346.13917   -153.50294    37946.351 
  721900    303.75617   -1550.6953    490.06386    306.58217    -634.1985    37946.351 
  722000    304.75614   -1541.2992    490.14926    320.56452   -186.94071    37946.351 
  722100    303.93327   -1530.1353    475.30992    313.18527   -218.50339    37946.351 
  722200    296.98904   -1562.9804    508.12634    281.90054   -348.71614    37946.351 
  722300     303.6269   -1576.0367    494.49046    285.08545   -572.51824    37946.351 
  722400    302.59053   -1573.2647    460.28751    248.98981     -448.484    37946.351 
  722500    298.81104    -1533.241    463.28437    274.99875    168.55777    37946.351 
  722600    305.13379   -1546.0413    496.71593    324.08886    113.20039    37946.351 
  722700    293.72887   -1542.7458    510.95333    290.28794    502.90063    37946.351 
  722800    293.72634   -1585.8411    491.42451    227.65247    1115.4727    37946.351 
  722900     301.6322   -1551.4182    474.54079    280.77609    829.41854    37946.351 
  723000     304.3658   -1539.3161    504.01635    334.65775    579.28449    37946.351 
  723100    300.85745   -1532.3797    467.31337    289.10001    97.049848    37946.351 
  723200    298.35464   -1567.4035     480.1149    255.61259    39.692701    37946.351 
  723300    310.13512   -1518.5764    470.94154    348.29051   -44.672168    37946.351 
  723400    296.48002   -1524.0246    496.31734    306.75619    119.15871    37946.351 
  723500    296.26793   -1494.9812    540.91421    379.44187    314.60895    37946.351 
  723600    299.75735   -1486.6305    477.14105    339.72533    277.25755    37946.351 
  723700    303.51659   -1471.2246    524.94716    419.85774    133.37756    37946.351 
  723800    305.01438   -1491.0983    467.09175    348.87024    105.92427    37946.351 
  723900    296.60752   -1467.4508    507.99351    375.58009    260.77635    37946.351 
  724000    300.82474   -1444.8061    500.27532    409.48834    179.10291    37946.351 
  724100    309.63665   -1469.3829    541.04165    465.34048    461.91987    37946.351 
  724200    295.05193   -1494.1217    501.10562    335.01951    625.69353    37946.351 
  724300    312.41439   -1475.9095    500.29509    430.57005    -323.5687    37946.351 
  724400    291.18169   -1463.2141    520.20128    367.60277    -635.1235    37946.351 
  724500    304.67445   -1495.3817    483.24925    359.21434   -578.28145    37946.351 
  724600    294.28242   -1480.3983    503.41963    347.59331   -838.98713    37946.351 
  724700    296.09933   -1482.2209    477.29648    327.82557   -917.53588    37946.351 
  724800    299.99907    -1458.222    481.19112    373.27188   -802.66882    37946.351 
  724900    297.92935   -1477.3167    512.35284      376.023   -559.74178    37946.351 
  725000    298.99582   -1510.2292    511.12011    346.67802    130.02661    37946.351 
  725100    313.29037   -1496.5746    520.65332    434.20596    250.28043    37946.351 
  725200    294.03738   -1449.2556     489.5398    363.75331    240.15642    37946.351 
  725300    288.71412   -1448.1702    485.67265    337.01137   -197.67553    37946.351 
  725400     304.4435    -1462.284    544.30093    452.32416   -735.51302    37946.351 
  725500    291.97146   -1502.5017    501.50438    313.17299    -292.7242    37946.351 
  725600    287.66869   -1474.0234    499.14973    319.92975    370.91822    37946.351 
  725700    303.22624   -1476.9145    499.54827    387.46213    29.733069    37946.351 
  725800    313.99052    -1493.052    497.14336    417.36994    218.45128    37946.351 
  725900     305.9599   -1477.3385    524.83118    424.62525    260.23485    37946.351 
  726000    298.48579   -1509.1909    473.93353    308.23409    177.79709    37946.351 
  726100    307.62726   -1525.1209    480.11782     339.6343    96.169807    37946.351 
  726200    300.95008   -1521.8336    488.45867    321.20837   -123.13619    37946.351 
  726300    301.65108   -1471.8983    497.91991    383.76012   -59.245636    37946.351 
  726400    289.84169   -1508.2199    501.66213    298.02634    350.72823    37946.351 
  726500    291.24407   -1487.2906    494.62855    318.23421     433.8013    37946.351 
  726600    296.27887   -1475.1039    518.40169    376.85588    370.29213    37946.351 
  726700    307.50478   -1472.1495    526.78817    438.72484    264.63928    37946.351 
  726800    292.95749   -1484.9991    483.53207    317.14142    145.50423    37946.351 
  726900    308.25723   -1499.9119    525.55967    413.12072   -91.776083    37946.351 
  727000    296.45961   -1494.3306    529.65409    369.69503    362.11019    37946.351 
  727100    293.99898   -1539.3223      503.102    287.07591    257.16307    37946.351 
  727200    301.01958   -1497.7708    499.25354    356.37889     555.5941    37946.351 
  727300    300.06055   -1518.3445    511.92482    344.15986    214.75988    37946.351 
  727400    295.05158   -1543.8329    509.40661    293.60766    736.98242    37946.351 
  727500    307.11084   -1551.9287    492.03083     322.4151     514.7576    37946.351 
  727600    293.97932   -1461.6683    470.58606    332.12544    889.45134    37946.351 
  727700    298.53862   -1512.2566    502.40622    333.87883    289.36055    37946.351 
  727800    302.09836   -1490.6897    523.50603    392.56801    12.677681    37946.351 
  727900    305.07165   -1453.9091    497.11161    416.33705   -179.43343    37946.351 
  728000    300.16375   -1452.6401    490.21921    388.62309    308.00228    37946.351 
  728100    304.09949   -1425.6464    524.51723    467.62969    190.73025    37946.351 
  728200    304.34287     -1437.18    500.31995    432.99428   -40.200348    37946.351 
  728300     303.8733   -1473.2595    521.97985     416.4611    62.034258    37946.351 
  728400    300.40139   -1463.4915    483.28234    371.90439    252.53007    37946.351 
  728500    294.70559   -1498.7316     504.5995    332.34462    -479.4825    37946.351 
  728600    295.79938   -1520.7165      514.429    325.11233   -212.59946    37946.351 
  728700    307.47331   -1523.5927    505.01856    365.37033   -902.54854    37946.351 
  728800    306.20995   -1505.8489     488.8608    361.26999   -328.25697    37946.351 
  728900    319.42576   -1492.4741     498.0202    443.28883    -427.9027    37946.351 
  729000    294.30753   -1474.5072    485.84049    336.01826   -70.608167    37946.351 
  729100    308.94566   -1527.8187    506.62597    369.37885    181.46804    37946.351 
  729200    297.34939    -1503.536    497.00633    331.84685    681.66001    37946.351 
  729300    289.86558   -1536.7014    477.81768    245.80802    306.20342    37946.351 
  729400    300.53696   -1516.1733    490.93047    327.48095   -62.995893    37946.351 
  729500    302.86231   -1505.1508    488.76461    346.80407   -662.30775    37946.351 
  729600    310.25358   -1529.5757    518.00953    384.89241   -23.736831    37946.351 
  729700    286.27167   -1486.0467    512.23653    314.70521   -272.09218    37946.351 
  729800    301.08523   -1514.1782    509.74711    350.76052    408.59362    37946.351 
  729900     308.6229   -1499.7133    496.60678    386.01232    86.899269    37946.351 
  730000    294.42502   -1534.8122    495.27686    285.67847   -212.97656    37946.351 
  730100    293.69766   -1496.4867    514.95474    340.40802   -84.271554    37946.351 
  730200    304.24677   -1483.0729    509.44292    395.79172    32.090107    37946.351 
  730300    310.55903   -1472.5449    496.11034    421.39883   -498.39725    37946.351 
  730400    311.38955   -1459.1126    514.84764     457.3066   -624.63203    37946.351 
  730500    291.46097   -1499.9207     535.4872    347.43908   -312.72482    37946.351 
  730600    297.61106   -1519.3427     497.2274      317.439    -672.5041    37946.351 
  730700    299.29831   -1537.2054    498.88963     308.8329   -239.58976    37946.351 
  730800    292.32635   -1512.4407    521.87284    325.19976   -301.78493    37946.351 
  730900    303.85967   -1521.4323    498.07936    344.32647   -82.636748    37946.351 
  731000    295.65169   -1510.4384    507.14944    327.44618   -328.08745    37946.351 
  731100    293.75872   -1493.3354    516.18511    345.06454   -37.519946    37946.351 
  731200    297.92096   -1547.3475    518.39885    312.00054   -669.47924    37946.351 
  731300     297.6155   -1491.6573    545.26634    393.18326    270.79517    37946.351 
  731400    305.63624   -1472.0404    475.84467    379.48005    526.37495    37946.351 
  731500     299.9553   -1477.3017    517.30375    390.10779    27.972394    37946.351 
  731600    298.41028   -1475.8156    480.53669    347.87264    154.65758    37946.351 
  731700    317.30697   -1505.4345    522.96234     445.7339    323.85269    37946.351 
  731800    301.45413   -1443.4998    508.34077    421.69293    292.51364    37946.351 
  731900    290.43155   -1461.7842    504.04402      349.499   -203.05352    37946.351 
  732000    305.59473   -1447.1272    533.66532    462.02707   -153.37397    37946.351 
  732100    299.83809   -1441.1336    479.76716    388.21173   -188.02223    37946.351 
  732200    304.83821   -1473.0354    523.17304    422.22152   -125.81809    37946.351 
  732300    298.61006   -1467.8211    514.18051    390.41017   -536.76911    37946.351 
  732400    295.43087   -1476.4234    504.63729    357.95507   -516.75169    37946.351 
  732500     305.2724   -1440.5891    522.54866    455.99765   -213.97605    37946.351 
  732600    312.77741   -1440.1124    490.54819    458.25415    210.49629    37946.351 
  732700    302.55184   -1480.8514    498.82144    379.76282   -542.91356    37946.351 
  732800    310.18266   -1432.1546    511.28576    475.27048   -314.63441    37946.351 
  732900    290.11446   -1459.3632     520.8711    367.31985   -267.95639    37946.351 
  733000    297.84669   -1449.7125     523.0124    413.91474   -614.90453    37946.351 
  733100    283.56256   -1476.9494    496.00578      295.378   -294.90748    37946.351 
  733200     304.9762   -1475.7909    510.69242    407.60651   -10.887523    37946.351 
  733300    296.44415   -1505.6108    501.22951    329.92072    70.401326    37946.351 
  733400    292.10922   -1486.9776    499.23576    327.04851    66.696388    37946.351 
  733500    292.76139   -1436.8754    505.11901    385.96938   -8.4615089    37946.351 
  733600    293.26326   -1456.9313    517.22757    380.28098    24.600285    37946.351 
  733700    303.74442   -1438.4922    503.71721    432.38567    260.35553    37946.351 
  733800    295.40457   -1473.5644    516.96049    373.01892    365.42784    37946.351 
  733900    292.02602   -1509.8322     504.9365    309.52018   -169.05685    37946.351 
  734000    306.87512   -1466.8614     480.7614    395.15198    149.01435    37946.351 
  734100    309.22761   -1487.9324      510.923     414.8312    410.90524    37946.351 
  734200    293.42371   -1529.2787    518.78875    310.21692    558.31147    37946.351 
  734300     304.3573    -1502.834    517.79917    384.88442    677.34179    37946.351 
  734400    297.04885   -1498.9342    499.92241    338.01194    704.65218    37946.351 
  734500    284.16038   -1522.0665    518.77723    275.72323    214.78522    37946.351 
  734600    303.59434   -1562.8691    524.24541    327.86147    824.78117    37946.351 
  734700    305.59585   -1546.4635    494.57525    323.60579    175.10108    37946.351 
  734800    305.47729   -1482.9444    496.30719    388.32316    370.04361    37946.351 
  734900    297.98454   -1533.8645    497.73981    305.11067    134.97165    37946.351 
  735000    294.70431   -1554.8085    519.43185    291.09422    531.23167    37946.351 
  735100    317.45375   -1467.3642    512.72655    474.22901    753.05574    37946.351 
  735200    302.38919   -1460.7459    509.14628    409.46115    580.78029    37946.351 
  735300    298.09904   -1475.0611    526.73828     393.4279    212.03782    37946.351 
  735400    299.85377   -1470.3405    516.36082    395.66911    559.37885    37946.351 
  735500    290.11056   -1453.2256    510.49164    363.06043    395.41356    37946.351 
  735600    302.46872   -1437.7353    542.46458    466.14797    267.89974    37946.351 
  735700    297.72867   -1485.1892    508.37557    363.26998   -164.11201    37946.351 
  735800    302.52572   -1445.7818    525.23096     441.1244    -554.7834    37946.351 
  735900    300.18028   -1458.9774     525.9717    418.11265    -541.5093    37946.351 
  736000    296.15775   -1495.1297    496.29559    334.17882   -204.97874    37946.351 
  736100    298.18782   -1449.9974    528.98882    421.14174   -292.21542    37946.351 
  736200    302.27362   -1488.3082    499.41744    371.64983   -49.271109    37946.351 
  736300    304.64434   -1467.3241    505.16752    409.05466    389.30387    37946.351 
  736400    296.81198   -1476.7216    515.53644    374.77243    160.78862    37946.351 
  736500    300.87877   -1454.3147    536.00362    435.95128    818.58806    37946.351 
  736600    299.34552   -1456.4995    492.17313    383.03473    104.19503    37946.351 
  736700    292.61053   -1476.6746    536.50119    376.87334    106.90154    37946.351 
  736800    290.57871   -1480.5183    505.15506    332.53826   -45.580823    37946.351 
  736900     291.4775   -1488.1922    511.52022    335.27503    127.02422    37946.351 
  737000    300.52722   -1463.6392    498.33326    387.37407   -198.01427    37946.351 
  737100    310.16842   -1496.5886    493.05255    392.53922   -83.501478    37946.351 
  737200     300.4227   -1517.0314    491.55199    326.73014   -368.79969    37946.351 
  737300    300.09472   -1527.3172    504.82753    328.24364    78.562052    37946.351 
  737400    296.48663    -1523.988    490.63041    301.13564   -215.80131    37946.351 
  737500    302.94176   -1508.1521    484.41595    339.81172    170.27138    37946.351 
  737600     303.3972   -1461.9486    515.48741    419.13663    305.14206    37946.351 
  737700    304.49656   -1475.9632    512.90481    407.48766    40.954871    37946.351 
  737800    307.56724   -1530.5955    493.90469    347.67642    412.93199    37946.351 
  737900    305.16427   -1525.7419     493.4098    341.21939    400.72877    37946.351 
  738000    297.17489   -1517.9998    514.55935    334.15062    710.11588    37946.351 
  738100     303.8059   -1528.5198    502.91677    341.83439    943.00131    37946.351 
  738200    296.08513   -1535.0965    506.65423    304.24375    306.79769    37946.351 
  738300    297.74215   -1494.4951    469.10017    314.74936   -379.59064    37946.351 
  738400     305.7871   -1463.4297    516.77603    429.70115    34.844701    37946.351 
  738500    297.44822   -1512.4509    508.56542    334.93581    180.42626    37946.351 
  738600    299.09408    -1551.529    508.55101     303.2514   -90.636831    37946.351 
  738700    307.68225   -1557.2362    505.90574    333.55452    175.41113    37946.351 
  738800    294.13538   -1494.9066     505.9649    334.96846    5.7585781    37946.351 
  738900    308.20924   -1513.2404    498.05305    372.06961    341.86076    37946.351 
  739000    302.43442   -1488.1807    523.90113    396.98479    974.04328    37946.351 
  739100    306.46694   -1448.4397    493.28483    424.25992    446.00303    37946.351 
  739200    307.71893    -1503.385    523.13552    404.80058    129.88377    37946.351 
  739300    306.66574   -1513.3264    511.95181    378.93503    586.56957    37946.351 
  739400    299.29861    -1537.332    497.40404    307.22199    53.306847    37946.351 
  739500    308.45192    -1454.321    529.22539     463.2536    662.63052    37946.351 
  739600     306.6326   -1492.6678      509.149    396.64165    620.28359    37946.351 
  739700    295.57125   -1498.8448    492.83127    324.35953    843.89703    37946.351 
  739800    307.13112     -1467.15    501.37979    416.63404    115.29454    37946.351 
  739900    289.24866   -1527.3817    491.49392    266.02719    72.274004    37946.351 
  740000    308.69572   -1467.6808    480.75963    402.52546   -234.44877    37946.351 
  740100    294.79421    -1518.683    514.91545      323.108   -405.00308    37946.351 
  740200    300.05903   -1502.8309    519.21342     366.9552   -434.72257    37946.351 
  740300    292.92578   -1492.6067    532.28214    358.14116   -611.82903    37946.351 
  740400     307.0424   -1504.0075    496.12337     374.1208   -423.54767    37946.351 
  740500    296.32999   -1523.0448     469.1544    279.89773    -185.3879    37946.351 
  740600    300.50747   -1517.6592    514.37133    349.30326    83.385639    37946.351 
  740700    291.24226   -1527.5487    506.87131    290.21081   -568.35609    37946.351 
  740800    301.98693   -1499.2254    487.80566    347.83042   -421.46735    37946.351 
  740900    301.25506   -1518.0508    491.48214    329.38734   -293.72833    37946.351 
  741000    303.20952   -1479.3279    515.26061    400.68582   -238.99612    37946.351 
  741100    295.80983   -1471.0735    480.69339    341.06677   -153.13502    37946.351 
  741200    298.75189   -1488.9601    508.84453    364.57357    20.226624    37946.351 
  741300    298.57985   -1513.9655    497.99888    327.94823    251.35201    37946.351 
  741400    302.49533   -1517.1278    486.12713    330.53779    -787.2015    37946.351 
  741500     302.4393   -1504.8248    491.80793     348.2694   -509.43076    37946.351 
  741600    302.57463   -1493.5021    487.06406    355.45739   -250.35082    37946.351 
  741700    292.18045   -1498.6843    501.82328    318.24992   -387.08544    37946.351 
  741800    283.65408   -1512.8936    517.57412    281.41408   -610.41883    37946.351 
  741900    304.63973   -1490.7058    491.19866    371.68337    180.40474    37946.351 
  742000    301.11477   -1469.2796    490.53955    376.58451   -457.89757    37946.351 
  742100     293.1977   -1481.4722    492.63021    330.84768    244.79215    37946.351 
  742200     297.7963   -1524.4085    467.99812    283.97766   -54.522293    37946.351 
  742300    313.20834   -1496.8647    492.62442    405.51773     394.9353    37946.351 
  742400    304.57341   -1473.0419    505.14018    402.99026    358.68639    37946.351 
  742500    297.56173   -1488.4786    514.31241    365.16607    424.00106    37946.351 
  742600    294.52577   -1476.3898    518.63465    367.91219    123.68571    37946.351 
  742700    294.70144   -1517.3925    483.02694    292.09245   -302.49369    37946.351 
  742800    297.57287   -1524.8634    486.18079    300.69983    -596.4752    37946.351 
  742900    298.34442   -1518.4184    500.64908    325.08579   -663.61563    37946.351 
  743000    294.64396   -1560.2291    496.14185    262.11204   -520.85642    37946.351 
  743100    296.46643   -1490.2459    495.75793    339.91431   -302.17276    37946.351 
  743200    299.43932   -1467.3086    511.38211    391.85684    196.50458    37946.351 
  743300    298.90038   -1471.0319    521.89128    396.21692    79.010315    37946.351 
  743400    299.45325   -1520.1868    544.59124    372.25047     804.7637    37946.351 
  743500    299.28129     -1514.05    504.99572    338.01773    405.79289    37946.351 
  743600    312.48029   -1475.9973    513.66263    444.14638    838.61206    37946.351 
  743700    308.93321   -1503.7274    499.96053    386.74865   -72.630958    37946.351 
  743800    289.11265   -1458.7443    488.58761    331.14606    432.87489    37946.351 
  743900    301.12005   -1491.7729    503.70614     367.2816    256.02685    37946.351 
  744000    312.86595   -1515.4275    515.37208    408.16148    859.97003    37946.351 
  744100    296.78394   -1501.6497    505.07588    339.25762    118.58095    37946.351 
  744200    303.00212   -1506.4626    495.36777    352.72476   -663.85276    37946.351 
  744300    300.56675    -1501.267    506.46983    358.06071   -342.91223    37946.351 
  744400    307.86526    -1506.582    519.63681    398.76343    -499.6289    37946.351 
  744500    291.87252   -1537.3106     484.9851    261.39949   -1080.3029    37946.351 
  744600     302.0021    -1519.025    487.53013    327.82363    -487.3853    37946.351 
  744700    308.78542   -1515.5099    497.76289    372.10335   -592.81138    37946.351 
  744800    313.75268   -1518.9594    500.33629    393.58494   -422.88253    37946.351 
  744900    295.68178   -1522.3153    484.26708    292.82234   -327.24969    37946.351 
  745000    302.72379   -1551.1307    488.29432    299.73035    60.729906    37946.351 
  745100     297.1705   -1541.9553    508.81915    304.43512    360.07013    37946.351 
  745200    293.63781   -1500.9032    514.38985    335.15726    471.42325    37946.351 
  745300    299.65279   -1531.8274    510.30504    327.22184    244.36968    37946.351 
  745400     298.6435   -1449.1211    523.66547    418.74562    577.24549    37946.351 
  745500     307.3026   -1522.6141    476.01356    336.57559    352.09346    37946.351 
  745600    304.49617   -1474.0442    516.27356    412.77366    574.25744    37946.351 
  745700    307.40716   -1497.0588    500.99417    387.58215    372.08293    37946.351 
  745800     298.7736   -1512.6493    499.12522     331.2628     698.6924    37946.351 
  745900    290.48718   -1509.3562    500.99688    299.13026    443.21971    37946.351 
  746000       294.01   -1535.7222    488.50954    276.13314    306.96943    37946.351 
  746100    297.05933   -1547.0828     520.4032    310.39134   -60.350181    37946.351 
  746200    309.93816   -1515.8285      474.776    353.98633    119.07481    37946.351 
  746300    298.85726   -1563.9141    488.29182    269.54121    666.22282    37946.351 
  746400    300.87255   -1582.6769    479.46909    251.02653    257.31374    37946.351 
  746500    295.19679   -1566.3444    487.49149    249.83466    624.25569    37946.351 
  746600    296.83743   -1539.6813    498.11492    294.50572    444.90461    37946.351 
  746700    297.69779   -1581.0525    476.21671    235.10883    89.718212    37946.351 
  746800    298.61489   -1497.2973    514.02802    360.80326   -5.0433545    37946.351 
  746900    300.72488   -1524.6981    479.94684    308.81846    9.6299191    37946.351 
  747000    292.40686   -1533.7021    498.56471    280.99265    170.02152    37946.351 
  747100    310.58913   -1568.3555    503.97766    333.59104    741.47952    37946.351 
  747200    305.33346    -1562.267    491.10024    303.14619    562.96305    37946.351 
  747300    293.18122   -1545.1978    524.41872    298.83638   -466.98329    37946.351 
  747400    293.52715   -1543.6079    483.85244    261.41701   -339.97107    37946.351 
  747500     308.7177   -1554.0864    488.93429     324.3934   -774.91295    37946.351 
  747600    309.06733   -1519.9456    483.69933     354.8729   -352.14527    37946.351 
  747700    294.45232   -1536.4953    516.28762    305.12906   -151.76877    37946.351 
  747800    298.10927   -1509.4226    502.48413    334.85823   -724.24412    37946.351 
  747900    298.84417   -1552.5681    470.73942    263.27584   -308.83303    37946.351 
  748000    293.47969     -1479.87      495.407     336.4959   -245.17791    37946.351 
  748100    305.41572   -1516.7465    499.79181    357.72849   -175.77615    37946.351 
  748200    294.35222   -1547.9612    461.69671     238.6216     136.0313    37946.351 
  748300     305.8036    -1519.709    483.91431    340.63436     208.1272    37946.351 
  748400    296.02007   -1510.7889    509.15886    330.76317   -247.23314    37946.351 
  748500     300.2054   -1513.2042    501.54201    339.56931   -130.77247    37946.351 
  748600     301.9713   -1500.8662    476.75965    335.07321     13.05742    37946.351 
  748700    299.07098    -1547.126     477.4014    276.40081    258.27418    37946.351 
  748800    301.65329   -1558.8569    487.45441    286.34593    15.835379    37946.351 
  748900    295.49616   -1552.0436    489.34963    267.34108    250.59611    37946.351 
  749000    301.05014   -1552.9257    488.46091    290.56889   -154.03616    37946.351 
  749100    290.58309   -1558.8604    490.71305    239.77383   -341.11955    37946.351 
  749200    305.64375   -1515.4999    478.92213    339.13183   -298.79768    37946.351 
  749300    304.53152   -1508.6043    500.85661    362.95579   -377.50181    37946.351 
  749400    296.33242   -1521.5642    476.40412    288.63906   -395.81058    37946.351 
  749500    292.53597   -1489.9392     487.4555    314.22753   -227.74673    37946.351 
  749600    299.55856   -1489.4303    492.72688    351.61662    -367.2233    37946.351 
  749700    303.87422   -1547.0936    477.82562     298.4769      335.039    37946.351 
  749800    300.25295   -1540.3487    495.37458    306.47138    57.553113    37946.351 
  749900    300.37518   -1496.5159    512.12358    367.60328    163.14748    37946.351 
  750000    292.86257   -1502.8758    483.37722    298.68258    494.27455    37946.351 
  750100    303.66648   -1512.3512    460.45201     314.9107    515.05821    37946.351 
  750200    307.17818    -1462.124    501.11225    421.60436    497.83396    37946.351 
  750300    299.74318   -1471.6716    484.46113    361.94053    150.04366    37946.351 
  750400    302.20035   -1501.1396    482.59822    341.66941   -39.581849    37946.351 
  750500     310.5837   -1469.0505     506.3032    435.19711    162.25792    37946.351 
  750600    304.23161   -1427.9871    487.98006    429.34652   -315.26541    37946.351 
  750700    292.21292   -1473.5699    500.34894    342.03616    -628.6272    37946.351 
  750800    302.14865    -1446.311    507.31856    420.98566   -83.334994    37946.351 
  750900    296.92869   -1433.5858    491.71716     394.6143   -766.55696    37946.351 
  751000    297.63595   -1444.9032    520.54818     415.3113   -970.67134    37946.351 
  751100     307.5111   -1428.6564    511.62464    467.08285   -328.37181    37946.351 
  751200    297.70984     -1459.37    525.29229    405.92115   -328.20127    37946.351 
  751300     296.7603   -1476.3657    495.13907    354.49832   -327.67098    37946.351 
  751400    295.46482   -1481.6412     489.3039    337.55665   -9.5679483    37946.351 
  751500    299.89241   -1477.1087    514.24261     386.9566   -77.197884    37946.351 
  751600    295.86298   -1466.9363    493.48307    358.23287   -186.53852    37946.351 
  751700    301.11632   -1439.5866    513.03551    428.78045    8.8775868    37946.351 
  751800    305.28637   -1456.1376    527.23781    445.20126   -248.81303    37946.351 
  751900    307.28167   -1448.3991    518.58772    453.27055   -133.85795    37946.351 
  752000    298.94725   -1473.3168    483.92828    356.17995    132.91642    37946.351 
  752100    298.40919   -1471.3037    541.24695    413.08996     353.4647    37946.351 
  752200    323.11111   -1475.9219    494.06635    472.47503    512.90932    37946.351 
  752300     297.8297   -1484.8132    508.91347    364.63862    364.14762    37946.351 
  752400    294.86714   -1459.1075    480.62503    348.72134   -247.07601    37946.351 
  752500    303.52028    -1481.844     490.4629    374.77073   -239.00662    37946.351 
  752600     294.2241   -1490.0989    502.14821    336.35882   -729.39612    37946.351 
  752700    301.29676   -1448.8438    501.15327    408.45312   -405.17599    37946.351 
  752800    306.02681   -1436.1752    488.64978    429.90839   -77.650268    37946.351 
  752900    310.75674   -1438.3403    505.05727    465.44028   -159.44996    37946.351 
  753000    310.43453   -1470.3164    510.88475    437.84142    77.195495    37946.351 
  753100    310.79851    -1466.334    503.65706    436.23438   -140.78599    37946.351 
  753200    295.52963   -1446.7594     505.0186    388.44496    60.809319    37946.351 
  753300    296.49179   -1471.3842     509.5464    372.67859    497.78956    37946.351 
  753400     304.9728   -1487.6007    511.47802    396.56691    208.35069    37946.351 
  753500    297.93173   -1491.7821    488.83859    338.05412    121.53595    37946.351 
  753600    302.12333   -1500.4882    473.70586    333.08173   -176.96522    37946.351 
  753700    310.66204    -1451.834    500.46809    446.93107   -449.52837    37946.351 
  753800    298.48491   -1466.2702    529.53137    406.74861   -195.68133    37946.351 
  753900    288.44778   -1516.5746    472.39299    254.12849    -296.8801    37946.351 
  754000    287.39067    -1480.379       513.01    326.18303   -274.07716    37946.351 
  754100     294.0516   -1460.9479    496.22184      358.807    195.64333    37946.351 
  754200    293.24113   -1458.5928    514.98558    376.27794    65.667116    37946.351 
  754300    288.27912    -1465.804    508.07042     339.8174   -121.90181    37946.351 
  754400    294.67531   -1484.2266    503.75892     345.8727   -11.221175    37946.351 
  754500    297.47444   -1477.1695    512.35768     374.1275    -78.52557    37946.351 
  754600    305.57699   -1472.9802    515.42844    417.85731    34.194271    37946.351 
  754700    298.07036   -1468.2047    511.58832    385.00516    29.086585    37946.351 
  754800     313.2583   -1481.6916    507.58906    435.88039    459.63305    37946.351 
  754900     294.4758   -1501.8439    486.39304    309.99158    94.633883    37946.351 
  755000    290.69267   -1473.3007    496.49575    331.60946    113.42981    37946.351 
  755100    288.12111   -1493.3796     497.6167    301.07694   -136.64981    37946.351 
  755200    300.48208   -1493.6858    484.30856    343.09954   -269.25522    37946.351 
  755300    290.26195   -1477.9638    489.43046    317.94242   -313.31855    37946.351 
  755400    299.09138   -1486.1452    470.73402    330.80608    615.48969    37946.351 
  755500    295.14912   -1507.3674    482.50719    303.61284    530.00057    37946.351 
  755600    304.42242   -1525.7534    466.72032    311.17931    862.96756    37946.351 
  755700    304.67757    -1473.224    508.48301    406.61982    668.74843    37946.351 
  755800    300.67654   -1479.9695    503.06666    376.44922    99.646306    37946.351 
  755900    297.55924   -1471.7958    464.90726    332.43248    579.29214    37946.351 
  756000    294.44299   -1459.3776    504.93896    370.85609    488.14191    37946.351 
  756100    314.99204   -1519.0826    516.18335    414.88721    -141.0542    37946.351 
  756200    301.34794   -1451.4426    468.79991    373.73131   -100.99667    37946.351 
  756300    307.79805   -1472.1951    493.04197      406.253   -322.94168    37946.351 
  756400    306.81548   -1519.0866    491.07601    352.97302    -9.131117    37946.351 
  756500    294.03765   -1519.7122    499.69243    303.45051    158.23829    37946.351 
  756600    305.89983   -1505.5002     496.7493     368.1113    750.33724    37946.351 
  756700    296.19692   -1491.3451    491.56457    333.40871    521.26219    37946.351 
  756800    301.00583   -1528.7314    485.87619    311.97903    577.62819    37946.351 
  756900    289.71675   -1529.9941    477.80045    251.82813    353.41909    37946.351 
  757000    299.36403   -1496.6447    478.46896    329.26867    279.76187    37946.351 
  757100    303.94862    -1467.526    520.72601    421.27976    124.39393    37946.351 
  757200    295.21996   -1496.7172     497.4788    329.55346    428.51616    37946.351 
  757300    305.25165   -1490.9821    505.23905    388.20172    612.78391    37946.351 
  757400    300.09667   -1469.4282    489.32818      370.642   -58.504754    37946.351 
  757500     288.2211   -1520.9955    491.79136    268.08569    105.41854    37946.351 
  757600    298.59729   -1467.9002    518.87022    394.96334    68.145713    37946.351 
  757700    296.14672   -1474.7674    478.82281    337.01864   -24.940732    37946.351 
  757800    308.98529   -1478.5123    497.04549    409.28317    199.62035    37946.351 
  757900     301.0809   -1467.8227    525.75395    413.10334   -181.46998    37946.351 
  758000     303.5003   -1496.3626    500.98795     370.6873    99.509721    37946.351 
  758100    309.47439     -1471.02    497.16227    419.09362    401.95101    37946.351 
  758200     297.8051   -1493.6262    498.05095    344.85246   -34.091819    37946.351 
  758300    310.54144   -1481.9728    499.60832    415.38974    14.163646    37946.351 
  758400    301.77173   -1501.6236    497.16411    353.82204   -164.32367    37946.351 
  758500    306.77147   -1509.7362    489.58166    360.63092   -425.14688    37946.351 
  758600    300.12354   -1490.0441    493.18813    354.00708   -472.03144    37946.351 
  758700    289.51247   -1501.6337     523.7793    325.24791   -1072.2278    37946.351 
  758800    306.55061   -1474.9113    479.11341    383.99348   -631.42428    37946.351 
  758900    297.57638   -1487.3522    525.87108    377.91708   -237.41562    37946.351 
  759000    314.77351   -1505.8553    484.92989    395.87746     405.6597    37946.351 
  759100    310.90709   -1492.7779    500.41351    407.03564    8.0252632    37946.351 
  759200    299.06949   -1504.4311    516.06673    357.75434     74.36083    37946.351 
  759300    302.95344   -1452.4933    475.94435    387.05152    144.94473    37946.351 
  759400    292.05038   -1485.4878    511.83677     340.8745    710.96991    37946.351 
  759500    283.65713   -1455.8879    502.53936    323.39875     779.4254    37946.351 
  759600    302.82683   -1482.2592     497.2933    378.06472    217.18187    37946.351 
  759700    296.10637   -1492.6522    492.40486    332.53426   -141.05813    37946.351 
  759800    292.52379   -1485.0255    500.11993    331.75082   -143.13584    37946.351 
  759900    305.10902   -1496.0661    494.99561    372.23226    431.57604    37946.351 
  760000     292.3345   -1476.5989    505.21527    344.42068    105.25417    37946.351 
  760100    291.73772   -1491.4339    487.11831    308.80261   -121.01659    37946.351 
  760200    302.51253   -1465.5929    520.20233     416.2253    157.23127    37946.351 
  760300    287.70902   -1486.2557     509.7293    318.45853    398.40017    37946.351 
  760400    302.73187    -1456.238    516.35803    422.72315   -85.669444    37946.351 
  760500    293.64771    -1505.378    509.78633    326.12347    26.901041    37946.351 
  760600    295.03699   -1459.4458    506.79204    375.31457    214.64173    37946.351 
  760700    290.06196   -1440.4613    509.55162    374.66594    370.15843    37946.351 
  760800    295.70658   -1464.7393    471.10303    337.34591    -130.4717    37946.351 
  760900    303.89881   -1455.6134     515.5107    427.75287   -630.60031    37946.351 
  761000    300.66173   -1461.8066    475.17344    366.65226   -241.19973    37946.351 
  761100    302.27286   -1502.9832    509.40235    366.95632   -504.05407    37946.351 
  761200    302.83008     -1462.03    481.40071    382.41592   -142.87514    37946.351 
  761300    307.45615   -1483.1808    501.38145    402.06795    -152.5083    37946.351 
  761400    307.65064   -1448.9685    509.36325    445.13744    362.56677    37946.351 
  761500    309.57666   -1460.9406     498.8273    431.29838    324.12297    37946.351 
  761600    296.01824   -1468.9513    485.48092    348.91457    574.69272    37946.351 
  761700    301.65419   -1453.9918    520.76855    424.52921    697.44759    37946.351 
  761800    295.73114   -1477.0228    483.13044    337.20032    391.09959    37946.351 
  761900    295.81283   -1454.9415    500.65041    377.16932    199.25665    37946.351 
  762000    296.38646   -1440.7113    512.66751    405.99857    4.5622565    37946.351 
  762100    304.36241   -1473.3712    487.52503    384.09609     226.3645    37946.351 
  762200    292.49747   -1457.9778     495.2896    353.84967     -3.40718    37946.351 
  762300    293.43554   -1487.0178    469.45689    303.19925    113.04489    37946.351 
  762400    295.74848   -1468.0644    527.42907    390.53545   -154.46153    37946.351 
  762500    305.45081   -1441.0466    503.54942      437.344   -590.50999    37946.351 
  762600    305.63345   -1421.5774    482.14753    436.23336   -671.94379    37946.351 
  762700    289.38747    -1411.097    503.65751    395.10016   -230.16077    37946.351 
  762800    301.48737   -1414.1249    516.78372    459.66051    -180.5606    37946.351 
  762900     301.6164    -1445.315     522.4926    434.76005    467.16123    37946.351 
  763000    296.61247   -1428.6829    511.50206    417.87881    364.62991    37946.351 
  763100    303.90614   -1477.0095    521.15352    412.03257     415.6207    37946.351 
  763200    304.90126   -1476.4111    512.41689    408.37345    626.18707    37946.351 
  763300    301.05272    -1475.219    504.08039    383.90665    124.65893    37946.351 
  763400    297.53222    -1450.124    527.96137    417.03681    92.488973    37946.351 
  763500    303.10351   -1479.7025    481.73911    366.31252    143.10217    37946.351 
  763600    301.61463   -1473.0773    485.98981    370.48693   -122.07131    37946.351 
  763700    307.12804   -1426.3734    484.20183    440.21884   -209.81629    37946.351 
  763800    303.52204   -1402.7191    517.75689    481.19755   -357.99546    37946.351 
  763900    297.40136   -1442.0655    495.12867    391.67358   -424.31156    37946.351 
  764000    302.26915   -1480.7691    507.71673    387.46807   -367.56366    37946.351 
  764100    299.40278   -1487.2411    480.98483    341.36256   -942.18761    37946.351 
  764200    294.68731   -1479.6131    490.35105    337.13237   -376.44947    37946.351 
  764300    293.39283   -1463.7343    503.60573    360.43933   -141.86594    37946.351 
  764400    295.81123   -1444.9986    486.18682    372.64136     -14.4721    37946.351 
  764500    302.30713   -1464.5812    481.52905    377.63925   -199.53208    37946.351 
  764600    289.57993   -1483.9348    470.79988    290.27105   -538.81474    37946.351 
  764700    307.12798   -1464.7786    511.51359    429.12521    225.73777    37946.351 
  764800    304.22714   -1500.4835    492.15093    361.00086    170.36625    37946.351 
  764900    301.69853   -1484.8444    509.88686    382.99456     264.5955    37946.351 
  765000    298.16933   -1475.0504    484.61716    351.63387    180.59039    37946.351 
  765100    294.46997   -1457.3401    497.57113    365.64715    64.975345    37946.351 
  765200    297.33113   -1476.8588    534.38593    395.82147    607.86466    37946.351 
  765300    299.62795   -1438.9859    501.20086    410.84727    741.50807    37946.351 
  765400    305.36798   -1487.7899     508.8296     395.5081     21.71974    37946.351 
  765500    308.87261    -1401.045    513.99247    503.19021    349.73211    37946.351 
  765600    307.52974   -1421.0978     523.8339     486.9346    53.984923    37946.351 
  765700    302.50193   -1438.2519    501.84634    425.16264     3.493651    37946.351 
  765800    315.31507   -1418.3586    509.78031    510.66216    143.86036    37946.351 
  765900    287.84472    -1405.224    523.54678    413.91852    157.51195    37946.351 
  766000    297.12291   -1435.2066    526.27316    428.42368    321.33766    37946.351 
  766100    312.17204   -1448.1157    483.28826    440.26621    407.66843    37946.351 
  766200    296.71637   -1458.5635    500.36821    377.33203    165.39968    37946.351 
  766300    297.60872   -1473.9427    501.67195    367.27297    622.64425    37946.351 
  766400     300.1235   -1462.8492    473.88428    361.89793    299.03414    37946.351 
  766500    300.74443   -1547.7915    493.01329    298.87949    442.98491    37946.351 
  766600    305.53028   -1490.5301    495.01185    379.68061    243.95449    37946.351 
  766700     293.3408   -1510.1728    485.57012    295.73103    402.73495    37946.351 
  766800     297.2027   -1521.3176    471.67523    288.07385    246.29767    37946.351 
  766900     286.7848   -1480.2116    524.73926    335.35262    -158.3419    37946.351 
  767000    293.27857   -1524.3108      467.228     262.9708    -272.8103    37946.351 
  767100     297.3684   -1552.2067    496.99216    283.24755   -270.03412    37946.351 
  767200     295.1282   -1510.0907    479.31313    297.60135   -274.56432    37946.351 
  767300    297.07389   -1507.6979    491.35918    320.79771   -538.35312    37946.351 
  767400    302.99469   -1507.6352    491.03733     347.1882   -11.136562    37946.351 
  767500    294.60952   -1453.3827    512.32372    384.98529    412.54176    37946.351 
  767600    307.72849   -1454.8126    505.39081    435.67131    5.0675513    37946.351 
  767700     289.2842   -1506.9696    492.64656    287.75182   -175.27552    37946.351 
  767800    288.48534   -1506.5294    511.13327    303.08307   -181.51843    37946.351 
  767900    301.77496    -1461.855    516.41579    412.85694    393.80911    37946.351 
  768000    299.64611   -1502.6793    501.95972    347.99455    205.29118    37946.351 
  768100    306.28222   -1527.9617    497.19616     347.8178    16.287797    37946.351 
  768200    290.15027   -1484.7961    518.46726    339.64423   -91.005324    37946.351 
  768300    305.32602   -1477.1024    475.01342    372.19049    328.18441    37946.351 
  768400    299.72105   -1511.9751     470.0441    307.12039   -55.463635    37946.351 
  768500    301.50689     -1499.19    522.98052    380.87998   -60.961849    37946.351 
  768600    302.85237   -1495.5171    494.06062    361.68904    557.68097    37946.351 
  768700    295.83083   -1480.6037    488.93513    339.87285    324.07433    37946.351 
  768800    301.50456   -1476.6922     501.2291    381.61587   -328.95972    37946.351 
  768900    302.59485   -1443.7706    486.63042    404.84629   -114.73735    37946.351 
  769000    300.50024   -1461.4172    527.64934    418.79067   -13.518832    37946.351 
  769100    301.48287   -1500.7494    481.89248    338.12447   -141.43186    37946.351 
  769200    303.75138   -1469.4896     479.1692    376.87159   -773.45849    37946.351 
  769300    299.83565   -1494.0564     486.8865    342.39737   -1013.1258    37946.351 
  769400    301.55555   -1490.7105    496.92544    363.52347   -1378.8477    37946.351 
  769500    296.98631   -1488.2056    494.17096    342.70758   -1193.0526    37946.351 
  769600    297.40429   -1518.4866    482.78938    302.92639   -1115.3037    37946.351 
  769700     288.3747   -1518.8058    521.22811    300.40352   -866.79553    37946.351 
  769800    292.19147   -1508.9989     514.2917    320.45338    -694.7814    37946.351 
  769900    301.97832   -1519.1139    511.48579    351.58335    21.491617    37946.351 
  770000    300.25667   -1504.3223    506.99893    354.13888   -318.34893    37946.351 
  770100    293.05909   -1489.8079    520.42878    349.68661   -328.39005    37946.351 
  770200    299.71609   -1485.1258    506.49102    370.39432   -31.920699    37946.351 
  770300     290.0768   -1479.2341    505.28843    331.69677   -155.57577    37946.351 
  770400     300.1027   -1490.9502    520.74248    380.56155    177.78343    37946.351 
  770500    298.00979   -1483.4713    493.30302    351.18072    122.69804    37946.351 
  770600    303.89515   -1508.9613    489.82413    348.70198    366.92844    37946.351 
  770700    299.30632   -1517.2814    511.09837    341.00165   -89.806684    37946.351 
  770800    301.54286   -1534.7743    502.89365    325.37077    24.659722    37946.351 
  770900    301.31282   -1510.4982    504.15701    349.87478   -211.39643    37946.351 
  771000    296.28376   -1554.6441    471.92573    250.86173    812.54533    37946.351 
  771100    304.88516   -1538.5562    472.95473    306.69373    897.75759    37946.351 
  771200    305.31165   -1512.1391    488.04151     350.1172    906.75815    37946.351 
  771300    291.40056   -1550.7251    481.00298    241.87851    228.80628    37946.351 
  771400    304.69146   -1534.7313    481.09413    317.78611    734.08743    37946.351 
  771500    296.83887   -1553.1421    477.87116    260.80773   -7.7479842    37946.351 
  771600    296.89754   -1530.6081    489.13556    294.87018    230.25255    37946.351 
  771700    309.21849   -1522.6172    506.96782    376.15021    276.64151    37946.351 
  771800    288.99559   -1538.5015    506.97526     269.2496    60.855503    37946.351 
  771900    309.21661   -1488.2101    506.81118    410.39222   -59.769784    37946.351 
  772000    299.19121   -1487.2095    483.31421    342.77134    405.15476    37946.351 
  772100    307.04534   -1472.2674    478.06829     387.8191   -253.24041    37946.351 
  772200    300.42728   -1475.3465    484.57669    361.46031   -341.56416    37946.351 
  772300    301.34224   -1490.6835    494.78759    360.45253   -511.68089    37946.351 
  772400       303.22    -1491.626    520.78628    393.96054   -180.74614    37946.351 
  772500     302.7473   -1503.1488    512.79852    372.32234   -331.99722    37946.351 
  772600    292.04274   -1505.2213     520.0913    329.36113   -610.31753    37946.351 
  772700    305.83972   -1443.7504    501.99714    434.83842   -311.06803    37946.351 
  772800    298.52085   -1475.3829    499.96936    368.23571   -337.73165    37946.351 
  772900    298.99245    -1508.416    499.21763    336.57358    457.21488    37946.351 
  773000    296.72508   -1466.7136    528.49307    397.34592     -103.288    37946.351 
  773100    299.22233   -1474.4817    491.23152    363.55647    583.38963    37946.351 
  773200     292.8895   -1471.4234     526.8498    373.72886     778.8269    37946.351 
  773300    308.24796   -1481.0901    534.26407    440.60518    1436.7563    37946.351 
  773400    295.30885   -1442.1179    495.29341    382.36754    166.50576    37946.351 
  773500    302.74319   -1454.6557    496.94853    404.94692    124.15564    37946.351 
  773600    301.84274   -1471.3654    502.54453    389.78025   -204.30929    37946.351 
  773700    295.10703   -1488.1328    491.03609    331.18685    -114.4035    37946.351 
  773800    295.52899   -1464.4079    490.54086    356.31583    106.96154    37946.351 
  773900     309.6967   -1446.1309    487.98447    435.80561    68.729832    37946.351 
  774000    286.49573   -1467.1628    508.74035    331.10152   -550.20255    37946.351 
  774100    289.31016   -1479.0831    490.31261    313.42127   -618.44055    37946.351 
  774200    294.68077   -1436.5111    511.75394    401.60783   -540.53278    37946.351 
  774300    309.64811   -1451.9267    517.92994    459.73658   -33.560985    37946.351 
  774400    297.85772   -1473.1695     516.7274     384.2224   -49.046618    37946.351 
  774500    298.99867   -1482.9706    470.65345    333.48277   -82.946449    37946.351 
  774600    296.29779   -1475.5931    492.27072    350.32082   -192.86035    37946.351 
  774700     304.6488   -1520.9698    513.67811     363.9396   -345.39567    37946.351 
  774800     290.4985   -1468.5103    505.39545     344.4257   -133.41358    37946.351 
  774900    299.57042   -1460.0029    503.92326    392.29378    365.23223    37946.351 
  775000    300.28518   -1460.5111    496.36931    387.44874    585.59642    37946.351 
  775100    295.24766   -1495.9843    491.36349    324.29581    149.60563    37946.351 
  775200    295.94975   -1459.4807    512.51194    385.10794    14.522405    37946.351 
  775300    291.59927   -1498.0686    490.85246    305.27893   -568.82352    37946.351 
  775400    291.84076    -1498.013    508.52192    324.09091   -283.60592    37946.351 
  775500    311.19018   -1468.8309    505.41297     437.2563   -70.304652    37946.351 
  775600    306.19161   -1447.6792    498.92269    429.41901    316.91446    37946.351 
  775700    302.63367   -1476.2587    505.35835    391.26083    423.84043    37946.351 
  775800    291.74118   -1516.7026    511.87111    308.30234    827.84556    37946.351 
  775900     301.6851   -1536.9871    507.26483    328.16936     455.3547    37946.351 
  776000    288.43152   -1496.0046    497.67219    299.90459   -584.91265    37946.351 
  776100    293.92772   -1469.0285    491.62695    345.57392   -167.90203    37946.351 
  776200    295.02989   -1468.6151    490.92729     350.2486   -198.12165    37946.351 
  776300    292.28082    -1490.753    504.41729    329.22706   -131.08982    37946.351 
  776400    299.99883   -1519.8935    501.34127    331.74942    67.860956    37946.351 
  776500    315.42601   -1518.3634      470.763    372.13935    368.44626    37946.351 
  776600    292.19494   -1510.0479    486.71704    291.84535   -458.57843    37946.351 
  776700     291.3255   -1491.0959    500.38294    320.54989   -496.96434    37946.351 
  776800    297.07949   -1486.3844    486.55895    337.33618   -124.04589    37946.351 
  776900    299.27881    -1471.422    513.70285    389.34177    127.43858    37946.351 
  777000    305.15164   -1442.9664    490.91771    421.44585     336.4205    37946.351 
  777100    292.94271   -1468.1886    491.94936     342.3027   -278.85775    37946.351 
  777200    304.64594   -1516.3996    487.45027    342.26909     93.51778    37946.351 
  777300    299.50684   -1457.2389    505.50326    396.35155    668.35747    37946.351 
  777400    299.84927   -1493.9744    504.51919    360.17332    682.49166    37946.351 
  777500    305.25398   -1502.8337    514.91315    386.03473    891.23371    37946.351 
  777600    301.77097   -1487.4873    518.54017    389.33105    780.34751    37946.351 
  777700    299.28439   -1484.4014    509.34853    372.03313    373.55449    37946.351 
  777800    296.96402   -1531.7012    478.68508    283.62581    176.46295    37946.351 
  777900    310.60233   -1518.9044    499.67533    378.79924    457.32939    37946.351 
  778000    307.30406   -1550.9006    496.26095    328.54298   -339.74234    37946.351 
  778100    307.66231   -1495.4207    498.66175    388.03628     104.3215    37946.351 
  778200    296.15727    -1495.202    480.08024    317.88896   -196.05101    37946.351 
  778300    292.02816   -1515.8968    490.31734    288.84609   -205.19806    37946.351 
  778400    311.18105   -1492.3651    475.24912    383.51712   -134.20925    37946.351 
  778500    305.08175   -1481.3077    496.04982    387.92214   -72.826062    37946.351 
  778600    284.47136   -1506.0482    507.39634    281.76033    320.50785    37946.351 
  778700    293.45734   -1506.9703    483.83986    297.72782    390.77766    37946.351 
  778800    303.18922   -1509.5182    514.35102    369.49459    141.04193    37946.351 
  778900    297.29428   -1519.3353    497.54631     316.3395    183.21965    37946.351 
  779000     300.1005   -1529.2294    512.76369    334.29358    884.40452    37946.351 
  779100    298.27037   -1530.6222    494.65422    306.55382    176.14783    37946.351 
  779200    299.62371   -1536.2428     463.6663     276.0368    340.30344    37946.351 
  779300    303.97538    -1542.893    502.27798    327.58516     306.7586    37946.351 
  779400    298.83753   -1508.5386    500.64924    337.18526    288.28027    37946.351 
  779500    302.94065   -1525.9232    492.06108    329.68078    374.07356    37946.351 
  779600    301.43021   -1500.1268    513.28156    369.89907    251.34573    37946.351 
  779700    299.43126    -1480.287    485.60427    353.06426    239.02818    37946.351 
  779800    299.19682   -1468.4711    526.54459    404.76528    82.323079    37946.351 
  779900    299.49375   -1517.9556    489.63903    319.71175    970.16528    37946.351 
  780000      296.782   -1495.7369    488.35924      328.445    459.39936    37946.351 
  780100    300.49848   -1484.6061     494.4761     362.4206   -553.60024    37946.351 
  780200    298.07365   -1527.4796    476.48574    290.64251    378.73808    37946.351 
  780300    293.33062   -1508.6301     502.5639    314.22172    869.20261    37946.351 
  780400    300.24593   -1464.4294    478.27012     365.2546    971.28219    37946.351 
  780500    305.41762   -1482.3712    504.32229     396.6429    309.62307    37946.351 
  780600    292.39915   -1473.2235    493.62916    336.50104   -473.97785    37946.351 
  780700    300.88996   -1421.8367    514.44912    446.92512    215.48606    37946.351 
  780800    299.33157    -1445.638    501.70939    403.36975    174.76614    37946.351 
  780900    310.48498   -1461.9893    498.83036    434.34117   -211.29812    37946.351 
  781000    295.43962   -1483.7467    482.07527     328.1091    246.45925    37946.351 
  781100    297.84564    -1493.124    483.13806    330.62418   -329.38177    37946.351 
  781200    295.36876   -1477.0611    508.41059    360.81116    356.75226    37946.351 
  781300    295.35985   -1520.2956    483.66713    292.79311   -235.60055    37946.351 
  781400    311.83517   -1482.7896    493.20966    413.99734    824.87016    37946.351 
  781500    312.02718   -1500.8218     478.2503    381.87011    626.58297    37946.351 
  781600     305.3395   -1464.4092    517.67796     427.6089    726.33922    37946.351 
  781700    298.93159   -1442.0403    519.76864    423.22634    47.438129    37946.351 
  781800    295.79906   -1444.5773    517.41589    404.23707    76.591627    37946.351 
  781900    296.03528   -1476.8705    484.04925    339.64039   -411.06401    37946.351 
  782000    303.62022   -1456.7685    517.64894    427.48212   -456.79405    37946.351 
  782100    290.37728   -1470.6159    510.95988    347.33886     68.91377    37946.351 
  782200    297.56217   -1504.6421    483.77513     318.4673    15.823186    37946.351 
  782300    305.42121    -1505.196    489.87206    359.38399    336.30605    37946.351 
  782400    303.11482   -1484.2807    477.22331    357.26947    24.625883    37946.351 
  782500    295.56881   -1488.8615    493.01789    334.51844   -258.53367    37946.351 
  782600    296.55975   -1452.0128    517.15153    399.96104    -386.3726    37946.351 
  782700    305.21205   -1481.3113    496.86423    389.31947   -418.59227    37946.351 
  782800    300.67984   -1448.7485    492.88657    397.50505   -311.06085    37946.351 
  782900    299.64544   -1450.5267    506.00565    404.19003   -491.92425    37946.351 
  783000    300.91631   -1432.2388    496.53878    418.73124   -117.64026    37946.351 
  783100    308.76876   -1445.1232    495.81776    440.46991    881.87634    37946.351 
  783200    305.52579   -1438.5891    519.06833    455.65787    669.36854    37946.351 
  783300    285.18644   -1437.4893     510.0947    356.23618    702.97834    37946.351 
  783400     300.0807   -1487.2898    499.47213     362.8525    237.59789    37946.351 
  783500    302.94991   -1480.5596    498.65629    381.68129    200.88349    37946.351 
  783600    298.88925   -1464.8129    498.56077    379.05525    101.57661    37946.351 
  783700    304.43495   -1487.2503    495.54823    378.56663      77.2137    37946.351 
  783800    305.05821   -1463.7448    487.13768     396.4669   -772.92889    37946.351 
  783900    298.08821   -1460.3236    484.67164    366.04999     -979.063    37946.351 
  784000    309.29081   -1504.3802    495.85783    383.60275   -739.90653    37946.351 
  784100    288.80478   -1516.9014    490.45043    273.46598   -424.46892    37946.351 
  784200    302.90912   -1516.0157    485.29606    332.68135   -188.41449    37946.351 
  784300    297.62696   -1477.3796    508.99541    371.24165   -692.67362    37946.351 
  784400    301.51716   -1464.3228     467.9837    360.79668   -630.86225    37946.351 
  784500    291.69076   -1480.2399    488.47135    321.13831   -703.48233    37946.351 
  784600    295.84673   -1472.6198    497.47692    356.47013   -440.89203    37946.351 
  784700    304.49838   -1465.4603    504.74401      409.838   -57.716322    37946.351 
  784800     308.0315   -1512.6687    519.65638    393.44458   -180.74469    37946.351 
  784900    296.19012   -1519.5035    483.91441    297.56948   -42.417304    37946.351 
  785000    300.82842   -1482.6168    487.93853    359.35739   -94.215942    37946.351 
  785100    299.41823   -1481.9829    508.65097    374.35643    5.9603883    37946.351 
  785200    307.79222   -1490.2785    507.28917    402.39065    351.63259    37946.351 
  785300    296.54011   -1483.2712    512.92632    364.38904    468.74952    37946.351 
  785400     304.6439    -1511.364    494.33344    354.17866   -174.53086    37946.351 
  785500    299.16683   -1524.3817    491.13639    313.31154   -39.786094    37946.351 
  785600     303.3377   -1471.5773    469.56952    363.32227    328.30563    37946.351 
  785700    314.39089   -1510.3593    499.45035    404.17172   -610.64668    37946.351 
  785800     308.8268   -1490.3836    496.42075    396.07375   -386.20813    37946.351 
  785900     301.6473   -1482.7246    511.82305    386.81988    -552.5393    37946.351 
  786000    302.41885    -1479.123    478.63335    360.70465   -433.97887    37946.351 
  786100    292.36586   -1444.5188    504.28644    375.71318    -680.8511    37946.351 
  786200    297.17272   -1462.8566    546.98004    421.70472    -743.0254    37946.351 
  786300    300.02219   -1525.9493    484.43079    308.88837   -338.06941    37946.351 
  786400    295.18172   -1523.3731     505.5386    310.78527    342.57003    37946.351 
  786500    304.35898   -1531.9389    498.54648    336.53445    236.50879    37946.351 
  786600    303.28526   -1484.8852    511.75076    391.95953   -126.11846    37946.351 
  786700    296.12125   -1513.4407    504.79933    324.20724    567.84738    37946.351 
  786800    302.97997   -1471.6914    500.05252    392.08102    60.536823    37946.351 
  786900    305.79634   -1493.7019     513.1686    395.86315   -278.93718    37946.351 
  787000    306.12876   -1487.5974    484.96683    375.26209   -195.98138    37946.351 
  787100    305.30319   -1476.2468    487.15815    385.08809   -48.764853    37946.351 
  787200    299.96166   -1485.3544    482.84124     347.6212   -400.13249    37946.351 
  787300    299.43179   -1506.1456    494.06418    335.66798    103.80061    37946.351 
  787400    300.12468   -1515.6231    490.78536    326.03038   -742.92451    37946.351 
  787500    304.47561   -1433.3225    495.39416    432.52348   -98.222878    37946.351 
  787600    289.91465   -1461.9874    514.13465    357.05985   -380.82573    37946.351 
  787700    305.25876   -1449.5522    494.42851    418.85303    191.63614    37946.351 
  787800    289.08554   -1447.1252    526.33802    380.39357    124.57405    37946.351 
  787900    296.74667   -1496.0514    492.78938    332.40166   -588.18625    37946.351 
  788000    302.44594   -1497.3487    489.22264    353.19008    -506.2535    37946.351 
  788100    305.35576   -1537.9033    496.10932    332.61938   -380.23791    37946.351 
  788200    302.27449   -1528.1508     530.0588    362.45251   -173.35562    37946.351 
  788300    295.00069   -1495.4983    497.82276    330.12935    488.46475    37946.351 
  788400    310.48689   -1482.6878    519.67478    434.49565   -144.83845    37946.351 
  788500    293.16497   -1472.3019    524.36353    371.60396   -7.6742096    37946.351 
  788600     302.3459   -1477.2365    507.77969    391.40909   -238.88279    37946.351 
  788700    300.11078   -1491.4931    506.58216    365.89463     362.7687    37946.351 
  788800     303.4396   -1461.4618    499.15837    403.48523    439.37715    37946.351 
  788900    303.24844    -1418.309    508.33971    454.95899    252.38487    37946.351 
  789000    304.15334   -1476.5908     521.0828    413.49326     429.9632    37946.351 
  789100    300.57448   -1520.3335    492.03318    324.59242    128.13222    37946.351 
  789200    303.28315   -1476.4866    520.72561    409.32347    -295.5121    37946.351 
  789300    306.83547   -1494.8203    491.91091     378.1642   -594.70143    37946.351 
  789400    297.84749   -1488.5845    520.84669    372.88065   -125.00558    37946.351 
  789500    299.42709   -1499.0155    514.54145    363.25427   -279.62924    37946.351 
  789600    296.45581   -1498.2128     491.6964     327.8381   -148.18293    37946.351 
  789700    294.79778   -1491.2735    489.39075    325.00891   -13.505746    37946.351 
  789800    293.35489   -1507.8556    511.70784    324.24934   -93.037633    37946.351 
  789900    305.90652   -1532.1397    475.19324     319.9459    84.570893    37946.351 
  790000    298.96152   -1506.0049    491.74642    331.37427     299.1864    37946.351 
  790100    314.09771   -1504.6438     481.3608    390.47808    57.093585    37946.351 
  790200    310.49203   -1473.0758    505.42559    429.88163    155.41825    37946.351 
  790300     300.2861   -1469.5976    488.53554    370.53259    268.49554    37946.351 
  790400    290.93253   -1477.9359    485.72085    317.27898    617.50819    37946.351 
  790500    286.98902   -1439.3336    524.99758    377.40814    524.68537    37946.351 
  790600     315.7821   -1486.3244    480.83747    415.85566   -107.73753    37946.351 
  790700    297.21779   -1490.5237    492.59482    339.85525    154.87529    37946.351 
  790800    283.15945   -1490.7107    490.16553    273.96205   -489.84721    37946.351 
  790900    303.73019   -1508.0103    485.05396    344.14027    326.75585    37946.351 
  791000    295.87423   -1478.8782    484.11694    336.97546    179.73765    37946.351 
  791100    286.31093    -1489.745    492.35263    291.29979   -423.02644    37946.351 
  791200    296.95141   -1475.9251    499.54249    360.20253    4.7419406    37946.351 
  791300     287.2244    -1504.102    474.20519    262.90686    15.967663    37946.351 
  791400    294.20685   -1489.1571    486.76915    321.84393    612.92807    37946.351 
  791500    290.74698   -1484.2143    502.41415    326.85877    295.87003    37946.351 
  791600    297.86317   -1471.4262    502.01133    371.27423    1061.2709    37946.351 
  791700    294.44755   -1492.2731    520.86493    353.90707    35.268907    37946.351 
  791800    307.34111   -1490.0059    522.56135    415.90489    639.24982    37946.351 
  791900    299.90962   -1543.8996     481.3648    287.36533     168.9716    37946.351 
  792000    301.06382   -1528.1692    503.44612    330.37215    381.12854    37946.351 
  792100    291.98511     -1493.14    515.46674    336.55853    442.16433    37946.351 
  792200    303.60907   -1499.8807    504.88655     371.5573    337.21404    37946.351 
  792300    296.84878   -1522.5365    499.64053     313.2273   -13.327579    37946.351 
  792400    303.11119   -1485.5413    499.25272    378.02189    129.47914    37946.351 
  792500    307.05697   -1516.0396    503.77863    369.80958   -417.33263    37946.351 
  792600     308.1349   -1521.2719    480.99177    346.64216    -224.1853    37946.351 
  792700    292.62503   -1506.1568     481.6063    292.56151    -186.9201    37946.351 
  792800    297.83195   -1493.7686    486.26841    333.04835   -94.222498    37946.351 
  792900    295.84442   -1509.6998    505.22097    327.12375   -81.327986    37946.351 
  793000    307.32274   -1475.8787    485.22469    392.61273  -0.62712418    37946.351 
  793100    289.67166   -1463.3843    486.21242    326.64697   -98.087277    37946.351 
  793200    297.65554   -1459.5498    513.56294    393.76764    530.46936    37946.351 
  793300      303.739   -1459.0125    504.47447    412.59829    -213.9303    37946.351 
  793400    305.02903   -1482.5111    481.29668    371.72829     424.4475    37946.351 
  793500    289.45109   -1501.1914    512.47866    314.11336    9.9580081    37946.351 
  793600    292.46953   -1457.1943    482.35272    341.57052    164.33327    37946.351 
  793700    299.09482   -1457.0185    495.45482    384.66903    229.13486    37946.351 
  793800    308.31938   -1466.4022    497.01418    418.36463     58.22126    37946.351 
  793900    309.75462   -1474.3367    473.28752    393.16351    117.97665    37946.351 
  794000    300.42011   -1432.5186    490.42305    410.10228    428.61191    37946.351 
  794100    298.36021   -1460.4706    468.99489    351.45049   -101.28238    37946.351 
  794200    308.88633   -1510.0408    505.67117    385.93492    98.268709    37946.351 
  794300    300.85813   -1474.3048    508.44582    388.31042    136.76796    37946.351 
  794400    293.25723   -1481.9154    488.04124    326.08348     97.95442    37946.351 
  794500    305.02542   -1503.4291    501.78014    371.27748    161.42571    37946.351 
  794600    300.74681   -1460.8706    495.50867    388.30647    355.50559    37946.351 
  794700    293.91451   -1452.3299    498.55617    369.14229   -183.98407    37946.351 
  794800    295.65764   -1459.7619     494.4129    365.41287    194.88183    37946.351 
  794900    297.35474   -1468.1141    519.92186    390.20836    130.22551    37946.351 
  795000    309.32057   -1428.6215    498.47323    462.11078    566.82563    37946.351 
  795100    304.08208    -1448.341    492.78442    413.12387    411.76941    37946.351 
  795200    293.70434   -1487.9778    499.43137    333.42361    630.33073    37946.351 
  795300    298.42439    -1515.541    476.12133    303.79542    24.063074    37946.351 
  795400    307.76179   -1528.7632    482.33773    338.81754    439.69846    37946.351 
  795500    301.88182   -1467.4931    508.98133    400.26534   -173.70331    37946.351 
  795600    310.32943    -1419.508     492.1954    469.48733   -234.06021    37946.351 
  795700    302.04153   -1429.8668     502.8258    432.45493   -74.591539    37946.351 
  795800    296.30932   -1475.3069    513.58156    371.96978   -176.75449    37946.351 
  795900    289.51727   -1418.4818    508.95423    393.59635    131.37676    37946.351 
  796000    294.30867   -1433.2818    513.53839    404.94676    176.26216    37946.351 
  796100    308.56992   -1442.0481    505.19847    452.03071   -256.58753    37946.351 
  796200    301.28109   -1457.4477    499.31035    397.93578   -115.63447    37946.351 
  796300    299.28149   -1470.1013    505.10659    382.07826    274.69166    37946.351 
  796400    290.70885   -1486.5681    500.69315    322.61227    652.52247    37946.351 
  796500    299.56784   -1463.2411    500.40528    385.52598    540.13484    37946.351 
  796600    308.29393   -1459.6145    516.09276     444.1164     426.2171    37946.351 
  796700    295.53684   -1449.7578    496.30731    376.76765    231.54125    37946.351 
  796800    307.83307   -1451.0262    510.21248    444.75006     8.039924    37946.351 
  796900    295.12401    -1439.329    497.76096    386.79203   -185.25663    37946.351 
  797000     300.3311   -1483.5146    506.07668    374.35933    22.053004    37946.351 
  797100    298.96072   -1462.4923    517.60613    400.74296    240.00645    37946.351 
  797200     298.4104   -1489.9703    505.22708     358.4089    244.81575    37946.351 
  797300    292.24666   -1515.9986    502.57147     301.9818    534.68616    37946.351 
  797400    295.75031   -1514.8367    518.94394    335.28628    322.16417    37946.351 
  797500    307.10561   -1526.5582     490.8412     346.5725    378.73641    37946.351 
  797600    292.80146   -1503.8187    509.62834    323.71584    227.31951    37946.351 
  797700    301.41781   -1475.2831    516.87802    398.28344    42.213183    37946.351 
  797800    303.03014   -1450.7417    490.06559     403.2696   -205.03157    37946.351 
  797900     300.1718   -1486.4131    487.50912    352.17624   -254.21445    37946.351 
  798000    311.02531   -1502.3701    480.57392    378.13596   -2.9694591    37946.351 
  798100    296.29943   -1477.8413    487.48611    343.29542   -273.37285    37946.351 
  798200    287.83206   -1483.0403    511.25122     323.7497   -282.54039    37946.351 
  798300    303.45993   -1505.2555    490.36412     350.9888    32.313173    37946.351 
  798400    298.39264   -1513.6886    510.18136    339.56488    824.52958    37946.351 
  798500    308.63225   -1538.4991    497.73834    348.40012    966.93909    37946.351 
  798600    306.91295   -1527.2667    484.70442    338.85998   -11.423975    37946.351 
  798700    298.40035   -1501.7958    507.02315    348.33419    391.63074    37946.351 
  798800     294.7352   -1511.2109    507.39751    322.79656     822.9317    37946.351 
  798900    301.58451   -1526.5949    485.64952    316.49349    93.084283    37946.351 
  799000    299.28053   -1474.1086    503.19621    376.15619    492.61076    37946.351 
  799100    303.26122    -1439.909    482.65975    407.73655    315.52847    37946.351 
  799200    304.59957   -1512.4811    502.90996    361.43859    292.82093    37946.351 
  799300    306.40251   -1489.7024    472.73136    362.15378    450.23602    37946.351 
  799400    303.13958   -1518.6793    508.35297    354.11193    219.75776    37946.351 
  799500    305.46504   -1506.9208    492.34438    360.32885   -149.67525    37946.351 
  799600    290.41167   -1466.3448    485.12633    325.93125   -217.81038    37946.351 
  799700    306.37629   -1471.9122    516.77155    423.86611   -264.51563    37946.351 
  799800    304.65714   -1460.1022    550.19422    461.36084  -0.19232686    37946.351 
  799900    296.81842    -1471.169    492.05847    356.87611    61.606348    37946.351 
  800000     305.0124   -1440.1685    515.24808    447.94741    54.062682    37946.351 
  800100    287.27818   -1461.8787    516.94354    348.11061   -171.98561    37946.351 
  800200    299.66163   -1495.7744    505.55549    358.56505   -176.35828    37946.351 
  800300     304.1144   -1461.8649    488.02709    394.98822   -24.496413    37946.351 
  800400    296.64598   -1493.2709    483.09804    325.03753    131.13985    37946.351 
  800500    297.44243   -1446.2218    512.50571    405.07917   -661.85188    37946.351 
  800600    296.82718   -1493.8681    485.36751    327.52545   -623.67329    37946.351 
  800700    306.35789   -1494.6254      513.836    398.13455   -650.03532    37946.351 
  800800    301.30708   -1469.2665    498.36726    385.29093   -128.62857    37946.351 
  800900    309.06692   -1485.8477    478.42597     383.6956    131.41308    37946.351 
  801000    294.02022   -1514.0252    488.18041    297.54703  -0.24130105    37946.351 
  801100    302.41464   -1505.5789    525.84039    381.43674    130.71318    37946.351 
  801200    299.45932   -1489.3936    495.36603    353.84574   -683.29337    37946.351 
  801300    298.62769   -1518.3884    468.80253    294.54433   -178.75167    37946.351 
  801400     304.9573   -1518.2381     509.6598     364.0416   -677.09224    37946.351 
  801500    300.82121    -1496.157     493.6948    351.54109   -197.91349    37946.351 
  801600     301.4431    -1478.157    513.14396    391.78928   -177.44637    37946.351 
  801700    305.20557   -1501.1115    506.20025    378.82604    352.41231    37946.351 
  801800    293.81394   -1535.1307    483.04218    270.37484   -20.471811    37946.351 
  801900    304.12164   -1538.9709    489.86517    319.75282   -464.58392    37946.351 
  802000    299.71184   -1534.4265    476.62607    291.20954   -78.646242    37946.351 
  802100    291.48484   -1525.5059    506.35661    292.83074   -52.901727    37946.351 
  802200    299.76981    -1524.097    504.50587    329.67972     182.7451    37946.351 
  802300    296.30769   -1521.8174    526.29186    338.16222    -27.67839    37946.351 
  802400    297.29175   -1533.2233    492.69022    297.58395    204.07946    37946.351 
  802500    289.23834   -1534.3654    478.34516    245.84821    279.31343    37946.351 
  802600    291.21151   -1526.4683    494.54796    278.82941   -87.135747    37946.351 
  802700    301.41651   -1514.6442    505.59894    347.63749   -327.97754    37946.351 
  802800    302.71528   -1508.8307    495.79382    349.49156   -583.87975    37946.351 
  802900    293.52928   -1538.2317    501.82873    284.77915   -390.73278    37946.351 
  803000    300.04487    -1538.573    517.63251    329.56843   -353.27888    37946.351 
  803100    305.71213   -1490.1776    534.59901    420.43874   -948.66511    37946.351 
  803200    288.99684   -1508.0171    484.59719    277.36155   -851.85715    37946.351 
  803300    289.12906   -1506.5872    494.96616     289.7556   -1156.8934    37946.351 
  803400    297.38645   -1488.9605    524.36084    373.94365   -746.54223    37946.351 
  803500    298.43659   -1476.2883     513.0535    380.03525   -257.07522    37946.351 
  803600    310.07774   -1437.2614    513.82254    472.22819    -17.29322    37946.351 
  803700    293.14502    -1490.199    509.12899    338.38251    42.598292    37946.351 
  803800    302.34791   -1494.0251    509.31259    376.16249    -369.1028    37946.351 
  803900    306.94842   -1495.6391    481.88044    367.82326    140.12998    37946.351 
  804000    291.94906   -1472.5458    528.98521    370.50884    220.36135    37946.351 
  804100     305.7062   -1518.1425    518.18515    376.03332    36.762145    37946.351 
  804200    305.97024   -1517.6652    509.64575     369.1597    614.29878    37946.351 
  804300    296.27196   -1500.0046    537.65822    371.18056    930.64661    37946.351 
  804400    296.09519   -1551.4652     521.4836    302.74975    181.82171    37946.351 
  804500    303.53482   -1556.3276    507.35143    317.24116     381.0335    37946.351 
  804600    298.45197   -1533.9444    504.03562    313.43045   -115.06901    37946.351 
  804700    295.60275   -1534.7335     531.9065    327.68787   -129.02832    37946.351 
  804800    292.90308   -1570.0611    491.55751    239.85997   -1206.0834    37946.351 
  804900    305.10315   -1562.5388    470.33316    281.07075   -625.75581    37946.351 
  805000    304.85734    -1577.544    487.73125    282.35724    160.60234    37946.351 
  805100     305.6172   -1554.2414    479.81632    301.16507    90.977134    37946.351 
  805200    297.39629   -1548.3687    497.98207    288.20098    155.06105    37946.351 
  805300    296.82295   -1522.3692    497.02601    310.66382    520.72525    37946.351 
  805400    288.23319   -1547.9449    517.00659    266.40592    227.85802    37946.351 
  805500    305.06643   -1537.9166    517.94271    353.13715     946.5365    37946.351 
  805600    318.40495   -1511.7331    506.40068    427.81558     1012.166    37946.351 
  805700    296.11768   -1549.9079    505.01843    287.94309    610.81339    37946.351 
  805800    301.05456   -1516.1442    500.83404    339.74334    118.39376    37946.351 
  805900    297.84389   -1517.1806    490.34922    313.77086   -237.92037    37946.351 
  806000    307.53946   -1504.6949    492.66943    372.21679   -124.04573    37946.351 
  806100    310.98431    -1513.308    499.60736    386.04691   -169.14239    37946.351 
  806200     299.6857   -1503.8598    508.55107    353.58359    222.46024    37946.351 
  806300    292.09089   -1492.1268    518.96839    341.54941   -479.72833    37946.351 
  806400    295.20901   -1514.7813    492.47416    306.43551   -268.58288    37946.351 
  806500    305.24436   -1504.1162    499.35537    369.15111    140.05117    37946.351 
  806600    298.72996   -1505.5771    496.44472    335.45811   -228.25566    37946.351 
  806700     295.3372   -1480.3578     508.4438    357.40558    353.52864    37946.351 
  806800    285.06002   -1467.0005    530.30282    346.36409    271.05496    37946.351 
  806900     315.4488   -1502.4908    495.17341    412.52494    756.15022    37946.351 
  807000    299.39551   -1486.3688    502.49312     363.7105     102.8029    37946.351 
  807100    307.09507   -1503.2927    534.43619    413.38555   -332.66124    37946.351 
  807200    299.90565   -1482.1816    517.03458    384.73533   -417.21532    37946.351 
  807300    298.31499   -1513.9174    517.61028    346.41558   -517.07859    37946.351 
  807400    315.07452   -1487.8712    529.96708    460.25359   -87.868513    37946.351 
  807500    293.35138   -1528.8206    498.35095    289.91172    146.46891    37946.351 
  807600    291.59545   -1490.3044    540.27014    362.44358   -309.11547    37946.351 
  807700    302.44476   -1504.4015    506.97158    363.88095   -101.99844    37946.351 
  807800    311.63746   -1500.0577    520.25362    422.88339   -157.82341    37946.351 
  807900    308.25816   -1465.7101    515.71827    437.48523   -240.65432    37946.351 
  808000    305.90277   -1512.5508    514.83938    379.16407    -91.29651    37946.351 
  808100    293.03118   -1496.1248    507.74166    330.55705    147.09888    37946.351 
  808200    307.76634   -1481.1491    522.42847    426.54281    -71.98484    37946.351 
  808300    288.81018   -1491.8694    507.56138    315.63333   -886.90821    37946.351 
  808400    294.55212   -1493.6492    476.24146     308.3782   -600.25001    37946.351 
  808500    305.70316   -1526.0422    515.84787    365.78266   -886.64175    37946.351 
  808600    293.97807   -1544.4202    499.15098    277.93292   -914.61118    37946.351 
  808700    298.67373   -1480.2774    511.35772    375.41772   -201.02876    37946.351 
  808800     291.7433    -1515.262    507.48369    305.36503   -317.69854    37946.351 
  808900     305.8967   -1528.9541    484.25288    332.14694   -158.62726    37946.351 
  809000    300.68552   -1482.6226    496.79761    367.56745   -39.790118    37946.351 
  809100    306.11041    -1522.329    494.43777    349.91883   -308.21985    37946.351 
  809200    305.71252   -1505.6052    501.18392    371.59782    157.98208    37946.351 
  809300    293.26712   -1508.2697    505.45924    317.19169   -242.02964    37946.351 
  809400    300.20492   -1502.2398    502.28533     351.2749   -185.48189    37946.351 
  809500    297.85685    -1517.204    494.21404    317.67066    192.35685    37946.351 
  809600     299.1646   -1561.8886    522.33447    306.99261    251.09111    37946.351 
  809700    298.93843   -1493.0345    516.35643    368.85074    479.93648    37946.351 
  809800    305.08943   -1522.5357     527.9788    378.65774   -493.96361    37946.351 
  809900    300.91819   -1489.4365    493.85128    358.85453   -104.76604    37946.351 
  810000    295.26974   -1528.7202    503.26486    303.56061   -375.26517    37946.351 
  810100    291.73861   -1510.5997    515.95491    318.47744   -162.15578    37946.351 
  810200    300.61776   -1505.7489     508.8676    356.20621    86.710682    37946.351 
  810300    306.16694   -1510.5841    477.54627    345.02666   -344.25381    37946.351 
  810400     294.1869   -1515.7226    532.50758    340.92701   -56.795664    37946.351 
  810500    289.83752   -1526.2221    523.91313    302.25646   -193.78775    37946.351 
  810600     306.4328    -1510.955    505.64438    373.95055   -165.24673    37946.351 
  810700    304.19974   -1484.4832    502.76006    387.48693   -225.79961    37946.351 
  810800    306.44477   -1487.0741    496.05947    388.30037   -175.18668    37946.351 
  810900    302.42988   -1532.3329    507.43489    336.34587   -335.56409    37946.351 
  811000    292.37205   -1551.0074    521.16018    286.12612   -178.36959    37946.351 
  811100    296.27472   -1520.1995    496.46044    309.80027     -608.431    37946.351 
  811200    307.56523   -1493.4456    514.91243    405.82505   -453.20794    37946.351 
  811300    305.68022   -1525.3545    504.42798    354.94722   -280.63955    37946.351 
  811400    288.52863   -1486.3626    520.99126    333.30274   -215.03408    37946.351 
  811500    302.88824   -1515.5821    513.57666    361.30153    -553.7382    37946.351 
  811600    302.57139   -1479.5966    505.46924    387.75345   -495.07345    37946.351 
  811700    288.71878   -1493.2023    519.84372    326.17132   -60.974463    37946.351 
  811800    302.17429   -1479.1074    512.21947    393.20557    115.22729    37946.351 
  811900    293.76366   -1452.8143    513.34532    382.76809    516.34505    37946.351 
  812000    295.64702   -1506.2908    508.27191    332.69526    143.83601    37946.351 
  812100    299.26498   -1488.1317    519.46263    378.32959     -161.978    37946.351 
  812200    304.00165   -1446.0258    536.42951    458.72218   -149.70275    37946.351 
  812300    283.64671   -1483.5668    507.71263    300.84624   -232.72729    37946.351 
  812400    310.12216   -1490.2659    502.02297    407.62408    -48.77315    37946.351 
  812500    297.37686   -1491.0688    518.89036     366.3217    166.67135    37946.351 
  812600    295.96872   -1498.6255    513.69124    347.22785   -129.51121    37946.351 
  812700    304.71344    -1514.887    514.36997    371.00522    167.08506    37946.351 
  812800    283.67409    -1505.178    525.36185    297.00751   -400.34929    37946.351 
  812900    308.15273   -1472.4117    545.23438    459.82528    213.01657    37946.351 
  813000    295.92658    -1523.398    471.75355    280.32798    5.1558584    37946.351 
  813100    297.83996   -1509.6068    533.71597    364.69376   -502.55497    37946.351 
  813200    303.21802   -1483.0282     521.9652    403.72832   -255.91249    37946.351 
  813300    295.55089   -1517.3886    512.19393    325.08671    74.474255    37946.351 
  813400    307.98144   -1504.4683    511.48516    393.24844     -158.061    37946.351 
  813500    291.72776   -1524.5148    520.87375    309.43239   -219.12663    37946.351 
  813600     302.9881   -1532.5277    483.05318    314.28191   -75.342147    37946.351 
  813700    301.72726   -1493.9075    499.13616    363.31008   -90.034448    37946.351 
  813800    297.89968   -1506.0483    532.96877    367.77385    129.66276    37946.351 
  813900    297.98028   -1479.7944    525.93419    387.35591   -70.008589    37946.351 
  814000    286.83136   -1502.5236    483.22082    271.73181    150.59494    37946.351 
  814100    311.95411   -1496.0028    540.76956    448.87943   -271.48433    37946.351 
  814200    310.27437   -1490.4792    508.23245    414.30537   -570.88866    37946.351 
  814300    310.93576    -1462.053    519.63524    457.11126   -317.47952    37946.351 
  814400    299.89856   -1486.6245    508.26305    371.48892   -475.51037    37946.351 
  814500    304.58618    -1454.545    536.39284    452.79734    622.53635    37946.351 
  814600    286.07835   -1478.9313    530.06365    338.77761   -398.59168    37946.351 
  814700    298.97031   -1532.3623    499.16219    312.47224   -152.70899    37946.351 
  814800    309.02759   -1500.6921    499.21873    389.46698   -781.18176    37946.351 
  814900     305.4309   -1511.1235    500.08939    363.71743   -197.46566    37946.351 
  815000    297.75056   -1551.2385    510.00868    298.95229   -306.85381    37946.351 
  815100    291.86044   -1556.7659    501.56932    258.47396   -714.45427    37946.351 
  815200    311.94911   -1551.9621    515.14618    367.27421   -336.06788    37946.351 
  815300    303.83754    -1505.867    507.29562     369.0084    32.923501    37946.351 
  815400    304.97832   -1536.2755    506.22139    342.66041    163.49666    37946.351 
  815500    303.39506   -1516.8141    533.48371     382.2578    266.70007    37946.351 
  815600    298.95774   -1574.1757    500.70988    272.14989     531.6881    37946.351 
  815700    297.65099   -1532.4015    507.24447    314.57698    578.08239    37946.351 
  815800     294.0487   -1554.6125    493.39572    262.30319     -436.145    37946.351 
  815900    292.34986    -1548.091    487.67434    255.45682    281.92172    37946.351 
  816000    305.42371   -1544.6832    505.13254    335.16854    3.7920481    37946.351 
  816100    286.78284   -1526.0004    538.84995    303.66576   -708.18543    37946.351 
  816200    306.04671   -1475.3154     510.7804    412.98835   -569.75784    37946.351 
  816300    307.86829   -1450.0195    505.93523    441.63799   -372.41752    37946.351 
  816400    290.47899   -1517.6609    508.82363    298.61543   -398.09528    37946.351 
  816500    292.55915   -1529.1816    510.72332    298.35725   -499.01767    37946.351 
  816600    296.96436   -1497.6855    518.67044    357.62839   -740.98705    37946.351 
  816700    287.42225   -1502.8746    527.51372    318.33337   -130.75482    37946.351 
  816800    304.27028   -1466.7732    511.39072    414.14515     536.7871    37946.351 
  816900     294.7078   -1523.7202    516.72911    319.49553   -294.06899    37946.351 
  817000    297.76908   -1565.1473    502.90797    278.02623    15.500115    37946.351 
  817100    311.56927   -1510.3932    496.14695    388.13425    273.75702    37946.351 
  817200    313.53754    -1512.468    510.00594    408.77772    331.41405    37946.351 
  817300    299.04384   -1526.4242    512.39995    331.97905    271.69214    37946.351 
  817400    295.28862   -1514.4396    509.66399    324.32527    726.23902    37946.351 
  817500    288.47742   -1493.3467     539.2455    344.34235   -567.90134    37946.351 
  817600    293.05659   -1500.1685     515.6029    334.48889   -167.64431    37946.351 
  817700     295.5564   -1479.5281    519.22047    369.99856    89.085022    37946.351 
  817800    310.00191   -1446.9136    552.45114    500.86333    173.53667    37946.351 
  817900     294.2944   -1466.8686     495.9285    353.68579    -174.4236    37946.351 
  818000    305.19244   -1463.0877    513.08586    423.67635   -93.911179    37946.351 
  818100     295.4227   -1511.7098    548.49069    366.48534    343.44368    37946.351 
  818200    301.11548   -1514.3259    498.00531    339.00719    -147.3602    37946.351 
  818300    309.12217   -1507.7407    521.69873    405.32406   -16.336143    37946.351 
  818400    298.55214   -1502.2018    513.21718    354.80544   -197.63378    37946.351 
  818500    307.48706   -1503.3953    519.23518    399.84626    83.902655    37946.351 
  818600      306.102   -1515.0099    536.24532    399.00765    100.61512    37946.351 
  818700    306.15938   -1556.4296    518.67131    340.27223    370.96696    37946.351 
  818800    295.97762   -1513.7251     508.2244    326.70147    143.43602    37946.351 
  818900    295.01021   -1490.8835    514.14837    351.11268    155.11187    37946.351 
  819000    297.20117   -1492.9529    531.92996    376.68638   -33.665783    37946.351 
  819100    302.81537   -1490.7729    515.12473    387.33086   -170.93949    37946.351 
  819200    291.78431   -1465.4243    530.71393    378.61755   -340.85168    37946.351 
  819300    301.63072   -1482.7029    528.04582    402.98984    80.619263    37946.351 
  819400    303.51401   -1508.2033     522.7729    380.69321   -351.07318    37946.351 
  819500    301.36131   -1516.9199    492.87079    332.38514    -408.1958    37946.351 
  819600     295.1656   -1486.4443    529.32312    371.42598   -87.576426    37946.351 
  819700    305.35441   -1503.7607     535.2965    405.94305   -214.04952    37946.351 
  819800    291.47813   -1538.9402    510.63549     283.6451    165.48773    37946.351 
  819900     297.0792   -1509.9998    518.51258    345.67316   -247.26444    37946.351 
  820000    292.66808   -1504.1927    496.06736    309.18044   -856.95936    37946.351 
  820100    294.14048   -1464.1311    519.90287    379.70491    -774.8876    37946.351 
  820200    302.66309   -1517.8673     494.5031    338.92943   -498.17068    37946.351 
  820300    295.65217   -1483.4628    507.84251    355.11693   -658.41402    37946.351 
  820400    293.52109   -1529.2905    510.89675    302.75144    5.9724868    37946.351 
  820500    309.71111   -1546.1958    522.56618    370.38721    157.93083    37946.351 
  820600    300.53905   -1541.6657    506.12911     317.1966    372.99918    37946.351 
  820700    304.73063   -1544.0356     502.7953     330.3593   -154.92424    37946.351 
  820800    291.77142   -1533.8937    528.82308    308.19929   -787.77069    37946.351 
  820900    301.68826   -1527.1477    516.11257    346.87077    255.70889    37946.351 
  821000    308.91005   -1518.2753    528.57231    400.70835   -141.85866    37946.351 
  821100    311.75296   -1537.6604    491.04337    356.59022   -120.66305    37946.351 
  821200    295.69584   -1522.2813    502.87113    311.52361    68.954872    37946.351 
  821300    291.77702   -1545.0114    535.83426    304.11796   -15.770208    37946.351 
  821400    308.19621   -1540.5026    530.13072    376.82636    366.17409    37946.351 
  821500    297.75408   -1518.2538    530.36546    352.30971   -63.890262    37946.351 
  821600    304.72225   -1519.4011    526.01509    378.17588     -60.9744    37946.351 
  821700    306.94485   -1536.9463    492.47998    337.09956   -117.32357    37946.351 
  821800     303.5602   -1558.9775    511.82083    319.17484   -552.21384    37946.351 
  821900    309.67404   -1571.4514     496.9609    319.35954   -681.91582    37946.351 
  822000    291.70091   -1525.0963    526.04863     313.9049   -525.37651    37946.351 
  822100    306.03896   -1510.4395    523.18787    390.23685   -302.84805    37946.351 
  822200     300.4455   -1527.5104    513.69493    338.49666   -497.76746    37946.351 
  822300    299.50959   -1487.4358     488.1444    348.80817   -228.23351    37946.351 
  822400    299.55906   -1490.5799    516.26178    374.00412    346.85412    37946.351 
  822500    294.58496   -1524.9905    523.75896    324.70216   -167.67274    37946.351 
  822600    283.82673   -1558.9359    529.26522    247.84003    6.6308858    37946.351 
  822700    294.98728   -1539.4122    518.82726    307.15968    755.43105    37946.351 
  822800    300.26426   -1471.4579    504.09613    384.13463    11.562832    37946.351 
  822900    303.50382   -1499.2279    542.84169    409.69157    510.29963    37946.351 
  823000    294.37764   -1500.1975    523.46789    348.27099    51.675173    37946.351 
  823100    296.52399   -1518.3641    507.82026    324.11753    177.78184    37946.351 
  823200    312.74269   -1516.3828    498.19074    389.47004     428.1429    37946.351 
  823300     300.9753   -1515.9352    519.56141    358.32302    18.842094    37946.351 
  823400    309.74986   -1544.9822     528.7592    377.96835   -184.90253    37946.351 
  823500    304.31662   -1533.1945    523.79724    360.33887    67.134355    37946.351 
  823600    290.58185    -1534.649    514.23895    287.50555    118.53179    37946.351 
  823700    290.18379   -1508.2515     508.0807    305.95313   -96.613893    37946.351 
  823800    301.79413    -1528.186    520.97768    351.17411    -129.5696    37946.351 
  823900    294.30355   -1545.7472     497.9364    276.85626    28.022985    37946.351 
  824000    312.65826   -1580.4745    509.43948    336.24706   -57.715326    37946.351 
  824100    292.80654    -1573.801    495.40377    239.53177    165.02588    37946.351 
  824200    296.53443   -1537.1574    523.56494    321.11584   -422.60532    37946.351 
  824300    297.96048   -1506.5623    522.81734    357.38204   -310.51935    37946.351 
  824400    297.81782   -1522.6471    510.21904    328.05681   -876.10344    37946.351 
  824500     307.0376   -1501.4955    516.30091    396.78879   -455.57502    37946.351 
  824600    309.55604   -1522.5873      507.274    378.00567    127.16146    37946.351 
  824700    295.16635   -1528.0479    519.71611    320.21883   -594.91964    37946.351 
  824800    308.40387   -1541.7694    508.45207     354.8156    610.33027    37946.351 
  824900    289.70135   -1556.6694    500.35289    247.63596   -385.55557    37946.351 
  825000    298.76547   -1528.0281    535.18313    351.90531   -224.08279    37946.351 
  825100    290.00394   -1545.4272       503.09    262.97727    97.427348    37946.351 
  825200    288.84528   -1538.7535    539.46515    300.81095   -441.03639    37946.351 
  825300    295.61024   -1509.4488    508.20945    329.30916   -266.48716    37946.351 
  825400    303.64029   -1506.4293    498.80984    359.07256   -373.70562    37946.351 
  825500    302.20088   -1509.9756    513.16779    363.40533    -551.7032    37946.351 
  825600    295.60531    -1521.173    506.47786    315.83125   -695.08204    37946.351 
  825700     283.2344   -1526.1552    504.84324    253.53261   -571.85041    37946.351 
  825800    302.77728   -1568.1587    520.02365     314.6725   -368.37924    37946.351 
  825900    292.28193    -1542.584    514.07077    287.05456    355.46532    37946.351 
  826000    293.65887   -1565.9433    500.90481    256.72694    419.02953    37946.351 
  826100    298.79134   -1572.9893    510.26141    282.13885    275.86523    37946.351 
  826200     295.0517   -1533.2599    527.23378    322.00844    1280.8697    37946.351 
  826300    302.01125   -1560.4037    509.33545    308.29137    228.84004    37946.351 
  826400    295.18507   -1519.3937    505.37903    314.62014    441.99809    37946.351 
  826500    294.16741   -1542.4534    507.52551    289.12642    336.69122    37946.351 
  826600    307.16309   -1527.8162    505.55299    360.28503   -84.003923    37946.351 
  826700    324.96861   -1515.0274    508.98531    456.64914    187.43124    37946.351 
  826800    297.60043   -1502.7191    527.27388    364.06118    138.90289    37946.351 
  826900    306.88129   -1502.4488    502.61502    381.44602   -64.637163    37946.351 
  827000    297.75759    -1505.863    518.11728     352.4681    917.40866    37946.351 
  827100    295.35899   -1534.7215    529.55126    324.24745    418.34417    37946.351 
  827200    302.34287   -1532.4737    519.92902     348.3076    380.54214    37946.351 
  827300    298.63654   -1533.5011    509.46775    320.13661    928.46311    37946.351 
  827400    285.29551   -1525.9904    553.43424    311.56552    993.60019    37946.351 
  827500    302.14444   -1503.9633     505.3906    361.38646    706.70304    37946.351 
  827600    304.74434   -1565.0623    524.07927    330.67832    284.57536    37946.351 
  827700    297.56331   -1572.9251    510.31219    276.72646   -237.44431    37946.351 
  827800     293.6087   -1572.5684     504.9172    253.88838   -975.72763    37946.351 
  827900    303.84147   -1543.5485    524.43063    348.47959    27.840931    37946.351 
  828000    300.40495   -1564.7751    501.67463    289.02918    -325.2336    37946.351 
  828100    307.15831   -1530.5305    511.59161    363.58775    519.55565    37946.351 
  828200    301.71277   -1539.9536    530.56888    348.63144    628.45023    37946.351 
  828300    296.50506   -1543.2923    493.90425    285.18815    348.89883    37946.351 
  828400    302.95376   -1535.4464    537.57071    365.72623   -6.6429836    37946.351 
  828500    307.87863   -1523.5296    510.77583    373.01509   -57.959108    37946.351 
  828600    301.05638   -1547.5172    528.32337    335.86792     36.64458    37946.351 
  828700      301.995   -1483.2897    516.29236    392.28913     216.5649    37946.351 
  828800    299.01391   -1502.5539    534.02073    377.33538    499.57038    37946.351 
  828900    298.40431   -1439.9501    531.77507    434.94969    259.06232    37946.351 
  829000    348.16096   -1464.2756    514.12965    616.93457   -227.07548    37946.351 
  829100    301.68138    -1500.583    495.95268    353.24453   -616.07975    37946.351 
  829200    300.23397   -1506.8605    524.65567    369.15529   -785.11954    37946.351 
  829300    303.81679   -1475.9021    509.26035    400.84462   -852.34831    37946.351 
  829400    297.04455    -1485.596    507.66388    359.07231    -413.6679    37946.351 
  829500    308.71992   -1515.9549    520.65972    394.26034   -396.46441    37946.351 
  829600    298.48649   -1514.5964    521.25655    350.15472   -20.534574    37946.351 
  829700    298.88461   -1538.0959    512.94624    320.13686    275.05069    37946.351 
  829800    303.34507   -1522.3141    503.07779    346.12694    119.97658    37946.351 
  829900    303.49303   -1516.3438    492.55628    342.24158    373.12429    37946.351 
  830000     306.0689   -1525.5471     510.4997     362.5758    60.859775    37946.351 
  830100    294.81415   -1501.9537    520.02785    345.03944   -435.35335    37946.351 
  830200     299.4114   -1472.7967    490.73817    365.59909   -409.04927    37946.351 
  830300    300.78503   -1510.5349    530.45999    373.76545   -521.30972    37946.351 
  830400    292.25212   -1494.7042    486.44722    307.17656   -18.196065    37946.351 
  830500    292.12607   -1502.2117    542.66439    355.31888     453.2989    37946.351 
  830600    296.96114   -1475.1263    527.14586    388.64855     108.2481    37946.351 
  830700    312.04611   -1455.4275     494.1591    443.25843    756.66546    37946.351 
  830800    296.96399   -1519.3758    496.34099    313.60697    208.00826    37946.351 
  830900    298.65422    -1560.432    493.36302    277.18056    334.63242    37946.351 
  831000    301.36242   -1565.0347     509.0015    300.40601    230.49283    37946.351 
  831100    293.68926   -1541.4544    481.06874    261.51647   -286.88166    37946.351 
  831200    295.39386   -1511.1814    498.38098    316.77421    713.91494    37946.351 
  831300    302.93607   -1489.3119    504.16109    378.37141     505.7904    37946.351 
  831400    302.60477    -1492.133    493.58482    363.48288      155.541    37946.351 
  831500    291.19812    -1535.493    512.47628    287.67279    725.77527    37946.351 
  831600    299.35302   -1499.4574    493.15216    341.08966   -77.934449    37946.351 
  831700    303.04408   -1503.8768    494.31913    354.45072    48.541611    37946.351 
  831800    293.85916    -1480.029    524.55705    367.19497    261.16638    37946.351 
  831900    300.28415   -1467.8301    504.82173    388.57752    415.44597    37946.351 
  832000    304.95984    -1455.817    520.15376    436.96806    316.03607    37946.351 
  832100    301.04423    -1441.999    528.08346    441.09148   -52.028949    37946.351 
  832200    299.66436   -1471.4256    527.35397    404.72457    537.68016    37946.351 
  832300    296.00972    -1476.011    523.80531    380.14097   -12.128925    37946.351 
  832400    290.43906   -1466.2624    501.51884    342.52934   -331.44864    37946.351 
  832500    285.60093   -1464.0666       494.22    315.64981    384.24296    37946.351 
  832600    295.75135        -1430    518.09636    419.28002    313.85541    37946.351 
  832700    303.57461   -1403.6663    542.29874    505.02883    573.97384    37946.351 
  832800    312.06936   -1397.2587     494.8011    502.17381    668.60857    37946.351 
  832900    307.77391   -1465.9775     517.8607    437.18072    573.79058    37946.351 
  833000    297.15517    -1476.208    519.51348    380.80777    512.66806    37946.351 
  833100     299.5852   -1460.3013    500.16441    388.30307    244.02949    37946.351 
  833200    302.81406   -1457.1902    494.91388    400.69674    185.00235    37946.351 
  833300    307.33847   -1484.0811     513.5718    412.82832    145.88346    37946.351 
  833400    297.39243   -1484.4019     489.4421    343.61041   -240.60673    37946.351 
  833500    298.61793   -1460.8472    517.00568    400.24466   -220.30293    37946.351 
  833600     305.9605   -1461.6517    497.78552    413.26913    45.762055    37946.351 
  833700    294.35899   -1476.3822    481.50355    330.03801    33.302287    37946.351 
  833800    308.50238   -1479.6762    508.68234    417.58254    406.69344    37946.351 
  833900    294.23665   -1465.6641    508.87016    367.57204    696.61506    37946.351 
  834000    298.56561   -1457.7293    504.30233    390.42379   -34.138031    37946.351 
  834100     304.9947   -1466.7945    494.53239     400.5261    147.65869    37946.351 
  834200    319.40585   -1469.8675     490.6082    458.39381    164.90722    37946.351 
  834300    291.95799   -1471.3364     495.0258    337.79906   -173.83705    37946.351 
  834400    304.63419   -1466.9647      510.938    415.13884     84.44042    37946.351 
  834500    296.54612   -1512.3798    500.55113    322.93224   -288.77529    37946.351 
  834600    300.62784    -1467.113    527.40504    413.42493    207.83011    37946.351 
  834700    300.34398   -1443.1503      496.014    404.71888    151.46741    37946.351 
  834800    296.52624    -1539.474    476.80916    272.00663    234.13603    37946.351 
  834900    302.38849   -1545.5513    506.05722     321.5635    94.596672    37946.351 
  835000    302.77139   -1513.6347    483.70065    332.84701    -28.36377    37946.351 
  835100    309.47287   -1478.7189    479.09619    393.32182      66.3158    37946.351 
  835200    293.18057   -1521.4753    491.33176    289.46899    142.97956    37946.351 
  835300    301.90336   -1490.6735     488.7783    356.97884    -129.3614    37946.351 
  835400     317.7452   -1466.7352     513.3745    476.81775   -243.30196    37946.351 
  835500    306.32351   -1467.0936    477.77135    389.44698    346.32962    37946.351 
  835600    299.34697   -1493.2501     500.0291    354.14668   -280.27629    37946.351 
  835700    299.92739   -1482.0701    500.53751    368.44756   -359.09373    37946.351 
  835800    302.42467   -1468.8317    492.35783    384.74654   -700.15523    37946.351 
  835900    304.83929   -1445.6103    516.72992     443.2084   -115.59829    37946.351 
  836000    295.75789    -1465.322    510.66214    376.55323   -143.46287    37946.351 
  836100    289.77242   -1479.6061    492.77239    317.43861   -32.235415    37946.351 
  836200    304.84813   -1487.3122    534.73501    419.55134    593.23032    37946.351 
  836300    310.88927   -1453.7188    502.18941    447.79041    97.660074    37946.351 
  836400     293.2497   -1478.5801    502.73708    344.08071    -322.4953    37946.351 
  836500    305.96415   -1461.4341    510.07642      425.794    147.70803    37946.351 
  836600    307.61324   -1487.6083    506.83197    403.79801   -247.04147    37946.351 
  836700    295.01114   -1459.5105    494.57466    362.91619   -143.82037    37946.351 
  836800    300.27007   -1476.8532    501.33071    376.00003    -162.2758    37946.351 
  836900    296.07091   -1460.6929     492.8435    364.77259    365.59247    37946.351 
  837000    301.95567   -1490.5475    477.73261    346.29463    539.56943    37946.351 
  837100     285.3764   -1518.9392    486.26192    251.80853    514.31157    37946.351 
  837200    307.36753   -1483.8459    500.46666    400.08914    468.29276    37946.351 
  837300    293.69746   -1465.7902    495.85213    352.00097   -128.38631    37946.351 
  837400    311.16841   -1463.4036    498.33874    435.51141    139.40233    37946.351 
  837500     309.0476   -1480.8937    516.39875    426.53552    148.27679    37946.351 
  837600    293.72667   -1491.0618    480.39307    311.40178    87.972511    37946.351 
  837700    303.24035   -1498.5813    480.97443    347.28497    71.215351    37946.351 
  837800    297.64009   -1489.9802    504.68677    354.39153    101.51787    37946.351 
  837900    309.26093   -1438.4078    487.22166    440.80446   -24.251887    37946.351 
  838000    291.96122    -1505.921    490.37932     298.5826   -346.75056    37946.351 
  838100     293.6924   -1486.0417    483.13068    319.00526    227.47147    37946.351 
  838200     305.3878   -1478.8841    482.52413    378.19755     331.3194    37946.351 
  838300    298.00603   -1448.9913    500.61839    392.95918    452.00737    37946.351 
  838400     297.6334   -1483.7798    520.15218    376.02717    269.16894    37946.351 
  838500    292.47551   -1459.1364    490.23735    347.53998    611.51087    37946.351 
  838600    305.77282   -1469.8383    482.63751    389.08973    186.31342    37946.351 
  838700    296.71795    -1430.577    515.31743    420.27479    37.787944    37946.351 
  838800    309.73456   -1487.8506    500.81783    407.08966    54.153112    37946.351 
  838900    291.03445   -1461.6158      528.635      376.972    265.82943    37946.351 
  839000    288.81162   -1466.2655    493.09645    326.77869   -105.54969    37946.351 
  839100    302.76853    -1439.686    492.96243    416.04458    238.29951    37946.351 
  839200    299.12364   -1456.6588    473.59597    363.29957   -452.77346    37946.351 
  839300    294.08759   -1458.8669    514.52384    379.35202   -30.185308    37946.351 
  839400    311.83591   -1418.6163    515.19782    500.16221   -39.783735    37946.351 
  839500    298.73037   -1475.8601    506.40803    375.14023    -184.4767    37946.351 
  839600    309.90459   -1467.6176    497.27129    424.54145   -182.83238    37946.351 
  839700    298.77101    -1481.764    522.19634    385.20753   -91.401239    37946.351 
  839800     314.0203   -1501.4172    501.32892    413.32441   -375.13167    37946.351 
  839900    297.46042   -1484.9395    508.97422    362.91093    235.00014    37946.351 
  840000    302.42982   -1497.8783    479.08174    342.44703    31.968507    37946.351 
  840100    303.02592   -1453.9271     495.6365    405.63608    127.65624    37946.351 
  840200    301.63344   -1477.8409    491.73521     371.5534    278.13984    37946.351 
  840300    308.08474   -1489.5906    474.61143    371.71742    216.41567    37946.351 
  840400    301.69031   -1434.1964    496.34877    420.06749   -45.734394    37946.351 
  840500    297.15958   -1471.7798    474.56884    340.31119   -821.08903    37946.351 
  840600    309.42499   -1433.1478    485.97429    445.55551   -324.62651    37946.351 
  840700    305.80272   -1408.4305    518.95647    486.95108   -281.57823    37946.351 
  840800    298.08765   -1454.1599    506.24435    393.78391    78.504379    37946.351 
  840900    296.37752   -1454.1126     516.6613    396.55076   -257.82694    37946.351 
  841000    299.91599   -1420.6697    505.60833    434.86745    -468.7882    37946.351 
  841100    298.09245   -1445.2339    502.51132    398.99844    -142.2001    37946.351 
  841200    308.27932   -1460.1956    497.85601    425.23279     134.0792    37946.351 
  841300    300.25674   -1477.4617    499.70746    373.70831    122.54723    37946.351 
  841400    299.19928   -1483.2698    503.52297    366.95607   -170.52621    37946.351 
  841500    307.05661   -1461.2844    492.54588     413.3304   -203.31128    37946.351 
  841600    298.50183   -1460.2142    495.80757    379.15707   -227.28302    37946.351 
  841700     304.6933   -1446.6626    492.75807    417.52713   -535.99249    37946.351 
  841800    296.98627   -1453.5496    510.02056    393.21309   -75.240389    37946.351 
  841900    291.05953   -1469.9837    488.48115    328.56317    23.419022    37946.351 
  842000    293.09615   -1422.7363    489.06204    385.55827   -363.91992    37946.351 
  842100    308.82872   -1471.5639    545.28039    463.76177    31.926468    37946.351 
  842200    303.51179   -1499.4546    476.26548    342.92445   -55.582519    37946.351 
  842300    311.80356   -1459.5504     479.2978    423.18246    492.17693    37946.351 
  842400    303.81568   -1458.4909    504.82829    413.81882   -236.96811    37946.351 
  842500    309.86086   -1496.4366    466.09676    364.35108   -93.356322    37946.351 
  842600    297.88378   -1478.5701    507.32066    369.53231   -357.34943    37946.351 
  842700    301.68873   -1467.4655    499.74065    390.18315   -20.405352    37946.351 
  842800    291.61552   -1455.5197    502.77581    359.82432   -37.122453    37946.351 
  842900    292.53234   -1447.3281    509.87285    379.23963   -258.01763    37946.351 
  843000    301.43007   -1408.5699    527.58382    475.75768    47.475685    37946.351 
  843100    297.07914   -1493.8884    471.85909    315.13075   -109.09074    37946.351 
  843200    311.09483   -1437.3263    502.10264    465.02134    141.02874    37946.351 
  843300    303.50643   -1477.5028    506.26493    394.85162   -392.18748    37946.351 
  843400    298.72059   -1502.6443    493.70268    335.60663   -189.58339    37946.351 
  843500    299.03569   -1483.7933    504.75074      366.924    168.82476    37946.351 
  843600    295.80295   -1478.8382    480.29236    332.87011   -386.95504    37946.351 
  843700      298.333    -1463.657    506.95344    386.10023   -529.03848    37946.351 
  843800      304.921   -1444.4727    490.03167    418.01548     243.1257    37946.351 
  843900    300.69511   -1456.8691    498.96592    395.53249    642.44115    37946.351 
  844000    285.95992   -1469.2956    500.98304    318.79962    301.05279    37946.351 
  844100    296.44177   -1495.1287    476.37611     315.5387    946.23187    37946.351 
  844200    303.21593   -1466.9003    476.15562    374.03727    588.59395    37946.351 
  844300     304.8072   -1472.6939    500.22792    399.47833    241.93476    37946.351 
  844400    307.09444   -1465.7949    506.37338    422.81769    11.067594    37946.351 
  844500    309.03016    -1440.106    507.52054    458.36643    134.52997    37946.351 
  844600    298.37921   -1454.1761    514.98457    403.82021   -409.92656    37946.351 
  844700    298.83749   -1445.1846    517.50407    417.39396   -37.795015    37946.351 
  844800    311.91063   -1489.0781    524.16443    439.00334   -154.26283    37946.351 
  844900    299.20506   -1479.9053    502.07432    368.89787    -597.4551    37946.351 
  845000    301.15328   -1460.8013    499.07056    393.76715    57.700577    37946.351 
  845100    305.61615    -1520.693    489.51094    344.40332   -608.39327    37946.351 
  845200     300.0555   -1511.3926    488.71307    327.87724   -159.28423    37946.351 
  845300    306.74059   -1513.9304    511.63985    378.35598    147.29102    37946.351 
  845400    302.44223   -1474.4691    507.62116    394.45153     637.5393    37946.351 
  845500    290.88227   -1512.7455    475.75482    272.27714    193.98254    37946.351 
  845600    293.13117   -1549.2105    520.81771    290.99744   -77.875173    37946.351 
  845700    303.65303   -1533.8208    515.25807    348.18658     32.07036    37946.351 
  845800    295.66293   -1518.7434    498.58631    310.62863    -300.1274    37946.351 
  845900    299.83055    -1499.666    514.17949    364.05774    -293.6229    37946.351 
  846000    292.89897   -1496.4353    489.16346    311.07319   -525.18989    37946.351 
  846100    297.67521    -1494.979    491.73021    336.59429   -724.75118    37946.351 
  846200    304.59916   -1504.5817    517.48423    383.91039    151.73074    37946.351 
  846300    305.48648   -1500.6291    490.47139    364.84408    425.95699    37946.351 
  846400    299.18119   -1495.0167    500.17258    351.77734   -1.2324424    37946.351 
  846500    303.81123    -1517.248    495.02329    345.23674    250.68699    37946.351 
  846600    299.06247   -1509.2961    492.41753    329.20851     586.3136    37946.351 
  846700    292.57545   -1480.7902    493.79671    329.89538    1109.6669    37946.351 
  846800    297.25914   -1498.1828     500.5268    340.31432    837.28404    37946.351 
  846900    298.33593   -1507.6652    490.22555    325.37732    215.41661    37946.351 
  847000    306.85019   -1520.0005    505.23542    366.37473    211.94311    37946.351 
  847100    306.25828   -1492.1618    485.32478    371.63856    283.43056    37946.351 
  847200     299.9635   -1487.5137    517.32227    379.95121    180.09391    37946.351 
  847300    292.23439   -1503.7665    481.68737    293.27467   -399.36692    37946.351 
  847400     302.0346   -1514.2707    529.24394    374.43802    229.71485    37946.351 
  847500    294.41676   -1510.4647    504.53962    319.25156    473.47179    37946.351 
  847600    296.49903   -1484.9802    480.93272    330.50149    243.35286    37946.351 
  847700    295.34703     -1504.28    490.59575    315.67954   -781.14804    37946.351 
  847800    303.95587   -1507.5515    502.62127    363.18213   -111.94116    37946.351 
  847900    287.16411   -1546.7149    498.28947    244.10686    236.24172    37946.351 
  848000    297.36061   -1512.3214    491.29023    317.39584    454.22981    37946.351 
  848100    300.66311   -1478.2796    500.13279     375.1448   -1.5534582    37946.351 
  848200    302.01496   -1509.6455    508.22454    357.95539   -288.68708    37946.351 
  848300    292.12819   -1470.7103    493.49732    337.66279    3.1308961    37946.351 
  848400    313.31539   -1489.0387    486.90617    408.10734   -467.86612    37946.351 
  848500    295.77545   -1504.1793    501.72376    328.83664    -764.0744    37946.351 
  848600    309.07987   -1483.4554    484.55249    392.27272    -941.9412    37946.351 
  848700    302.00164     -1532.55    493.55559    320.32193   -821.18239    37946.351 
  848800    313.17492   -1507.1275    514.35469    416.83478   -198.46145    37946.351 
  848900    310.95737   -1505.0885    493.13549     387.6733    241.61976    37946.351 
  849000    300.19808   -1468.3777    495.25157    378.07237   -349.65477    37946.351 
  849100    303.98113   -1457.4623    500.70095    411.46478   -7.4717416    37946.351 
  849200    303.90234   -1471.1934    490.56146    387.23959   -61.719689    37946.351 
  849300    293.14069   -1483.3462    506.23833    342.32514   -284.28405    37946.351 
  849400    290.92102   -1478.9879    486.13223    316.58659   -264.96132    37946.351 
  849500    301.43306   -1495.8538    489.79863    350.70195   -324.45791    37946.351 
  849600    291.19663   -1496.5351    484.23497    298.38265   -245.53507    37946.351 
  849700    306.74434   -1497.3275    518.30753    401.64335    98.920005    37946.351 
  849800    289.95216   -1477.6421    497.45907    324.89835    134.97987    37946.351 
  849900    302.96258    -1548.786    489.04753    303.90314   -866.93168    37946.351 
  850000    290.89302   -1521.2696    480.31339    268.36002   -593.09142    37946.351 
  850100    304.29391   -1519.5899    484.36578    334.40986   -1069.4848    37946.351 
  850200    303.60675   -1526.9014    493.76731    333.40698   -405.38565    37946.351 
  850300    298.56858   -1504.8483     498.0395     337.0553   -108.50649    37946.351 
  850400    303.08965   -1495.9161    506.94285    375.24031    29.897209    37946.351 
  850500    306.89864   -1472.1256    507.96395    417.19622   -434.38998    37946.351 
  850600    300.05948   -1502.5494    509.27382    357.29907   -497.63702    37946.351 
  850700    293.50953   -1490.5024    499.26087    329.85171   -226.64048    37946.351 
  850800    304.40862   -1456.9191    495.03983    408.27097    169.83432    37946.351 
  850900    298.40734   -1436.0052    527.98663    435.11973    291.29658    37946.351 
  851000    294.64757   -1528.7612    504.49831    301.95262    293.58779    37946.351 
  851100    303.34244   -1460.4638    498.39536    403.28285    552.16722    37946.351 
  851200    288.76573   -1442.1636    502.72562    360.30325    210.72429    37946.351 
  851300    300.04467   -1478.5859    499.36208    371.28424    471.02909    37946.351 
  851400    308.47311   -1504.1212    494.45582    378.77924    755.55331    37946.351 
  851500      300.737   -1488.3848    489.76264    355.00203     288.7839    37946.351 
  851600    290.27549   -1445.0704    499.85699    361.32329    638.47276    37946.351 
  851700    296.13532   -1473.2745    491.81875    351.45618    622.04527    37946.351 
  851800     295.0946   -1490.1232    508.64744    346.75188    259.98543    37946.351 
  851900    294.69663   -1524.6417    494.66386    296.45857   -86.339939    37946.351 
  852000    303.14008   -1531.4578    474.52254    307.50524   -665.54509    37946.351 
  852100    294.76865   -1502.9079    499.26139    323.11406   -586.07007    37946.351 
  852200    304.39508   -1486.5101    481.75198     365.3312   -753.00206    37946.351 
  852300    305.11348   -1476.6075    489.13624     385.8516   -573.01973    37946.351 
  852400    298.48189   -1541.9313    498.75127     300.2939   -487.67286    37946.351 
  852500    300.75197   -1521.3887     499.5463    331.84916    254.29603    37946.351 
  852600    306.47622   -1469.2311    506.47008    416.69557   -181.97945    37946.351 
  852700     303.1953   -1458.0479    507.75902    414.40016   -136.61464    37946.351 
  852800    304.43989   -1458.7431    498.04469    409.59264   -209.57738    37946.351 
  852900    300.56234   -1469.8612    502.52693    385.50377   -214.89564    37946.351 
  853000    309.07895   -1454.5982    484.53537    421.10871   -91.875436    37946.351 
  853100    301.53051   -1513.9038    503.63283    346.92483   -163.45669    37946.351 
  853200     293.7904   -1506.7064    496.39032    312.04137    -498.6389    37946.351 
  853300    305.89938   -1506.6781    498.01156     368.1937    315.57081    37946.351 
  853400    296.91184    -1486.424     506.9091    356.89214    826.87419    37946.351 
  853500    289.80101   -1457.9737    502.32193    348.74923    707.30333    37946.351 
  853600    303.69197   -1482.1459     486.2601    371.03878     490.7511    37946.351 
  853700    288.87782   -1505.9692    499.65892    293.93551     460.5632    37946.351 
  853800    295.41943   -1502.4414     492.1115    319.35979    457.42376    37946.351 
  853900    314.30157   -1479.1516    477.10906    412.63612    408.20134    37946.351 
  854000    307.55862   -1488.7153     504.5734    400.18661    502.31488    37946.351 
  854100    297.57261   -1455.1151    509.55298     393.8191    509.93762    37946.351 
  854200    303.01142   -1484.9838    482.21621    361.09388    503.21037    37946.351 
  854300    294.59353   -1487.0036     501.2948    340.26349   -75.744581    37946.351 
  854400    309.64882    -1496.036    481.71176    379.41227     63.18271    37946.351 
  854500    293.39016   -1466.7347    509.99876       363.82   -308.89242    37946.351 
  854600    298.71119    -1484.058    520.63614    381.08407    366.94228    37946.351 
  854700    306.07304   -1503.3918    507.03813    381.28811    398.89756    37946.351 
  854800    310.29253   -1487.3208    503.65637    412.96943   -19.798374    37946.351 
  854900    293.81123   -1473.4822    486.87438     335.8433    148.83165    37946.351 
  855000    304.59034   -1459.6627     498.5739    409.87935    386.80918    37946.351 
  855100    296.23164   -1450.9214    515.63916    398.06322   -215.63328    37946.351 
  855200    306.91649   -1482.4829    501.65046    400.60576   -422.11829    37946.351 
  855300    309.69852   -1484.3165    495.91183    405.55561   -338.30135    37946.351 
  855400     301.9579   -1457.9447    495.64445    396.81928   -415.48712    37946.351 
  855500    308.65683   -1462.8372    491.13634    417.57065   -590.37909    37946.351 
  855600     293.2969   -1438.0737    500.38417    382.44666   -210.77615    37946.351 
  855700    306.94383   -1446.0179    519.43151    454.97491   -354.39647    37946.351 
  855800    296.91409   -1451.4766    521.34026     406.2809    40.764424    37946.351 
  855900    299.34564   -1495.2911    496.01064    348.08124   -23.531512    37946.351 
  856000     302.7682   -1512.3073    474.81333    325.27274    422.38939    37946.351 
  856100    288.85273   -1538.7386    507.41825    268.81252    839.55521    37946.351 
  856200    309.82233   -1512.0504    486.23479    368.70188    815.94268    37946.351 
  856300    308.18844   -1484.4445    501.28477    404.00353    80.518587    37946.351 
  856400    306.94693   -1505.3434     485.9699    362.20176   -225.23214    37946.351 
  856500    307.12198   -1496.3251    509.42648    395.46458   -184.67081    37946.351 
  856600    306.32813   -1525.6204    470.10074    323.27038    -136.6596    37946.351 
  856700    310.82254   -1516.5291     479.1504    361.64078   -517.75188    37946.351 
  856800    305.36223   -1519.3354    478.74893    333.85606   -564.28219    37946.351 
  856900    299.37545   -1527.6882    504.87325    324.68091   -209.25972    37946.351 
  857000    300.12688   -1489.1921    486.47104    348.15697   -179.30492    37946.351 
  857100     308.0477   -1494.7998     480.2798    372.00986    77.924178    37946.351 
  857200    297.16768   -1475.3865    502.47299    364.64507    521.94813    37946.351 
  857300    297.42483    -1451.589    520.89411    408.02115    304.94012    37946.351 
  857400    299.46963    -1453.576     489.1372    383.48092    359.50024    37946.351 
  857500    288.42155   -1483.9863    517.04088    331.24668    58.749876    37946.351 
  857600    300.00762   -1479.9757    515.49592    385.86144    631.28899    37946.351 
  857700    302.81207   -1481.3507    483.76845    365.38186    599.30084    37946.351 
  857800    299.27902   -1437.3095    521.02756    430.77985    368.76128    37946.351 
  857900    310.04837   -1433.8077     500.2412    461.96839    291.72838    37946.351 
  858000    305.63256   -1455.9487     492.2954    412.00588    214.14721    37946.351 
  858100    303.93586   -1455.7127    509.86455    422.17426    -329.1763    37946.351 
  858200    312.92229   -1442.5488    505.14278    471.06447   -188.01332    37946.351 
  858300    293.83175   -1465.5029    496.64733    353.68792   -579.88133    37946.351 
  858400    307.08862   -1474.2951    495.46356    403.38148    16.677729    37946.351 
  858500    301.48058   -1490.4563    480.59753    347.11234    45.462512    37946.351 
  858600    305.92811   -1465.5038    487.05062    398.53635   -362.71521    37946.351 
  858700    296.42213   -1467.0767    524.82397    391.95013    -327.1082    37946.351 
  858800    300.34671   -1463.5735    510.24581    398.53982     302.7213    37946.351 
  858900    292.48568   -1459.5748    509.11186    366.02194    64.290575    37946.351 
  859000     304.6285    -1410.722    520.61044    481.02836   -122.20234    37946.351 
  859100    296.12284   -1418.9786    501.17417     415.0513   -850.15291    37946.351 
  859200    310.29086   -1438.3536    508.87595    467.14864   -838.48875    37946.351 
  859300    299.46401   -1452.1366    497.67724    393.43505   -645.88395    37946.351 
  859400    296.73463   -1460.0582    518.84111    394.39242   -445.26574    37946.351 
  859500    316.68292   -1463.6583    514.60779    476.34668   -339.28328    37946.351 
  859600    300.53908   -1456.6541    513.54018    409.61949    -133.0284    37946.351 
  859700    291.16828   -1464.8401    498.85304    344.56813   -202.59336    37946.351 
  859800    292.51889   -1481.5217    483.13502    318.24761    275.02631    37946.351 
  859900    309.88611   -1469.2622    488.91354    414.45587    478.30953    37946.351 
  860000    293.35145    -1502.618    513.03592    330.79959    457.82857    37946.351 
  860100    301.57552   -1452.7529     546.5451    451.19062    639.56822    37946.351 
  860200    293.22051   -1460.4023    496.78619    356.17618    824.56208    37946.351 
  860300    302.50947   -1478.1042    524.45263    407.95059    158.84255    37946.351 
  860400    297.61703    -1457.458    524.29625    406.41944    87.128848    37946.351 
  860500    303.23678   -1468.1354    490.73148    387.47182    40.969367    37946.351 
  860600    286.44417   -1445.1758    486.51237     330.6284    404.85538    37946.351 
  860700     298.5182    -1466.863    503.09216    379.86653    368.30255    37946.351 
  860800    291.35334   -1477.1388     505.3567    339.60601   -181.15361    37946.351 
  860900    312.58938   -1414.0565    505.69248    498.60799    71.013246    37946.351 
  861000    309.05179   -1430.9304    503.70808    463.82694   -228.52503    37946.351 
  861100    302.04928   -1471.8362    517.51387    405.20851   -602.37547    37946.351 
  861200     301.7863   -1470.7919    518.65671    406.21199    38.772265    37946.351 
  861300    299.73048   -1450.1759    489.36499    388.28292    88.134467    37946.351 
  861400     310.6862   -1476.3057     530.1524    452.25247   -104.71227    37946.351 
  861500    299.73853   -1466.5782    494.16894    376.72078    37.503229    37946.351 
  861600    298.93186   -1441.2626     505.6186    409.85527   -310.82564    37946.351 
  861700    305.45399    -1420.328     492.0114    446.53891    -569.1029    37946.351 
  861800    290.03907    -1446.872     532.3072     390.9078   -399.93341    37946.351 
  861900    296.31874   -1430.1361    542.35299    445.95438    7.6280685    37946.351 
  862000    298.49927    -1416.829     511.0005    437.72365     334.5077    37946.351 
  862100    293.84975   -1483.0092    507.35919    346.97454    585.77894    37946.351 
  862200    307.23427   -1459.5206     492.6294    415.97737    112.96274    37946.351 
  862300    299.75462   -1467.3118    511.04937    392.94004    -71.63946    37946.351 
  862400    296.43334    -1454.451      508.639    388.44136   -221.00011    37946.351 
  862500    298.02704   -1446.7477    513.34581    408.02469   -104.71161    37946.351 
  862600    290.06842   -1439.5757    487.28423     353.3132     30.00338    37946.351 
  862700    307.59137   -1452.5985    497.68238    429.55976    317.34596    37946.351 
  862800    298.18225   -1481.0126    539.58702    400.69963    483.62956    37946.351 
  862900    292.31783   -1495.2325    508.47947    328.97633    47.879554    37946.351 
  863000    297.94649   -1479.8756    524.18136    385.36981    220.48276    37946.351 
  863100    294.24133   -1543.2213    502.34918    283.51489    528.90123    37946.351 
  863200    290.32283   -1497.1821    482.49719     292.0649   -142.63585    37946.351 
  863300    301.30741   -1518.4055    504.41037    342.19655    231.72149    37946.351 
  863400     311.5954   -1507.6278    490.06787    384.93819   -312.44042    37946.351 
  863500    295.77027   -1506.2716    488.63946    313.63669    390.16897    37946.351 
  863600    307.14994   -1482.1041    487.38652    387.77144    154.76672    37946.351 
  863700    309.13803   -1475.6652    511.84275    427.61492   -98.331797    37946.351 
  863800    308.82195   -1496.2698    513.86978    407.61472    654.00873    37946.351 
  863900    298.12338   -1494.3765    493.99511    341.47886   -113.92376    37946.351 
  864000    304.11473   -1504.0803    494.45036     359.1975    100.99389    37946.351 
  864100    293.15494   -1506.9471    481.93059    294.48072   -510.92306    37946.351 
  864200    299.11842   -1524.4031    516.76608    338.70187    -185.3143    37946.351 
  864300    306.72361   -1496.9248     512.2811    395.92638   -75.668127    37946.351 
  864400    306.97025   -1481.5152    500.17413    400.33912    -15.57377    37946.351 
  864500    293.77797   -1481.2696    505.14603    346.17791   -448.68815    37946.351 
  864600    299.83164   -1483.5915    493.99083    359.94848   -85.787951    37946.351 
  864700    303.57497   -1509.6528    479.77115    336.51637    -119.5586    37946.351 
  864800    292.95147   -1492.7258    494.51285    320.36837    423.21934    37946.351 
  864900    300.53977    -1478.594    527.49221    401.63472    452.36996    37946.351 
  865000    288.71531   -1467.0326    483.54847    316.03024    237.31077    37946.351 
  865100      293.663    -1464.143    521.50043    379.14142    401.72312    37946.351 
  865200    300.34315   -1489.9175    496.68457    358.61852    297.19862    37946.351 
  865300    296.07747   -1464.9695    483.43647     351.1185    192.70668    37946.351 
  865400    295.72377   -1494.8706    497.32556    333.51449    396.09699    37946.351 
  865500    298.54269   -1487.4722    510.14721    366.42258    131.92269    37946.351 
  865600    293.33069   -1514.5957    487.74207    293.43463   -70.173415    37946.351 
  865700    300.00412    -1487.436     488.9884    351.87788   -77.988213    37946.351 
  865800    295.74291   -1495.6026    521.49408    357.03719    123.65884    37946.351 
  865900     306.1086   -1492.5009    503.02266     388.3236   -233.48818    37946.351 
  866000    297.13774    -1484.692    489.28164    342.01353   -239.62121    37946.351 
  866100    296.24494   -1514.5246    494.64321    313.52399   -216.91581    37946.351 
  866200    306.46061   -1511.6169    489.34023    357.10967   -172.71357    37946.351 
  866300     304.7099   -1481.6897     500.2859    390.10247   -106.17749    37946.351 
  866400    305.60796   -1525.4017    504.64969    354.79646   -33.844853    37946.351 
  866500    314.10034   -1503.3341    483.99528     394.4341    140.51277    37946.351 
  866600    307.46742   -1483.5279    496.82133    397.21142    696.26516    37946.351 
  866700    294.87627   -1510.0235     504.0661    321.28756    140.00037    37946.351 
  866800    300.27785   -1468.9322     483.7121    366.33743     449.7215    37946.351 
  866900    289.04038   -1478.9379    482.57993    304.61944    635.13639    37946.351 
  867000    294.11316   -1467.0651    533.07826    389.82328    622.20268    37946.351 
  867100    303.73018   -1470.7553    498.37627    394.71753    572.61072    37946.351 
  867200    308.53016   -1481.6679    505.07551    412.10899    1016.8432    37946.351 
  867300    308.92175   -1491.2248    496.61155    395.85071    854.73037    37946.351 
  867400    296.48651   -1480.1159    523.38152    377.75829    698.78469    37946.351 
  867500    299.18515   -1488.9851    500.96016    358.61433    577.00034    37946.351 
  867600    302.40316   -1456.9045    483.39936    387.61848    830.50011    37946.351 
  867700    294.72174   -1465.6806    493.82969    354.69851    7.8109782    37946.351 
  867800    305.18132   -1491.8144    483.48665     365.3004   -383.67426    37946.351 
  867900    308.30137   -1450.8022    494.60554    431.47498   -210.20577    37946.351 
  868000    295.07582    -1478.595    490.62557    340.17368   -35.801752    37946.351 
  868100    298.91306   -1465.8284    480.86492    360.45106   -231.86066    37946.351 
  868200    299.12738   -1477.1648    499.65186    368.86634   -45.659727    37946.351 
  868300    291.55857   -1451.4817    478.36907    339.19927    117.59031    37946.351 
  868400    307.29925   -1501.4982    492.93757    374.60045    400.22569    37946.351 
  868500    299.62061   -1506.9369    487.01817     328.6806    378.79464    37946.351 
  868600    303.98393   -1454.1623    506.18041    420.25688   -422.37795    37946.351 
  868700    290.35695   -1461.3314    484.00571    329.57769    -498.1026    37946.351 
  868800    299.64118   -1478.3779    518.34426    388.65827    670.92439    37946.351 
  868900    306.98035   -1446.5055    506.61786    441.83803    771.23519    37946.351 
  869000    300.93222   -1453.5113    492.48347    393.47513    380.38741    37946.351 
  869100    298.61154   -1465.6466    498.73787    377.14874    204.15489    37946.351 
  869200    309.18525   -1501.6916    481.49759    371.45595    277.05501    37946.351 
  869300    293.64341   -1466.7524    503.67223     358.6156    116.88634    37946.351 
  869400    298.23324   -1493.9028    503.12018    351.57209   -432.54633    37946.351 
  869500    292.35603   -1449.9694     488.1702     354.1021   -575.20024    37946.351 
  869600     305.1504   -1466.3062    513.41233    420.59513   -90.304619    37946.351 
  869700    303.01713   -1491.2178    488.96193    361.63126    102.20693    37946.351 
  869800    306.07769   -1454.7458    493.73456    416.65148     86.05243    37946.351 
  869900    288.67332   -1465.5302    497.02406    330.81919   -569.13954    37946.351 
  870000     293.0111   -1455.8596    500.10655    363.09667   -220.55517    37946.351 
  870100    308.85896   -1444.5006    489.88861    435.56934    179.11559    37946.351 
  870200     297.2908   -1450.2741    496.34649    384.18515     209.4916    37946.351 
  870300    296.45412   -1430.7692     502.3056    405.88324    668.64577    37946.351 
  870400    304.70701    -1445.605    503.49834    429.38663    54.215151    37946.351 
  870500    290.40901   -1415.4386    513.13917    404.83832   -42.776503    37946.351 
  870600      300.411   -1434.6013    487.84359    405.39923   -599.47709    37946.351 
  870700    301.52971   -1426.3723    508.06966    438.88958   -112.84276    37946.351 
  870800    302.34407   -1425.3109    494.81489    430.36168   -388.56575    37946.351 
  870900    292.71168   -1454.1387    499.59645    362.95977   -386.22362    37946.351 
  871000    306.98375   -1401.6652    492.73526    472.81108    175.27693    37946.351 
  871100    302.24034   -1473.9114    492.51831     378.9977    204.37239    37946.351 
  871200    308.30996   -1518.6777     509.6592     378.6918    710.73004    37946.351 
  871300     301.3635   -1450.5548    532.29559    438.18492    769.90744    37946.351 
  871400    303.44605   -1464.8995    514.10001    415.01816    492.35615    37946.351 
  871500    290.46007    -1462.379    490.71111    335.69965    803.95608    37946.351 
  871600    308.81804   -1445.6637    494.28225    438.61569    204.81662    37946.351 
  871700    301.99833   -1427.7636    515.10418    446.64205   -27.123253    37946.351 
  871800     303.9725   -1469.0599    490.70805    389.83544    16.675996    37946.351 
  871900    298.86764   -1463.4336    484.19009    365.96668    -194.7096    37946.351 
  872000    308.48607   -1455.2217    489.47654    422.75782    350.21212    37946.351 
  872100    292.49597   -1494.7124    499.36019    321.17894   -217.04353    37946.351 
  872200    305.79664   -1507.5421    473.67432    342.52997    660.81742    37946.351 
  872300    298.68164   -1450.1915    478.16156    372.34304    714.31011    37946.351 
  872400    290.32585   -1442.8457    517.82039    381.73805    276.08063    37946.351 
  872500    285.95667    -1443.177    480.22447    324.14507    221.25926    37946.351 
  872600    290.67636   -1437.9067    506.25439    376.68875    159.64794    37946.351 
  872700    292.56694   -1446.9413    511.42479    381.33404   -55.191422    37946.351 
  872800    301.11337   -1504.6496    473.78235    324.45103    155.70668    37946.351 
  872900    309.81569   -1462.6151     503.7131    435.58557    323.91084    37946.351 
  873000    300.78658   -1480.2981    513.63499    387.18428    518.07954    37946.351 
  873100    302.30093   -1446.0874    502.54942    417.12546    1063.5057    37946.351 
  873200    295.76604   -1407.4387    518.09246    441.90357    888.70135    37946.351 
  873300    305.73528   -1418.6441    507.90714    465.38461    54.228367    37946.351 
  873400    301.98864   -1457.4398    506.53503    408.35308    296.76778    37946.351 
  873500    296.50982   -1415.9972    486.03688    404.63722    504.37242    37946.351 
  873600    299.46136   -1455.1602    521.21137    413.93371    222.92597    37946.351 
  873700    290.43315   -1416.7674    490.76414    381.24312    -22.78172    37946.351 
  873800    291.23875   -1420.3383    488.78678     379.3209    138.82247    37946.351 
  873900    295.44666   -1371.7382    498.61247    456.68655    157.24495    37946.351 
  874000    306.79781   -1416.4472    504.74019    469.19705  -0.99403612    37946.351 
  874100    295.81595   -1443.9808    503.56231    391.05592   -97.009899    37946.351 
  874200    301.12696   -1419.9047    502.72662    438.20131   -725.25311    37946.351 
  874300    303.26394   -1443.6275    497.95009    419.32066   -339.34559    37946.351 
  874400    289.30881   -1481.6473    481.27361    301.81191   -375.38758    37946.351 
  874500    298.88401   -1463.2657    504.09047    386.10861    206.15345    37946.351 
  874600    301.84712   -1476.9173    517.13924    398.84285    389.46554    37946.351 
  874700    288.79679   -1455.7043    481.51395    325.69074   -135.75726    37946.351 
  874800    305.07279   -1462.6788    470.32815    380.78908    101.69042    37946.351 
  874900    306.52416   -1472.8756    481.43888    388.23559     262.1227    37946.351 
  875000    294.57626    -1487.282    470.12154    308.73414    222.81533    37946.351 
  875100    310.06497   -1500.1933    481.96067      377.377   -265.63846    37946.351 
  875200    295.95806   -1469.0253    474.39578    337.48463   -203.02933    37946.351 
  875300    302.87694   -1466.3571    483.78511    380.68418   -470.41253    37946.351 
  875400     291.5405   -1443.3552    516.85378    385.72914   -314.71931    37946.351 
  875500     306.6449   -1473.9256    473.11869    379.40893   -334.11373    37946.351 
  875600    306.48794   -1467.8725    515.41382    427.05062   -196.16309    37946.351 
  875700    295.86065   -1505.9711    502.86357    328.56813    810.05019    37946.351 
  875800    285.95412   -1520.9872     499.5569    265.65581    488.26506    37946.351 
  875900    291.57789   -1489.7343    486.48403    309.14851    534.84106    37946.351 
  876000    297.24018   -1447.5159    502.35527    392.72428     957.9539    37946.351 
  876100    300.27812   -1478.0697    492.40523    365.89436    545.89752    37946.351 
  876200    307.88347   -1454.8438    511.30403    442.25082    389.92387    37946.351 
  876300    303.38805   -1433.7135    478.82637    410.66954   -34.509874    37946.351 
  876400    294.42783   -1445.5763       468.89    348.54025    129.73304    37946.351 
  876500    297.02211   -1427.7726    517.47239    426.60323   -209.77774    37946.351 
  876600    304.79762   -1423.0275    492.26014    441.13383   -195.08103    37946.351 
  876700    290.02367     -1459.63     483.4916    329.26483   -42.114804    37946.351 
  876800    299.30522   -1468.9882    490.26583    368.45736    200.15888    37946.351 
  876900      293.277   -1451.0858    456.12883    325.08959   -232.97798    37946.351 
  877000    319.28495   -1476.5169    479.28501    439.87713    -89.82059    37946.351 
  877100     296.0521   -1457.1355    508.32604    383.72794   -710.35708    37946.351 
  877200    309.15161   -1448.4928    499.33057    442.33636   -105.86303    37946.351 
  877300    308.82834    -1480.024    492.26773    402.28723   -417.44866    37946.351 
  877400    304.00715    -1496.822     510.2596    381.78082   -158.56979    37946.351 
  877500    297.66184    -1435.832    486.79063    390.74149    294.32441    37946.351 
  877600     301.8574   -1441.0178    499.19324    416.84258    171.54624    37946.351 
  877700    302.73756   -1408.1731    514.65554     469.1112    379.11484    37946.351 
  877800    298.17347   -1442.8171    494.12233    393.39094    232.40743    37946.351 
  877900    301.34207   -1393.8936    517.88131    480.33541   -215.35192    37946.351 
  878000    286.77868   -1424.4131    479.90255    346.28695    -7.775083    37946.351 
  878100    302.68695   -1433.6808    511.77939    440.49961   -259.35598    37946.351 
  878200    311.56656   -1475.7089    487.92218    414.58158   -697.79975    37946.351 
  878300    301.10344   -1456.5796    468.32896    367.02287    -769.2485    37946.351 
  878400    288.20162   -1408.7941    502.35059     390.7586   -465.52865    37946.351 
  878500    302.80276   -1443.8225    495.66378    414.76355   -14.039764    37946.351 
  878600    304.92897   -1391.0411    502.54643    483.99766   -173.77839    37946.351 
  878700    305.79755   -1434.6932     492.2873    433.99594   -666.40895    37946.351 
  878800    292.23003   -1374.1941    521.15439    462.29441   -969.62043    37946.351 
  878900    294.37806   -1396.4366    492.85088    421.41669   -1144.7211    37946.351 
  879000    297.52829   -1471.7129    504.50183    371.97062   -136.26649    37946.351 
  879100    310.41571   -1451.3706    501.78035    447.59801   -51.961597    37946.351 
  879200      300.395   -1478.0309    510.38689    384.44087   -210.80805    37946.351 
  879300    289.87391   -1445.1277    518.43169    378.03318    296.22601    37946.351 
  879400    303.11246   -1449.1114    486.74866    401.95341    207.08676    37946.351 
  879500    301.45793   -1447.0034    490.51832    400.38411   -155.86867    37946.351 
  879600    293.60805   -1418.2957    499.64851    402.88942   -73.280642    37946.351 
  879700    300.02278   -1430.7631    487.59187    407.23828   -137.84487    37946.351 
  879800    300.35038      -1399.4    512.67788     465.1619   -125.90275    37946.351 
  879900     294.0165   -1399.1724    517.31171    441.51445   -234.52154    37946.351 
  880000    300.99914   -1403.5217    500.05512    451.33753   -379.99622    37946.351 
  880100    291.16124   -1413.4923    494.77404    391.80527   -202.84497    37946.351 
  880200    301.61129   -1434.9696    508.66906    431.25885   -407.66894    37946.351 
  880300    292.01497   -1411.8279    504.11433    406.65263    125.79291    37946.351 
  880400    302.17593   -1393.9975     542.1586    508.26194    504.66253    37946.351 
  880500    298.69593   -1381.9299    512.20904    474.71652    293.24267    37946.351 
  880600    298.68892   -1383.8796    512.26762    472.79376   -60.344107    37946.351 
  880700     299.9613   -1387.4002     520.8608    483.59338   -471.32388    37946.351 
  880800    297.94695   -1407.0599    481.01935    415.02559   -22.037618    37946.351 
  880900    293.22372   -1409.3013    501.95311    412.45854   -217.18762    37946.351 
  881000    303.94469   -1434.0791     483.9227    417.90569   -96.080109    37946.351 
  881100    307.82461   -1458.1515    479.75512    407.12932   -12.193211    37946.351 
  881200    294.63201   -1440.7923     496.7837    382.13693   -610.28745    37946.351 
  881300    290.10785   -1409.1099    513.39571    410.06794    532.81128    37946.351 
  881400       304.86   -1413.9457    488.41039    446.64659    424.70017    37946.351 
  881500    307.26125   -1484.5529    497.93665    396.37379    332.89999    37946.351 
  881600    299.90696   -1448.7753      492.524    393.63691   -438.17891    37946.351 
  881700    293.84604   -1460.2976    482.72129    345.03149    218.26381    37946.351 
  881800    306.02906   -1480.9823    490.78065    387.24223   -10.730201    37946.351 
  881900    295.50972   -1457.1456     501.5228    374.47336   -39.107947    37946.351 
  882000     308.0025   -1435.9876    487.77191    438.11065    56.254799    37946.351 
  882100    304.62868    -1444.445    480.31275    407.00847   -241.94585    37946.351 
  882200    315.53844   -1460.4548    469.71005    429.50107   -467.74033    37946.351 
  882300    302.05185   -1440.4169    521.22014    440.34559   -350.82762    37946.351 
  882400    294.38935    -1438.885    469.75104    355.91933   -470.06958    37946.351 
  882500    298.65804   -1461.5347    495.23802    377.97011   -353.53054    37946.351 
  882600    305.82738   -1475.0879    492.52554    393.97372     433.7311    37946.351 
  882700    296.50501   -1410.4825    498.57973    422.67319   -333.17756    37946.351 
  882800    307.30263    -1411.509    526.38612    498.05339   -102.04332    37946.351 
  882900    313.22166   -1428.7977    478.50673    459.52693    96.985945    37946.351 
  883000    297.31461   -1436.6215    477.90053    379.49901     614.9148    37946.351 
  883100    298.75155   -1436.5316    503.25054    411.40662    176.40305    37946.351 
  883200    297.93378   -1440.9025    501.55981    401.66414    323.51711    37946.351 
  883300    298.12552   -1403.7893    496.88696     434.9675    1206.2341    37946.351 
  883400    296.01166   -1451.8214    506.46258    386.99646    831.80308    37946.351 
  883500    301.40184   -1425.5871    506.87055    437.90015    570.20898    37946.351 
  883600    305.17693   -1408.9314    518.08593    482.76298    381.56205    37946.351 
  883700    288.08715   -1421.5389    499.88768    375.03573    83.136941    37946.351 
  883800    297.39984   -1410.0877    519.34601    447.86193    481.60115    37946.351 
  883900    300.83451   -1400.9936    496.13634    449.20588    265.62111    37946.351 
  884000    296.28653   -1421.7282    523.70027    435.56462   -92.500688    37946.351 
  884100     292.7827   -1418.3198    495.05823    394.56017   -220.16415    37946.351 
  884200    293.69068    -1417.717    492.19003    396.38164    212.85055    37946.351 
  884300    303.07502   -1420.1022    503.61285    447.65836   -192.63055    37946.351 
  884400     297.0206   -1443.8342    488.64973    381.71212   -361.43679    37946.351 
  884500    308.73553    -1415.759    490.36761    464.23439    212.38233    37946.351 
  884600    306.28342   -1464.7446    489.52923    403.37336    217.21449    37946.351 
  884700    295.72272   -1428.3884    495.26594     397.9324   -333.18496    37946.351 
  884800    296.15435   -1479.0893    507.90024    361.80854   -7.3402172    37946.351 
  884900    307.21481   -1470.4032    487.46139    399.83919   -659.16421    37946.351 
  885000    298.55265    -1446.753    504.34917    401.38859   -429.49322    37946.351 
  885100    310.45607   -1501.2997    522.10905    418.17928   -389.22472    37946.351 
  885200    294.04725   -1499.8314    525.74476    349.42683   -181.38006    37946.351 
  885300    309.09686    -1467.959    488.15854    411.45166   -105.50721    37946.351 
  885400    299.82092   -1463.0696    488.39917    374.83048   -565.03323    37946.351 
  885500    293.91951    -1502.226    482.25325    302.96582    -773.8397    37946.351 
  885600    294.05214   -1449.5636    504.53374    378.50568   -557.32194    37946.351 
  885700    292.20845   -1454.5295    502.53283    363.24034   -1102.4574    37946.351 
  885800    300.19964   -1487.4807    483.61097    347.33586    -504.4004    37946.351 
  885900     298.7944    -1496.607    473.53118    321.80474    -605.3148    37946.351 
  886000    305.05603   -1484.8189    483.57613    371.82147   -368.72372    37946.351 
  886100    299.71509   -1449.2235    500.14253    399.94359   -344.86675    37946.351 
  886200      302.637   -1475.3594    496.85349    383.67027    1.1060426    37946.351 
  886300    292.24407   -1451.4057    501.89576    365.88744    254.26139    37946.351 
  886400    308.29559   -1478.1713    479.41272    388.88704    167.59013    37946.351 
  886500    298.21135   -1478.9985    497.35112    360.60881    543.29903    37946.351 
  886600    294.71738   -1473.1604    459.53688    312.90625    317.12613    37946.351 
  886700    306.90724   -1498.8548    511.60579    394.14758    1.3464256    37946.351 
  886800     298.4681   -1520.3118    495.84992    318.94998    4.8319659    37946.351 
  886900    305.48251   -1472.0791    519.81301    422.71772    227.31844    37946.351 
  887000     292.5103   -1427.0373    525.42642     414.9847    372.03604    37946.351 
  887100    312.05978   -1473.7401    494.48469    425.33287   -58.183714    37946.351 
  887200    313.18293   -1491.4949    482.46734    400.61607    354.05135    37946.351 
  887300    304.07169   -1471.0022    484.39569    382.02724    194.30456    37946.351 
  887400    304.47286   -1435.4396    514.96977    449.96963    239.10376    37946.351 
  887500    302.97912   -1463.2448     511.5121    411.98335    724.96604    37946.351 
  887600    305.85783   -1460.2829    489.32007    405.71031     472.6449    37946.351 
  887700    291.15019   -1481.0616    494.24387    323.65606    50.011673    37946.351 
  887800    295.58499   -1457.3504    483.11622    356.20071    880.97204    37946.351 
  887900    303.01343   -1467.9692    500.30605    396.20738    626.76813    37946.351 
  888000    305.85678   -1461.8347    517.71876    432.55254    120.35489    37946.351 
  888100    311.56059   -1458.0131    504.76781    449.09614    168.71719    37946.351 
  888200     290.0686   -1449.6093    481.06545    337.06162    321.44103    37946.351 
  888300     302.1975   -1474.6359    516.39024    401.95233   -14.883723    37946.351 
  888400    306.80741   -1482.8153    511.64949     409.7814    220.57471    37946.351 
  888500    303.79444   -1456.6514    489.37221    400.10662    211.56986    37946.351 
  888600    302.14415   -1428.9281    473.56739    404.59711    470.16902    37946.351 
  888700    294.91614   -1464.7816    494.75942    357.40223     218.1398    37946.351 
  888800    298.30551    -1445.488    527.38492    424.57696    250.91259    37946.351 
  888900    303.42862   -1416.3822    480.16063     429.5177    466.86169    37946.351 
  889000    296.82886   -1476.5965     507.9768    367.41389    222.14816    37946.351 
  889100    305.95067    -1464.195     503.1149    416.01098    438.18954    37946.351 
  889200    305.63169   -1506.8375    513.63117    382.44902    299.42038    37946.351 
  889300    300.74614   -1466.8558    463.12223    349.93181   -132.13709    37946.351 
  889400    305.38464   -1433.8498     497.3987    438.09224   -324.23566    37946.351 
  889500    300.18516   -1441.4235    497.57923    407.29612   -557.03051    37946.351 
  889600    296.39915   -1442.3464    486.77178    378.52484   -507.26135    37946.351 
  889700    296.10473   -1464.5562    484.61708    352.83509   -378.04866    37946.351 
  889800    299.22847   -1467.0859    499.79205    379.54046   -186.39377    37946.351 
  889900    307.93225   -1508.1966    485.79743    363.61102   -81.397834    37946.351 
  890000    292.56572   -1486.0829     488.1771    318.93928   -817.65335    37946.351 
  890100    303.55463   -1427.1096    499.51896    438.71573   -786.31281    37946.351 
  890200    299.96848   -1423.8383    474.57193     400.8987   -98.949253    37946.351 
  890300    296.67874   -1428.4347    488.11902    395.04219    -757.8769    37946.351 
  890400    304.53372    -1443.322      496.421    423.81231   -356.87878    37946.351 
  890500    298.50209   -1454.3765    494.76813    383.95647   -298.76751    37946.351 
  890600    309.52597   -1416.2917    508.44055    485.33246    5.5816185    37946.351 
  890700    302.43232   -1461.8086    492.34345    391.78974   -352.66663    37946.351 
  890800    307.39032   -1436.4934    503.26639    450.34397    540.64259    37946.351 
  890900    292.81657   -1417.8584    508.86853    408.98431    438.11289    37946.351 
  891000     301.6538   -1443.0934    479.74851    394.40592    457.63193    37946.351 
  891100    300.22889   -1443.8069    494.96669    402.49696    269.71252    37946.351 
  891200      304.719   -1465.0696    467.42488     373.9025     208.0555    37946.351 
  891300    286.49083   -1410.5953    491.01544    369.92199    544.41647    37946.351 
  891400    301.79741   -1417.6489    479.61828    420.36646    -99.32084    37946.351 
  891500    308.50914   -1497.5928    493.31828     384.3323   -24.338007    37946.351 
  891600    302.85049   -1473.9086    491.58658    380.81503   -196.66729    37946.351 
  891700    294.79395   -1458.8116    475.82492    343.88769    50.899375    37946.351 
  891800    297.88544   -1483.2191     494.7319    352.30205    -37.76932    37946.351 
  891900    298.62398   -1421.8611    507.15672    429.40912   -448.96348    37946.351 
  892000    294.24523   -1426.3365    480.58477    378.65287     34.33894    37946.351 
  892100    309.63913   -1423.4585    517.31841    487.55276   -453.52383    37946.351 
  892200    303.00166   -1435.0487    479.48506    408.25388   -358.52377    37946.351 
  892300    291.49024   -1424.5849    504.32195    391.74139   -129.14248    37946.351 
  892400    294.52738   -1473.0145    462.09409    314.75416    -714.9009    37946.351 
  892500    294.70824   -1458.8658    500.46536     368.0882   -89.677338    37946.351 
  892600    293.41979   -1458.5887     479.1354    341.23598    89.889508    37946.351 
  892700    305.24261   -1470.2854    510.23073     413.8494   -154.24636    37946.351 
  892800    289.50949   -1489.2115    492.92359    306.80096    598.90376    37946.351 
  892900    291.01718   -1513.3819    476.11109    272.60428    486.72049    37946.351 
  893000    297.33116   -1478.5107    496.53204    356.31575   -47.749633    37946.351 
  893100    300.20013   -1479.5069    487.06486     358.7657    -269.7238    37946.351 
  893200     293.6642   -1449.4453    481.69847    354.04259    471.55033    37946.351 
  893300    306.46728   -1447.2716     485.4615    417.60623    132.23355    37946.351 
  893400    297.40134   -1453.9962    484.41844    369.03256    491.40855    37946.351 
  893500    305.58215   -1477.8497    498.13097    395.71363   -28.886008    37946.351 
  893600    302.53214   -1483.2851    522.52068    400.93975   -295.59872    37946.351 
  893700    298.30157   -1470.7884    476.67327    348.54722   -225.31044    37946.351 
  893800    299.98432   -1495.1229     483.0928    338.20622    67.139646    37946.351 
  893900    293.33673   -1495.7324    463.36768    287.95067    73.034479    37946.351 
  894000    291.44661   -1454.9461    464.60301    321.46486    17.793246    37946.351 
  894100    301.43511   -1434.9141    468.15432    390.00663    84.358356    37946.351 
  894200    297.36098   -1399.0272    501.41381    440.81525    184.18385    37946.351 
  894300    297.15303   -1387.1235    493.54473    443.91389    115.75069    37946.351 
  894400    309.50326   -1449.6381     476.4154    419.85863    287.24457    37946.351 
  894500    302.04855   -1454.2948    497.85352    403.08627    179.23095    37946.351 
  894600    297.61278   -1408.7142    482.16239    413.01024    501.21013    37946.351 
  894700    301.06307   -1401.2192     503.8316    457.70426    475.88029    37946.351 
  894800    302.85213   -1456.6208    488.87656    395.40018    265.87541    37946.351 
  894900    300.99862   -1412.0472    494.38603    437.14059    67.381688    37946.351 
  895000    291.61269   -1417.6205    487.11904    382.05406   -291.77171    37946.351 
  895100    288.64116   -1467.8287    504.39155    335.74337   -636.63466    37946.351 
  895200    307.95915   -1463.5542     478.4474     401.0245   -306.80727    37946.351 
  895300    291.76327   -1466.8755    522.06716    368.42494   -468.22647    37946.351 
  895400     299.5365   -1436.2254    487.46939    399.46475   -637.41738    37946.351 
  895500    310.42099   -1444.4757    467.01838    419.75476   -462.58151    37946.351 
  895600    298.06412    -1411.587     510.9419     440.9484   -591.26984    37946.351 
  895700     295.6273   -1446.0618     489.5888    374.15233    125.90805    37946.351 
  895800    306.56723   -1415.5853    497.49267    461.77363   -422.98411    37946.351 
  895900    304.92447   -1449.4772    494.13258    417.12749   -376.07205    37946.351 
  896000    301.89616   -1409.0181    496.63019    446.45368   -964.35059    37946.351 
  896100     297.1837   -1443.6923    473.43914    367.37753    -676.3507    37946.351 
  896200     296.6253   -1469.4234    491.26892    356.96284   -206.72721    37946.351 
  896300    288.20466    -1453.949     491.1297    334.39653   -600.76238    37946.351 
  896400    291.48861   -1417.0934    511.36601    406.26959   -820.66475    37946.351 
  896500    297.34445   -1454.4666    484.05847    367.94617   -95.591366    37946.351 
  896600      295.861   -1495.3629    492.02407    328.33836     68.05935    37946.351 
  896700    311.38687   -1454.8989    495.75057    442.41113    277.92753    37946.351 
  896800    291.01824   -1487.3933    487.75977    310.24636    542.08415    37946.351 
  896900    303.09113   -1463.5998    511.65557    412.27598    247.03316    37946.351 
  897000    297.52322   -1478.7851    480.62306    340.99687    -16.54326    37946.351 
  897100    306.55035   -1461.6439    492.41672    410.56309    216.24184    37946.351 
  897200    308.80428   -1454.9593    483.49911    418.47506    -219.6322    37946.351 
  897300    299.08736   -1469.8562    491.35475    367.69766   -669.66214    37946.351 
  897400     306.3103   -1453.3005    487.45975    412.86904   -151.84407    37946.351 
  897500    305.35229   -1430.0454    501.94631    446.29864   -13.957148    37946.351 
  897600    301.02191     -1494.83     484.6129    344.68954   -360.53912    37946.351 
  897700     302.2001   -1469.4657    499.93085    390.67483   -329.40196    37946.351 
  897800    303.08496   -1502.0804    474.48263    336.59466   -271.08838    37946.351 
  897900    293.79383   -1491.4039    490.19495    321.16388   -76.844809    37946.351 
  898000    297.00547   -1487.8383    488.55124    337.54145   -123.30966    37946.351 
  898100    299.86409   -1529.1684    493.53276    314.05962   -426.12034    37946.351 
  898200     304.0818   -1521.1812    470.83046    318.32856   -259.10444    37946.351 
  898300    285.24269   -1489.3977      495.129    289.61529   -473.80559    37946.351 
  898400    305.62352   -1505.8233    485.32127     355.1165    119.40069    37946.351 
  898500    308.11055   -1480.5097    500.34674    406.64976   -676.77846    37946.351 
  898600    298.64294   -1480.1342    488.99331     353.0579    -120.3198    37946.351 
  898700    293.84133   -1447.3532    488.24256      363.476    32.062867    37946.351 
  898800    297.67667   -1470.8152    508.75925    377.79362   -184.43218    37946.351 
  898900    305.72745   -1437.1288    499.15387    438.11142   -73.917528    37946.351 
  899000    301.88582   -1412.7762    472.56756    418.58644    109.45257    37946.351 
  899100    296.17433   -1415.1431    498.10927    416.05369    194.34916    37946.351 
  899200    296.06814   -1445.4833    492.58744    379.71369    123.45447    37946.351 
  899300    303.25686    -1443.785    518.44456    439.62568    8.5523624    37946.351 
  899400     296.5713   -1434.3158    477.75365    378.31214    26.902183    37946.351 
  899500    307.62733   -1441.3855    528.97615    472.22841    22.630767    37946.351 
  899600    293.59977    -1492.388    474.65763    303.76901    -185.3486    37946.351 
  899700    302.44682   -1469.8557      491.054     382.5184   -48.168434    37946.351 
  899800    297.82948   -1489.5266    514.26497    365.27574    -103.9938    37946.351 
  899900    299.54213   -1501.3063    487.28108    334.22089   -632.15091    37946.351 
  900000     296.1943   -1499.4121    515.75582    349.52112   -177.00074    37946.351 
  900100    305.33163   -1474.5026    494.92104    394.72315    108.72626    37946.351 
  900200    298.89303   -1491.5975    492.64643    346.37344    19.141453    37946.351 
  900300    293.50701   -1499.2127    495.57224    317.44134    137.43377    37946.351 
  900400    305.93147   -1500.5642    478.50263     354.9431    102.06572    37946.351 
  900500     295.1754   -1513.2968    504.21579    319.51031   -113.14023    37946.351 
  900600    287.82057   -1498.6126    504.86092    301.73539   -804.63391    37946.351 
  900700    310.84952   -1466.7657    504.00187      436.377    223.16619    37946.351 
  900800    304.75557    -1511.969    507.69324    367.43607    556.98981    37946.351 
  900900    300.75078   -1494.5588    502.31284    361.44026    752.65414    37946.351 
  901000    292.02666   -1454.3338    521.21912    381.30411    480.28733    37946.351 
  901100    295.75961    -1438.278    487.61843    380.56132   -14.165228    37946.351 
  901200    294.61384   -1460.4768    499.27683     364.8638    104.33827    37946.351 
  901300      300.239   -1458.2386    484.60087    377.74502    690.09739    37946.351 
  901400    300.81445   -1430.4692    497.04335    420.54694    366.43489    37946.351 
  901500    290.99276   -1471.6574    467.54354    305.65133   -79.315624    37946.351 
  901600    304.80414   -1461.7378    521.83929    432.03201    167.26701    37946.351 
  901700    303.31038   -1492.3669    494.95208     367.7922    162.87289    37946.351 
  901800    307.90644   -1476.9647    507.32808    416.25746   -304.11443    37946.351 
  901900    309.11837   -1480.5879    496.99342    407.75444    168.18155    37946.351 
  902000    294.19817   -1449.0914    499.33428    374.43573   -621.18283    37946.351 
  902100    291.90018    -1470.798    494.91806    337.96957   -370.76093    37946.351 
  902200    290.97912   -1482.0459    490.93082    318.58866   -155.60085    37946.351 
  902300    307.01116   -1453.3092    511.05977    439.61487    236.58466    37946.351 
  902400    300.53134   -1485.6255    492.81373    359.88674   -255.63319    37946.351 
  902500    288.76623   -1461.6385    490.25014    328.35515   -314.31103    37946.351 
  902600    308.14288   -1415.8708     507.1057    478.19312   -232.21266    37946.351 
  902700    306.66506   -1414.5173    507.36107    473.15027    288.94773    37946.351 
  902800    299.14064   -1443.5544    492.54263    395.42719    329.93453    37946.351 
  902900    288.64258   -1434.0404    496.12944    361.27602    374.74601    37946.351 
  903000     300.6162   -1444.7516    518.72159    427.05049    288.40026    37946.351 
  903100    304.89403   -1472.2389    488.82032    388.91654    505.34158    37946.351 
  903200    299.51768   -1478.8391    497.95838    367.25529    942.28246    37946.351 
  903300    305.45653   -1470.6172    508.17031    412.42008    722.01916    37946.351 
  903400    302.05308   -1470.9974    493.85957    382.41004   -57.194795    37946.351 
  903500    306.07663   -1497.8538    490.46139    370.26559    635.17619    37946.351 
  903600    305.48246     -1444.93    495.49484    425.54843    549.50221    37946.351 
  903700    293.54833   -1458.5673    481.61066    344.31122    505.68147    37946.351 
  903800    301.68479    -1469.613    483.92758    372.20485    589.12775    37946.351 
  903900    289.90439   -1481.0141    501.87814    325.73039    45.593159    37946.351 
  904000    302.47311   -1425.8787     522.3473    457.90706    452.30246    37946.351 
  904100    305.15319   -1496.0529    476.90538    354.35399   -190.86197    37946.351 
  904200    289.18706   -1483.8111    503.48271    321.30925   -257.37063    37946.351 
  904300    298.09147   -1450.3445    490.76963    382.14175   -356.30933    37946.351 
  904400    301.10128   -1503.0216    460.81338    313.05559   -540.81393    37946.351 
  904500    309.51793    -1473.253    518.79836     438.6927    -21.11709    37946.351 
  904600    291.25422   -1480.9253    502.60659    332.62327     487.4266    37946.351 
  904700    298.83644   -1482.6127    496.18657     358.6436    346.14462    37946.351 
  904800    308.11344   -1471.8412    501.54446    416.52899    342.85274    37946.351 
  904900    311.87823   -1509.8589    483.32562    377.23789    389.38864    37946.351 
  905000    308.35717    -1516.229    492.92024    364.61397    284.49059    37946.351 
  905100    303.50109   -1484.7391     476.8382    358.16452   -788.95269    37946.351 
  905200    306.23937   -1472.8436    517.91334    423.46024   -104.42618    37946.351 
  905300    306.23671   -1520.4667    478.40146     336.3133   -54.487023    37946.351 
  905400     300.1506   -1548.7827    478.59612    280.79825   -202.72396    37946.351 
  905500     290.3656   -1501.0013    492.74714    298.68817   -93.661057    37946.351 
  905600    303.44153    -1484.509    500.69429    381.98262    -134.5706    37946.351 
  905700    291.77807   -1438.1917    489.29183    364.39997    -347.5935    37946.351 
  905800    298.96638   -1527.0109    466.53015    285.17388   -72.516073    37946.351 
  905900    301.41637   -1509.4047    496.34497    343.62236   -85.074196    37946.351 
  906000    302.30579   -1453.9001    495.80352    402.58882   -537.92118    37946.351 
  906100    296.17039   -1457.9036    499.39209    374.55835   -188.33953    37946.351 
  906200    303.59713   -1473.9429    486.83916    379.39393   -16.221651    37946.351 
  906300    303.85672   -1496.1306    486.16272    357.69822   -83.481808    37946.351 
  906400    309.34946    -1493.787    508.59588      407.198    509.73687    37946.351 
  906500    298.94209   -1515.7234    475.22409    305.04592   -15.937072    37946.351 
  906600    299.25398   -1488.1819    489.86967    348.63682    405.17717    37946.351 
  906700    292.27104   -1510.1409    490.16278    295.54066    623.37363    37946.351 
  906800    301.54035   -1469.9551    501.10738    388.39235    958.69466    37946.351 
  906900    296.44286   -1526.5274    486.20873    293.97755    714.99528    37946.351 
  907000    303.97275   -1498.2467    499.94118    369.88293    1017.6419    37946.351 
  907100     303.4784   -1527.1382    470.00013    308.82524    469.25846    37946.351 
  907200    307.77721   -1441.8908    484.41177    427.83329    464.84271    37946.351 
  907300    303.76141   -1521.0067    464.44493    310.67543    202.25576    37946.351 
  907400    305.95376    -1509.956    504.51976    371.66874    411.04967    37946.351 
  907500    295.38584   -1499.2926     465.8483    296.09419    89.949049    37946.351 
  907600     302.2767   -1504.7804    508.75135    364.52537    397.35619    37946.351 
  907700    294.25143   -1490.7611    487.64705    321.31849    -67.60328    37946.351 
  907800    293.17619   -1492.4556    478.92114    306.05837   -402.47612    37946.351 
  907900    294.83649   -1497.0085    501.51938    331.57673   -6.9358693    37946.351 
  908000    299.92157   -1511.5744    486.50239    324.88189   -170.98785    37946.351 
  908100    309.16032   -1467.4926    496.50194    420.54715   -332.08086    37946.351 
  908200    305.44911   -1485.8092    501.29574    390.32008    249.84281    37946.351 
  908300    292.44087   -1520.6112    470.67086    266.34282   -74.063943    37946.351 
  908400     304.0833   -1510.8243    479.69884    337.56047    1210.6931    37946.351 
  908500    292.72036   -1527.9631    477.90882     267.4868    470.86077    37946.351 
  908600    295.38249   -1483.3624    483.41657    329.57764    684.72171    37946.351 
  908700    318.03559   -1502.8689    463.05441    391.67109    943.12112    37946.351 
  908800    297.55261   -1515.9411    502.05179    325.40193    264.70679    37946.351 
  908900    304.60994   -1536.8497    496.78483    330.99154      991.881    37946.351 
  909000    293.81951   -1569.4068    497.95368    251.03535    464.21319    37946.351 
  909100     292.7526   -1537.2368    513.86108    294.31049     653.7018    37946.351 
  909200     293.2369   -1536.9563    489.46847    272.37822   -132.38698    37946.351 
  909300     299.7002   -1561.1903    492.72434    280.49155    26.274216    37946.351 
  909400    295.12672   -1531.7505    484.37686     280.9986   -165.01577    37946.351 
  909500    297.72798   -1539.9258    490.31711    290.47183     527.7142    37946.351 
  909600    296.44462   -1504.6447    523.02245    352.68189    648.40128    37946.351 
  909700     301.5629   -1523.2804    501.18619    335.24739    524.24474    37946.351 
  909800    304.80925   -1507.8018    484.72579    348.87749      708.256    37946.351 
  909900    292.63244   -1545.2603    459.54812    231.43321    772.91693    37946.351 
  910000    303.85996   -1525.2396    503.46995    345.91107   -172.70672    37946.351 
  910100    302.78537   -1530.8495    463.64423    295.63872    343.04404    37946.351 
  910200    295.10632   -1507.5711    495.50677    316.21611    154.19244    37946.351 
  910300     292.5926   -1513.5639     502.9802    306.38234    47.548289    37946.351 
  910400    296.15478   -1491.9179    477.74668    318.82828    173.29708    37946.351 
  910500    303.46099   -1491.5597    498.54221    372.86746   -103.30811    37946.351 
  910600    292.88484   -1508.5278    476.52522    286.27889   -367.88465    37946.351 
  910700    302.40919   -1503.7409    492.85454     350.2644   -68.264078    37946.351 
  910800    304.45906   -1560.0189    487.10343    297.46184   -26.571256    37946.351 
  910900    307.64413   -1510.0935    485.96927    360.58919   -499.90784    37946.351 
  911000    298.01879   -1543.8191    467.69284    265.26325   -658.68928    37946.351 
  911100    297.17465   -1510.5397    463.97526     291.0255   -434.56043    37946.351 
  911200     296.9073   -1570.3241    470.35177    236.41426   -465.75902    37946.351 
  911300    300.73541   -1505.1691    470.53809    318.98605   -645.07446    37946.351 
  911400    301.16122   -1507.4438    497.31755    345.40739   -218.26459    37946.351 
  911500    294.45259   -1528.3576     476.5614     273.5418     -41.8104    37946.351 
  911600    302.61927   -1535.8966    475.77668    301.97646     80.77343    37946.351 
  911700    304.70918   -1475.2183    494.46882    390.75356   -409.13034    37946.351 
  911800    306.67514    -1539.888    485.77276    326.23668   -268.42176    37946.351 
  911900    303.82335   -1497.6411    491.10485    360.97975    99.055386    37946.351 
  912000      304.169   -1512.5782    504.61611    361.10961    104.25913    37946.351 
  912100    295.77066   -1491.8475     479.4792    318.90235     212.2033    37946.351 
  912200    293.28317   -1507.6232    489.34988    301.80101   -243.21757    37946.351 
  912300    297.26167   -1483.5561    494.73327    349.15881   -84.759709    37946.351 
  912400    303.70051   -1518.2125    483.60434    332.35487   -108.73507    37946.351 
  912500    293.71034   -1534.2926    474.46439    262.16887    45.880209    37946.351 
  912600    302.77049   -1548.7286     478.3659    292.41434   -478.50228    37946.351 
  912700    296.63786   -1532.3087    478.74387    281.60906   -88.616314    37946.351 
  912800    310.41478   -1550.4247    475.33257    322.09202   -505.81655    37946.351 
  912900    302.88312   -1532.2893    479.81908    310.81375   -111.12131    37946.351 
  913000    300.40617   -1543.4063    476.29545    285.02427    87.836836    37946.351 
  913100    301.72648   -1543.4941    483.84407    298.42785    152.58589    37946.351 
  913200     300.2469   -1527.2403    474.68399    298.86194     299.6448    37946.351 
  913300    309.03748   -1531.8342    457.64103    316.79165    -157.0683    37946.351 
  913400    299.66356   -1552.4825    491.03489    287.34502    242.92603    37946.351 
  913500    301.25398   -1514.7709    499.77326    340.95345   -144.02767    37946.351 
  913600     295.5135   -1512.7132    470.63337    288.03334   -299.52646    37946.351 
  913700    294.53971   -1506.8308    482.29169    301.19097   -670.85218    37946.351 
  913800    306.60731   -1480.7807    491.70715    390.97301   -672.21175    37946.351 
  913900    292.43501   -1494.1906    515.78727    337.85345   -436.93576    37946.351 
  914000    305.18488     -1480.06    505.59632    399.18056    99.623421    37946.351 
  914100    288.97145   -1502.4406    482.62365    280.85026     459.5912    37946.351 
  914200    314.46825    -1467.213    489.17569    437.39153    486.23373    37946.351 
  914300    300.27998   -1459.0817    510.82991    403.31539    536.56041    37946.351 
  914400    310.42705    -1435.531    472.84578    434.55414    1162.4801    37946.351 
  914500    294.74853   -1470.5472    518.73945    374.86219    588.90158    37946.351 
  914600    295.30813   -1483.9654    489.26796    334.49132    189.14943    37946.351 
  914700    313.23721   -1463.6878    511.27324    457.47335    596.87614    37946.351 
  914800    297.82129   -1477.4527    507.10134    370.14921    375.03469    37946.351 
  914900    303.73206   -1478.3613    503.74173    392.48547    195.06112    37946.351 
  915000    295.03064   -1475.5961    489.28836    341.63199    229.14608    37946.351 
  915100       299.82   -1453.2169    486.08881    382.36867    275.57334    37946.351 
  915200      289.519   -1469.7628    521.64391    355.01286    355.13431    37946.351 
  915300    297.38258   -1465.9519    492.52796    365.10191    273.20088    37946.351 
  915400    291.70578   -1453.0666    518.73323    378.64104    293.81699    37946.351 
  915500    293.09504        -1458    497.74955    358.97708    563.18263    37946.351 
  915600    305.50836    -1477.353      486.891    384.63825    464.97962    37946.351 
  915700    308.67002   -1458.9536     496.8969    427.27426    444.26144    37946.351 
  915800     294.3545   -1435.5642    500.62376    389.95601   -137.62023    37946.351 
  915900    302.37251    -1483.307    497.70804    375.38672    11.027188    37946.351 
  916000     303.4954   -1419.4365    500.22515    446.82851   -47.659275    37946.351 
  916100    291.42268   -1425.3865    473.63892    359.95267   -285.96126    37946.351 
  916200    299.44936   -1384.0435    513.31087    477.09587   -483.32177    37946.351 
  916300    292.02922    -1453.542    498.39064    359.27895    -139.2947    37946.351 
  916400     305.5383    -1457.684    488.10738    405.65838    -42.48334    37946.351 
  916500    310.17259   -1451.2285    488.90959     433.7751    -39.94752    37946.351 
  916600    305.04988    -1438.655    498.52661    432.90814   -43.556376    37946.351 
  916700    301.88723   -1443.1755    507.35806    422.98394   -285.11368    37946.351 
  916800    303.08445   -1430.5715     480.6736    414.29224   -244.16715    37946.351 
  916900    305.92254   -1407.0863    515.26279    485.14096   -132.78077    37946.351 
  917000    309.71024   -1479.6499    490.67169    405.03477    444.68295    37946.351 
  917100    294.50662   -1465.3451    503.42356    363.65959    344.95378    37946.351 
  917200    303.92015   -1471.5285    503.04978    399.47296    290.65779    37946.351 
  917300     295.3958   -1415.8309    514.06527    427.81766    143.30282    37946.351 
  917400    295.99831   -1462.8942    489.42823    358.82926    26.554465    37946.351 
  917500    301.48529    -1438.929    487.61407    405.67731    872.50026    37946.351 
  917600    305.25431   -1470.5428     510.1953    413.60922    835.20229    37946.351 
  917700     302.8113   -1412.4563    512.34487    462.84929     1026.377    37946.351 
  917800    306.55088   -1460.9288    499.30608    418.16987    1177.8289    37946.351 
  917900    307.23442   -1450.3423    499.20923    431.73614    134.87307    37946.351 
  918000    297.60594   -1467.7292     484.8948    356.69683   -176.18863    37946.351 
  918100    303.41532   -1473.4544    504.45104    396.67599   -439.30844    37946.351 
  918200    299.64423   -1486.7068    499.16148    361.16029    -453.9204    37946.351 
  918300    292.91513   -1430.9201    487.54469    375.04235   -570.95993    37946.351 
  918400    304.43238   -1453.0222    506.49977    423.73473   -356.39437    37946.351 
  918500    296.84212   -1479.2053    504.75562    361.64356   -160.50576    37946.351 
  918600    293.96016   -1485.3464    498.66068    336.43575    51.440498    37946.351 
  918700     297.7829   -1474.0972    500.26314    366.49374   -146.08134    37946.351 
  918800    302.09822   -1441.6132    496.10906      414.247   -412.93484    37946.351 
  918900    290.47157   -1493.6849    483.36065    297.09496   -328.80585    37946.351 
  919000    301.46969   -1491.2076    513.80535    379.51982    259.31018    37946.351 
  919100    297.33757   -1475.8252    478.28234    340.78044   -260.35947    37946.351 
  919200    300.37814   -1469.6033    469.56143     351.9671    -438.6588    37946.351 
  919300    298.66554   -1458.0968     538.0303    424.23397   -109.41071    37946.351 
  919400    297.80143   -1456.4176    468.61923     352.6128   -333.24863    37946.351 
  919500    295.25807   -1480.5672    523.61301    372.00923   -891.42904    37946.351 
  919600    295.13692    -1457.178    482.76506    354.00522   -605.49625    37946.351 
  919700    302.27611   -1453.0335    500.28318    407.80144   -278.46691    37946.351 
  919800    289.00824   -1452.4433    496.79823    345.18765   -745.44453    37946.351 
  919900    309.30805   -1452.9105    473.44567    412.73784   -794.75347    37946.351 
  920000     300.6366   -1463.3857    519.89347    409.68003   -133.99858    37946.351 
  920100    301.73494   -1473.3122    509.02201    393.82575    688.11442    37946.351 
  920200    290.32596   -1482.7432    485.58753    309.60818     808.9927    37946.351 
  920300    296.97274   -1474.9395     506.7917    368.53342    545.08766    37946.351 
  920400     296.7608   -1433.8141     486.6519    388.56502   -334.07474    37946.351 
  920500    292.70128   -1484.6816    488.65468    321.42838   -72.263476    37946.351 
  920600    291.01723   -1461.9361     485.7839     333.7231   -287.81376    37946.351 
  920700      313.323   -1475.6553    498.60041    433.21919    -160.8491    37946.351 
  920800     292.3643   -1468.5376     504.5409     351.9418   -80.098508    37946.351 
  920900    307.43173   -1495.0681    484.62948    373.31876   -134.38384    37946.351 
  921000    301.33689   -1519.6479    481.02023    317.69661     42.34356    37946.351 
  921100    291.91065   -1496.1904    493.50565    311.21185    161.65624    37946.351 
  921200    298.23277   -1499.1215    496.55173    339.78282    440.78171    37946.351 
  921300    305.41044    -1469.043     515.2276    420.84408    5.9814955    37946.351 
  921400    297.84487   -1462.9988    474.73212    352.34003   -215.24811    37946.351 
  921500    291.75268   -1437.6654    496.91573    372.43594    150.38132    37946.351 
  921600    298.80299   -1492.9516    501.79603    353.76359    175.68084    37946.351 
  921700     301.0296   -1488.9681    485.92703     351.9001    273.50106    37946.351 
  921800    300.98979   -1488.6948    508.61329    374.68053    81.765023    37946.351 
  921900    305.55024    -1492.479    491.98287    374.79253   -74.417018    37946.351 
  922000    302.16859    -1467.512    454.43856    346.99436   -95.227304    37946.351 
  922100    300.80102   -1499.2995     487.2214    341.83426   -105.84688    37946.351 
  922200    306.66283   -1522.0422    503.09534    361.34964     261.3489    37946.351 
  922300    295.36318   -1504.5636    493.99417     318.8671   -37.231704    37946.351 
  922400    298.38214   -1489.1942    490.14529    343.97599    -60.26708    37946.351 
  922500    310.38147   -1513.7958    475.15025     358.3887   -26.069547    37946.351 
  922600    304.75615    -1522.077    471.54483    321.18231   -190.49458    37946.351 
  922700    293.74535   -1524.3165    491.01757    288.85569   -17.036731    37946.351 
  922800    303.64598   -1512.5279    475.68403    329.87369   -306.58125    37946.351 
  922900    305.60411   -1438.9465      495.678     432.2627   -9.3365947    37946.351 
  923000    293.69501   -1488.3104    505.28976    338.90737   -449.76638    37946.351 
  923100    313.65453   -1488.5622    511.40729    434.61137    53.340294    37946.351 
  923200    298.28956   -1485.4725    518.89932    376.03503    207.62559    37946.351 
  923300    295.10116   -1522.2548    482.62258    288.62494    43.924332    37946.351 
  923400    289.18199   -1512.0982    514.95743    304.47412   -61.610877    37946.351 
  923500    295.59348   -1457.0854    517.33133    390.71907   -832.48472    37946.351 
  923600    301.89859   -1431.1992    477.85082    405.50423   -780.31173    37946.351 
  923700    289.43213    -1458.304    511.75565    356.19234    -749.9869    37946.351 
  923800    304.15343    -1468.812    522.15864    422.34829    -24.92624    37946.351 
  923900    292.36969    -1492.103    464.06207    287.92184      -51.856    37946.351 
  924000    303.83567   -1448.2447    513.60984    432.93651   -83.432076    37946.351 
  924100    289.36532   -1435.4383    495.31276    362.31453    -471.7706    37946.351 
  924200    291.91391   -1476.8203    489.65754    326.74845   -112.74872    37946.351 
  924300    296.62322   -1521.5333     504.9996    318.57432    508.58937    37946.351 
  924400    302.04599   -1454.1733    483.47045    388.81311   -396.26126    37946.351 
  924500    311.42039   -1454.0984    493.50372     441.1157   -323.79179    37946.351 
  924600    308.29174   -1458.1097     493.3179    422.83643   -211.81783    37946.351 
  924700    298.32315   -1432.2301    508.95667      419.486   -229.00684    37946.351 
  924800     297.1732   -1442.8873    481.39504    376.09125   -364.80629    37946.351 
  924900     289.1691   -1447.1785    516.96973    371.34807   -538.99575    37946.351 
  925000    297.15464   -1444.7035    512.79832    405.59476   -371.31075    37946.351 
  925100    309.90994   -1463.1213    509.62652    441.41706    267.96233    37946.351 
  925200    295.31041   -1436.0258    520.37323    413.54649     206.2557    37946.351 
  925300    292.94144   -1476.5169    485.83703    327.85639    432.04719    37946.351 
  925400     294.2973   -1450.6001    486.69078    360.72969    77.037333    37946.351 
  925500    303.60404   -1475.8998    518.95593    409.58492   -300.94447    37946.351 
  925600    299.63044   -1437.1807    465.50371    376.96664   -103.66319    37946.351 
  925700    294.78319   -1452.9037    481.71492    355.63717    704.07061    37946.351 
  925800    292.48761    -1447.843    514.89578    383.54627    168.18168    37946.351 
  925900    307.54495   -1454.2978    491.03874    421.00791    56.801945    37946.351 
  926000    302.27429   -1464.3087    477.19146    373.42636    2.7581749    37946.351 
  926100    297.18987   -1480.0415    477.65437    335.27132    207.74154    37946.351 
  926200    307.70651    -1461.996    493.73783    416.73599    403.19268    37946.351 
  926300    299.69907   -1453.3813    498.04079    393.61192    699.72358    37946.351 
  926400    294.32355   -1469.7709    489.15194    344.13814    514.58856    37946.351 
  926500    309.10144   -1478.6548    487.15519    399.77316    880.48279    37946.351 
  926600    296.01498   -1466.9285    502.97923    368.42101   -111.27987    37946.351 
  926700    294.20747   -1457.2718    478.78381    345.74659    66.417581    37946.351 
  926800    302.82323   -1420.7176    501.00315    443.29995    49.141778    37946.351 
  926900    305.95652   -1454.7248     498.7838    421.17635   -484.81604    37946.351 
  927000    299.98524   -1434.3517    492.90957    408.79837    63.751568    37946.351 
  927100    297.41915   -1501.9855     492.7139    329.41892    596.24549    37946.351 
  927200    294.16528    -1466.756     485.7229    343.01166    384.17093    37946.351 
  927300    302.36843   -1453.2298    503.26287    411.00042    136.89048    37946.351 
  927400    295.96423   -1457.8723    487.80378    362.07334    42.301033    37946.351 
  927500    305.50459   -1468.0677    499.55805    406.57354    59.878252    37946.351 
  927600    312.96927   -1462.1262    486.84723    433.40296    311.33899    37946.351 
  927700    312.49272    -1481.744    492.90664    417.69962    358.73596    37946.351 
  927800    307.67362   -1430.4141    505.08662    459.51861    500.68509    37946.351 
  927900    298.62596   -1438.8502    503.74797    409.02017   -82.846179    37946.351 
  928000    307.52992   -1440.9313    502.93746    446.20545   -231.07946    37946.351 
  928100    304.10685   -1464.2405    520.80784    425.35929    -180.8592    37946.351 
  928200    299.28872   -1464.8269    504.80461    387.08316    55.547127    37946.351 
  928300    299.91925   -1444.4267    498.78419    404.30096    708.71389    37946.351 
  928400    296.21855   -1445.3133     514.3427    402.31596    -160.8388    37946.351 
  928500    297.75761   -1392.4969    495.20509    442.92205    -262.1858    37946.351 
  928600    305.19936   -1425.0344    500.85797    449.53292   -167.70409    37946.351 
  928700    297.01981   -1454.0341    497.58855    380.44748   -266.38301    37946.351 
  928800    296.76758   -1464.7309    510.52123    381.54809   -106.29531    37946.351 
  928900    303.59498   -1438.5132    519.35278    447.32761   -97.858645    37946.351 
  929000    293.01985   -1456.3948    514.63044    377.12478    246.71564    37946.351 
  929100    305.18489   -1440.4962    497.99708    431.14514    620.69549    37946.351 
  929200    296.81979   -1458.5328    480.81315     358.2731    649.68199    37946.351 
  929300    310.53997   -1473.6535    485.25884    409.35291    278.24678    37946.351 
  929400    295.14012   -1409.9147    505.79155     424.3094   -337.03658    37946.351 
  929500    300.59014   -1408.7061    508.91699    453.17405   -798.22125    37946.351 
  929600    302.80742   -1428.0756     490.1212    424.98877    -228.4057    37946.351 
  929700    307.24334   -1467.5702    496.12201    411.46122   -115.15419    37946.351 
  929800    307.91133   -1471.7983    500.31085     414.4286   -157.07857    37946.351 
  929900    297.90433   -1504.6321    491.11368     327.3559   -335.43675    37946.351 
  930000    299.19434   -1465.3541    503.40056    384.72709    -254.7308    37946.351 
  930100     297.8898   -1489.8798    482.27936    333.20847   -191.47954    37946.351 
  930200     297.3876   -1433.9295    500.50805    405.12701    30.150742    37946.351 
  930300    292.43911   -1480.9882    512.50142    347.78844    94.490343    37946.351 
  930400    294.90062   -1491.2502    500.81981    336.92414   -296.28125    37946.351 
  930500    303.32444   -1414.2411    487.47149    438.50068    37.558701    37946.351 
  930600      292.066   -1450.9925     505.5742     369.1775   -6.2927987    37946.351 
  930700    307.47934   -1487.5438    506.26329     402.6911   -362.29424    37946.351 
  930800    289.23251   -1468.5563    483.75969    317.04566   -367.57447    37946.351 
  930900    291.01597   -1484.8696    487.97014    312.97014   -68.671699    37946.351 
  931000    308.99804   -1469.3556    513.18676    434.63844    279.82728    37946.351 
  931100    305.79569   -1448.8744    504.27627     431.7954   -106.93451    37946.351 
  931200    305.89767   -1439.0531    504.50712    442.30654   -77.597272    37946.351 
  931300    293.42122   -1472.3939    501.98148    350.28329    231.48961    37946.351 
  931400    302.17185    -1459.113    497.58296    398.55247   -114.18318    37946.351 
  931500    301.04015   -1466.6691    472.32404    360.64363   -478.51603    37946.351 
  931600    300.50875   -1467.8366    495.75781    380.51802   -592.45158    37946.351 
  931700    299.23748   -1449.6012    513.10597    410.37955    214.84177    37946.351 
  931800    297.47854   -1464.5317    486.84789    361.27402     234.1603    37946.351 
  931900     293.3323   -1514.3846    502.13815    308.04898   -249.33331    37946.351 
  932000    299.44756   -1494.1078    491.06752    344.78011   -142.69252    37946.351 
  932100    296.63422   -1444.7096    513.21595    403.66391   -907.49398    37946.351 
  932200    294.83991   -1455.9724    470.51747    341.62628   -536.13413    37946.351 
  932300    286.78889   -1476.3236    490.00051    304.52034   -444.25658    37946.351 
  932400    304.37652   -1504.5565    503.85374    369.30299   -246.00377    37946.351 
  932500    299.69822    -1501.843    482.73969    329.84533    317.65656    37946.351 
  932600    305.84391   -1485.8819    487.78538    378.51402    442.01749    37946.351 
  932700    301.25007   -1498.8598    483.01254    340.08631    315.75358    37946.351 
  932800    297.37409   -1466.7578    492.87155    364.60143   -241.11293    37946.351 
  932900    301.80295   -1460.3398     486.1127    384.19498    226.96422    37946.351 
  933000    312.04277   -1448.2848    484.96536    441.19229    286.95139    37946.351 
  933100    293.62655    -1474.482    499.92463    347.06255    240.73769    37946.351 
  933200    297.69859   -1441.9457    506.45623    404.45877   -190.20905    37946.351 
  933300    299.92576   -1454.8247    488.63627    383.78438     488.0817    37946.351 
  933400    309.49414   -1436.2548    503.07999    459.86548   -215.17506    37946.351 
  933500    292.12305   -1437.3026    485.97328     363.5233   -183.17464    37946.351 
  933600    301.90431    -1469.506    498.46563    387.83798   -261.12642    37946.351 
  933700    299.37866   -1483.4501    511.17069    375.23084   -7.8002391    37946.351 
  933800     310.2316   -1490.1067    495.03514    401.28812    381.73038    37946.351 
  933900    296.47523   -1475.1359    505.67988     364.9858    207.30697    37946.351 
  934000    294.31644   -1425.5269    512.24835    411.44659     311.4349    37946.351 
  934100    304.66816   -1446.0526    479.22087    404.48669     42.04955    37946.351 
  934200    302.00663   -1411.7899    493.59225    441.14118    680.64243    37946.351 
  934300     303.5032   -1449.1827    490.01609    406.90831    550.92217    37946.351 
  934400    301.73336   -1455.1474    531.50076    434.46221     414.0056    37946.351 
  934500      299.372   -1455.1024    498.34078    390.71875    375.20292    37946.351 
  934600    298.32724   -1455.6097    501.83722    389.00534    303.20591    37946.351 
  934700     300.8999   -1438.6294    508.74734    424.47538     -36.9013    37946.351 
  934800    298.21067    -1448.456    491.01087    384.80798   -257.02861    37946.351 
  934900    295.65169   -1467.4441    512.30602    375.59705    233.76127    37946.351 
  935000    306.97309   -1516.9876    477.10101    341.80643    16.631129    37946.351 
  935100    289.45063   -1481.3203    479.29626    300.80001   -251.32685    37946.351 
  935200    307.25544   -1485.8002    509.25809    406.42168   -251.74863    37946.351 
  935300     290.8273   -1438.1356    487.03293    357.91777   -97.610041    37946.351 
  935400     297.3201    -1454.818    532.69995    416.12666      150.316    37946.351 
  935500     314.7014   -1445.8582    470.57828    441.19839    560.43255    37946.351 
  935600    301.24295   -1478.8997    499.13332    376.13518    166.36416    37946.351 
  935700    309.82883   -1476.5342    496.34537    414.35791      12.1992    37946.351 
  935800    307.39122   -1466.4019    479.34998    396.52307   -272.64437    37946.351 
  935900    308.91949   -1474.5869    500.42961    416.29651   -491.50278    37946.351 
  936000    299.31573   -1454.3969    488.34325    381.17341   -808.30687    37946.351 
  936100    308.65278   -1425.7658    498.29108    461.77854   -149.47252    37946.351 
  936200    296.53523     -1468.95    498.95628    364.71817   -527.15552    37946.351 
  936300    299.80867   -1456.0482    490.91669    384.31424   -871.78898    37946.351 
  936400    298.23258   -1479.0142     478.3875    341.72502   -835.33179    37946.351 
  936500    305.78587   -1506.0561    488.49649    358.78965   -527.08057    37946.351 
  936600    305.25991   -1478.4122    499.11575    394.68549   -396.35016    37946.351 
  936700     294.8202   -1454.8127    514.03246    386.21233    234.54306    37946.351 
  936800    294.71497   -1445.9216    504.29639     384.8937   -47.630409    37946.351 
  936900    303.99737   -1485.2402    501.77858     384.8376    305.52889    37946.351 
  937000    303.92522   -1490.5053    504.38496    381.85409    217.82724    37946.351 
  937100     295.2204   -1429.2941    495.56636    395.06616     165.6815    37946.351 
  937200     308.8591   -1469.8828    480.53373    400.83294    51.686276    37946.351 
  937300    298.04902    -1491.396    520.34661    370.47621    -198.3148    37946.351 
  937400    301.02949    -1402.964    510.69753    462.67427   -317.03788    37946.351 
  937500    287.90244   -1478.5612    514.84318    332.13758   -614.71025    37946.351 
  937600     299.5223   -1472.9843    482.65345    357.82593   -181.79458    37946.351 
  937700      297.859   -1468.7806    491.86414    363.75381   -631.29547    37946.351 
  937800    303.36669   -1475.1772     502.8841    393.16734   -248.48352    37946.351 
  937900    301.91619   -1500.0145    490.08308    349.00033   -333.41918    37946.351 
  938000    307.08301   -1463.5021    498.31034    416.99597   -928.51087    37946.351 
  938100    301.62066   -1498.4364    494.39805    353.56326   -656.60931    37946.351 
  938200    300.91771   -1531.8344    495.34018     317.9434   -121.74028    37946.351 
  938300    288.44686   -1465.4087    510.17266    343.06995   -97.518939    37946.351 
  938400    296.99516   -1483.8511    493.42085    346.35186     169.8164    37946.351 
  938500    297.31731   -1482.9238    519.06971    374.37798   -145.12843    37946.351 
  938600    301.44146   -1451.9147    501.77302    406.65331    54.607087    37946.351 
  938700    293.25483   -1475.3425    511.37446    355.97879   -336.32169    37946.351 
  938800    308.49716   -1441.2951    486.40418      433.662   -175.61886    37946.351 
  938900    303.96879   -1479.9011     509.4177    397.68715    91.482112    37946.351 
  939000     306.8477   -1440.6319     514.7067    455.20338     357.7666    37946.351 
  939100    297.70502   -1441.3754    529.34056    427.94238    220.81529    37946.351 
  939200     293.4799   -1458.6122    484.71741    347.06505    181.12609    37946.351 
  939300    294.46341   -1488.2254    518.28473    355.44596      -244.64    37946.351 
  939400    300.45064   -1427.7537     510.8125    435.39413    90.438859    37946.351 
  939500    304.99785   -1418.7837    500.42386    454.44254   -115.17325    37946.351 
  939600    300.61992   -1475.8269    536.45724    413.72761    116.04463    37946.351 
  939700    300.36058    -1485.777    522.24336    388.39629   -17.204435    37946.351 
  939800    295.92243   -1459.0606    486.82565    359.71876    192.91543    37946.351 
  939900    303.70492   -1472.2276    482.51304     377.2683    399.69522    37946.351 
  940000    295.16061   -1471.1661    530.97299    388.33169    212.08598    37946.351 
  940100    301.32875   -1512.1725    515.92154    360.03669   -40.374386    37946.351 
  940200    299.06709   -1453.2382    485.05259     377.9223    159.76254    37946.351 
  940300    293.13126   -1502.0207    546.06546    363.43534   -72.916671    37946.351 
  940400    297.13713   -1462.0637    530.72526    406.08262    533.38133    37946.351 
  940500    294.63235   -1486.2917    469.17991    309.03522   -56.364958    37946.351 
  940600    302.37356   -1508.1471     511.1133    363.95659   -309.22561    37946.351 
  940700    292.24959   -1479.5421    483.05082     318.9309   -282.09347    37946.351 
  940800    299.53822    -1453.084    496.75941    391.90385   -381.25273    37946.351 
  940900    304.13294   -1457.4414    502.67222    414.14023   -224.58249    37946.351 
  941000    303.94177   -1499.7429     511.5702    379.87628    220.32607    37946.351 
  941100    301.31949   -1466.1959    516.93364    406.98372    131.33237    37946.351 
  941200    294.35283   -1441.0861    514.25656    398.05938   -150.48528    37946.351 
  941300    296.88808   -1458.0794    527.78306    406.00378    443.25727    37946.351 
  941400    301.48089   -1525.9816    495.62572    326.61657   -221.92999    37946.351 
  941500    299.92049   -1487.3891    521.76442    384.32441    1.7922948    37946.351 
  941600    312.12158   -1459.3548    504.64176    450.15344   -161.17907    37946.351 
  941700    304.93322   -1491.6749     522.4169    403.25352   -270.81559    37946.351 
  941800    289.77049   -1475.9694    526.83808    355.13236   -835.46836    37946.351 
  941900    294.41549   -1512.8958    489.97088    302.24599   -589.37555    37946.351 
  942000    288.55556   -1463.8482    513.91181    348.85883   -118.86197    37946.351 
  942100    308.68249   -1460.7341    491.36609      420.019    45.720954    37946.351 
  942200    305.24394   -1446.4117    488.08034    415.57865    198.11772    37946.351 
  942300    297.12932   -1501.4321    518.37154    354.32539    238.50086    37946.351 
  942400    305.77421   -1472.7665    507.53463    411.06496    125.31482    37946.351 
  942500    303.02498   -1475.1734    493.42303    382.17208    310.90149    37946.351 
  942600    296.31697   -1463.9584    510.24261    380.01378    143.26297    37946.351 
  942700    300.06452    -1469.719    496.87678    377.75511    271.37397    37946.351 
  942800     290.5877    -1500.902    493.73145    300.77141    66.919343    37946.351 
  942900    289.55929   -1475.4273     501.3255    329.21127    83.034254    37946.351 
  943000    299.89402   -1493.7077    512.61098    368.73321   -78.863606    37946.351 
  943100    293.43136   -1487.7827    502.06003    335.01872   -98.213006    37946.351 
  943200    310.01095   -1505.0793    491.92575    382.21296     74.39892    37946.351 
  943300    301.13737   -1512.2439    502.03115    345.21351    162.06332    37946.351 
  943400    305.69507   -1511.3751    482.78997    347.35543    -266.3274    37946.351 
  943500     308.4133   -1531.5551     491.8401    348.46038    153.17893    37946.351 
  943600    305.67125    -1502.238    497.37994    370.97533    317.05159    37946.351 
  943700    298.14087   -1484.1847    485.93537    343.68968   -65.230245    37946.351 
  943800    298.95093   -1509.5414    493.77437    329.81801    50.290571    37946.351 
  943900    320.52384   -1491.2244    501.73387    453.19467   -196.85087    37946.351 
  944000    302.33407   -1466.6035    486.27571    380.48486   -586.64808    37946.351 
  944100    295.17365   -1470.4522     488.3227    346.45395   -632.95286    37946.351 
  944200    301.90693   -1466.4759    481.51607    373.93032   -550.34141    37946.351 
  944300    303.67318    -1480.897    509.00235    394.94535    -46.78081    37946.351 
  944400    304.00515   -1462.0114     501.9006    408.22338   -269.53395    37946.351 
  944500    308.97127   -1536.6943    454.70683    308.69934   -215.79185    37946.351 
  944600    284.05951   -1506.1797    511.77284    284.15162   -157.63919    37946.351 
  944700    301.05639   -1482.9987    516.94693    389.01001     573.5731    37946.351 
  944800     308.2025    -1493.164    509.55326    403.61584    747.59899    37946.351 
  944900    298.45731   -1503.5315    498.10075     337.9325    600.61032    37946.351 
  945000    305.37141   -1459.1821    506.08729    421.38901    379.82547    37946.351 
  945100     291.2082   -1415.7036     518.3639     413.3951    120.61057    37946.351 
  945200    303.81414   -1445.2852    511.43247    433.62181   -82.617605    37946.351 
  945300    311.46152   -1456.2852    494.62045     440.2308     217.1909    37946.351 
  945400    301.33043   -1456.2997    497.07504    397.07054   -21.391616    37946.351 
  945500    293.06665   -1488.4289    481.46118    312.13209   -313.42486    37946.351 
  945600    291.90263   -1450.1006    501.52495    365.28487    -394.3962    37946.351 
  945700    303.20396   -1461.5291    514.33495    417.53392     151.9017    37946.351 
  945800     301.8967   -1488.6518    520.49369    390.68594    189.22092    37946.351 
  945900    298.01075   -1468.0905    511.77687    385.03965    195.82192    37946.351 
  946000    302.98563   -1420.5919    535.98086    479.13424    260.68083    37946.351 
  946100    296.41871   -1459.8441    483.65389    357.99725     335.8644    37946.351 
  946200    294.33931   -1451.3837    500.00467    373.44898    594.47304    37946.351 
  946300     302.5174   -1511.5812    492.55281    342.60947    133.92498    37946.351 
  946400    304.63554    -1497.786    489.57857    362.96422    623.12786    37946.351 
  946500    308.44513   -1480.8897    488.70076    396.12978    410.49395    37946.351 
  946600    302.86174   -1454.6975    488.20697    396.69719    219.71268    37946.351 
  946700    295.81339   -1409.2136    502.98916    425.23852    933.87692    37946.351 
  946800    293.77455   -1444.0785    494.23289     372.4404   -16.086718    37946.351 
  946900    299.15084   -1469.9571    503.72451    380.25229    108.71137    37946.351 
  947000    301.40973   -1443.3177    478.44608    391.78054    74.572571    37946.351 
  947100    308.68413   -1445.4385    502.74513    446.70112    709.52313    37946.351 
  947200    305.95359   -1485.1004    502.42157    394.42535    415.11616    37946.351 
  947300    291.43181   -1474.9825    486.78797    323.54678    419.32404    37946.351 
  947400     305.9035   -1446.3284     503.9563    434.50659    172.06167    37946.351 
  947500    299.16406     -1416.99     519.9487    449.50306   -151.81111    37946.351 
  947600     291.6592   -1401.7469    474.95968    385.97758    80.051949    37946.351 
  947700    310.45186    -1449.324    503.65573    451.68272   -120.35398    37946.351 
  947800    307.58927   -1452.0662    528.13768    460.53793   -717.19533    37946.351 
  947900    299.78361   -1413.9109    492.22013    427.64217     55.59975    37946.351 
  948000    299.56101   -1428.9346    502.70268    422.09912    -467.8945    37946.351 
  948100    301.62305    -1436.962    518.52264    439.17292   -302.42125    37946.351 
  948200    297.96958   -1426.9191    523.93605    438.18497   -765.10531    37946.351 
  948300    297.84977   -1462.3005    476.98976      355.318   -151.39964    37946.351 
  948400    304.98389   -1459.9022    503.62355    416.46089   -14.414526    37946.351 
  948500    298.75062   -1422.7917    487.33989    409.23166   -155.16222    37946.351 
  948600    303.23839    -1432.305    516.65046    449.22851    290.73691    37946.351 
  948700    292.05005   -1407.3135    498.99715    406.20773    76.703901    37946.351 
  948800     298.0372   -1403.4915    526.00864    463.98954   -55.084418    37946.351 
  948900    284.64448   -1459.8528     498.3452    319.68378   -187.50788    37946.351 
  949000    298.90882   -1459.1442    510.77381    397.02516   -542.61882    37946.351 
  949100    292.53799   -1439.0187    492.08295    369.78451   -105.08868    37946.351 
  949200    299.35412   -1450.0351    485.61965    382.98436    120.67002    37946.351 
  949300    296.71547   -1444.3368    506.98126    398.16766   -276.76447    37946.351 
  949400    309.08515   -1477.0428    501.12423    415.28083    205.96265    37946.351 
  949500    291.97774   -1520.5043    505.17983    298.87408   -24.379807    37946.351 
  949600    295.79466   -1523.3236    484.48011    292.53512    132.47162    37946.351 
  949700    302.35736   -1505.5616     507.6926    363.04846    65.347937    37946.351 
  949800    301.23907   -1486.8449    474.39197    343.43113    54.794315    37946.351 
  949900    301.38181   -1481.2133     490.9035    366.21666   -269.01047    37946.351 
  950000    307.13158   -1449.5728    509.28606     442.1196   -532.49221    37946.351 
  950100    301.90936   -1480.7242    484.48397    362.66081    -535.6389    37946.351 
  950200     293.8445   -1458.3718    500.80049    365.02955   -441.98489    37946.351 
  950300    304.48368   -1460.3428    490.00242    400.14775     503.6266    37946.351 
  950400    293.38487   -1518.3291    512.92399      315.127    516.37615    37946.351 
  950500    297.72613   -1490.1887    503.23423    353.11776    361.67295    37946.351 
  950600    297.86653   -1448.2761    511.39706    403.82506    644.71542    37946.351 
  950700    302.33079   -1494.5567    509.78227    376.02341    197.16838    37946.351 
  950800     291.1438   -1496.6575    488.53547    302.32294    62.805645    37946.351 
  950900    298.09372   -1459.1042    499.76656    382.38912   -274.88233    37946.351 
  951000    294.05548   -1451.6424    494.06547    365.97364   -627.59681    37946.351 
  951100    292.34169   -1453.1622    511.21886    373.89335   -30.325252    37946.351 
  951200    309.68699   -1464.1478    496.64905    426.40963    133.61522    37946.351 
  951300    300.31086   -1457.6626    497.22605    391.26956    435.07527    37946.351 
  951400    303.71124   -1429.1142    486.20843    424.10554    240.72775    37946.351 
  951500    309.52831   -1459.2766    515.12393    449.04141   -134.76917    37946.351 
  951600    291.65418   -1447.2696    505.11861    370.59125    180.58089    37946.351 
  951700    299.03182   -1498.8332    498.78222    345.89811    515.19949    37946.351 
  951800    311.87284    -1517.983    491.50828    377.27216   0.83694976    37946.351 
  951900    299.38061   -1520.0637     479.9838    307.43914    335.68986    37946.351 
  952000    300.40698    -1500.006    525.42907    377.56186    124.68545    37946.351 
  952100    295.99069   -1530.6678    482.56591    284.15909    113.94717    37946.351 
  952200    300.38252   -1548.0915    503.53437    307.47156    229.40276    37946.351 
  952300     307.3608   -1498.4142    517.10835    402.13229    189.15057    37946.351 
  952400    289.66771   -1492.5088    477.30755    288.59986     290.9441    37946.351 
  952500     299.8705   -1485.0071     502.2485    366.96543    351.36393    37946.351 
  952600    298.93855    -1502.949    497.60588    340.18621    619.40694    37946.351 
  952700    293.88849   -1508.0177     495.1649    309.94612    191.52123    37946.351 
  952800    292.93785    -1507.327    497.95579    309.14889    444.22129    37946.351 
  952900    290.32798   -1561.1513    513.27549    258.89715    739.38277    37946.351 
  953000    294.97575   -1532.3168    484.98003    280.35591    318.04883    37946.351 
  953100     293.4917   -1557.1862      479.163    242.98973    416.84146    37946.351 
  953200    292.26821   -1493.9518    513.32533    334.87955    596.20264    37946.351 
  953300     304.9664    -1506.043     507.1638    373.78157    228.86075    37946.351 
  953400    307.24971   -1537.4847     511.8929    357.34628    84.403321    37946.351 
  953500     296.3696   -1513.0247    488.82315    309.76492   -202.05427    37946.351 
  953600    298.66288   -1501.2014    501.11766    344.20481   -302.00304    37946.351 
  953700    294.93344    -1496.349    504.17692    335.33018   -222.22237    37946.351 
  953800    292.04725   -1469.6311    492.71692    337.59722    21.328134    37946.351 
  953900    306.11504   -1517.5897    504.38432    364.62555    -307.3202    37946.351 
  954000    295.59299   -1488.5179    484.33174    326.28468    696.42347    37946.351 
  954100    290.60899   -1454.5553    498.32907    351.81154   -182.52058    37946.351 
  954200    302.07953   -1450.4485    490.76358    399.98206   -286.11538    37946.351 
  954300    307.78113   -1491.2039     502.5278    396.65384   -25.271053    37946.351 
  954400    292.20864   -1481.9289    504.74996    338.05891   -561.54048    37946.351 
  954500    301.44437   -1465.3968    482.39625    373.80758    204.99283    37946.351 
  954600    299.18483   -1472.0696    518.47458    393.04282   -727.45203    37946.351 
  954700    298.39729   -1483.5496    518.02761    377.57114    252.98305    37946.351 
  954800    292.95578   -1468.8901    493.05877    342.76939    54.228713    37946.351 
  954900    310.84731   -1447.6213    507.79041    459.30002     399.2782    37946.351 
  955000    304.10856    -1446.042    512.98206    435.73972    67.407774    37946.351 
  955100     296.6404   -1468.4652    508.49205    375.21218    67.836989    37946.351 
  955200    308.51438   -1431.4075    511.13519    468.35805    43.178995    37946.351 
  955300    304.22495   -1398.1479    524.92351    496.09912   -237.53823    37946.351 
  955400    296.75271   -1463.0609    493.28365    365.91361   -319.78389    37946.351 
  955500     307.6131   -1438.5344    502.45719    448.49646   -45.081271    37946.351 
  955600    292.88435    -1449.742    497.63991    366.17718   -93.883763    37946.351 
  955700    304.07697   -1460.0209    493.51415    402.15078   -46.536453    37946.351 
  955800    294.64724   -1478.8852    500.35003    347.67895   -344.49978    37946.351 
  955900    307.16197   -1483.6034    512.42451    411.36425   -112.60635    37946.351 
  956000    306.31538   -1541.9944    497.96986    334.70806   -29.271938    37946.351 
  956100    291.23286   -1469.7053    501.00566    342.14622    32.511092    37946.351 
  956200    299.92417   -1471.8284    503.68698    381.82429   -249.03325    37946.351 
  956300     298.3103   -1462.7977    510.21823    390.12213   -353.23785    37946.351 
  956400    305.80911   -1486.0677    494.48026    384.86648   -651.41894    37946.351 
  956500    306.50221   -1504.2803    493.06409    368.35735   -1071.6636    37946.351 
  956600     305.4749    -1522.269    476.86538    329.54603    -1284.657    37946.351 
  956700    296.86721   -1463.8416     508.1512    380.51585   -507.47946    37946.351 
  956800     297.5038    -1462.587     508.2097    384.69418   -106.27643    37946.351 
  956900     301.6409   -1456.0621    514.93907    416.56966    432.51888    37946.351 
  957000    297.92012   -1501.3573    487.15396    326.74204   -180.48507    37946.351 
  957100     294.1919   -1497.9945    512.21303    338.38309   -691.31837    37946.351 
  957200    293.61401   -1478.4044    491.80521    334.96424   -1081.6698    37946.351 
  957300    293.43697   -1432.4036    503.85294    392.21588   -602.29469    37946.351 
  957400    290.89946   -1485.0816    488.01245    312.27604    51.857693    37946.351 
  957500    297.65864   -1468.5571    517.42643    388.63771   -73.470807    37946.351 
  957600    299.35446   -1443.2775    502.37433    406.49818   -123.54523    37946.351 
  957700    298.25102   -1453.7076    506.32258    395.04975    84.289073    37946.351 
  957800    306.42373   -1457.0992     495.4065    417.52763   -89.084139    37946.351 
  957900    287.04619   -1431.7044    527.05812    387.35527   -30.625753    37946.351 
  958000    306.99728   -1457.1324    499.63464    424.30409    108.59123    37946.351 
  958100    298.23263   -1523.9784    467.89147    286.26508   -325.15441    37946.351 
  958200    312.66891   -1562.6848    499.19799    343.84314    460.53823    37946.351 
  958300    289.16335   -1527.0177    500.66839    275.18159    250.48576    37946.351 
  958400     295.5777   -1557.4186    493.46253    266.44597    231.87022    37946.351 
  958500    298.30401   -1521.1479    475.92532     297.4507    191.62592    37946.351 
  958600    302.35367   -1506.3047    531.16493    385.76111    699.15829    37946.351 
  958700    298.89708   -1526.5462    502.77353    321.57005    578.44488    37946.351 
  958800     307.1135   -1456.9441    513.08212    438.46297    247.61187    37946.351 
  958900    306.71789   -1467.0986    502.29897    415.74475   -73.643199    37946.351 
  959000    293.53759   -1439.9933    504.73216    385.95832   -640.67554    37946.351 
  959100    309.54402   -1430.7991    505.94613    468.41182    16.828169    37946.351 
  959200    305.68511    -1468.956    503.11516    410.05494   -562.16456    37946.351 
  959300    296.72752   -1419.0608    493.55964     410.0763   -64.426427    37946.351 
  959400    296.23956   -1421.6179    516.76263    428.52587    168.46837    37946.351 
  959500    297.48311   -1460.6699    513.40478    391.71323    337.57386    37946.351 
  959600    301.53401   -1476.1191    503.90807    385.00051   -128.63678    37946.351 
  959700     291.2639   -1460.9075    499.54665    349.62475   -146.51335    37946.351 
  959800    306.65874   -1450.8202    490.76989    420.22778    332.27075    37946.351 
  959900    291.32903   -1443.0457    495.02648    363.25947   -216.68534    37946.351 
  960000    304.02975   -1442.3592    496.84079    422.92654   -105.66414    37946.351 
  960100    306.87303   -1479.0743    508.52146    410.68972   -677.69903    37946.351 
  960200       301.29    -1477.245    479.16322    358.03144   -544.64034    37946.351 
  960300    288.32503   -1433.5667    497.14955    361.34051   -340.03544    37946.351 
  960400    291.24141   -1479.0006    521.64344    353.52715   -107.07343    37946.351 
  960500    299.85242   -1472.6028    510.97001    388.00994    9.9113153    37946.351 
  960600    306.58842   -1470.7073    494.50465    403.75895      59.9738    37946.351 
  960700    313.20967   -1479.2936    485.56884     416.0392   -66.893118    37946.351 
  960800    306.48959   -1469.1549    490.95351    401.31532   -143.06478    37946.351 
  960900    292.48611   -1475.7601    494.50314    335.22979   -126.20282    37946.351 
  961000    305.73632   -1438.7039    516.69011    454.11244   -4.8062491    37946.351 
  961100    299.53082   -1460.6954    493.72832    381.22808     369.6972    37946.351 
  961200    298.97613   -1478.7934    509.46685    376.37195   -69.621213    37946.351 
  961300    300.42822   -1442.3454    502.34921    412.23825    375.48397    37946.351 
  961400    289.70104    -1506.401     509.3887    306.93885    79.436878    37946.351 
  961500    311.89658   -1514.2322    497.58863     387.2102   -182.00879    37946.351 
  961600    310.16279    -1491.647    497.26939    401.67232   -37.627517    37946.351 
  961700    297.03276   -1478.5212    540.26896    398.69912   -45.182617    37946.351 
  961800    294.92458   -1502.4615    500.64316    325.64405    310.02438    37946.351 
  961900    293.90199   -1471.7213    502.05659    353.19494    28.126261    37946.351 
  962000    301.58068   -1506.7962    509.55785    360.18332    500.01217    37946.351 
  962100    308.68028   -1495.3995     501.5933    395.57091    153.96907    37946.351 
  962200    296.35798   -1502.4674    536.39721      367.844    27.824845    37946.351 
  962300    302.37851   -1461.1525    502.34201     402.2022   -18.765606    37946.351 
  962400    307.60584   -1472.2302    489.87945     402.1903   -269.49186    37946.351 
  962500    299.80131   -1476.1794    522.28839    395.52158   -120.09026    37946.351 
  962600     307.5399   -1490.0886    492.39961    386.55527   -144.01839    37946.351 
  962700    291.53703   -1498.0813    483.97083    298.10449    201.95461    37946.351 
  962800    307.03602   -1512.6566    523.50782    392.82742    574.19242    37946.351 
  962900    301.65179   -1508.4751    488.69964    337.96628    430.59999    37946.351 
  963000    293.53732   -1507.7132    501.67379    315.17885    354.28253    37946.351 
  963100    290.65174   -1526.5681    518.10155    299.76371   -69.096145    37946.351 
  963200    297.85401   -1485.5225     496.1026    351.22789    136.07928    37946.351 
  963300    304.90138   -1529.2096    483.07882    326.23739   -211.15876    37946.351 
  963400    298.60034   -1531.5029     503.2394    315.74355   -417.83995    37946.351 
  963500    292.91978   -1497.1533    513.49669    334.78216   -643.02687    37946.351 
  963600    303.06472   -1482.7004    510.13888    391.53986    -132.9947    37946.351 
  963700     297.0002   -1485.3882    518.68006    370.09661   -239.53788    37946.351 
  963800    299.94727   -1491.6714    473.29822    331.69643    13.236765    37946.351 
  963900    301.32998   -1516.9828    516.40895    355.71939    224.27743    37946.351 
  964000    308.58993    -1534.256    498.51253    353.22694   -160.75715    37946.351 
  964100    298.37439   -1515.8075    491.23343    318.41602    148.47101    37946.351 
  964200    295.18684   -1537.7235    496.40685    287.32618    707.04987    37946.351 
  964300    297.67436   -1555.8073    484.61734    268.64924    632.83709    37946.351 
  964400    303.20332   -1512.2811    488.47564    340.91973    522.01507    37946.351 
  964500    308.68074   -1496.7487    496.79963    389.43007    783.20471    37946.351 
  964600    305.45852   -1494.1081    489.86711    370.63488    124.66485    37946.351 
  964700    292.10511   -1490.4933    513.02735    337.30594   -163.63776    37946.351 
  964800    295.23512   -1440.1013    498.95421    387.71304   -565.66296    37946.351 
  964900    284.27234   -1394.3667    527.38306    412.53277   -668.87952    37946.351 
  965000    302.81356   -1455.8124    500.75845    407.91693   -381.34948    37946.351 
  965100    304.37134   -1478.7407    508.63303    399.87482    330.17661    37946.351 
  965200    296.01084   -1512.5176    516.67988    336.51392    811.86376    37946.351 
  965300    305.81422   -1557.0748    483.60661    303.00868    425.63456    37946.351 
  965400    292.19939   -1506.4213    496.43648    305.21147   -160.82524    37946.351 
  965500    300.49764   -1500.4282    499.21231    351.33095    14.210875    37946.351 
  965600    297.62397   -1504.7679    494.20827    329.05276   -102.95112    37946.351 
  965700    307.45079   -1474.3999     496.7411    406.18434    199.75474    37946.351 
  965800    308.06169   -1525.5958    498.73845     359.7355    390.20201    37946.351 
  965900    299.07743   -1514.7451    503.01513    334.42455     331.3957    37946.351 
  966000    307.68744   -1514.6243    486.78557    357.06955    384.59339    37946.351 
  966100     296.2236   -1543.9527    502.98404    292.34065    582.52855    37946.351 
  966200    301.00918   -1552.6266    505.01384     307.2365    139.27516    37946.351 
  966300    303.31044   -1530.3038     491.5879     326.4914    277.28141    37946.351 
  966400    291.09152   -1512.6302     508.6808    306.26026     530.2777    37946.351 
  966500    297.70112   -1459.0752    508.99696    389.88137      388.413    37946.351 
  966600    296.38789   -1455.4473    490.05992    368.66138    47.528632    37946.351 
  966700    304.68413   -1451.9662    514.02981    433.45398   -289.63175    37946.351 
  966800    296.91807   -1449.0836    500.49322    387.84473   -281.97148    37946.351 
  966900    290.54711   -1506.4966    506.73462    307.99728    159.70166    37946.351 
  967000    296.59552   -1478.0042    493.32114    350.30028    -79.97881    37946.351 
  967100    307.52937   -1498.0589     503.2784    389.41633    255.21425    37946.351 
  967200    303.45714   -1508.0978    516.31388    374.08375   -339.17029    37946.351 
  967300    296.81606   -1501.9504     481.8828    315.90837   -117.69111    37946.351 
  967400    293.94402   -1566.9498    481.01344    237.11242   -54.551485    37946.351 
  967500    305.07839   -1524.8124    508.78026    357.13281   -323.43197    37946.351 
  967600    302.97528   -1540.8954    493.32474     316.1281   -289.81832    37946.351 
  967700    306.54182   -1532.5106    492.82495    340.06616   -775.96869    37946.351 
  967800    301.31499   -1468.8429    503.30902    390.69193   -504.58735    37946.351 
  967900    293.95733   -1494.3089    501.41831    330.21819   -798.44417    37946.351 
  968000    292.41405   -1494.9345    516.43095    337.65882    35.693226    37946.351 
  968100    304.53589   -1514.6993    495.34238    351.36616   -199.05732    37946.351 
  968200    300.61173   -1477.6581    502.44033    377.84259    222.48174    37946.351 
  968300    297.06926   -1510.5506    518.29217    344.85721   -155.01548    37946.351 
  968400    315.20028   -1472.3308    500.12843     446.5214    623.87678    37946.351 
  968500    297.47196    -1441.001    524.73005    422.65718    801.07712    37946.351 
  968600    294.59186   -1471.4686    512.56072    367.05694    297.57098    37946.351 
  968700    309.29571   -1456.1348    501.39315    437.40552    6.5452143    37946.351 
  968800    292.89445   -1495.6335    487.10629    309.79747    132.55742    37946.351 
  968900    300.10863   -1473.6921    499.07753    376.18134   -2.3945024    37946.351 
  969000    304.09414   -1467.1403    498.41881    400.01327    -202.4913    37946.351 
  969100    293.81148   -1517.9798    482.59009    287.06253    422.14321    37946.351 
  969200    297.17615   -1453.4815    515.63049    399.74575    444.83945    37946.351 
  969300     302.0724   -1492.4678    502.94283    370.10996   -152.92535    37946.351 
  969400      299.255   -1439.9525    536.78613    443.78734     496.4484    37946.351 
  969500    299.03044   -1442.0907    538.03063    441.88291     366.6113    37946.351 
  969600    301.58102   -1420.3613    485.54384    422.60565    544.76015    37946.351 
  969700    303.12616   -1460.8523    523.34488    426.87041   -66.606295    37946.351 
  969800    295.40308   -1440.2023    510.25412    399.66786    115.07548    37946.351 
  969900    301.83413   -1403.1595    511.02438    466.42726    206.33209    37946.351 
  970000    302.08927    -1444.872    517.99217    432.83097    217.54374    37946.351 
  970100    302.41582   -1427.7956    512.53282    445.91786    210.10671    37946.351 
  970200    297.95326   -1433.9407    536.69803     443.8518    -151.7845    37946.351 
  970300    302.97551   -1447.3539     524.4318    440.77767    251.58886    37946.351 
  970400    305.20443   -1462.5007    506.09462    417.32612    32.271787    37946.351 
  970500    294.44739   -1476.5023    489.02047    337.83274   -199.04812    37946.351 
  970600    298.94978   -1484.7164    519.35781    380.22124    80.594921    37946.351 
  970700    306.76504   -1455.3676    508.35354     433.7425   -298.32853    37946.351 
  970800    300.26811   -1493.9597    515.72181    373.27586    212.71083    37946.351 
  970900    309.32354   -1453.4531     488.8896    427.70886    490.51922    37946.351 
  971000    300.13637   -1452.1106    519.23311    418.04328    180.18002    37946.351 
  971100    288.58125   -1473.3758    498.77709    324.31218    108.04882    37946.351 
  971200    313.63982   -1445.7481    536.09902    502.05099    107.37592    37946.351 
  971300    312.07534   -1440.1442    521.56513     486.0793    64.157305    37946.351 
  971400    294.40694   -1457.3179    490.61716     358.4317    109.48961    37946.351 
  971500    302.59134   -1468.8429    520.92265    414.05043   -10.562855    37946.351 
  971600    312.88361   -1449.9817    509.19161    467.50634    578.16658    37946.351 
  971700    305.94854   -1442.9842    505.47784    439.57512    254.32948    37946.351 
  971800    298.11894   -1427.2035    517.06934    431.70606    401.90077    37946.351 
  971900    291.37925   -1489.0705    510.65081    333.08503    511.11953    37946.351 
  972000    309.54725   -1453.6511    489.67697     429.3052    316.24236    37946.351 
  972100    300.90169   -1500.3093    521.74777    375.80401    135.75162    37946.351 
  972200    288.73022   -1473.0919    491.08934    317.57885    629.50125    37946.351 
  972300    292.56111   -1432.8577    505.87322    389.83985    389.53007    37946.351 
  972400    303.58057   -1471.7166    512.66481    407.37136    579.66782    37946.351 
  972500    294.69127   -1454.7881    496.08556    367.70973    440.65904    37946.351 
  972600    286.12925   -1501.0666    501.82454     288.6323    180.75015    37946.351 
  972700    292.90315   -1478.1439    489.25091    329.47082    303.94522    37946.351 
  972800    301.35929   -1472.8865    503.11678    386.65539    15.627287    37946.351 
  972900    305.13892   -1456.1942    527.45989    444.70304    417.11296    37946.351 
  973000    293.83279   -1472.4736    540.09531    390.16985    624.38118    37946.351 
  973100     302.4625   -1453.1466    491.70092    399.94499    620.69961    37946.351 
  973200    299.08559   -1469.1798    519.47064    396.48202    412.18829    37946.351 
  973300    305.20332   -1492.9677    503.29827    384.05778    380.65909    37946.351 
  973400    299.22139   -1490.0489    526.80236    383.55585    759.91859    37946.351 
  973500    305.42365   -1486.0497    514.17668    402.84591    422.54014    37946.351 
  973600    297.09574   -1490.9917    509.60572    355.84885    213.13117    37946.351 
  973700    306.31093   -1522.9224    486.13814    341.92829   -256.92777    37946.351 
  973800    303.15488   -1455.6397    499.50774    408.37518   -95.344433    37946.351 
  973900    298.12079   -1451.8992     494.2192    384.16863   -938.00104    37946.351 
  974000    303.13926   -1452.9235    515.50896    427.02234   -408.79891    37946.351 
  974100     291.0023   -1508.9317    494.38709    295.26355   -479.71045    37946.351 
  974200    312.54735   -1523.7297    482.44707    365.50026   -189.84787    37946.351 
  974300    307.83742   -1509.9037    502.67563    378.35528   -176.80051    37946.351 
  974400     303.7922   -1506.1917    488.41028    349.59431    200.06784    37946.351 
  974500    293.67343    -1547.803     501.0781      275.106    751.16849    37946.351 
  974600    296.24097   -1500.2331    504.31016    337.46448    143.60232    37946.351 
  974700    285.49688   -1544.8124    516.17302    256.38872    682.92531    37946.351 
  974800    295.72364   -1540.9202     488.9052    279.04389    408.19349    37946.351 
  974900    291.22865   -1488.4483    516.42603    338.80461    734.60268    37946.351 
  975000    300.83809   -1464.3833    487.91967    377.61561    433.14853    37946.351 
  975100    280.18785   -1522.2828    504.76381    243.61305    287.96881    37946.351 
  975200    297.86059   -1492.6371    536.20456    384.24489    617.28735    37946.351 
  975300    303.06891   -1495.5309    479.29849    347.88779    345.42662    37946.351 
  975400    295.65849   -1505.8019    522.41574    347.37953    -103.6839    37946.351 
  975500    303.36304   -1536.3683     525.5022    354.57793     590.2293    37946.351 
  975600    306.42688   -1510.1943    509.79824    378.83843    121.37101    37946.351 
  975700     299.6847   -1469.6177     489.5178    368.78785    11.178464    37946.351 
  975800    299.05136   -1468.7389    504.87312    382.17127    128.23349    37946.351 
  975900    299.73178   -1478.0025    500.16563    371.26284   -285.33906    37946.351 
  976000    299.99771    -1485.051    489.63926     354.8849   -312.39481    37946.351 
  976100    292.96093   -1488.4076    496.19416    326.41053   -426.17175    37946.351 
  976200    304.08899   -1501.1409    503.96855    371.53922   -256.68935    37946.351 
  976300    292.89556   -1497.3549    491.42635    312.40116   -346.88035    37946.351 
  976400     305.0352   -1509.3977    491.36995    354.94275    60.683095    37946.351 
  976500    292.72414   -1497.7784    508.09091    327.87067   -166.61288    37946.351 
  976600    296.13985   -1505.2361    510.26934    337.96556    324.43159    37946.351 
  976700    290.37695   -1510.4933    512.48769    308.98772    113.39862    37946.351 
  976800    309.24965   -1492.3218    503.62761    403.24563   -316.40357    37946.351 
  976900    307.39921   -1494.5909    505.96411    394.98417   -93.069108    37946.351 
  977000    294.43679    -1503.609    512.20428    333.86215   -167.03217    37946.351 
  977100    302.69824    -1481.988    505.15776    385.62156   -32.696566    37946.351 
  977200    298.11517   -1455.4822     495.4783    381.81942   -53.229423    37946.351 
  977300    292.47502   -1463.2366     509.3455    362.54577   -245.79095    37946.351 
  977400    286.24833   -1509.3975    518.39331    297.40612   -218.27264    37946.351 
  977500    294.53066   -1506.2665    490.98882    310.41167   -20.113908    37946.351 
  977600    312.50561   -1503.8946    514.89089    417.59126     314.0913    37946.351 
  977700    302.47279   -1478.1474    507.75862    391.04825    213.99367    37946.351 
  977800    299.92796   -1451.6613    486.67541    384.99678    10.910277    37946.351 
  977900     303.0499   -1483.4974     494.2282    374.76537    877.05572    37946.351 
  978000    300.91276   -1491.4012    502.04623    365.06035    826.18843    37946.351 
  978100      301.936   -1484.8731    526.35869    400.50657    646.30194    37946.351 
  978200    308.60999   -1511.6146    501.15567    378.60178     249.8549    37946.351 
  978300    307.67354   -1531.2527    500.86713    354.46012    330.94761    37946.351 
  978400    295.74331    -1548.163    486.28028     269.2648    305.82482    37946.351 
  978500    300.43259   -1542.0974    517.60028     327.7569    748.35966    37946.351 
  978600    299.22622   -1496.6402    488.41806      338.602    31.532663    37946.351 
  978700    295.19586   -1481.6298    497.22787    344.28147    629.85681    37946.351 
  978800    298.30641   -1495.9491    503.24519    349.98018    459.42652    37946.351 
  978900    295.62299   -1508.2447    487.26186    309.62305   -158.16113    37946.351 
  979000    295.53822    -1507.938     479.3555     301.6419   -44.370978    37946.351 
  979100    295.32563   -1548.3208    488.49277    269.43949   -255.98346    37946.351 
  979200    303.28907   -1489.5568    482.59602    358.15034   -523.76282    37946.351 
  979300    294.03533   -1487.5006    494.45099    330.41024    -750.7823    37946.351 
  979400    311.14791   -1446.0622    510.25156    464.67328   -139.74378    37946.351 
  979500    306.14608     -1452.96    503.76564     428.7762   -568.48742    37946.351 
  979600    291.26955   -1469.1773    489.20915     331.0429   -34.977812    37946.351 
  979700    305.81859   -1510.5021    481.66645    347.66091   -152.63496    37946.351 
  979800    302.28556   -1495.2944    518.32206    383.62199    463.52157    37946.351 
  979900    295.29488   -1461.4932    487.03327    354.66917    240.79206    37946.351 
  980000    307.91686   -1494.9146    466.47015    357.49644    220.09298    37946.351 
  980100    291.64104   -1468.0103    508.32153    352.99425    466.23726    37946.351 
  980200    293.64832   -1454.9318    501.13388    367.91995    141.98132    37946.351 
  980300    302.62078   -1466.6787    508.30907    403.73355   -135.10693    37946.351 
  980400     301.7884   -1474.2436    458.86716    342.98016   -356.44818    37946.351 
  980500    303.91232   -1459.2016    511.95442    420.66925    224.86383    37946.351 
  980600    298.47516   -1455.0486    513.60595    402.00097   -7.3536942    37946.351 
  980700    301.57643   -1480.6557    478.54686    355.29365   -144.00882    37946.351 
  980800    292.83896   -1511.6751    485.83381    292.23369   -5.8550308    37946.351 
  980900    293.31316   -1510.3778    488.68737    298.51886    188.81139    37946.351 
  981000    302.90667   -1470.3836     489.5273    382.53365   -398.87669    37946.351 
  981100    301.06986   -1466.8757    480.32934    368.57605   -559.07794    37946.351 
  981200     299.3715   -1486.6998    482.52722    343.30549   -247.03539    37946.351 
  981300    304.47645   -1469.1923    466.42678    367.69005   -709.72623    37946.351 
  981400    298.91557   -1473.0947    509.38534    381.71651    -179.1146    37946.351 
  981500    308.93517   -1491.6731    499.90785    398.75913   -7.7625468    37946.351 
  981600    302.20237   -1435.4835    476.28329    401.01963   -376.59659    37946.351 
  981700    297.80472   -1425.6293    526.08945    440.88609    -634.2462    37946.351 
  981800    301.19823   -1443.9706    480.32487    392.05453   -75.714953    37946.351 
  981900    304.22402   -1481.4403    477.48869    365.36775    43.256834    37946.351 
  982000    299.53488   -1474.7091    504.48807     377.9924   -597.76723    37946.351 
  982100    302.29195   -1503.8557    503.66327    360.43068   -293.52313    37946.351 
  982200    301.53489   -1454.7221    502.25955    404.75297   -215.58301    37946.351 
  982300    296.96364   -1459.7998    489.01858    365.85897    116.80393    37946.351 
  982400    305.83733   -1488.2723    478.87684    367.18548    242.73541    37946.351 
  982500    298.73951   -1515.3133    481.43228    310.75241   -9.4523296    37946.351 
  982600    307.18662   -1511.9568    499.73192     370.4292   -115.58814    37946.351 
  982700    299.63338   -1516.1883    492.11251    324.58101   -16.771618    37946.351 
  982800    304.59294   -1481.6196    520.18889    409.54921    75.831106    37946.351 
  982900    305.45545   -1531.8447    486.26661    329.28401     170.8689    37946.351 
  983000    304.43188   -1547.2722    461.28508    284.26783    818.34783    37946.351 
  983100    302.50867   -1527.4526    504.47805    338.62396    585.25408    37946.351 
  983200    307.39386   -1545.2273    488.65608    327.01567    612.29439    37946.351 
  983300    310.89113   -1522.2305    502.27164    379.36933     23.22722    37946.351 
  983400      296.984   -1530.3671    485.06346    291.42825    376.89747    37946.351 
  983500    300.91082   -1526.0395    475.45548    303.82252   -529.35847    37946.351 
  983600    305.59324   -1486.1009    503.60049    392.98186   -248.41793    37946.351 
  983700    293.81435   -1542.3721    485.24102     265.3341    237.12515    37946.351 
  983800    297.46985   -1496.2545    477.60931    320.27354    -66.28636    37946.351 
  983900     308.0847   -1524.4969    501.78493    363.98435    521.80641    37946.351 
  984000    296.55103   -1536.6438    464.67595    262.81516    192.89481    37946.351 
  984100    295.69003   -1561.8552    512.39502    281.44746    484.18924    37946.351 
  984200    307.87053   -1548.4293    493.65921    330.96232    417.65334    37946.351 
  984300    304.94587   -1551.1779    484.97287    306.36345    915.82455    37946.351 
  984400    299.83901    -1488.124    507.59101    369.04935    891.87014    37946.351 
  984500    301.36857    -1508.072    480.19879    328.59376      371.144    37946.351 
  984600    296.44564   -1533.7713     497.0734    297.61085    647.10581    37946.351 
  984700    294.80127   -1549.1932    486.71418    264.42835   -26.821342    37946.351 
  984800    300.67295   -1553.0063    499.97912    300.30869   -602.69047    37946.351 
  984900    293.14199   -1540.2075    469.39498    248.62641     -466.107    37946.351 
  985000    297.19593   -1521.7819    505.38679    321.29062     226.9693    37946.351 
  985100    295.88909   -1586.7066      470.357    215.45404   -502.21296    37946.351 
  985200    301.50724   -1522.4765      495.189    329.80359   -964.78485    37946.351 
  985300    303.21829   -1536.5541    497.72712    325.96555   -1028.7559    37946.351 
  985400    305.12819    -1574.276     502.1502    301.26325    -458.2796    37946.351 
  985500    303.46006   -1530.0235    488.52031    324.37756   -481.59192    37946.351 
  985600     298.3753   -1539.5729    484.59997    288.02125    -411.5802    37946.351 
  985700    296.70441   -1514.8889    490.15796    310.74254   -220.92093    37946.351 
  985800    296.07254   -1545.8764    503.07725    289.83021    334.73134    37946.351 
  985900    296.76789   -1549.0608    488.56726    275.26555    342.01402    37946.351 
  986000    295.96614    -1498.662    520.81617     354.3046    5.5510876    37946.351 
  986100    304.04491    -1547.197    494.44005    315.75623    212.04042    37946.351 
  986200    296.90734   -1525.3991     506.2023       317.19    172.58115    37946.351 
  986300    299.56019   -1503.7989     494.2713    338.79976    204.39755    37946.351 
  986400    302.07204   -1588.0899    496.51925    268.06261   -357.68848    37946.351 
  986500    301.88547   -1581.3586    502.59985    280.03474   -195.06122    37946.351 
  986600    291.23471   -1516.8816    513.66169    307.63424   -647.34329    37946.351 
  986700     296.4011   -1536.1936    472.69981    270.61445   -613.85983    37946.351 
  986800    295.90129   -1504.6746    486.53772    313.72169   -668.35035    37946.351 
  986900     300.1953   -1539.3718    509.13621     320.9504   -834.97879    37946.351 
  987000    302.31638   -1504.7351    482.81931    338.81726   -599.36103    37946.351 
  987100     310.3705   -1540.5486    514.08897    370.52514    482.31989    37946.351 
  987200    303.04041   -1494.2764    513.85984     383.5753    366.50133    37946.351 
  987300    298.00197   -1482.2424    496.69232    355.76371    190.29898    37946.351 
  987400    302.47144    -1479.044    538.81016    421.19715    345.69439    37946.351 
  987500    309.21345   -1442.8065    517.00887    465.97925    373.39143    37946.351 
  987600    300.36678   -1473.6034    526.04959    404.40405   -343.68207    37946.351 
  987700    307.24622    -1448.696    522.32736    456.55372   -395.14111    37946.351 
  987800     289.8385   -1442.0078    490.07281    352.63484   -469.19382    37946.351 
  987900    298.64552   -1454.5713    534.44315    424.08225    2.2129958    37946.351 
  988000    305.02027   -1425.1027    506.71291    454.51353   -247.43443    37946.351 
  988100    307.65573   -1474.6294    505.80754    415.94369   -389.23241    37946.351 
  988200    306.52561   -1464.5867     529.4061    444.49827    34.502273    37946.351 
  988300    299.64413   -1466.9222    526.92102    408.70397    661.68288    37946.351 
  988400    299.21959   -1448.0743    493.14734    391.86742    676.98601    37946.351 
  988500    308.42635   -1436.2346    518.15461    470.15416    714.77459    37946.351 
  988600    291.61762   -1481.2024    525.76181     357.1371    515.62649    37946.351 
  988700    308.82011   -1501.7686    519.19285    407.43074    577.89019    37946.351 
  988800    297.13667   -1511.1938    481.50745    307.73269   -142.25733    37946.351 
  988900    301.88507   -1460.9762    507.65048    405.46596   -111.99316    37946.351 
  989000    297.05594   -1486.5846     508.5911    359.06219    70.701923    37946.351 
  989100    314.92489   -1485.6344    476.77519    408.62502    416.12904    37946.351 
  989200    302.20051      -1488.2    508.89192    380.90341    518.52164    37946.351 
  989300    289.54461   -1496.9119    505.63205     311.9671   -84.759033    37946.351 
  989400    300.63367   -1453.3134    498.75835    398.60405   -205.38748    37946.351 
  989500    298.04801   -1453.0986    523.43738    411.85982    433.89815    37946.351 
  989600    296.44923   -1469.2613    492.83168    357.89521    723.31538    37946.351 
  989700    308.00082   -1491.2827    533.64915    428.68528    798.77223    37946.351 
  989800    295.19494    -1540.378    497.34882    285.65013    206.05621    37946.351 
  989900    299.26469   -1551.1912    503.85549    299.66154   -283.65337    37946.351 
  990000    290.61095   -1533.1154    489.41121    264.34243    66.928102    37946.351 
  990100    290.82436   -1510.9095    501.24977     299.3474   -129.04798    37946.351 
  990200    303.68726    -1493.954    495.52718    368.47659    310.15878    37946.351 
  990300    298.93955   -1528.1682      494.694    312.05966    613.79263    37946.351 
  990400    294.86662   -1522.6645    494.38136    298.91835    361.74854    37946.351 
  990500    302.42776   -1501.6627    491.26033    350.83195    135.50408    37946.351 
  990600    295.08286   -1490.5757    520.21081    357.80993      298.486    37946.351 
  990700    306.43612   -1511.2432    510.70189    378.73474    586.76071    37946.351 
  990800    299.14813   -1526.5933    479.26364    299.14299     55.38681    37946.351 
  990900    296.06616   -1506.1541    498.44579    324.89235    -42.33038    37946.351 
  991000    296.48414   -1485.6349    509.71018    358.55732     55.86933    37946.351 
  991100    292.72227   -1525.0329    497.38612    289.90292    137.81387    37946.351 
  991200    294.49833   -1538.2202    506.46241    293.78605     479.7628    37946.351 
  991300    294.60653   -1575.6916    485.12697    235.46619    733.79016    37946.351 
  991400    297.89679   -1506.4169    523.14812    357.57157    996.41435    37946.351 
  991500    300.22176   -1515.4138    494.80991    330.70126    360.67397    37946.351 
  991600    290.69047   -1505.2613    527.50144    330.64467    170.01989    37946.351 
  991700    305.65306   -1535.8592    516.29088    356.18322    568.17529    37946.351 
  991800    303.39372   -1516.0429    494.66931    344.20857    757.70293    37946.351 
  991900      294.277   -1501.5893    510.65472    333.61303    705.57982    37946.351 
  992000    298.26865   -1531.8641    503.83439    314.48435       158.37    37946.351 
  992100    297.40875   -1534.4684    485.15687    289.33216    596.18581    37946.351 
  992200    304.83311   -1514.5467    486.02526    343.53944   -149.27366    37946.351 
  992300    293.71124   -1510.3856     496.0944    307.70987   -273.85435    37946.351 
  992400    301.88688   -1456.9614    492.40897    394.24735   -451.09917    37946.351 
  992500     295.9681   -1488.9445    510.90788    354.12269   -327.25057    37946.351 
  992600    308.97182   -1498.0942    483.24165    375.83675   -272.36742    37946.351 
  992700    291.40248   -1540.0891    485.24223    256.76239   -324.47086    37946.351 
  992800    304.39885   -1520.4493    514.55068     364.2076    214.43011    37946.351 
  992900    299.46021   -1531.3631    502.60465    319.11891     251.0029    37946.351 
  993000    286.16565   -1532.4955    504.47581     260.0185    511.35606    37946.351 
  993100    297.59302    -1524.703    515.85542     330.6255    71.527849    37946.351 
  993200    301.15475   -1489.5641    496.23405    362.17451     -102.087    37946.351 
  993300    308.03034   -1482.6206    513.85301    417.68413    293.58052    37946.351 
  993400    307.71009   -1484.6255    510.34181    410.72653    205.03884    37946.351 
  993500    297.37245   -1526.4518    508.31507    320.34359    185.21181    37946.351 
  993600    296.00667   -1530.3881    497.25468    299.19941   -608.49666    37946.351 
  993700    297.18219   -1519.3894    513.15284    331.38737   -312.56996    37946.351 
  993800     300.3208   -1500.7283    489.64375     340.6663   -239.25719    37946.351 
  993900    299.78482   -1513.1658    471.23502    307.40767   -119.36869    37946.351 
  994000    303.71359   -1518.3289     490.6902     339.3832    -624.0224    37946.351 
  994100    304.92925   -1537.2185    508.70243    343.97756    -328.0346    37946.351 
  994200    304.72599   -1532.4563    472.46542    311.58789    62.375316    37946.351 
  994300    295.79821   -1527.5222    503.35985    307.23223      500.328    37946.351 
  994400    289.98958   -1489.1992     467.1963    283.24695   -16.694838    37946.351 
  994500     296.6178   -1494.5773    483.90331    324.40956   -250.29669    37946.351 
  994600    300.29978   -1504.4009    470.42947    317.68481   -149.36987    37946.351 
  994700    292.01669   -1445.4645    517.92925    386.83864   -602.65882    37946.351 
  994800    305.73442   -1467.3503    481.18429    389.95165   -508.95143    37946.351 
  994900    287.72252   -1483.4564    480.26843    291.85772   -664.83532    37946.351 
  995000    295.95331   -1508.8994    484.06389    307.25725   -578.24348    37946.351 
  995100    304.43672   -1512.6074     492.6136    350.28292   -743.26404    37946.351 
  995200    287.45191    -1438.883    509.36796    364.31271    -228.1477    37946.351 
  995300    293.94805   -1425.2877    516.63236    414.41165   -21.958896    37946.351 
  995400    291.54986   -1491.9049    531.27649    351.64422   -278.11506    37946.351 
  995500    298.28889    -1522.134     496.6101     317.0813   -255.27935    37946.351 
  995600    305.39795   -1492.5489     455.9029    337.95722   -118.42159    37946.351 
  995700    304.08142   -1453.6853    489.23595    404.22814   -487.52463    37946.351 
  995800    302.62192   -1484.1822    507.36455    385.29062   -807.42741    37946.351 
  995900    292.83015   -1485.9158    492.37842    324.49793   -478.92393    37946.351 
  996000    288.22711   -1487.9901    513.72129    323.04805   -972.56173    37946.351 
  996100    304.68752   -1468.1807    495.12026    398.34514   -556.73673    37946.351 
  996200    298.54544   -1471.4403    500.63472     372.9544   -897.71523    37946.351 
  996300     300.3879   -1455.6435    512.63383    409.04326   -139.41818    37946.351 
  996400    297.27878   -1447.4521    475.73297    366.33957   -152.16508    37946.351 
  996500    292.61182   -1455.0576    522.35285    384.34785    6.5144629    37946.351 
  996600    293.73384   -1472.2274    504.94521    354.82059     55.33364    37946.351 
  996700    302.17409   -1509.7027    465.87843    316.26834   -235.85057    37946.351 
  996800     311.8423   -1455.8038    458.15705    405.96266     104.7993    37946.351 
  996900    278.16597   -1492.2454    494.64534    254.43144    123.46071    37946.351 
  997000     300.7126    -1483.372    475.26433     345.4067   -54.681349    37946.351 
  997100    298.22238   -1497.5029    486.62817    331.43114    64.456147    37946.351 
  997200    297.77914   -1439.5946    483.72303    384.43922   -410.70964    37946.351 
  997300    292.58309   -1424.0624    492.76441     385.6253   -785.29515    37946.351 
  997400    302.52694   -1446.6753    528.24391    443.24938    -902.8003    37946.351 
  997500    291.53785   -1470.9499    495.45603    336.72478   -681.89481    37946.351 
  997600    301.76869   -1446.1823    501.60385     413.6894    -704.1087    37946.351 
  997700     301.6722   -1428.7801     495.3838    424.43731   -295.28036    37946.351 
  997800     293.0937   -1416.5953    506.57619    409.20244   -322.30564    37946.351 
  997900    298.46849   -1392.0938    514.56454    465.88436   -542.80322    37946.351 
  998000    310.96005   -1405.4445    492.07331    486.26723   -357.88984    37946.351 
  998100    292.14244   -1392.8585    511.51242    433.59383   -87.137825    37946.351 
  998200    300.48003    -1411.813    490.32533    430.97992   -35.861273    37946.351 
  998300     304.3267   -1435.6339    521.75235        455.9    431.49915    37946.351 
  998400    294.48347   -1435.7426    495.09546    384.82979   -142.03766    37946.351 
  998500    303.15415   -1435.1481    485.29587    414.65168    123.49687    37946.351 
  998600    313.41284   -1480.6102    495.90049    425.96876     201.1109    37946.351 
  998700    297.32195   -1473.2579    502.14009    367.13517   -84.676242    37946.351 
  998800    298.36125   -1516.1937    492.35874    319.09593   -949.35362    37946.351 
  998900    304.45363   -1499.0684    486.45233    357.73674   -129.37843    37946.351 
  999000    289.79915   -1535.2228      507.566    276.73586    206.34581    37946.351 
  999100    309.84445    -1477.594    497.18152    414.20453    349.66496    37946.351 
  999200     303.1694    -1500.743    475.25122    339.08068    347.27183    37946.351 
  999300    299.13987   -1535.0637    468.25704    279.62879    95.943628    37946.351 
  999400    307.57684   -1522.8716    492.16933    353.70819   -325.18086    37946.351 
  999500    298.96596   -1508.3052    490.06475    327.41221   -335.84093    37946.351 
  999600    300.92222   -1527.2393    514.27977     341.4984    117.38598    37946.351 
  999700    305.72931   -1546.7035    497.63634    327.02748    130.43975    37946.351 
  999800    299.24445   -1557.7169    482.90869      272.098     763.9702    37946.351 
  999900    291.85169   -1478.0879     502.6333    338.17666    336.86015    37946.351 
 1000000    296.68947   -1521.5926     510.5708    324.38442    155.14133    37946.351 
 1000100    308.80452   -1540.6181    497.79417    347.11233    64.371869    37946.351 
 1000200    301.04813   -1526.2974    514.91429    343.64154   -78.031588    37946.351 
 1000300    304.97737   -1489.3341    514.89671    398.27278   -290.62481    37946.351 
 1000400    293.19068   -1490.6828     492.6598    321.63506   -605.85423    37946.351 
 1000500     303.5719   -1482.9724    482.66286    366.07463    34.345734    37946.351 
 1000600    297.25168   -1492.3032    512.17098    357.80448    30.777871    37946.351 
 1000700    299.03185   -1512.7721    485.18691    318.36403   -2.5189515    37946.351 
 1000800    298.69689   -1475.0913    494.02341    363.37379   -379.72116    37946.351 
 1000900    308.11048   -1467.0971    501.51721    421.23256   -831.01907    37946.351 
 1001000    293.85268    -1472.401    499.60919    349.84594   -913.31839    37946.351 
 1001100    292.61643   -1488.9598    491.11132    319.22482   -826.35607    37946.351 
 1001200    306.31854   -1481.2624    494.03207    391.51654   -1281.9926    37946.351 
 1001300    300.46603   -1459.5065    496.82429    389.72231   -607.76346    37946.351 
 1001400    300.55357   -1467.1826    507.13579    392.75172    66.521046    37946.351 
 1001500    297.30269   -1455.0875    499.10644    382.18524    380.38683    37946.351 
 1001600    310.82098   -1478.7562    529.77726    450.03353    426.00779    37946.351 
 1001700     294.3646   -1473.5724    520.48028    371.84974   -50.383182    37946.351 
 1001800    292.92709    -1480.178    483.20456    321.49822    -182.4406    37946.351 
 1001900    305.70299   -1508.4806    480.57735    348.07297    233.56697    37946.351 
 1002000    298.04919   -1500.5694    492.22564    333.18253    23.453876    37946.351 
 1002100      299.088   -1474.2141    498.72792    370.71581    372.97737    37946.351 
 1002200    305.37918   -1487.3285    510.12413     397.3144    474.63635    37946.351 
 1002300    294.91129   -1461.3281    521.28352    387.35799    661.48459    37946.351 
 1002400    291.89154   -1502.9916    521.12322     331.9422    403.44547    37946.351 
 1002500    298.20254   -1500.4388    521.97893     363.7567    99.925591    37946.351 
 1002600     300.5346    -1468.063      509.048    393.69817    220.79385    37946.351 
 1002700    300.82788    -1481.782    500.42604    372.67728     650.3381    37946.351 
 1002800     301.1915   -1441.9657    494.97352    408.67772    478.15999    37946.351 
 1002900    294.61069   -1458.0176    518.86815    386.90011   -316.64114    37946.351 
 1003000    303.08331   -1433.6964    501.81405    432.30266    76.892018    37946.351 
 1003100    299.47407   -1433.3116    483.73897    398.36708    67.588648    37946.351 
 1003200    291.63661   -1458.9205    507.83441    361.57706   -218.22416    37946.351 
 1003300    297.96911   -1475.0572    517.83951    383.94814    55.618296    37946.351 
 1003400     302.4041   -1484.1299    485.49762    362.49559   -23.590119    37946.351 
 1003500    295.07075     -1468.53    516.06551    375.65578    13.326697    37946.351 
 1003600    306.81363   -1454.3671    511.63634    438.24453    129.02506    37946.351 
 1003700    296.60376    -1458.928    507.82463    383.91703    297.28144    37946.351 
 1003800    304.32073   -1472.1379    504.39931    402.01607     349.1906    37946.351 
 1003900    306.50513   -1479.1146    530.10252    430.57465    448.20189    37946.351 
 1004000     309.3733    -1464.032    491.71398    420.17838    288.63382    37946.351 
 1004100    304.65525   -1476.3224    529.58943    424.52738   -253.55268    37946.351 
 1004200    299.75277   -1455.5227    493.66552    387.33702   -218.07606    37946.351 
 1004300      300.089   -1490.7856      512.996    372.91796    754.56625    37946.351 
 1004400    302.24802   -1534.9518    476.85336    302.32694     162.7402    37946.351 
 1004500     298.4535   -1511.3982     508.9307    340.87861    368.32936    37946.351 
 1004600    305.38057   -1501.2511     495.5826    368.85653   -118.02964    37946.351 
 1004700     298.9385    -1478.013    498.27402    365.79013    112.17737    37946.351 
 1004800     303.8998    -1458.649    520.58689    429.79789   -134.42113    37946.351 
 1004900    297.16596   -1454.2462    490.68691    373.99162   -99.141443    37946.351 
 1005000    302.00852   -1449.3421    514.16313    424.16838    181.18893    37946.351 
 1005100    296.35264   -1459.6078    484.59131    358.87363    -106.1763    37946.351 
 1005200    304.21887   -1507.9064    499.38393    360.77375    141.59162    37946.351 
 1005300    308.21238   -1469.2475    515.23547    433.25902    293.88886    37946.351 
 1005400    300.83484   -1475.5029    504.24044    382.80215    201.64026    37946.351 
 1005413    290.24198   -1476.2561    495.39773     325.5275   -253.33144    37946.351 
Loop time of 599.229 on 32 procs for 1000000 steps with 1511 atoms

Performance: 144.185 ns/day, 0.166 hours/ns, 1668.812 timesteps/s
100.0% CPU use with 32 MPI tasks x no OpenMP threads

MPI task timing breakdown:
Section |  min time  |  avg time  |  max time  |%varavg| %total
---------------------------------------------------------------
Pair    | 249.97     | 271.21     | 297.86     |  73.1 | 45.26
Bond    | 1.4134     | 1.5288     | 1.6405     |   5.0 |  0.26
Neigh   | 39.154     | 39.235     | 39.313     |   0.9 |  6.55
Comm    | 247.69     | 274.3      | 295.55     |  72.6 | 45.78
Output  | 0.38546    | 0.40535    | 0.91026    |  14.2 |  0.07
Modify  | 9.2166     | 9.4166     | 9.6691     |   3.6 |  1.57
Other   |            | 3.137      |            |       |  0.52

Nlocal:        47.2188 ave          86 max          24 min
Histogram: 2 9 5 4 2 3 2 2 2 1
Nghost:        1972.81 ave        2015 max        1921 min
Histogram: 2 2 2 1 5 4 8 5 0 3
Neighs:        5237.88 ave       11919 max        2170 min
Histogram: 6 8 6 4 3 0 1 0 3 1

Total # of neighbors = 167612
Ave neighs/atom = 110.92786
Ave special neighs/atom = 2.0198544
Neighbor list builds = 49878
Dangerous builds = 0

# Output the system volume
variable v equal vol
print 'The system volume is $v'
The system volume is 37946.3507361185

# Outputs
variable A equal xhi-xlo
variable B equal yhi-ylo
variable C equal zhi-zlo
variable D equal xy
variable E equal xz
variable F equal yz
print 'Lattice vectors'
Lattice vectors
print '$A 0 0'
33.6039249052951 0 0
print '$D $B 0'
0 33.6039249052951 0
print '$E $F $C'
0 0 33.6039249052951
Total wall time: 0:10:04
